<?xml version="1.0"?> 
<VTKFile type="UnstructuredGrid"> 
   <UnstructuredGrid> 
      <Piece NumberOfPoints="6000"  NumberOfCells="1500">  
          <Points>  
             <DataArray type="Float64" NumberOfComponents="3" format="ascii">   
-500.0   0.0   0.0
-450.0   0.0   0.0
-500.0   30.0   0.0
-500.0   0.0   16.666666666666668
-450.0   0.0   0.0
-450.0   30.0   0.0
-500.0   30.0   0.0
-450.0   30.0   16.666666666666668
-500.0   0.0   16.666666666666668
-500.0   30.0   16.666666666666668
-450.0   30.0   16.666666666666668
-500.0   30.0   0.0
-500.0   0.0   16.666666666666668
-450.0   30.0   16.666666666666668
-450.0   0.0   16.666666666666668
-450.0   0.0   0.0
-500.0   0.0   16.666666666666668
-450.0   30.0   16.666666666666668
-450.0   0.0   0.0
-500.0   30.0   0.0
-500.0   0.0   16.666666666666668
-450.0   0.0   16.666666666666668
-500.0   30.0   16.666666666666668
-500.0   0.0   33.333333333333336
-450.0   0.0   16.666666666666668
-450.0   30.0   16.666666666666668
-500.0   30.0   16.666666666666668
-450.0   30.0   33.333333333333336
-500.0   0.0   33.333333333333336
-500.0   30.0   33.333333333333336
-450.0   30.0   33.333333333333336
-500.0   30.0   16.666666666666668
-500.0   0.0   33.333333333333336
-450.0   30.0   33.333333333333336
-450.0   0.0   33.333333333333336
-450.0   0.0   16.666666666666668
-500.0   0.0   33.333333333333336
-450.0   30.0   33.333333333333336
-450.0   0.0   16.666666666666668
-500.0   30.0   16.666666666666668
-500.0   0.0   33.333333333333336
-450.0   0.0   33.333333333333336
-500.0   30.0   33.333333333333336
-500.0   0.0   50.0
-450.0   0.0   33.333333333333336
-450.0   30.0   33.333333333333336
-500.0   30.0   33.333333333333336
-450.0   30.0   50.0
-500.0   0.0   50.0
-500.0   30.0   50.0
-450.0   30.0   50.0
-500.0   30.0   33.333333333333336
-500.0   0.0   50.0
-450.0   30.0   50.0
-450.0   0.0   50.0
-450.0   0.0   33.333333333333336
-500.0   0.0   50.0
-450.0   30.0   50.0
-450.0   0.0   33.333333333333336
-500.0   30.0   33.333333333333336
-500.0   30.0   0.0
-450.0   30.0   0.0
-500.0   60.0   0.0
-500.0   30.0   16.666666666666668
-450.0   30.0   0.0
-450.0   60.0   0.0
-500.0   60.0   0.0
-450.0   60.0   16.666666666666668
-500.0   30.0   16.666666666666668
-500.0   60.0   16.666666666666668
-450.0   60.0   16.666666666666668
-500.0   60.0   0.0
-500.0   30.0   16.666666666666668
-450.0   60.0   16.666666666666668
-450.0   30.0   16.666666666666668
-450.0   30.0   0.0
-500.0   30.0   16.666666666666668
-450.0   60.0   16.666666666666668
-450.0   30.0   0.0
-500.0   60.0   0.0
-500.0   30.0   16.666666666666668
-450.0   30.0   16.666666666666668
-500.0   60.0   16.666666666666668
-500.0   30.0   33.333333333333336
-450.0   30.0   16.666666666666668
-450.0   60.0   16.666666666666668
-500.0   60.0   16.666666666666668
-450.0   60.0   33.333333333333336
-500.0   30.0   33.333333333333336
-500.0   60.0   33.333333333333336
-450.0   60.0   33.333333333333336
-500.0   60.0   16.666666666666668
-500.0   30.0   33.333333333333336
-450.0   60.0   33.333333333333336
-450.0   30.0   33.333333333333336
-450.0   30.0   16.666666666666668
-500.0   30.0   33.333333333333336
-450.0   60.0   33.333333333333336
-450.0   30.0   16.666666666666668
-500.0   60.0   16.666666666666668
-500.0   30.0   33.333333333333336
-450.0   30.0   33.333333333333336
-500.0   60.0   33.333333333333336
-500.0   30.0   50.0
-450.0   30.0   33.333333333333336
-450.0   60.0   33.333333333333336
-500.0   60.0   33.333333333333336
-450.0   60.0   50.0
-500.0   30.0   50.0
-500.0   60.0   50.0
-450.0   60.0   50.0
-500.0   60.0   33.333333333333336
-500.0   30.0   50.0
-450.0   60.0   50.0
-450.0   30.0   50.0
-450.0   30.0   33.333333333333336
-500.0   30.0   50.0
-450.0   60.0   50.0
-450.0   30.0   33.333333333333336
-500.0   60.0   33.333333333333336
-500.0   60.0   0.0
-450.0   60.0   0.0
-500.0   90.0   0.0
-500.0   60.0   16.666666666666668
-450.0   60.0   0.0
-450.0   90.0   0.0
-500.0   90.0   0.0
-450.0   90.0   16.666666666666668
-500.0   60.0   16.666666666666668
-500.0   90.0   16.666666666666668
-450.0   90.0   16.666666666666668
-500.0   90.0   0.0
-500.0   60.0   16.666666666666668
-450.0   90.0   16.666666666666668
-450.0   60.0   16.666666666666668
-450.0   60.0   0.0
-500.0   60.0   16.666666666666668
-450.0   90.0   16.666666666666668
-450.0   60.0   0.0
-500.0   90.0   0.0
-500.0   60.0   16.666666666666668
-450.0   60.0   16.666666666666668
-500.0   90.0   16.666666666666668
-500.0   60.0   33.333333333333336
-450.0   60.0   16.666666666666668
-450.0   90.0   16.666666666666668
-500.0   90.0   16.666666666666668
-450.0   90.0   33.333333333333336
-500.0   60.0   33.333333333333336
-500.0   90.0   33.333333333333336
-450.0   90.0   33.333333333333336
-500.0   90.0   16.666666666666668
-500.0   60.0   33.333333333333336
-450.0   90.0   33.333333333333336
-450.0   60.0   33.333333333333336
-450.0   60.0   16.666666666666668
-500.0   60.0   33.333333333333336
-450.0   90.0   33.333333333333336
-450.0   60.0   16.666666666666668
-500.0   90.0   16.666666666666668
-500.0   60.0   33.333333333333336
-450.0   60.0   33.333333333333336
-500.0   90.0   33.333333333333336
-500.0   60.0   50.0
-450.0   60.0   33.333333333333336
-450.0   90.0   33.333333333333336
-500.0   90.0   33.333333333333336
-450.0   90.0   50.0
-500.0   60.0   50.0
-500.0   90.0   50.0
-450.0   90.0   50.0
-500.0   90.0   33.333333333333336
-500.0   60.0   50.0
-450.0   90.0   50.0
-450.0   60.0   50.0
-450.0   60.0   33.333333333333336
-500.0   60.0   50.0
-450.0   90.0   50.0
-450.0   60.0   33.333333333333336
-500.0   90.0   33.333333333333336
-500.0   90.0   0.0
-450.0   90.0   0.0
-500.0   120.0   0.0
-500.0   90.0   16.666666666666668
-450.0   90.0   0.0
-450.0   120.0   0.0
-500.0   120.0   0.0
-450.0   120.0   16.666666666666668
-500.0   90.0   16.666666666666668
-500.0   120.0   16.666666666666668
-450.0   120.0   16.666666666666668
-500.0   120.0   0.0
-500.0   90.0   16.666666666666668
-450.0   120.0   16.666666666666668
-450.0   90.0   16.666666666666668
-450.0   90.0   0.0
-500.0   90.0   16.666666666666668
-450.0   120.0   16.666666666666668
-450.0   90.0   0.0
-500.0   120.0   0.0
-500.0   90.0   16.666666666666668
-450.0   90.0   16.666666666666668
-500.0   120.0   16.666666666666668
-500.0   90.0   33.333333333333336
-450.0   90.0   16.666666666666668
-450.0   120.0   16.666666666666668
-500.0   120.0   16.666666666666668
-450.0   120.0   33.333333333333336
-500.0   90.0   33.333333333333336
-500.0   120.0   33.333333333333336
-450.0   120.0   33.333333333333336
-500.0   120.0   16.666666666666668
-500.0   90.0   33.333333333333336
-450.0   120.0   33.333333333333336
-450.0   90.0   33.333333333333336
-450.0   90.0   16.666666666666668
-500.0   90.0   33.333333333333336
-450.0   120.0   33.333333333333336
-450.0   90.0   16.666666666666668
-500.0   120.0   16.666666666666668
-500.0   90.0   33.333333333333336
-450.0   90.0   33.333333333333336
-500.0   120.0   33.333333333333336
-500.0   90.0   50.0
-450.0   90.0   33.333333333333336
-450.0   120.0   33.333333333333336
-500.0   120.0   33.333333333333336
-450.0   120.0   50.0
-500.0   90.0   50.0
-500.0   120.0   50.0
-450.0   120.0   50.0
-500.0   120.0   33.333333333333336
-500.0   90.0   50.0
-450.0   120.0   50.0
-450.0   90.0   50.0
-450.0   90.0   33.333333333333336
-500.0   90.0   50.0
-450.0   120.0   50.0
-450.0   90.0   33.333333333333336
-500.0   120.0   33.333333333333336
-500.0   120.0   0.0
-450.0   120.0   0.0
-500.0   150.0   0.0
-500.0   120.0   16.666666666666668
-450.0   120.0   0.0
-450.0   150.0   0.0
-500.0   150.0   0.0
-450.0   150.0   16.666666666666668
-500.0   120.0   16.666666666666668
-500.0   150.0   16.666666666666668
-450.0   150.0   16.666666666666668
-500.0   150.0   0.0
-500.0   120.0   16.666666666666668
-450.0   150.0   16.666666666666668
-450.0   120.0   16.666666666666668
-450.0   120.0   0.0
-500.0   120.0   16.666666666666668
-450.0   150.0   16.666666666666668
-450.0   120.0   0.0
-500.0   150.0   0.0
-500.0   120.0   16.666666666666668
-450.0   120.0   16.666666666666668
-500.0   150.0   16.666666666666668
-500.0   120.0   33.333333333333336
-450.0   120.0   16.666666666666668
-450.0   150.0   16.666666666666668
-500.0   150.0   16.666666666666668
-450.0   150.0   33.333333333333336
-500.0   120.0   33.333333333333336
-500.0   150.0   33.333333333333336
-450.0   150.0   33.333333333333336
-500.0   150.0   16.666666666666668
-500.0   120.0   33.333333333333336
-450.0   150.0   33.333333333333336
-450.0   120.0   33.333333333333336
-450.0   120.0   16.666666666666668
-500.0   120.0   33.333333333333336
-450.0   150.0   33.333333333333336
-450.0   120.0   16.666666666666668
-500.0   150.0   16.666666666666668
-500.0   120.0   33.333333333333336
-450.0   120.0   33.333333333333336
-500.0   150.0   33.333333333333336
-500.0   120.0   50.0
-450.0   120.0   33.333333333333336
-450.0   150.0   33.333333333333336
-500.0   150.0   33.333333333333336
-450.0   150.0   50.0
-500.0   120.0   50.0
-500.0   150.0   50.0
-450.0   150.0   50.0
-500.0   150.0   33.333333333333336
-500.0   120.0   50.0
-450.0   150.0   50.0
-450.0   120.0   50.0
-450.0   120.0   33.333333333333336
-500.0   120.0   50.0
-450.0   150.0   50.0
-450.0   120.0   33.333333333333336
-500.0   150.0   33.333333333333336
-450.0   0.0   0.0
-400.0   0.0   0.0
-450.0   30.0   0.0
-450.0   0.0   16.666666666666668
-400.0   0.0   0.0
-400.0   30.0   0.0
-450.0   30.0   0.0
-400.0   30.0   16.666666666666668
-450.0   0.0   16.666666666666668
-450.0   30.0   16.666666666666668
-400.0   30.0   16.666666666666668
-450.0   30.0   0.0
-450.0   0.0   16.666666666666668
-400.0   30.0   16.666666666666668
-400.0   0.0   16.666666666666668
-400.0   0.0   0.0
-450.0   0.0   16.666666666666668
-400.0   30.0   16.666666666666668
-400.0   0.0   0.0
-450.0   30.0   0.0
-450.0   0.0   16.666666666666668
-400.0   0.0   16.666666666666668
-450.0   30.0   16.666666666666668
-450.0   0.0   33.333333333333336
-400.0   0.0   16.666666666666668
-400.0   30.0   16.666666666666668
-450.0   30.0   16.666666666666668
-400.0   30.0   33.333333333333336
-450.0   0.0   33.333333333333336
-450.0   30.0   33.333333333333336
-400.0   30.0   33.333333333333336
-450.0   30.0   16.666666666666668
-450.0   0.0   33.333333333333336
-400.0   30.0   33.333333333333336
-400.0   0.0   33.333333333333336
-400.0   0.0   16.666666666666668
-450.0   0.0   33.333333333333336
-400.0   30.0   33.333333333333336
-400.0   0.0   16.666666666666668
-450.0   30.0   16.666666666666668
-450.0   0.0   33.333333333333336
-400.0   0.0   33.333333333333336
-450.0   30.0   33.333333333333336
-450.0   0.0   50.0
-400.0   0.0   33.333333333333336
-400.0   30.0   33.333333333333336
-450.0   30.0   33.333333333333336
-400.0   30.0   50.0
-450.0   0.0   50.0
-450.0   30.0   50.0
-400.0   30.0   50.0
-450.0   30.0   33.333333333333336
-450.0   0.0   50.0
-400.0   30.0   50.0
-400.0   0.0   50.0
-400.0   0.0   33.333333333333336
-450.0   0.0   50.0
-400.0   30.0   50.0
-400.0   0.0   33.333333333333336
-450.0   30.0   33.333333333333336
-450.0   30.0   0.0
-400.0   30.0   0.0
-450.0   60.0   0.0
-450.0   30.0   16.666666666666668
-400.0   30.0   0.0
-400.0   60.0   0.0
-450.0   60.0   0.0
-400.0   60.0   16.666666666666668
-450.0   30.0   16.666666666666668
-450.0   60.0   16.666666666666668
-400.0   60.0   16.666666666666668
-450.0   60.0   0.0
-450.0   30.0   16.666666666666668
-400.0   60.0   16.666666666666668
-400.0   30.0   16.666666666666668
-400.0   30.0   0.0
-450.0   30.0   16.666666666666668
-400.0   60.0   16.666666666666668
-400.0   30.0   0.0
-450.0   60.0   0.0
-450.0   30.0   16.666666666666668
-400.0   30.0   16.666666666666668
-450.0   60.0   16.666666666666668
-450.0   30.0   33.333333333333336
-400.0   30.0   16.666666666666668
-400.0   60.0   16.666666666666668
-450.0   60.0   16.666666666666668
-400.0   60.0   33.333333333333336
-450.0   30.0   33.333333333333336
-450.0   60.0   33.333333333333336
-400.0   60.0   33.333333333333336
-450.0   60.0   16.666666666666668
-450.0   30.0   33.333333333333336
-400.0   60.0   33.333333333333336
-400.0   30.0   33.333333333333336
-400.0   30.0   16.666666666666668
-450.0   30.0   33.333333333333336
-400.0   60.0   33.333333333333336
-400.0   30.0   16.666666666666668
-450.0   60.0   16.666666666666668
-450.0   30.0   33.333333333333336
-400.0   30.0   33.333333333333336
-450.0   60.0   33.333333333333336
-450.0   30.0   50.0
-400.0   30.0   33.333333333333336
-400.0   60.0   33.333333333333336
-450.0   60.0   33.333333333333336
-400.0   60.0   50.0
-450.0   30.0   50.0
-450.0   60.0   50.0
-400.0   60.0   50.0
-450.0   60.0   33.333333333333336
-450.0   30.0   50.0
-400.0   60.0   50.0
-400.0   30.0   50.0
-400.0   30.0   33.333333333333336
-450.0   30.0   50.0
-400.0   60.0   50.0
-400.0   30.0   33.333333333333336
-450.0   60.0   33.333333333333336
-450.0   60.0   0.0
-400.0   60.0   0.0
-450.0   90.0   0.0
-450.0   60.0   16.666666666666668
-400.0   60.0   0.0
-400.0   90.0   0.0
-450.0   90.0   0.0
-400.0   90.0   16.666666666666668
-450.0   60.0   16.666666666666668
-450.0   90.0   16.666666666666668
-400.0   90.0   16.666666666666668
-450.0   90.0   0.0
-450.0   60.0   16.666666666666668
-400.0   90.0   16.666666666666668
-400.0   60.0   16.666666666666668
-400.0   60.0   0.0
-450.0   60.0   16.666666666666668
-400.0   90.0   16.666666666666668
-400.0   60.0   0.0
-450.0   90.0   0.0
-450.0   60.0   16.666666666666668
-400.0   60.0   16.666666666666668
-450.0   90.0   16.666666666666668
-450.0   60.0   33.333333333333336
-400.0   60.0   16.666666666666668
-400.0   90.0   16.666666666666668
-450.0   90.0   16.666666666666668
-400.0   90.0   33.333333333333336
-450.0   60.0   33.333333333333336
-450.0   90.0   33.333333333333336
-400.0   90.0   33.333333333333336
-450.0   90.0   16.666666666666668
-450.0   60.0   33.333333333333336
-400.0   90.0   33.333333333333336
-400.0   60.0   33.333333333333336
-400.0   60.0   16.666666666666668
-450.0   60.0   33.333333333333336
-400.0   90.0   33.333333333333336
-400.0   60.0   16.666666666666668
-450.0   90.0   16.666666666666668
-450.0   60.0   33.333333333333336
-400.0   60.0   33.333333333333336
-450.0   90.0   33.333333333333336
-450.0   60.0   50.0
-400.0   60.0   33.333333333333336
-400.0   90.0   33.333333333333336
-450.0   90.0   33.333333333333336
-400.0   90.0   50.0
-450.0   60.0   50.0
-450.0   90.0   50.0
-400.0   90.0   50.0
-450.0   90.0   33.333333333333336
-450.0   60.0   50.0
-400.0   90.0   50.0
-400.0   60.0   50.0
-400.0   60.0   33.333333333333336
-450.0   60.0   50.0
-400.0   90.0   50.0
-400.0   60.0   33.333333333333336
-450.0   90.0   33.333333333333336
-450.0   90.0   0.0
-400.0   90.0   0.0
-450.0   120.0   0.0
-450.0   90.0   16.666666666666668
-400.0   90.0   0.0
-400.0   120.0   0.0
-450.0   120.0   0.0
-400.0   120.0   16.666666666666668
-450.0   90.0   16.666666666666668
-450.0   120.0   16.666666666666668
-400.0   120.0   16.666666666666668
-450.0   120.0   0.0
-450.0   90.0   16.666666666666668
-400.0   120.0   16.666666666666668
-400.0   90.0   16.666666666666668
-400.0   90.0   0.0
-450.0   90.0   16.666666666666668
-400.0   120.0   16.666666666666668
-400.0   90.0   0.0
-450.0   120.0   0.0
-450.0   90.0   16.666666666666668
-400.0   90.0   16.666666666666668
-450.0   120.0   16.666666666666668
-450.0   90.0   33.333333333333336
-400.0   90.0   16.666666666666668
-400.0   120.0   16.666666666666668
-450.0   120.0   16.666666666666668
-400.0   120.0   33.333333333333336
-450.0   90.0   33.333333333333336
-450.0   120.0   33.333333333333336
-400.0   120.0   33.333333333333336
-450.0   120.0   16.666666666666668
-450.0   90.0   33.333333333333336
-400.0   120.0   33.333333333333336
-400.0   90.0   33.333333333333336
-400.0   90.0   16.666666666666668
-450.0   90.0   33.333333333333336
-400.0   120.0   33.333333333333336
-400.0   90.0   16.666666666666668
-450.0   120.0   16.666666666666668
-450.0   90.0   33.333333333333336
-400.0   90.0   33.333333333333336
-450.0   120.0   33.333333333333336
-450.0   90.0   50.0
-400.0   90.0   33.333333333333336
-400.0   120.0   33.333333333333336
-450.0   120.0   33.333333333333336
-400.0   120.0   50.0
-450.0   90.0   50.0
-450.0   120.0   50.0
-400.0   120.0   50.0
-450.0   120.0   33.333333333333336
-450.0   90.0   50.0
-400.0   120.0   50.0
-400.0   90.0   50.0
-400.0   90.0   33.333333333333336
-450.0   90.0   50.0
-400.0   120.0   50.0
-400.0   90.0   33.333333333333336
-450.0   120.0   33.333333333333336
-450.0   120.0   0.0
-400.0   120.0   0.0
-450.0   150.0   0.0
-450.0   120.0   16.666666666666668
-400.0   120.0   0.0
-400.0   150.0   0.0
-450.0   150.0   0.0
-400.0   150.0   16.666666666666668
-450.0   120.0   16.666666666666668
-450.0   150.0   16.666666666666668
-400.0   150.0   16.666666666666668
-450.0   150.0   0.0
-450.0   120.0   16.666666666666668
-400.0   150.0   16.666666666666668
-400.0   120.0   16.666666666666668
-400.0   120.0   0.0
-450.0   120.0   16.666666666666668
-400.0   150.0   16.666666666666668
-400.0   120.0   0.0
-450.0   150.0   0.0
-450.0   120.0   16.666666666666668
-400.0   120.0   16.666666666666668
-450.0   150.0   16.666666666666668
-450.0   120.0   33.333333333333336
-400.0   120.0   16.666666666666668
-400.0   150.0   16.666666666666668
-450.0   150.0   16.666666666666668
-400.0   150.0   33.333333333333336
-450.0   120.0   33.333333333333336
-450.0   150.0   33.333333333333336
-400.0   150.0   33.333333333333336
-450.0   150.0   16.666666666666668
-450.0   120.0   33.333333333333336
-400.0   150.0   33.333333333333336
-400.0   120.0   33.333333333333336
-400.0   120.0   16.666666666666668
-450.0   120.0   33.333333333333336
-400.0   150.0   33.333333333333336
-400.0   120.0   16.666666666666668
-450.0   150.0   16.666666666666668
-450.0   120.0   33.333333333333336
-400.0   120.0   33.333333333333336
-450.0   150.0   33.333333333333336
-450.0   120.0   50.0
-400.0   120.0   33.333333333333336
-400.0   150.0   33.333333333333336
-450.0   150.0   33.333333333333336
-400.0   150.0   50.0
-450.0   120.0   50.0
-450.0   150.0   50.0
-400.0   150.0   50.0
-450.0   150.0   33.333333333333336
-450.0   120.0   50.0
-400.0   150.0   50.0
-400.0   120.0   50.0
-400.0   120.0   33.333333333333336
-450.0   120.0   50.0
-400.0   150.0   50.0
-400.0   120.0   33.333333333333336
-450.0   150.0   33.333333333333336
-400.0   0.0   0.0
-350.0   0.0   0.0
-400.0   30.0   0.0
-400.0   0.0   16.666666666666668
-350.0   0.0   0.0
-350.0   30.0   0.0
-400.0   30.0   0.0
-350.0   30.0   16.666666666666668
-400.0   0.0   16.666666666666668
-400.0   30.0   16.666666666666668
-350.0   30.0   16.666666666666668
-400.0   30.0   0.0
-400.0   0.0   16.666666666666668
-350.0   30.0   16.666666666666668
-350.0   0.0   16.666666666666668
-350.0   0.0   0.0
-400.0   0.0   16.666666666666668
-350.0   30.0   16.666666666666668
-350.0   0.0   0.0
-400.0   30.0   0.0
-400.0   0.0   16.666666666666668
-350.0   0.0   16.666666666666668
-400.0   30.0   16.666666666666668
-400.0   0.0   33.333333333333336
-350.0   0.0   16.666666666666668
-350.0   30.0   16.666666666666668
-400.0   30.0   16.666666666666668
-350.0   30.0   33.333333333333336
-400.0   0.0   33.333333333333336
-400.0   30.0   33.333333333333336
-350.0   30.0   33.333333333333336
-400.0   30.0   16.666666666666668
-400.0   0.0   33.333333333333336
-350.0   30.0   33.333333333333336
-350.0   0.0   33.333333333333336
-350.0   0.0   16.666666666666668
-400.0   0.0   33.333333333333336
-350.0   30.0   33.333333333333336
-350.0   0.0   16.666666666666668
-400.0   30.0   16.666666666666668
-400.0   0.0   33.333333333333336
-350.0   0.0   33.333333333333336
-400.0   30.0   33.333333333333336
-400.0   0.0   50.0
-350.0   0.0   33.333333333333336
-350.0   30.0   33.333333333333336
-400.0   30.0   33.333333333333336
-350.0   30.0   50.0
-400.0   0.0   50.0
-400.0   30.0   50.0
-350.0   30.0   50.0
-400.0   30.0   33.333333333333336
-400.0   0.0   50.0
-350.0   30.0   50.0
-350.0   0.0   50.0
-350.0   0.0   33.333333333333336
-400.0   0.0   50.0
-350.0   30.0   50.0
-350.0   0.0   33.333333333333336
-400.0   30.0   33.333333333333336
-400.0   30.0   0.0
-350.0   30.0   0.0
-400.0   60.0   0.0
-400.0   30.0   16.666666666666668
-350.0   30.0   0.0
-350.0   60.0   0.0
-400.0   60.0   0.0
-350.0   60.0   16.666666666666668
-400.0   30.0   16.666666666666668
-400.0   60.0   16.666666666666668
-350.0   60.0   16.666666666666668
-400.0   60.0   0.0
-400.0   30.0   16.666666666666668
-350.0   60.0   16.666666666666668
-350.0   30.0   16.666666666666668
-350.0   30.0   0.0
-400.0   30.0   16.666666666666668
-350.0   60.0   16.666666666666668
-350.0   30.0   0.0
-400.0   60.0   0.0
-400.0   30.0   16.666666666666668
-350.0   30.0   16.666666666666668
-400.0   60.0   16.666666666666668
-400.0   30.0   33.333333333333336
-350.0   30.0   16.666666666666668
-350.0   60.0   16.666666666666668
-400.0   60.0   16.666666666666668
-350.0   60.0   33.333333333333336
-400.0   30.0   33.333333333333336
-400.0   60.0   33.333333333333336
-350.0   60.0   33.333333333333336
-400.0   60.0   16.666666666666668
-400.0   30.0   33.333333333333336
-350.0   60.0   33.333333333333336
-350.0   30.0   33.333333333333336
-350.0   30.0   16.666666666666668
-400.0   30.0   33.333333333333336
-350.0   60.0   33.333333333333336
-350.0   30.0   16.666666666666668
-400.0   60.0   16.666666666666668
-400.0   30.0   33.333333333333336
-350.0   30.0   33.333333333333336
-400.0   60.0   33.333333333333336
-400.0   30.0   50.0
-350.0   30.0   33.333333333333336
-350.0   60.0   33.333333333333336
-400.0   60.0   33.333333333333336
-350.0   60.0   50.0
-400.0   30.0   50.0
-400.0   60.0   50.0
-350.0   60.0   50.0
-400.0   60.0   33.333333333333336
-400.0   30.0   50.0
-350.0   60.0   50.0
-350.0   30.0   50.0
-350.0   30.0   33.333333333333336
-400.0   30.0   50.0
-350.0   60.0   50.0
-350.0   30.0   33.333333333333336
-400.0   60.0   33.333333333333336
-400.0   60.0   0.0
-350.0   60.0   0.0
-400.0   90.0   0.0
-400.0   60.0   16.666666666666668
-350.0   60.0   0.0
-350.0   90.0   0.0
-400.0   90.0   0.0
-350.0   90.0   16.666666666666668
-400.0   60.0   16.666666666666668
-400.0   90.0   16.666666666666668
-350.0   90.0   16.666666666666668
-400.0   90.0   0.0
-400.0   60.0   16.666666666666668
-350.0   90.0   16.666666666666668
-350.0   60.0   16.666666666666668
-350.0   60.0   0.0
-400.0   60.0   16.666666666666668
-350.0   90.0   16.666666666666668
-350.0   60.0   0.0
-400.0   90.0   0.0
-400.0   60.0   16.666666666666668
-350.0   60.0   16.666666666666668
-400.0   90.0   16.666666666666668
-400.0   60.0   33.333333333333336
-350.0   60.0   16.666666666666668
-350.0   90.0   16.666666666666668
-400.0   90.0   16.666666666666668
-350.0   90.0   33.333333333333336
-400.0   60.0   33.333333333333336
-400.0   90.0   33.333333333333336
-350.0   90.0   33.333333333333336
-400.0   90.0   16.666666666666668
-400.0   60.0   33.333333333333336
-350.0   90.0   33.333333333333336
-350.0   60.0   33.333333333333336
-350.0   60.0   16.666666666666668
-400.0   60.0   33.333333333333336
-350.0   90.0   33.333333333333336
-350.0   60.0   16.666666666666668
-400.0   90.0   16.666666666666668
-400.0   60.0   33.333333333333336
-350.0   60.0   33.333333333333336
-400.0   90.0   33.333333333333336
-400.0   60.0   50.0
-350.0   60.0   33.333333333333336
-350.0   90.0   33.333333333333336
-400.0   90.0   33.333333333333336
-350.0   90.0   50.0
-400.0   60.0   50.0
-400.0   90.0   50.0
-350.0   90.0   50.0
-400.0   90.0   33.333333333333336
-400.0   60.0   50.0
-350.0   90.0   50.0
-350.0   60.0   50.0
-350.0   60.0   33.333333333333336
-400.0   60.0   50.0
-350.0   90.0   50.0
-350.0   60.0   33.333333333333336
-400.0   90.0   33.333333333333336
-400.0   90.0   0.0
-350.0   90.0   0.0
-400.0   120.0   0.0
-400.0   90.0   16.666666666666668
-350.0   90.0   0.0
-350.0   120.0   0.0
-400.0   120.0   0.0
-350.0   120.0   16.666666666666668
-400.0   90.0   16.666666666666668
-400.0   120.0   16.666666666666668
-350.0   120.0   16.666666666666668
-400.0   120.0   0.0
-400.0   90.0   16.666666666666668
-350.0   120.0   16.666666666666668
-350.0   90.0   16.666666666666668
-350.0   90.0   0.0
-400.0   90.0   16.666666666666668
-350.0   120.0   16.666666666666668
-350.0   90.0   0.0
-400.0   120.0   0.0
-400.0   90.0   16.666666666666668
-350.0   90.0   16.666666666666668
-400.0   120.0   16.666666666666668
-400.0   90.0   33.333333333333336
-350.0   90.0   16.666666666666668
-350.0   120.0   16.666666666666668
-400.0   120.0   16.666666666666668
-350.0   120.0   33.333333333333336
-400.0   90.0   33.333333333333336
-400.0   120.0   33.333333333333336
-350.0   120.0   33.333333333333336
-400.0   120.0   16.666666666666668
-400.0   90.0   33.333333333333336
-350.0   120.0   33.333333333333336
-350.0   90.0   33.333333333333336
-350.0   90.0   16.666666666666668
-400.0   90.0   33.333333333333336
-350.0   120.0   33.333333333333336
-350.0   90.0   16.666666666666668
-400.0   120.0   16.666666666666668
-400.0   90.0   33.333333333333336
-350.0   90.0   33.333333333333336
-400.0   120.0   33.333333333333336
-400.0   90.0   50.0
-350.0   90.0   33.333333333333336
-350.0   120.0   33.333333333333336
-400.0   120.0   33.333333333333336
-350.0   120.0   50.0
-400.0   90.0   50.0
-400.0   120.0   50.0
-350.0   120.0   50.0
-400.0   120.0   33.333333333333336
-400.0   90.0   50.0
-350.0   120.0   50.0
-350.0   90.0   50.0
-350.0   90.0   33.333333333333336
-400.0   90.0   50.0
-350.0   120.0   50.0
-350.0   90.0   33.333333333333336
-400.0   120.0   33.333333333333336
-400.0   120.0   0.0
-350.0   120.0   0.0
-400.0   150.0   0.0
-400.0   120.0   16.666666666666668
-350.0   120.0   0.0
-350.0   150.0   0.0
-400.0   150.0   0.0
-350.0   150.0   16.666666666666668
-400.0   120.0   16.666666666666668
-400.0   150.0   16.666666666666668
-350.0   150.0   16.666666666666668
-400.0   150.0   0.0
-400.0   120.0   16.666666666666668
-350.0   150.0   16.666666666666668
-350.0   120.0   16.666666666666668
-350.0   120.0   0.0
-400.0   120.0   16.666666666666668
-350.0   150.0   16.666666666666668
-350.0   120.0   0.0
-400.0   150.0   0.0
-400.0   120.0   16.666666666666668
-350.0   120.0   16.666666666666668
-400.0   150.0   16.666666666666668
-400.0   120.0   33.333333333333336
-350.0   120.0   16.666666666666668
-350.0   150.0   16.666666666666668
-400.0   150.0   16.666666666666668
-350.0   150.0   33.333333333333336
-400.0   120.0   33.333333333333336
-400.0   150.0   33.333333333333336
-350.0   150.0   33.333333333333336
-400.0   150.0   16.666666666666668
-400.0   120.0   33.333333333333336
-350.0   150.0   33.333333333333336
-350.0   120.0   33.333333333333336
-350.0   120.0   16.666666666666668
-400.0   120.0   33.333333333333336
-350.0   150.0   33.333333333333336
-350.0   120.0   16.666666666666668
-400.0   150.0   16.666666666666668
-400.0   120.0   33.333333333333336
-350.0   120.0   33.333333333333336
-400.0   150.0   33.333333333333336
-400.0   120.0   50.0
-350.0   120.0   33.333333333333336
-350.0   150.0   33.333333333333336
-400.0   150.0   33.333333333333336
-350.0   150.0   50.0
-400.0   120.0   50.0
-400.0   150.0   50.0
-350.0   150.0   50.0
-400.0   150.0   33.333333333333336
-400.0   120.0   50.0
-350.0   150.0   50.0
-350.0   120.0   50.0
-350.0   120.0   33.333333333333336
-400.0   120.0   50.0
-350.0   150.0   50.0
-350.0   120.0   33.333333333333336
-400.0   150.0   33.333333333333336
-350.0   0.0   0.0
-300.0   0.0   0.0
-350.0   30.0   0.0
-350.0   0.0   16.666666666666668
-300.0   0.0   0.0
-300.0   30.0   0.0
-350.0   30.0   0.0
-300.0   30.0   16.666666666666668
-350.0   0.0   16.666666666666668
-350.0   30.0   16.666666666666668
-300.0   30.0   16.666666666666668
-350.0   30.0   0.0
-350.0   0.0   16.666666666666668
-300.0   30.0   16.666666666666668
-300.0   0.0   16.666666666666668
-300.0   0.0   0.0
-350.0   0.0   16.666666666666668
-300.0   30.0   16.666666666666668
-300.0   0.0   0.0
-350.0   30.0   0.0
-350.0   0.0   16.666666666666668
-300.0   0.0   16.666666666666668
-350.0   30.0   16.666666666666668
-350.0   0.0   33.333333333333336
-300.0   0.0   16.666666666666668
-300.0   30.0   16.666666666666668
-350.0   30.0   16.666666666666668
-300.0   30.0   33.333333333333336
-350.0   0.0   33.333333333333336
-350.0   30.0   33.333333333333336
-300.0   30.0   33.333333333333336
-350.0   30.0   16.666666666666668
-350.0   0.0   33.333333333333336
-300.0   30.0   33.333333333333336
-300.0   0.0   33.333333333333336
-300.0   0.0   16.666666666666668
-350.0   0.0   33.333333333333336
-300.0   30.0   33.333333333333336
-300.0   0.0   16.666666666666668
-350.0   30.0   16.666666666666668
-350.0   0.0   33.333333333333336
-300.0   0.0   33.333333333333336
-350.0   30.0   33.333333333333336
-350.0   0.0   50.0
-300.0   0.0   33.333333333333336
-300.0   30.0   33.333333333333336
-350.0   30.0   33.333333333333336
-300.0   30.0   50.0
-350.0   0.0   50.0
-350.0   30.0   50.0
-300.0   30.0   50.0
-350.0   30.0   33.333333333333336
-350.0   0.0   50.0
-300.0   30.0   50.0
-300.0   0.0   50.0
-300.0   0.0   33.333333333333336
-350.0   0.0   50.0
-300.0   30.0   50.0
-300.0   0.0   33.333333333333336
-350.0   30.0   33.333333333333336
-350.0   30.0   0.0
-300.0   30.0   0.0
-350.0   60.0   0.0
-350.0   30.0   16.666666666666668
-300.0   30.0   0.0
-300.0   60.0   0.0
-350.0   60.0   0.0
-300.0   60.0   16.666666666666668
-350.0   30.0   16.666666666666668
-350.0   60.0   16.666666666666668
-300.0   60.0   16.666666666666668
-350.0   60.0   0.0
-350.0   30.0   16.666666666666668
-300.0   60.0   16.666666666666668
-300.0   30.0   16.666666666666668
-300.0   30.0   0.0
-350.0   30.0   16.666666666666668
-300.0   60.0   16.666666666666668
-300.0   30.0   0.0
-350.0   60.0   0.0
-350.0   30.0   16.666666666666668
-300.0   30.0   16.666666666666668
-350.0   60.0   16.666666666666668
-350.0   30.0   33.333333333333336
-300.0   30.0   16.666666666666668
-300.0   60.0   16.666666666666668
-350.0   60.0   16.666666666666668
-300.0   60.0   33.333333333333336
-350.0   30.0   33.333333333333336
-350.0   60.0   33.333333333333336
-300.0   60.0   33.333333333333336
-350.0   60.0   16.666666666666668
-350.0   30.0   33.333333333333336
-300.0   60.0   33.333333333333336
-300.0   30.0   33.333333333333336
-300.0   30.0   16.666666666666668
-350.0   30.0   33.333333333333336
-300.0   60.0   33.333333333333336
-300.0   30.0   16.666666666666668
-350.0   60.0   16.666666666666668
-350.0   30.0   33.333333333333336
-300.0   30.0   33.333333333333336
-350.0   60.0   33.333333333333336
-350.0   30.0   50.0
-300.0   30.0   33.333333333333336
-300.0   60.0   33.333333333333336
-350.0   60.0   33.333333333333336
-300.0   60.0   50.0
-350.0   30.0   50.0
-350.0   60.0   50.0
-300.0   60.0   50.0
-350.0   60.0   33.333333333333336
-350.0   30.0   50.0
-300.0   60.0   50.0
-300.0   30.0   50.0
-300.0   30.0   33.333333333333336
-350.0   30.0   50.0
-300.0   60.0   50.0
-300.0   30.0   33.333333333333336
-350.0   60.0   33.333333333333336
-350.0   60.0   0.0
-300.0   60.0   0.0
-350.0   90.0   0.0
-350.0   60.0   16.666666666666668
-300.0   60.0   0.0
-300.0   90.0   0.0
-350.0   90.0   0.0
-300.0   90.0   16.666666666666668
-350.0   60.0   16.666666666666668
-350.0   90.0   16.666666666666668
-300.0   90.0   16.666666666666668
-350.0   90.0   0.0
-350.0   60.0   16.666666666666668
-300.0   90.0   16.666666666666668
-300.0   60.0   16.666666666666668
-300.0   60.0   0.0
-350.0   60.0   16.666666666666668
-300.0   90.0   16.666666666666668
-300.0   60.0   0.0
-350.0   90.0   0.0
-350.0   60.0   16.666666666666668
-300.0   60.0   16.666666666666668
-350.0   90.0   16.666666666666668
-350.0   60.0   33.333333333333336
-300.0   60.0   16.666666666666668
-300.0   90.0   16.666666666666668
-350.0   90.0   16.666666666666668
-300.0   90.0   33.333333333333336
-350.0   60.0   33.333333333333336
-350.0   90.0   33.333333333333336
-300.0   90.0   33.333333333333336
-350.0   90.0   16.666666666666668
-350.0   60.0   33.333333333333336
-300.0   90.0   33.333333333333336
-300.0   60.0   33.333333333333336
-300.0   60.0   16.666666666666668
-350.0   60.0   33.333333333333336
-300.0   90.0   33.333333333333336
-300.0   60.0   16.666666666666668
-350.0   90.0   16.666666666666668
-350.0   60.0   33.333333333333336
-300.0   60.0   33.333333333333336
-350.0   90.0   33.333333333333336
-350.0   60.0   50.0
-300.0   60.0   33.333333333333336
-300.0   90.0   33.333333333333336
-350.0   90.0   33.333333333333336
-300.0   90.0   50.0
-350.0   60.0   50.0
-350.0   90.0   50.0
-300.0   90.0   50.0
-350.0   90.0   33.333333333333336
-350.0   60.0   50.0
-300.0   90.0   50.0
-300.0   60.0   50.0
-300.0   60.0   33.333333333333336
-350.0   60.0   50.0
-300.0   90.0   50.0
-300.0   60.0   33.333333333333336
-350.0   90.0   33.333333333333336
-350.0   90.0   0.0
-300.0   90.0   0.0
-350.0   120.0   0.0
-350.0   90.0   16.666666666666668
-300.0   90.0   0.0
-300.0   120.0   0.0
-350.0   120.0   0.0
-300.0   120.0   16.666666666666668
-350.0   90.0   16.666666666666668
-350.0   120.0   16.666666666666668
-300.0   120.0   16.666666666666668
-350.0   120.0   0.0
-350.0   90.0   16.666666666666668
-300.0   120.0   16.666666666666668
-300.0   90.0   16.666666666666668
-300.0   90.0   0.0
-350.0   90.0   16.666666666666668
-300.0   120.0   16.666666666666668
-300.0   90.0   0.0
-350.0   120.0   0.0
-350.0   90.0   16.666666666666668
-300.0   90.0   16.666666666666668
-350.0   120.0   16.666666666666668
-350.0   90.0   33.333333333333336
-300.0   90.0   16.666666666666668
-300.0   120.0   16.666666666666668
-350.0   120.0   16.666666666666668
-300.0   120.0   33.333333333333336
-350.0   90.0   33.333333333333336
-350.0   120.0   33.333333333333336
-300.0   120.0   33.333333333333336
-350.0   120.0   16.666666666666668
-350.0   90.0   33.333333333333336
-300.0   120.0   33.333333333333336
-300.0   90.0   33.333333333333336
-300.0   90.0   16.666666666666668
-350.0   90.0   33.333333333333336
-300.0   120.0   33.333333333333336
-300.0   90.0   16.666666666666668
-350.0   120.0   16.666666666666668
-350.0   90.0   33.333333333333336
-300.0   90.0   33.333333333333336
-350.0   120.0   33.333333333333336
-350.0   90.0   50.0
-300.0   90.0   33.333333333333336
-300.0   120.0   33.333333333333336
-350.0   120.0   33.333333333333336
-300.0   120.0   50.0
-350.0   90.0   50.0
-350.0   120.0   50.0
-300.0   120.0   50.0
-350.0   120.0   33.333333333333336
-350.0   90.0   50.0
-300.0   120.0   50.0
-300.0   90.0   50.0
-300.0   90.0   33.333333333333336
-350.0   90.0   50.0
-300.0   120.0   50.0
-300.0   90.0   33.333333333333336
-350.0   120.0   33.333333333333336
-350.0   120.0   0.0
-300.0   120.0   0.0
-350.0   150.0   0.0
-350.0   120.0   16.666666666666668
-300.0   120.0   0.0
-300.0   150.0   0.0
-350.0   150.0   0.0
-300.0   150.0   16.666666666666668
-350.0   120.0   16.666666666666668
-350.0   150.0   16.666666666666668
-300.0   150.0   16.666666666666668
-350.0   150.0   0.0
-350.0   120.0   16.666666666666668
-300.0   150.0   16.666666666666668
-300.0   120.0   16.666666666666668
-300.0   120.0   0.0
-350.0   120.0   16.666666666666668
-300.0   150.0   16.666666666666668
-300.0   120.0   0.0
-350.0   150.0   0.0
-350.0   120.0   16.666666666666668
-300.0   120.0   16.666666666666668
-350.0   150.0   16.666666666666668
-350.0   120.0   33.333333333333336
-300.0   120.0   16.666666666666668
-300.0   150.0   16.666666666666668
-350.0   150.0   16.666666666666668
-300.0   150.0   33.333333333333336
-350.0   120.0   33.333333333333336
-350.0   150.0   33.333333333333336
-300.0   150.0   33.333333333333336
-350.0   150.0   16.666666666666668
-350.0   120.0   33.333333333333336
-300.0   150.0   33.333333333333336
-300.0   120.0   33.333333333333336
-300.0   120.0   16.666666666666668
-350.0   120.0   33.333333333333336
-300.0   150.0   33.333333333333336
-300.0   120.0   16.666666666666668
-350.0   150.0   16.666666666666668
-350.0   120.0   33.333333333333336
-300.0   120.0   33.333333333333336
-350.0   150.0   33.333333333333336
-350.0   120.0   50.0
-300.0   120.0   33.333333333333336
-300.0   150.0   33.333333333333336
-350.0   150.0   33.333333333333336
-300.0   150.0   50.0
-350.0   120.0   50.0
-350.0   150.0   50.0
-300.0   150.0   50.0
-350.0   150.0   33.333333333333336
-350.0   120.0   50.0
-300.0   150.0   50.0
-300.0   120.0   50.0
-300.0   120.0   33.333333333333336
-350.0   120.0   50.0
-300.0   150.0   50.0
-300.0   120.0   33.333333333333336
-350.0   150.0   33.333333333333336
-300.0   0.0   0.0
-250.0   0.0   0.0
-300.0   30.0   0.0
-300.0   0.0   16.666666666666668
-250.0   0.0   0.0
-250.0   30.0   0.0
-300.0   30.0   0.0
-250.0   30.0   16.666666666666668
-300.0   0.0   16.666666666666668
-300.0   30.0   16.666666666666668
-250.0   30.0   16.666666666666668
-300.0   30.0   0.0
-300.0   0.0   16.666666666666668
-250.0   30.0   16.666666666666668
-250.0   0.0   16.666666666666668
-250.0   0.0   0.0
-300.0   0.0   16.666666666666668
-250.0   30.0   16.666666666666668
-250.0   0.0   0.0
-300.0   30.0   0.0
-300.0   0.0   16.666666666666668
-250.0   0.0   16.666666666666668
-300.0   30.0   16.666666666666668
-300.0   0.0   33.333333333333336
-250.0   0.0   16.666666666666668
-250.0   30.0   16.666666666666668
-300.0   30.0   16.666666666666668
-250.0   30.0   33.333333333333336
-300.0   0.0   33.333333333333336
-300.0   30.0   33.333333333333336
-250.0   30.0   33.333333333333336
-300.0   30.0   16.666666666666668
-300.0   0.0   33.333333333333336
-250.0   30.0   33.333333333333336
-250.0   0.0   33.333333333333336
-250.0   0.0   16.666666666666668
-300.0   0.0   33.333333333333336
-250.0   30.0   33.333333333333336
-250.0   0.0   16.666666666666668
-300.0   30.0   16.666666666666668
-300.0   0.0   33.333333333333336
-250.0   0.0   33.333333333333336
-300.0   30.0   33.333333333333336
-300.0   0.0   50.0
-250.0   0.0   33.333333333333336
-250.0   30.0   33.333333333333336
-300.0   30.0   33.333333333333336
-250.0   30.0   50.0
-300.0   0.0   50.0
-300.0   30.0   50.0
-250.0   30.0   50.0
-300.0   30.0   33.333333333333336
-300.0   0.0   50.0
-250.0   30.0   50.0
-250.0   0.0   50.0
-250.0   0.0   33.333333333333336
-300.0   0.0   50.0
-250.0   30.0   50.0
-250.0   0.0   33.333333333333336
-300.0   30.0   33.333333333333336
-300.0   30.0   0.0
-250.0   30.0   0.0
-300.0   60.0   0.0
-300.0   30.0   16.666666666666668
-250.0   30.0   0.0
-250.0   60.0   0.0
-300.0   60.0   0.0
-250.0   60.0   16.666666666666668
-300.0   30.0   16.666666666666668
-300.0   60.0   16.666666666666668
-250.0   60.0   16.666666666666668
-300.0   60.0   0.0
-300.0   30.0   16.666666666666668
-250.0   60.0   16.666666666666668
-250.0   30.0   16.666666666666668
-250.0   30.0   0.0
-300.0   30.0   16.666666666666668
-250.0   60.0   16.666666666666668
-250.0   30.0   0.0
-300.0   60.0   0.0
-300.0   30.0   16.666666666666668
-250.0   30.0   16.666666666666668
-300.0   60.0   16.666666666666668
-300.0   30.0   33.333333333333336
-250.0   30.0   16.666666666666668
-250.0   60.0   16.666666666666668
-300.0   60.0   16.666666666666668
-250.0   60.0   33.333333333333336
-300.0   30.0   33.333333333333336
-300.0   60.0   33.333333333333336
-250.0   60.0   33.333333333333336
-300.0   60.0   16.666666666666668
-300.0   30.0   33.333333333333336
-250.0   60.0   33.333333333333336
-250.0   30.0   33.333333333333336
-250.0   30.0   16.666666666666668
-300.0   30.0   33.333333333333336
-250.0   60.0   33.333333333333336
-250.0   30.0   16.666666666666668
-300.0   60.0   16.666666666666668
-300.0   30.0   33.333333333333336
-250.0   30.0   33.333333333333336
-300.0   60.0   33.333333333333336
-300.0   30.0   50.0
-250.0   30.0   33.333333333333336
-250.0   60.0   33.333333333333336
-300.0   60.0   33.333333333333336
-250.0   60.0   50.0
-300.0   30.0   50.0
-300.0   60.0   50.0
-250.0   60.0   50.0
-300.0   60.0   33.333333333333336
-300.0   30.0   50.0
-250.0   60.0   50.0
-250.0   30.0   50.0
-250.0   30.0   33.333333333333336
-300.0   30.0   50.0
-250.0   60.0   50.0
-250.0   30.0   33.333333333333336
-300.0   60.0   33.333333333333336
-300.0   60.0   0.0
-250.0   60.0   0.0
-300.0   90.0   0.0
-300.0   60.0   16.666666666666668
-250.0   60.0   0.0
-250.0   90.0   0.0
-300.0   90.0   0.0
-250.0   90.0   16.666666666666668
-300.0   60.0   16.666666666666668
-300.0   90.0   16.666666666666668
-250.0   90.0   16.666666666666668
-300.0   90.0   0.0
-300.0   60.0   16.666666666666668
-250.0   90.0   16.666666666666668
-250.0   60.0   16.666666666666668
-250.0   60.0   0.0
-300.0   60.0   16.666666666666668
-250.0   90.0   16.666666666666668
-250.0   60.0   0.0
-300.0   90.0   0.0
-300.0   60.0   16.666666666666668
-250.0   60.0   16.666666666666668
-300.0   90.0   16.666666666666668
-300.0   60.0   33.333333333333336
-250.0   60.0   16.666666666666668
-250.0   90.0   16.666666666666668
-300.0   90.0   16.666666666666668
-250.0   90.0   33.333333333333336
-300.0   60.0   33.333333333333336
-300.0   90.0   33.333333333333336
-250.0   90.0   33.333333333333336
-300.0   90.0   16.666666666666668
-300.0   60.0   33.333333333333336
-250.0   90.0   33.333333333333336
-250.0   60.0   33.333333333333336
-250.0   60.0   16.666666666666668
-300.0   60.0   33.333333333333336
-250.0   90.0   33.333333333333336
-250.0   60.0   16.666666666666668
-300.0   90.0   16.666666666666668
-300.0   60.0   33.333333333333336
-250.0   60.0   33.333333333333336
-300.0   90.0   33.333333333333336
-300.0   60.0   50.0
-250.0   60.0   33.333333333333336
-250.0   90.0   33.333333333333336
-300.0   90.0   33.333333333333336
-250.0   90.0   50.0
-300.0   60.0   50.0
-300.0   90.0   50.0
-250.0   90.0   50.0
-300.0   90.0   33.333333333333336
-300.0   60.0   50.0
-250.0   90.0   50.0
-250.0   60.0   50.0
-250.0   60.0   33.333333333333336
-300.0   60.0   50.0
-250.0   90.0   50.0
-250.0   60.0   33.333333333333336
-300.0   90.0   33.333333333333336
-300.0   90.0   0.0
-250.0   90.0   0.0
-300.0   120.0   0.0
-300.0   90.0   16.666666666666668
-250.0   90.0   0.0
-250.0   120.0   0.0
-300.0   120.0   0.0
-250.0   120.0   16.666666666666668
-300.0   90.0   16.666666666666668
-300.0   120.0   16.666666666666668
-250.0   120.0   16.666666666666668
-300.0   120.0   0.0
-300.0   90.0   16.666666666666668
-250.0   120.0   16.666666666666668
-250.0   90.0   16.666666666666668
-250.0   90.0   0.0
-300.0   90.0   16.666666666666668
-250.0   120.0   16.666666666666668
-250.0   90.0   0.0
-300.0   120.0   0.0
-300.0   90.0   16.666666666666668
-250.0   90.0   16.666666666666668
-300.0   120.0   16.666666666666668
-300.0   90.0   33.333333333333336
-250.0   90.0   16.666666666666668
-250.0   120.0   16.666666666666668
-300.0   120.0   16.666666666666668
-250.0   120.0   33.333333333333336
-300.0   90.0   33.333333333333336
-300.0   120.0   33.333333333333336
-250.0   120.0   33.333333333333336
-300.0   120.0   16.666666666666668
-300.0   90.0   33.333333333333336
-250.0   120.0   33.333333333333336
-250.0   90.0   33.333333333333336
-250.0   90.0   16.666666666666668
-300.0   90.0   33.333333333333336
-250.0   120.0   33.333333333333336
-250.0   90.0   16.666666666666668
-300.0   120.0   16.666666666666668
-300.0   90.0   33.333333333333336
-250.0   90.0   33.333333333333336
-300.0   120.0   33.333333333333336
-300.0   90.0   50.0
-250.0   90.0   33.333333333333336
-250.0   120.0   33.333333333333336
-300.0   120.0   33.333333333333336
-250.0   120.0   50.0
-300.0   90.0   50.0
-300.0   120.0   50.0
-250.0   120.0   50.0
-300.0   120.0   33.333333333333336
-300.0   90.0   50.0
-250.0   120.0   50.0
-250.0   90.0   50.0
-250.0   90.0   33.333333333333336
-300.0   90.0   50.0
-250.0   120.0   50.0
-250.0   90.0   33.333333333333336
-300.0   120.0   33.333333333333336
-300.0   120.0   0.0
-250.0   120.0   0.0
-300.0   150.0   0.0
-300.0   120.0   16.666666666666668
-250.0   120.0   0.0
-250.0   150.0   0.0
-300.0   150.0   0.0
-250.0   150.0   16.666666666666668
-300.0   120.0   16.666666666666668
-300.0   150.0   16.666666666666668
-250.0   150.0   16.666666666666668
-300.0   150.0   0.0
-300.0   120.0   16.666666666666668
-250.0   150.0   16.666666666666668
-250.0   120.0   16.666666666666668
-250.0   120.0   0.0
-300.0   120.0   16.666666666666668
-250.0   150.0   16.666666666666668
-250.0   120.0   0.0
-300.0   150.0   0.0
-300.0   120.0   16.666666666666668
-250.0   120.0   16.666666666666668
-300.0   150.0   16.666666666666668
-300.0   120.0   33.333333333333336
-250.0   120.0   16.666666666666668
-250.0   150.0   16.666666666666668
-300.0   150.0   16.666666666666668
-250.0   150.0   33.333333333333336
-300.0   120.0   33.333333333333336
-300.0   150.0   33.333333333333336
-250.0   150.0   33.333333333333336
-300.0   150.0   16.666666666666668
-300.0   120.0   33.333333333333336
-250.0   150.0   33.333333333333336
-250.0   120.0   33.333333333333336
-250.0   120.0   16.666666666666668
-300.0   120.0   33.333333333333336
-250.0   150.0   33.333333333333336
-250.0   120.0   16.666666666666668
-300.0   150.0   16.666666666666668
-300.0   120.0   33.333333333333336
-250.0   120.0   33.333333333333336
-300.0   150.0   33.333333333333336
-300.0   120.0   50.0
-250.0   120.0   33.333333333333336
-250.0   150.0   33.333333333333336
-300.0   150.0   33.333333333333336
-250.0   150.0   50.0
-300.0   120.0   50.0
-300.0   150.0   50.0
-250.0   150.0   50.0
-300.0   150.0   33.333333333333336
-300.0   120.0   50.0
-250.0   150.0   50.0
-250.0   120.0   50.0
-250.0   120.0   33.333333333333336
-300.0   120.0   50.0
-250.0   150.0   50.0
-250.0   120.0   33.333333333333336
-300.0   150.0   33.333333333333336
-250.0   0.0   0.0
-200.0   0.0   0.0
-250.0   30.0   0.0
-250.0   0.0   16.666666666666668
-200.0   0.0   0.0
-200.0   30.0   0.0
-250.0   30.0   0.0
-200.0   30.0   16.666666666666668
-250.0   0.0   16.666666666666668
-250.0   30.0   16.666666666666668
-200.0   30.0   16.666666666666668
-250.0   30.0   0.0
-250.0   0.0   16.666666666666668
-200.0   30.0   16.666666666666668
-200.0   0.0   16.666666666666668
-200.0   0.0   0.0
-250.0   0.0   16.666666666666668
-200.0   30.0   16.666666666666668
-200.0   0.0   0.0
-250.0   30.0   0.0
-250.0   0.0   16.666666666666668
-200.0   0.0   16.666666666666668
-250.0   30.0   16.666666666666668
-250.0   0.0   33.333333333333336
-200.0   0.0   16.666666666666668
-200.0   30.0   16.666666666666668
-250.0   30.0   16.666666666666668
-200.0   30.0   33.333333333333336
-250.0   0.0   33.333333333333336
-250.0   30.0   33.333333333333336
-200.0   30.0   33.333333333333336
-250.0   30.0   16.666666666666668
-250.0   0.0   33.333333333333336
-200.0   30.0   33.333333333333336
-200.0   0.0   33.333333333333336
-200.0   0.0   16.666666666666668
-250.0   0.0   33.333333333333336
-200.0   30.0   33.333333333333336
-200.0   0.0   16.666666666666668
-250.0   30.0   16.666666666666668
-250.0   0.0   33.333333333333336
-200.0   0.0   33.333333333333336
-250.0   30.0   33.333333333333336
-250.0   0.0   50.0
-200.0   0.0   33.333333333333336
-200.0   30.0   33.333333333333336
-250.0   30.0   33.333333333333336
-200.0   30.0   50.0
-250.0   0.0   50.0
-250.0   30.0   50.0
-200.0   30.0   50.0
-250.0   30.0   33.333333333333336
-250.0   0.0   50.0
-200.0   30.0   50.0
-200.0   0.0   50.0
-200.0   0.0   33.333333333333336
-250.0   0.0   50.0
-200.0   30.0   50.0
-200.0   0.0   33.333333333333336
-250.0   30.0   33.333333333333336
-250.0   30.0   0.0
-200.0   30.0   0.0
-250.0   60.0   0.0
-250.0   30.0   16.666666666666668
-200.0   30.0   0.0
-200.0   60.0   0.0
-250.0   60.0   0.0
-200.0   60.0   16.666666666666668
-250.0   30.0   16.666666666666668
-250.0   60.0   16.666666666666668
-200.0   60.0   16.666666666666668
-250.0   60.0   0.0
-250.0   30.0   16.666666666666668
-200.0   60.0   16.666666666666668
-200.0   30.0   16.666666666666668
-200.0   30.0   0.0
-250.0   30.0   16.666666666666668
-200.0   60.0   16.666666666666668
-200.0   30.0   0.0
-250.0   60.0   0.0
-250.0   30.0   16.666666666666668
-200.0   30.0   16.666666666666668
-250.0   60.0   16.666666666666668
-250.0   30.0   33.333333333333336
-200.0   30.0   16.666666666666668
-200.0   60.0   16.666666666666668
-250.0   60.0   16.666666666666668
-200.0   60.0   33.333333333333336
-250.0   30.0   33.333333333333336
-250.0   60.0   33.333333333333336
-200.0   60.0   33.333333333333336
-250.0   60.0   16.666666666666668
-250.0   30.0   33.333333333333336
-200.0   60.0   33.333333333333336
-200.0   30.0   33.333333333333336
-200.0   30.0   16.666666666666668
-250.0   30.0   33.333333333333336
-200.0   60.0   33.333333333333336
-200.0   30.0   16.666666666666668
-250.0   60.0   16.666666666666668
-250.0   30.0   33.333333333333336
-200.0   30.0   33.333333333333336
-250.0   60.0   33.333333333333336
-250.0   30.0   50.0
-200.0   30.0   33.333333333333336
-200.0   60.0   33.333333333333336
-250.0   60.0   33.333333333333336
-200.0   60.0   50.0
-250.0   30.0   50.0
-250.0   60.0   50.0
-200.0   60.0   50.0
-250.0   60.0   33.333333333333336
-250.0   30.0   50.0
-200.0   60.0   50.0
-200.0   30.0   50.0
-200.0   30.0   33.333333333333336
-250.0   30.0   50.0
-200.0   60.0   50.0
-200.0   30.0   33.333333333333336
-250.0   60.0   33.333333333333336
-250.0   60.0   0.0
-200.0   60.0   0.0
-250.0   90.0   0.0
-250.0   60.0   16.666666666666668
-200.0   60.0   0.0
-200.0   90.0   0.0
-250.0   90.0   0.0
-200.0   90.0   16.666666666666668
-250.0   60.0   16.666666666666668
-250.0   90.0   16.666666666666668
-200.0   90.0   16.666666666666668
-250.0   90.0   0.0
-250.0   60.0   16.666666666666668
-200.0   90.0   16.666666666666668
-200.0   60.0   16.666666666666668
-200.0   60.0   0.0
-250.0   60.0   16.666666666666668
-200.0   90.0   16.666666666666668
-200.0   60.0   0.0
-250.0   90.0   0.0
-250.0   60.0   16.666666666666668
-200.0   60.0   16.666666666666668
-250.0   90.0   16.666666666666668
-250.0   60.0   33.333333333333336
-200.0   60.0   16.666666666666668
-200.0   90.0   16.666666666666668
-250.0   90.0   16.666666666666668
-200.0   90.0   33.333333333333336
-250.0   60.0   33.333333333333336
-250.0   90.0   33.333333333333336
-200.0   90.0   33.333333333333336
-250.0   90.0   16.666666666666668
-250.0   60.0   33.333333333333336
-200.0   90.0   33.333333333333336
-200.0   60.0   33.333333333333336
-200.0   60.0   16.666666666666668
-250.0   60.0   33.333333333333336
-200.0   90.0   33.333333333333336
-200.0   60.0   16.666666666666668
-250.0   90.0   16.666666666666668
-250.0   60.0   33.333333333333336
-200.0   60.0   33.333333333333336
-250.0   90.0   33.333333333333336
-250.0   60.0   50.0
-200.0   60.0   33.333333333333336
-200.0   90.0   33.333333333333336
-250.0   90.0   33.333333333333336
-200.0   90.0   50.0
-250.0   60.0   50.0
-250.0   90.0   50.0
-200.0   90.0   50.0
-250.0   90.0   33.333333333333336
-250.0   60.0   50.0
-200.0   90.0   50.0
-200.0   60.0   50.0
-200.0   60.0   33.333333333333336
-250.0   60.0   50.0
-200.0   90.0   50.0
-200.0   60.0   33.333333333333336
-250.0   90.0   33.333333333333336
-250.0   90.0   0.0
-200.0   90.0   0.0
-250.0   120.0   0.0
-250.0   90.0   16.666666666666668
-200.0   90.0   0.0
-200.0   120.0   0.0
-250.0   120.0   0.0
-200.0   120.0   16.666666666666668
-250.0   90.0   16.666666666666668
-250.0   120.0   16.666666666666668
-200.0   120.0   16.666666666666668
-250.0   120.0   0.0
-250.0   90.0   16.666666666666668
-200.0   120.0   16.666666666666668
-200.0   90.0   16.666666666666668
-200.0   90.0   0.0
-250.0   90.0   16.666666666666668
-200.0   120.0   16.666666666666668
-200.0   90.0   0.0
-250.0   120.0   0.0
-250.0   90.0   16.666666666666668
-200.0   90.0   16.666666666666668
-250.0   120.0   16.666666666666668
-250.0   90.0   33.333333333333336
-200.0   90.0   16.666666666666668
-200.0   120.0   16.666666666666668
-250.0   120.0   16.666666666666668
-200.0   120.0   33.333333333333336
-250.0   90.0   33.333333333333336
-250.0   120.0   33.333333333333336
-200.0   120.0   33.333333333333336
-250.0   120.0   16.666666666666668
-250.0   90.0   33.333333333333336
-200.0   120.0   33.333333333333336
-200.0   90.0   33.333333333333336
-200.0   90.0   16.666666666666668
-250.0   90.0   33.333333333333336
-200.0   120.0   33.333333333333336
-200.0   90.0   16.666666666666668
-250.0   120.0   16.666666666666668
-250.0   90.0   33.333333333333336
-200.0   90.0   33.333333333333336
-250.0   120.0   33.333333333333336
-250.0   90.0   50.0
-200.0   90.0   33.333333333333336
-200.0   120.0   33.333333333333336
-250.0   120.0   33.333333333333336
-200.0   120.0   50.0
-250.0   90.0   50.0
-250.0   120.0   50.0
-200.0   120.0   50.0
-250.0   120.0   33.333333333333336
-250.0   90.0   50.0
-200.0   120.0   50.0
-200.0   90.0   50.0
-200.0   90.0   33.333333333333336
-250.0   90.0   50.0
-200.0   120.0   50.0
-200.0   90.0   33.333333333333336
-250.0   120.0   33.333333333333336
-250.0   120.0   0.0
-200.0   120.0   0.0
-250.0   150.0   0.0
-250.0   120.0   16.666666666666668
-200.0   120.0   0.0
-200.0   150.0   0.0
-250.0   150.0   0.0
-200.0   150.0   16.666666666666668
-250.0   120.0   16.666666666666668
-250.0   150.0   16.666666666666668
-200.0   150.0   16.666666666666668
-250.0   150.0   0.0
-250.0   120.0   16.666666666666668
-200.0   150.0   16.666666666666668
-200.0   120.0   16.666666666666668
-200.0   120.0   0.0
-250.0   120.0   16.666666666666668
-200.0   150.0   16.666666666666668
-200.0   120.0   0.0
-250.0   150.0   0.0
-250.0   120.0   16.666666666666668
-200.0   120.0   16.666666666666668
-250.0   150.0   16.666666666666668
-250.0   120.0   33.333333333333336
-200.0   120.0   16.666666666666668
-200.0   150.0   16.666666666666668
-250.0   150.0   16.666666666666668
-200.0   150.0   33.333333333333336
-250.0   120.0   33.333333333333336
-250.0   150.0   33.333333333333336
-200.0   150.0   33.333333333333336
-250.0   150.0   16.666666666666668
-250.0   120.0   33.333333333333336
-200.0   150.0   33.333333333333336
-200.0   120.0   33.333333333333336
-200.0   120.0   16.666666666666668
-250.0   120.0   33.333333333333336
-200.0   150.0   33.333333333333336
-200.0   120.0   16.666666666666668
-250.0   150.0   16.666666666666668
-250.0   120.0   33.333333333333336
-200.0   120.0   33.333333333333336
-250.0   150.0   33.333333333333336
-250.0   120.0   50.0
-200.0   120.0   33.333333333333336
-200.0   150.0   33.333333333333336
-250.0   150.0   33.333333333333336
-200.0   150.0   50.0
-250.0   120.0   50.0
-250.0   150.0   50.0
-200.0   150.0   50.0
-250.0   150.0   33.333333333333336
-250.0   120.0   50.0
-200.0   150.0   50.0
-200.0   120.0   50.0
-200.0   120.0   33.333333333333336
-250.0   120.0   50.0
-200.0   150.0   50.0
-200.0   120.0   33.333333333333336
-250.0   150.0   33.333333333333336
-200.0   0.0   0.0
-150.0   0.0   0.0
-200.0   30.0   0.0
-200.0   0.0   16.666666666666668
-150.0   0.0   0.0
-150.0   30.0   0.0
-200.0   30.0   0.0
-150.0   30.0   16.666666666666668
-200.0   0.0   16.666666666666668
-200.0   30.0   16.666666666666668
-150.0   30.0   16.666666666666668
-200.0   30.0   0.0
-200.0   0.0   16.666666666666668
-150.0   30.0   16.666666666666668
-150.0   0.0   16.666666666666668
-150.0   0.0   0.0
-200.0   0.0   16.666666666666668
-150.0   30.0   16.666666666666668
-150.0   0.0   0.0
-200.0   30.0   0.0
-200.0   0.0   16.666666666666668
-150.0   0.0   16.666666666666668
-200.0   30.0   16.666666666666668
-200.0   0.0   33.333333333333336
-150.0   0.0   16.666666666666668
-150.0   30.0   16.666666666666668
-200.0   30.0   16.666666666666668
-150.0   30.0   33.333333333333336
-200.0   0.0   33.333333333333336
-200.0   30.0   33.333333333333336
-150.0   30.0   33.333333333333336
-200.0   30.0   16.666666666666668
-200.0   0.0   33.333333333333336
-150.0   30.0   33.333333333333336
-150.0   0.0   33.333333333333336
-150.0   0.0   16.666666666666668
-200.0   0.0   33.333333333333336
-150.0   30.0   33.333333333333336
-150.0   0.0   16.666666666666668
-200.0   30.0   16.666666666666668
-200.0   0.0   33.333333333333336
-150.0   0.0   33.333333333333336
-200.0   30.0   33.333333333333336
-200.0   0.0   50.0
-150.0   0.0   33.333333333333336
-150.0   30.0   33.333333333333336
-200.0   30.0   33.333333333333336
-150.0   30.0   50.0
-200.0   0.0   50.0
-200.0   30.0   50.0
-150.0   30.0   50.0
-200.0   30.0   33.333333333333336
-200.0   0.0   50.0
-150.0   30.0   50.0
-150.0   0.0   50.0
-150.0   0.0   33.333333333333336
-200.0   0.0   50.0
-150.0   30.0   50.0
-150.0   0.0   33.333333333333336
-200.0   30.0   33.333333333333336
-200.0   30.0   0.0
-150.0   30.0   0.0
-200.0   60.0   0.0
-200.0   30.0   16.666666666666668
-150.0   30.0   0.0
-150.0   60.0   0.0
-200.0   60.0   0.0
-150.0   60.0   16.666666666666668
-200.0   30.0   16.666666666666668
-200.0   60.0   16.666666666666668
-150.0   60.0   16.666666666666668
-200.0   60.0   0.0
-200.0   30.0   16.666666666666668
-150.0   60.0   16.666666666666668
-150.0   30.0   16.666666666666668
-150.0   30.0   0.0
-200.0   30.0   16.666666666666668
-150.0   60.0   16.666666666666668
-150.0   30.0   0.0
-200.0   60.0   0.0
-200.0   30.0   16.666666666666668
-150.0   30.0   16.666666666666668
-200.0   60.0   16.666666666666668
-200.0   30.0   33.333333333333336
-150.0   30.0   16.666666666666668
-150.0   60.0   16.666666666666668
-200.0   60.0   16.666666666666668
-150.0   60.0   33.333333333333336
-200.0   30.0   33.333333333333336
-200.0   60.0   33.333333333333336
-150.0   60.0   33.333333333333336
-200.0   60.0   16.666666666666668
-200.0   30.0   33.333333333333336
-150.0   60.0   33.333333333333336
-150.0   30.0   33.333333333333336
-150.0   30.0   16.666666666666668
-200.0   30.0   33.333333333333336
-150.0   60.0   33.333333333333336
-150.0   30.0   16.666666666666668
-200.0   60.0   16.666666666666668
-200.0   30.0   33.333333333333336
-150.0   30.0   33.333333333333336
-200.0   60.0   33.333333333333336
-200.0   30.0   50.0
-150.0   30.0   33.333333333333336
-150.0   60.0   33.333333333333336
-200.0   60.0   33.333333333333336
-150.0   60.0   50.0
-200.0   30.0   50.0
-200.0   60.0   50.0
-150.0   60.0   50.0
-200.0   60.0   33.333333333333336
-200.0   30.0   50.0
-150.0   60.0   50.0
-150.0   30.0   50.0
-150.0   30.0   33.333333333333336
-200.0   30.0   50.0
-150.0   60.0   50.0
-150.0   30.0   33.333333333333336
-200.0   60.0   33.333333333333336
-200.0   60.0   0.0
-150.0   60.0   0.0
-200.0   90.0   0.0
-200.0   60.0   16.666666666666668
-150.0   60.0   0.0
-150.0   90.0   0.0
-200.0   90.0   0.0
-150.0   90.0   16.666666666666668
-200.0   60.0   16.666666666666668
-200.0   90.0   16.666666666666668
-150.0   90.0   16.666666666666668
-200.0   90.0   0.0
-200.0   60.0   16.666666666666668
-150.0   90.0   16.666666666666668
-150.0   60.0   16.666666666666668
-150.0   60.0   0.0
-200.0   60.0   16.666666666666668
-150.0   90.0   16.666666666666668
-150.0   60.0   0.0
-200.0   90.0   0.0
-200.0   60.0   16.666666666666668
-150.0   60.0   16.666666666666668
-200.0   90.0   16.666666666666668
-200.0   60.0   33.333333333333336
-150.0   60.0   16.666666666666668
-150.0   90.0   16.666666666666668
-200.0   90.0   16.666666666666668
-150.0   90.0   33.333333333333336
-200.0   60.0   33.333333333333336
-200.0   90.0   33.333333333333336
-150.0   90.0   33.333333333333336
-200.0   90.0   16.666666666666668
-200.0   60.0   33.333333333333336
-150.0   90.0   33.333333333333336
-150.0   60.0   33.333333333333336
-150.0   60.0   16.666666666666668
-200.0   60.0   33.333333333333336
-150.0   90.0   33.333333333333336
-150.0   60.0   16.666666666666668
-200.0   90.0   16.666666666666668
-200.0   60.0   33.333333333333336
-150.0   60.0   33.333333333333336
-200.0   90.0   33.333333333333336
-200.0   60.0   50.0
-150.0   60.0   33.333333333333336
-150.0   90.0   33.333333333333336
-200.0   90.0   33.333333333333336
-150.0   90.0   50.0
-200.0   60.0   50.0
-200.0   90.0   50.0
-150.0   90.0   50.0
-200.0   90.0   33.333333333333336
-200.0   60.0   50.0
-150.0   90.0   50.0
-150.0   60.0   50.0
-150.0   60.0   33.333333333333336
-200.0   60.0   50.0
-150.0   90.0   50.0
-150.0   60.0   33.333333333333336
-200.0   90.0   33.333333333333336
-200.0   90.0   0.0
-150.0   90.0   0.0
-200.0   120.0   0.0
-200.0   90.0   16.666666666666668
-150.0   90.0   0.0
-150.0   120.0   0.0
-200.0   120.0   0.0
-150.0   120.0   16.666666666666668
-200.0   90.0   16.666666666666668
-200.0   120.0   16.666666666666668
-150.0   120.0   16.666666666666668
-200.0   120.0   0.0
-200.0   90.0   16.666666666666668
-150.0   120.0   16.666666666666668
-150.0   90.0   16.666666666666668
-150.0   90.0   0.0
-200.0   90.0   16.666666666666668
-150.0   120.0   16.666666666666668
-150.0   90.0   0.0
-200.0   120.0   0.0
-200.0   90.0   16.666666666666668
-150.0   90.0   16.666666666666668
-200.0   120.0   16.666666666666668
-200.0   90.0   33.333333333333336
-150.0   90.0   16.666666666666668
-150.0   120.0   16.666666666666668
-200.0   120.0   16.666666666666668
-150.0   120.0   33.333333333333336
-200.0   90.0   33.333333333333336
-200.0   120.0   33.333333333333336
-150.0   120.0   33.333333333333336
-200.0   120.0   16.666666666666668
-200.0   90.0   33.333333333333336
-150.0   120.0   33.333333333333336
-150.0   90.0   33.333333333333336
-150.0   90.0   16.666666666666668
-200.0   90.0   33.333333333333336
-150.0   120.0   33.333333333333336
-150.0   90.0   16.666666666666668
-200.0   120.0   16.666666666666668
-200.0   90.0   33.333333333333336
-150.0   90.0   33.333333333333336
-200.0   120.0   33.333333333333336
-200.0   90.0   50.0
-150.0   90.0   33.333333333333336
-150.0   120.0   33.333333333333336
-200.0   120.0   33.333333333333336
-150.0   120.0   50.0
-200.0   90.0   50.0
-200.0   120.0   50.0
-150.0   120.0   50.0
-200.0   120.0   33.333333333333336
-200.0   90.0   50.0
-150.0   120.0   50.0
-150.0   90.0   50.0
-150.0   90.0   33.333333333333336
-200.0   90.0   50.0
-150.0   120.0   50.0
-150.0   90.0   33.333333333333336
-200.0   120.0   33.333333333333336
-200.0   120.0   0.0
-150.0   120.0   0.0
-200.0   150.0   0.0
-200.0   120.0   16.666666666666668
-150.0   120.0   0.0
-150.0   150.0   0.0
-200.0   150.0   0.0
-150.0   150.0   16.666666666666668
-200.0   120.0   16.666666666666668
-200.0   150.0   16.666666666666668
-150.0   150.0   16.666666666666668
-200.0   150.0   0.0
-200.0   120.0   16.666666666666668
-150.0   150.0   16.666666666666668
-150.0   120.0   16.666666666666668
-150.0   120.0   0.0
-200.0   120.0   16.666666666666668
-150.0   150.0   16.666666666666668
-150.0   120.0   0.0
-200.0   150.0   0.0
-200.0   120.0   16.666666666666668
-150.0   120.0   16.666666666666668
-200.0   150.0   16.666666666666668
-200.0   120.0   33.333333333333336
-150.0   120.0   16.666666666666668
-150.0   150.0   16.666666666666668
-200.0   150.0   16.666666666666668
-150.0   150.0   33.333333333333336
-200.0   120.0   33.333333333333336
-200.0   150.0   33.333333333333336
-150.0   150.0   33.333333333333336
-200.0   150.0   16.666666666666668
-200.0   120.0   33.333333333333336
-150.0   150.0   33.333333333333336
-150.0   120.0   33.333333333333336
-150.0   120.0   16.666666666666668
-200.0   120.0   33.333333333333336
-150.0   150.0   33.333333333333336
-150.0   120.0   16.666666666666668
-200.0   150.0   16.666666666666668
-200.0   120.0   33.333333333333336
-150.0   120.0   33.333333333333336
-200.0   150.0   33.333333333333336
-200.0   120.0   50.0
-150.0   120.0   33.333333333333336
-150.0   150.0   33.333333333333336
-200.0   150.0   33.333333333333336
-150.0   150.0   50.0
-200.0   120.0   50.0
-200.0   150.0   50.0
-150.0   150.0   50.0
-200.0   150.0   33.333333333333336
-200.0   120.0   50.0
-150.0   150.0   50.0
-150.0   120.0   50.0
-150.0   120.0   33.333333333333336
-200.0   120.0   50.0
-150.0   150.0   50.0
-150.0   120.0   33.333333333333336
-200.0   150.0   33.333333333333336
-150.0   0.0   0.0
-100.0   0.0   0.0
-150.0   30.0   0.0
-150.0   0.0   16.666666666666668
-100.0   0.0   0.0
-100.0   30.0   0.0
-150.0   30.0   0.0
-100.0   30.0   16.666666666666668
-150.0   0.0   16.666666666666668
-150.0   30.0   16.666666666666668
-100.0   30.0   16.666666666666668
-150.0   30.0   0.0
-150.0   0.0   16.666666666666668
-100.0   30.0   16.666666666666668
-100.0   0.0   16.666666666666668
-100.0   0.0   0.0
-150.0   0.0   16.666666666666668
-100.0   30.0   16.666666666666668
-100.0   0.0   0.0
-150.0   30.0   0.0
-150.0   0.0   16.666666666666668
-100.0   0.0   16.666666666666668
-150.0   30.0   16.666666666666668
-150.0   0.0   33.333333333333336
-100.0   0.0   16.666666666666668
-100.0   30.0   16.666666666666668
-150.0   30.0   16.666666666666668
-100.0   30.0   33.333333333333336
-150.0   0.0   33.333333333333336
-150.0   30.0   33.333333333333336
-100.0   30.0   33.333333333333336
-150.0   30.0   16.666666666666668
-150.0   0.0   33.333333333333336
-100.0   30.0   33.333333333333336
-100.0   0.0   33.333333333333336
-100.0   0.0   16.666666666666668
-150.0   0.0   33.333333333333336
-100.0   30.0   33.333333333333336
-100.0   0.0   16.666666666666668
-150.0   30.0   16.666666666666668
-150.0   0.0   33.333333333333336
-100.0   0.0   33.333333333333336
-150.0   30.0   33.333333333333336
-150.0   0.0   50.0
-100.0   0.0   33.333333333333336
-100.0   30.0   33.333333333333336
-150.0   30.0   33.333333333333336
-100.0   30.0   50.0
-150.0   0.0   50.0
-150.0   30.0   50.0
-100.0   30.0   50.0
-150.0   30.0   33.333333333333336
-150.0   0.0   50.0
-100.0   30.0   50.0
-100.0   0.0   50.0
-100.0   0.0   33.333333333333336
-150.0   0.0   50.0
-100.0   30.0   50.0
-100.0   0.0   33.333333333333336
-150.0   30.0   33.333333333333336
-150.0   30.0   0.0
-100.0   30.0   0.0
-150.0   60.0   0.0
-150.0   30.0   16.666666666666668
-100.0   30.0   0.0
-100.0   60.0   0.0
-150.0   60.0   0.0
-100.0   60.0   16.666666666666668
-150.0   30.0   16.666666666666668
-150.0   60.0   16.666666666666668
-100.0   60.0   16.666666666666668
-150.0   60.0   0.0
-150.0   30.0   16.666666666666668
-100.0   60.0   16.666666666666668
-100.0   30.0   16.666666666666668
-100.0   30.0   0.0
-150.0   30.0   16.666666666666668
-100.0   60.0   16.666666666666668
-100.0   30.0   0.0
-150.0   60.0   0.0
-150.0   30.0   16.666666666666668
-100.0   30.0   16.666666666666668
-150.0   60.0   16.666666666666668
-150.0   30.0   33.333333333333336
-100.0   30.0   16.666666666666668
-100.0   60.0   16.666666666666668
-150.0   60.0   16.666666666666668
-100.0   60.0   33.333333333333336
-150.0   30.0   33.333333333333336
-150.0   60.0   33.333333333333336
-100.0   60.0   33.333333333333336
-150.0   60.0   16.666666666666668
-150.0   30.0   33.333333333333336
-100.0   60.0   33.333333333333336
-100.0   30.0   33.333333333333336
-100.0   30.0   16.666666666666668
-150.0   30.0   33.333333333333336
-100.0   60.0   33.333333333333336
-100.0   30.0   16.666666666666668
-150.0   60.0   16.666666666666668
-150.0   30.0   33.333333333333336
-100.0   30.0   33.333333333333336
-150.0   60.0   33.333333333333336
-150.0   30.0   50.0
-100.0   30.0   33.333333333333336
-100.0   60.0   33.333333333333336
-150.0   60.0   33.333333333333336
-100.0   60.0   50.0
-150.0   30.0   50.0
-150.0   60.0   50.0
-100.0   60.0   50.0
-150.0   60.0   33.333333333333336
-150.0   30.0   50.0
-100.0   60.0   50.0
-100.0   30.0   50.0
-100.0   30.0   33.333333333333336
-150.0   30.0   50.0
-100.0   60.0   50.0
-100.0   30.0   33.333333333333336
-150.0   60.0   33.333333333333336
-150.0   60.0   0.0
-100.0   60.0   0.0
-150.0   90.0   0.0
-150.0   60.0   16.666666666666668
-100.0   60.0   0.0
-100.0   90.0   0.0
-150.0   90.0   0.0
-100.0   90.0   16.666666666666668
-150.0   60.0   16.666666666666668
-150.0   90.0   16.666666666666668
-100.0   90.0   16.666666666666668
-150.0   90.0   0.0
-150.0   60.0   16.666666666666668
-100.0   90.0   16.666666666666668
-100.0   60.0   16.666666666666668
-100.0   60.0   0.0
-150.0   60.0   16.666666666666668
-100.0   90.0   16.666666666666668
-100.0   60.0   0.0
-150.0   90.0   0.0
-150.0   60.0   16.666666666666668
-100.0   60.0   16.666666666666668
-150.0   90.0   16.666666666666668
-150.0   60.0   33.333333333333336
-100.0   60.0   16.666666666666668
-100.0   90.0   16.666666666666668
-150.0   90.0   16.666666666666668
-100.0   90.0   33.333333333333336
-150.0   60.0   33.333333333333336
-150.0   90.0   33.333333333333336
-100.0   90.0   33.333333333333336
-150.0   90.0   16.666666666666668
-150.0   60.0   33.333333333333336
-100.0   90.0   33.333333333333336
-100.0   60.0   33.333333333333336
-100.0   60.0   16.666666666666668
-150.0   60.0   33.333333333333336
-100.0   90.0   33.333333333333336
-100.0   60.0   16.666666666666668
-150.0   90.0   16.666666666666668
-150.0   60.0   33.333333333333336
-100.0   60.0   33.333333333333336
-150.0   90.0   33.333333333333336
-150.0   60.0   50.0
-100.0   60.0   33.333333333333336
-100.0   90.0   33.333333333333336
-150.0   90.0   33.333333333333336
-100.0   90.0   50.0
-150.0   60.0   50.0
-150.0   90.0   50.0
-100.0   90.0   50.0
-150.0   90.0   33.333333333333336
-150.0   60.0   50.0
-100.0   90.0   50.0
-100.0   60.0   50.0
-100.0   60.0   33.333333333333336
-150.0   60.0   50.0
-100.0   90.0   50.0
-100.0   60.0   33.333333333333336
-150.0   90.0   33.333333333333336
-150.0   90.0   0.0
-100.0   90.0   0.0
-150.0   120.0   0.0
-150.0   90.0   16.666666666666668
-100.0   90.0   0.0
-100.0   120.0   0.0
-150.0   120.0   0.0
-100.0   120.0   16.666666666666668
-150.0   90.0   16.666666666666668
-150.0   120.0   16.666666666666668
-100.0   120.0   16.666666666666668
-150.0   120.0   0.0
-150.0   90.0   16.666666666666668
-100.0   120.0   16.666666666666668
-100.0   90.0   16.666666666666668
-100.0   90.0   0.0
-150.0   90.0   16.666666666666668
-100.0   120.0   16.666666666666668
-100.0   90.0   0.0
-150.0   120.0   0.0
-150.0   90.0   16.666666666666668
-100.0   90.0   16.666666666666668
-150.0   120.0   16.666666666666668
-150.0   90.0   33.333333333333336
-100.0   90.0   16.666666666666668
-100.0   120.0   16.666666666666668
-150.0   120.0   16.666666666666668
-100.0   120.0   33.333333333333336
-150.0   90.0   33.333333333333336
-150.0   120.0   33.333333333333336
-100.0   120.0   33.333333333333336
-150.0   120.0   16.666666666666668
-150.0   90.0   33.333333333333336
-100.0   120.0   33.333333333333336
-100.0   90.0   33.333333333333336
-100.0   90.0   16.666666666666668
-150.0   90.0   33.333333333333336
-100.0   120.0   33.333333333333336
-100.0   90.0   16.666666666666668
-150.0   120.0   16.666666666666668
-150.0   90.0   33.333333333333336
-100.0   90.0   33.333333333333336
-150.0   120.0   33.333333333333336
-150.0   90.0   50.0
-100.0   90.0   33.333333333333336
-100.0   120.0   33.333333333333336
-150.0   120.0   33.333333333333336
-100.0   120.0   50.0
-150.0   90.0   50.0
-150.0   120.0   50.0
-100.0   120.0   50.0
-150.0   120.0   33.333333333333336
-150.0   90.0   50.0
-100.0   120.0   50.0
-100.0   90.0   50.0
-100.0   90.0   33.333333333333336
-150.0   90.0   50.0
-100.0   120.0   50.0
-100.0   90.0   33.333333333333336
-150.0   120.0   33.333333333333336
-150.0   120.0   0.0
-100.0   120.0   0.0
-150.0   150.0   0.0
-150.0   120.0   16.666666666666668
-100.0   120.0   0.0
-100.0   150.0   0.0
-150.0   150.0   0.0
-100.0   150.0   16.666666666666668
-150.0   120.0   16.666666666666668
-150.0   150.0   16.666666666666668
-100.0   150.0   16.666666666666668
-150.0   150.0   0.0
-150.0   120.0   16.666666666666668
-100.0   150.0   16.666666666666668
-100.0   120.0   16.666666666666668
-100.0   120.0   0.0
-150.0   120.0   16.666666666666668
-100.0   150.0   16.666666666666668
-100.0   120.0   0.0
-150.0   150.0   0.0
-150.0   120.0   16.666666666666668
-100.0   120.0   16.666666666666668
-150.0   150.0   16.666666666666668
-150.0   120.0   33.333333333333336
-100.0   120.0   16.666666666666668
-100.0   150.0   16.666666666666668
-150.0   150.0   16.666666666666668
-100.0   150.0   33.333333333333336
-150.0   120.0   33.333333333333336
-150.0   150.0   33.333333333333336
-100.0   150.0   33.333333333333336
-150.0   150.0   16.666666666666668
-150.0   120.0   33.333333333333336
-100.0   150.0   33.333333333333336
-100.0   120.0   33.333333333333336
-100.0   120.0   16.666666666666668
-150.0   120.0   33.333333333333336
-100.0   150.0   33.333333333333336
-100.0   120.0   16.666666666666668
-150.0   150.0   16.666666666666668
-150.0   120.0   33.333333333333336
-100.0   120.0   33.333333333333336
-150.0   150.0   33.333333333333336
-150.0   120.0   50.0
-100.0   120.0   33.333333333333336
-100.0   150.0   33.333333333333336
-150.0   150.0   33.333333333333336
-100.0   150.0   50.0
-150.0   120.0   50.0
-150.0   150.0   50.0
-100.0   150.0   50.0
-150.0   150.0   33.333333333333336
-150.0   120.0   50.0
-100.0   150.0   50.0
-100.0   120.0   50.0
-100.0   120.0   33.333333333333336
-150.0   120.0   50.0
-100.0   150.0   50.0
-100.0   120.0   33.333333333333336
-150.0   150.0   33.333333333333336
-100.0   0.0   0.0
-50.0   0.0   0.0
-100.0   30.0   0.0
-100.0   0.0   16.666666666666668
-50.0   0.0   0.0
-50.0   30.0   0.0
-100.0   30.0   0.0
-50.0   30.0   16.666666666666668
-100.0   0.0   16.666666666666668
-100.0   30.0   16.666666666666668
-50.0   30.0   16.666666666666668
-100.0   30.0   0.0
-100.0   0.0   16.666666666666668
-50.0   30.0   16.666666666666668
-50.0   0.0   16.666666666666668
-50.0   0.0   0.0
-100.0   0.0   16.666666666666668
-50.0   30.0   16.666666666666668
-50.0   0.0   0.0
-100.0   30.0   0.0
-100.0   0.0   16.666666666666668
-50.0   0.0   16.666666666666668
-100.0   30.0   16.666666666666668
-100.0   0.0   33.333333333333336
-50.0   0.0   16.666666666666668
-50.0   30.0   16.666666666666668
-100.0   30.0   16.666666666666668
-50.0   30.0   33.333333333333336
-100.0   0.0   33.333333333333336
-100.0   30.0   33.333333333333336
-50.0   30.0   33.333333333333336
-100.0   30.0   16.666666666666668
-100.0   0.0   33.333333333333336
-50.0   30.0   33.333333333333336
-50.0   0.0   33.333333333333336
-50.0   0.0   16.666666666666668
-100.0   0.0   33.333333333333336
-50.0   30.0   33.333333333333336
-50.0   0.0   16.666666666666668
-100.0   30.0   16.666666666666668
-100.0   0.0   33.333333333333336
-50.0   0.0   33.333333333333336
-100.0   30.0   33.333333333333336
-100.0   0.0   50.0
-50.0   0.0   33.333333333333336
-50.0   30.0   33.333333333333336
-100.0   30.0   33.333333333333336
-50.0   30.0   50.0
-100.0   0.0   50.0
-100.0   30.0   50.0
-50.0   30.0   50.0
-100.0   30.0   33.333333333333336
-100.0   0.0   50.0
-50.0   30.0   50.0
-50.0   0.0   50.0
-50.0   0.0   33.333333333333336
-100.0   0.0   50.0
-50.0   30.0   50.0
-50.0   0.0   33.333333333333336
-100.0   30.0   33.333333333333336
-100.0   30.0   0.0
-50.0   30.0   0.0
-100.0   60.0   0.0
-100.0   30.0   16.666666666666668
-50.0   30.0   0.0
-50.0   60.0   0.0
-100.0   60.0   0.0
-50.0   60.0   16.666666666666668
-100.0   30.0   16.666666666666668
-100.0   60.0   16.666666666666668
-50.0   60.0   16.666666666666668
-100.0   60.0   0.0
-100.0   30.0   16.666666666666668
-50.0   60.0   16.666666666666668
-50.0   30.0   16.666666666666668
-50.0   30.0   0.0
-100.0   30.0   16.666666666666668
-50.0   60.0   16.666666666666668
-50.0   30.0   0.0
-100.0   60.0   0.0
-100.0   30.0   16.666666666666668
-50.0   30.0   16.666666666666668
-100.0   60.0   16.666666666666668
-100.0   30.0   33.333333333333336
-50.0   30.0   16.666666666666668
-50.0   60.0   16.666666666666668
-100.0   60.0   16.666666666666668
-50.0   60.0   33.333333333333336
-100.0   30.0   33.333333333333336
-100.0   60.0   33.333333333333336
-50.0   60.0   33.333333333333336
-100.0   60.0   16.666666666666668
-100.0   30.0   33.333333333333336
-50.0   60.0   33.333333333333336
-50.0   30.0   33.333333333333336
-50.0   30.0   16.666666666666668
-100.0   30.0   33.333333333333336
-50.0   60.0   33.333333333333336
-50.0   30.0   16.666666666666668
-100.0   60.0   16.666666666666668
-100.0   30.0   33.333333333333336
-50.0   30.0   33.333333333333336
-100.0   60.0   33.333333333333336
-100.0   30.0   50.0
-50.0   30.0   33.333333333333336
-50.0   60.0   33.333333333333336
-100.0   60.0   33.333333333333336
-50.0   60.0   50.0
-100.0   30.0   50.0
-100.0   60.0   50.0
-50.0   60.0   50.0
-100.0   60.0   33.333333333333336
-100.0   30.0   50.0
-50.0   60.0   50.0
-50.0   30.0   50.0
-50.0   30.0   33.333333333333336
-100.0   30.0   50.0
-50.0   60.0   50.0
-50.0   30.0   33.333333333333336
-100.0   60.0   33.333333333333336
-100.0   60.0   0.0
-50.0   60.0   0.0
-100.0   90.0   0.0
-100.0   60.0   16.666666666666668
-50.0   60.0   0.0
-50.0   90.0   0.0
-100.0   90.0   0.0
-50.0   90.0   16.666666666666668
-100.0   60.0   16.666666666666668
-100.0   90.0   16.666666666666668
-50.0   90.0   16.666666666666668
-100.0   90.0   0.0
-100.0   60.0   16.666666666666668
-50.0   90.0   16.666666666666668
-50.0   60.0   16.666666666666668
-50.0   60.0   0.0
-100.0   60.0   16.666666666666668
-50.0   90.0   16.666666666666668
-50.0   60.0   0.0
-100.0   90.0   0.0
-100.0   60.0   16.666666666666668
-50.0   60.0   16.666666666666668
-100.0   90.0   16.666666666666668
-100.0   60.0   33.333333333333336
-50.0   60.0   16.666666666666668
-50.0   90.0   16.666666666666668
-100.0   90.0   16.666666666666668
-50.0   90.0   33.333333333333336
-100.0   60.0   33.333333333333336
-100.0   90.0   33.333333333333336
-50.0   90.0   33.333333333333336
-100.0   90.0   16.666666666666668
-100.0   60.0   33.333333333333336
-50.0   90.0   33.333333333333336
-50.0   60.0   33.333333333333336
-50.0   60.0   16.666666666666668
-100.0   60.0   33.333333333333336
-50.0   90.0   33.333333333333336
-50.0   60.0   16.666666666666668
-100.0   90.0   16.666666666666668
-100.0   60.0   33.333333333333336
-50.0   60.0   33.333333333333336
-100.0   90.0   33.333333333333336
-100.0   60.0   50.0
-50.0   60.0   33.333333333333336
-50.0   90.0   33.333333333333336
-100.0   90.0   33.333333333333336
-50.0   90.0   50.0
-100.0   60.0   50.0
-100.0   90.0   50.0
-50.0   90.0   50.0
-100.0   90.0   33.333333333333336
-100.0   60.0   50.0
-50.0   90.0   50.0
-50.0   60.0   50.0
-50.0   60.0   33.333333333333336
-100.0   60.0   50.0
-50.0   90.0   50.0
-50.0   60.0   33.333333333333336
-100.0   90.0   33.333333333333336
-100.0   90.0   0.0
-50.0   90.0   0.0
-100.0   120.0   0.0
-100.0   90.0   16.666666666666668
-50.0   90.0   0.0
-50.0   120.0   0.0
-100.0   120.0   0.0
-50.0   120.0   16.666666666666668
-100.0   90.0   16.666666666666668
-100.0   120.0   16.666666666666668
-50.0   120.0   16.666666666666668
-100.0   120.0   0.0
-100.0   90.0   16.666666666666668
-50.0   120.0   16.666666666666668
-50.0   90.0   16.666666666666668
-50.0   90.0   0.0
-100.0   90.0   16.666666666666668
-50.0   120.0   16.666666666666668
-50.0   90.0   0.0
-100.0   120.0   0.0
-100.0   90.0   16.666666666666668
-50.0   90.0   16.666666666666668
-100.0   120.0   16.666666666666668
-100.0   90.0   33.333333333333336
-50.0   90.0   16.666666666666668
-50.0   120.0   16.666666666666668
-100.0   120.0   16.666666666666668
-50.0   120.0   33.333333333333336
-100.0   90.0   33.333333333333336
-100.0   120.0   33.333333333333336
-50.0   120.0   33.333333333333336
-100.0   120.0   16.666666666666668
-100.0   90.0   33.333333333333336
-50.0   120.0   33.333333333333336
-50.0   90.0   33.333333333333336
-50.0   90.0   16.666666666666668
-100.0   90.0   33.333333333333336
-50.0   120.0   33.333333333333336
-50.0   90.0   16.666666666666668
-100.0   120.0   16.666666666666668
-100.0   90.0   33.333333333333336
-50.0   90.0   33.333333333333336
-100.0   120.0   33.333333333333336
-100.0   90.0   50.0
-50.0   90.0   33.333333333333336
-50.0   120.0   33.333333333333336
-100.0   120.0   33.333333333333336
-50.0   120.0   50.0
-100.0   90.0   50.0
-100.0   120.0   50.0
-50.0   120.0   50.0
-100.0   120.0   33.333333333333336
-100.0   90.0   50.0
-50.0   120.0   50.0
-50.0   90.0   50.0
-50.0   90.0   33.333333333333336
-100.0   90.0   50.0
-50.0   120.0   50.0
-50.0   90.0   33.333333333333336
-100.0   120.0   33.333333333333336
-100.0   120.0   0.0
-50.0   120.0   0.0
-100.0   150.0   0.0
-100.0   120.0   16.666666666666668
-50.0   120.0   0.0
-50.0   150.0   0.0
-100.0   150.0   0.0
-50.0   150.0   16.666666666666668
-100.0   120.0   16.666666666666668
-100.0   150.0   16.666666666666668
-50.0   150.0   16.666666666666668
-100.0   150.0   0.0
-100.0   120.0   16.666666666666668
-50.0   150.0   16.666666666666668
-50.0   120.0   16.666666666666668
-50.0   120.0   0.0
-100.0   120.0   16.666666666666668
-50.0   150.0   16.666666666666668
-50.0   120.0   0.0
-100.0   150.0   0.0
-100.0   120.0   16.666666666666668
-50.0   120.0   16.666666666666668
-100.0   150.0   16.666666666666668
-100.0   120.0   33.333333333333336
-50.0   120.0   16.666666666666668
-50.0   150.0   16.666666666666668
-100.0   150.0   16.666666666666668
-50.0   150.0   33.333333333333336
-100.0   120.0   33.333333333333336
-100.0   150.0   33.333333333333336
-50.0   150.0   33.333333333333336
-100.0   150.0   16.666666666666668
-100.0   120.0   33.333333333333336
-50.0   150.0   33.333333333333336
-50.0   120.0   33.333333333333336
-50.0   120.0   16.666666666666668
-100.0   120.0   33.333333333333336
-50.0   150.0   33.333333333333336
-50.0   120.0   16.666666666666668
-100.0   150.0   16.666666666666668
-100.0   120.0   33.333333333333336
-50.0   120.0   33.333333333333336
-100.0   150.0   33.333333333333336
-100.0   120.0   50.0
-50.0   120.0   33.333333333333336
-50.0   150.0   33.333333333333336
-100.0   150.0   33.333333333333336
-50.0   150.0   50.0
-100.0   120.0   50.0
-100.0   150.0   50.0
-50.0   150.0   50.0
-100.0   150.0   33.333333333333336
-100.0   120.0   50.0
-50.0   150.0   50.0
-50.0   120.0   50.0
-50.0   120.0   33.333333333333336
-100.0   120.0   50.0
-50.0   150.0   50.0
-50.0   120.0   33.333333333333336
-100.0   150.0   33.333333333333336
-50.0   0.0   0.0
0.0   0.0   0.0
-50.0   30.0   0.0
-50.0   0.0   16.666666666666668
0.0   0.0   0.0
0.0   30.0   0.0
-50.0   30.0   0.0
0.0   30.0   16.666666666666668
-50.0   0.0   16.666666666666668
-50.0   30.0   16.666666666666668
0.0   30.0   16.666666666666668
-50.0   30.0   0.0
-50.0   0.0   16.666666666666668
0.0   30.0   16.666666666666668
0.0   0.0   16.666666666666668
0.0   0.0   0.0
-50.0   0.0   16.666666666666668
0.0   30.0   16.666666666666668
0.0   0.0   0.0
-50.0   30.0   0.0
-50.0   0.0   16.666666666666668
0.0   0.0   16.666666666666668
-50.0   30.0   16.666666666666668
-50.0   0.0   33.333333333333336
0.0   0.0   16.666666666666668
0.0   30.0   16.666666666666668
-50.0   30.0   16.666666666666668
0.0   30.0   33.333333333333336
-50.0   0.0   33.333333333333336
-50.0   30.0   33.333333333333336
0.0   30.0   33.333333333333336
-50.0   30.0   16.666666666666668
-50.0   0.0   33.333333333333336
0.0   30.0   33.333333333333336
0.0   0.0   33.333333333333336
0.0   0.0   16.666666666666668
-50.0   0.0   33.333333333333336
0.0   30.0   33.333333333333336
0.0   0.0   16.666666666666668
-50.0   30.0   16.666666666666668
-50.0   0.0   33.333333333333336
0.0   0.0   33.333333333333336
-50.0   30.0   33.333333333333336
-50.0   0.0   50.0
0.0   0.0   33.333333333333336
0.0   30.0   33.333333333333336
-50.0   30.0   33.333333333333336
0.0   30.0   50.0
-50.0   0.0   50.0
-50.0   30.0   50.0
0.0   30.0   50.0
-50.0   30.0   33.333333333333336
-50.0   0.0   50.0
0.0   30.0   50.0
0.0   0.0   50.0
0.0   0.0   33.333333333333336
-50.0   0.0   50.0
0.0   30.0   50.0
0.0   0.0   33.333333333333336
-50.0   30.0   33.333333333333336
-50.0   30.0   0.0
0.0   30.0   0.0
-50.0   60.0   0.0
-50.0   30.0   16.666666666666668
0.0   30.0   0.0
0.0   60.0   0.0
-50.0   60.0   0.0
0.0   60.0   16.666666666666668
-50.0   30.0   16.666666666666668
-50.0   60.0   16.666666666666668
0.0   60.0   16.666666666666668
-50.0   60.0   0.0
-50.0   30.0   16.666666666666668
0.0   60.0   16.666666666666668
0.0   30.0   16.666666666666668
0.0   30.0   0.0
-50.0   30.0   16.666666666666668
0.0   60.0   16.666666666666668
0.0   30.0   0.0
-50.0   60.0   0.0
-50.0   30.0   16.666666666666668
0.0   30.0   16.666666666666668
-50.0   60.0   16.666666666666668
-50.0   30.0   33.333333333333336
0.0   30.0   16.666666666666668
0.0   60.0   16.666666666666668
-50.0   60.0   16.666666666666668
0.0   60.0   33.333333333333336
-50.0   30.0   33.333333333333336
-50.0   60.0   33.333333333333336
0.0   60.0   33.333333333333336
-50.0   60.0   16.666666666666668
-50.0   30.0   33.333333333333336
0.0   60.0   33.333333333333336
0.0   30.0   33.333333333333336
0.0   30.0   16.666666666666668
-50.0   30.0   33.333333333333336
0.0   60.0   33.333333333333336
0.0   30.0   16.666666666666668
-50.0   60.0   16.666666666666668
-50.0   30.0   33.333333333333336
0.0   30.0   33.333333333333336
-50.0   60.0   33.333333333333336
-50.0   30.0   50.0
0.0   30.0   33.333333333333336
0.0   60.0   33.333333333333336
-50.0   60.0   33.333333333333336
0.0   60.0   50.0
-50.0   30.0   50.0
-50.0   60.0   50.0
0.0   60.0   50.0
-50.0   60.0   33.333333333333336
-50.0   30.0   50.0
0.0   60.0   50.0
0.0   30.0   50.0
0.0   30.0   33.333333333333336
-50.0   30.0   50.0
0.0   60.0   50.0
0.0   30.0   33.333333333333336
-50.0   60.0   33.333333333333336
-50.0   60.0   0.0
0.0   60.0   0.0
-50.0   90.0   0.0
-50.0   60.0   16.666666666666668
0.0   60.0   0.0
0.0   90.0   0.0
-50.0   90.0   0.0
0.0   90.0   16.666666666666668
-50.0   60.0   16.666666666666668
-50.0   90.0   16.666666666666668
0.0   90.0   16.666666666666668
-50.0   90.0   0.0
-50.0   60.0   16.666666666666668
0.0   90.0   16.666666666666668
0.0   60.0   16.666666666666668
0.0   60.0   0.0
-50.0   60.0   16.666666666666668
0.0   90.0   16.666666666666668
0.0   60.0   0.0
-50.0   90.0   0.0
-50.0   60.0   16.666666666666668
0.0   60.0   16.666666666666668
-50.0   90.0   16.666666666666668
-50.0   60.0   33.333333333333336
0.0   60.0   16.666666666666668
0.0   90.0   16.666666666666668
-50.0   90.0   16.666666666666668
0.0   90.0   33.333333333333336
-50.0   60.0   33.333333333333336
-50.0   90.0   33.333333333333336
0.0   90.0   33.333333333333336
-50.0   90.0   16.666666666666668
-50.0   60.0   33.333333333333336
0.0   90.0   33.333333333333336
0.0   60.0   33.333333333333336
0.0   60.0   16.666666666666668
-50.0   60.0   33.333333333333336
0.0   90.0   33.333333333333336
0.0   60.0   16.666666666666668
-50.0   90.0   16.666666666666668
-50.0   60.0   33.333333333333336
0.0   60.0   33.333333333333336
-50.0   90.0   33.333333333333336
-50.0   60.0   50.0
0.0   60.0   33.333333333333336
0.0   90.0   33.333333333333336
-50.0   90.0   33.333333333333336
0.0   90.0   50.0
-50.0   60.0   50.0
-50.0   90.0   50.0
0.0   90.0   50.0
-50.0   90.0   33.333333333333336
-50.0   60.0   50.0
0.0   90.0   50.0
0.0   60.0   50.0
0.0   60.0   33.333333333333336
-50.0   60.0   50.0
0.0   90.0   50.0
0.0   60.0   33.333333333333336
-50.0   90.0   33.333333333333336
-50.0   90.0   0.0
0.0   90.0   0.0
-50.0   120.0   0.0
-50.0   90.0   16.666666666666668
0.0   90.0   0.0
0.0   120.0   0.0
-50.0   120.0   0.0
0.0   120.0   16.666666666666668
-50.0   90.0   16.666666666666668
-50.0   120.0   16.666666666666668
0.0   120.0   16.666666666666668
-50.0   120.0   0.0
-50.0   90.0   16.666666666666668
0.0   120.0   16.666666666666668
0.0   90.0   16.666666666666668
0.0   90.0   0.0
-50.0   90.0   16.666666666666668
0.0   120.0   16.666666666666668
0.0   90.0   0.0
-50.0   120.0   0.0
-50.0   90.0   16.666666666666668
0.0   90.0   16.666666666666668
-50.0   120.0   16.666666666666668
-50.0   90.0   33.333333333333336
0.0   90.0   16.666666666666668
0.0   120.0   16.666666666666668
-50.0   120.0   16.666666666666668
0.0   120.0   33.333333333333336
-50.0   90.0   33.333333333333336
-50.0   120.0   33.333333333333336
0.0   120.0   33.333333333333336
-50.0   120.0   16.666666666666668
-50.0   90.0   33.333333333333336
0.0   120.0   33.333333333333336
0.0   90.0   33.333333333333336
0.0   90.0   16.666666666666668
-50.0   90.0   33.333333333333336
0.0   120.0   33.333333333333336
0.0   90.0   16.666666666666668
-50.0   120.0   16.666666666666668
-50.0   90.0   33.333333333333336
0.0   90.0   33.333333333333336
-50.0   120.0   33.333333333333336
-50.0   90.0   50.0
0.0   90.0   33.333333333333336
0.0   120.0   33.333333333333336
-50.0   120.0   33.333333333333336
0.0   120.0   50.0
-50.0   90.0   50.0
-50.0   120.0   50.0
0.0   120.0   50.0
-50.0   120.0   33.333333333333336
-50.0   90.0   50.0
0.0   120.0   50.0
0.0   90.0   50.0
0.0   90.0   33.333333333333336
-50.0   90.0   50.0
0.0   120.0   50.0
0.0   90.0   33.333333333333336
-50.0   120.0   33.333333333333336
-50.0   120.0   0.0
0.0   120.0   0.0
-50.0   150.0   0.0
-50.0   120.0   16.666666666666668
0.0   120.0   0.0
0.0   150.0   0.0
-50.0   150.0   0.0
0.0   150.0   16.666666666666668
-50.0   120.0   16.666666666666668
-50.0   150.0   16.666666666666668
0.0   150.0   16.666666666666668
-50.0   150.0   0.0
-50.0   120.0   16.666666666666668
0.0   150.0   16.666666666666668
0.0   120.0   16.666666666666668
0.0   120.0   0.0
-50.0   120.0   16.666666666666668
0.0   150.0   16.666666666666668
0.0   120.0   0.0
-50.0   150.0   0.0
-50.0   120.0   16.666666666666668
0.0   120.0   16.666666666666668
-50.0   150.0   16.666666666666668
-50.0   120.0   33.333333333333336
0.0   120.0   16.666666666666668
0.0   150.0   16.666666666666668
-50.0   150.0   16.666666666666668
0.0   150.0   33.333333333333336
-50.0   120.0   33.333333333333336
-50.0   150.0   33.333333333333336
0.0   150.0   33.333333333333336
-50.0   150.0   16.666666666666668
-50.0   120.0   33.333333333333336
0.0   150.0   33.333333333333336
0.0   120.0   33.333333333333336
0.0   120.0   16.666666666666668
-50.0   120.0   33.333333333333336
0.0   150.0   33.333333333333336
0.0   120.0   16.666666666666668
-50.0   150.0   16.666666666666668
-50.0   120.0   33.333333333333336
0.0   120.0   33.333333333333336
-50.0   150.0   33.333333333333336
-50.0   120.0   50.0
0.0   120.0   33.333333333333336
0.0   150.0   33.333333333333336
-50.0   150.0   33.333333333333336
0.0   150.0   50.0
-50.0   120.0   50.0
-50.0   150.0   50.0
0.0   150.0   50.0
-50.0   150.0   33.333333333333336
-50.0   120.0   50.0
0.0   150.0   50.0
0.0   120.0   50.0
0.0   120.0   33.333333333333336
-50.0   120.0   50.0
0.0   150.0   50.0
0.0   120.0   33.333333333333336
-50.0   150.0   33.333333333333336
0.0   0.0   0.0
50.0   0.0   0.0
0.0   30.0   0.0
0.0   0.0   16.666666666666668
50.0   0.0   0.0
50.0   30.0   0.0
0.0   30.0   0.0
50.0   30.0   16.666666666666668
0.0   0.0   16.666666666666668
0.0   30.0   16.666666666666668
50.0   30.0   16.666666666666668
0.0   30.0   0.0
0.0   0.0   16.666666666666668
50.0   30.0   16.666666666666668
50.0   0.0   16.666666666666668
50.0   0.0   0.0
0.0   0.0   16.666666666666668
50.0   30.0   16.666666666666668
50.0   0.0   0.0
0.0   30.0   0.0
0.0   0.0   16.666666666666668
50.0   0.0   16.666666666666668
0.0   30.0   16.666666666666668
0.0   0.0   33.333333333333336
50.0   0.0   16.666666666666668
50.0   30.0   16.666666666666668
0.0   30.0   16.666666666666668
50.0   30.0   33.333333333333336
0.0   0.0   33.333333333333336
0.0   30.0   33.333333333333336
50.0   30.0   33.333333333333336
0.0   30.0   16.666666666666668
0.0   0.0   33.333333333333336
50.0   30.0   33.333333333333336
50.0   0.0   33.333333333333336
50.0   0.0   16.666666666666668
0.0   0.0   33.333333333333336
50.0   30.0   33.333333333333336
50.0   0.0   16.666666666666668
0.0   30.0   16.666666666666668
0.0   0.0   33.333333333333336
50.0   0.0   33.333333333333336
0.0   30.0   33.333333333333336
0.0   0.0   50.0
50.0   0.0   33.333333333333336
50.0   30.0   33.333333333333336
0.0   30.0   33.333333333333336
50.0   30.0   50.0
0.0   0.0   50.0
0.0   30.0   50.0
50.0   30.0   50.0
0.0   30.0   33.333333333333336
0.0   0.0   50.0
50.0   30.0   50.0
50.0   0.0   50.0
50.0   0.0   33.333333333333336
0.0   0.0   50.0
50.0   30.0   50.0
50.0   0.0   33.333333333333336
0.0   30.0   33.333333333333336
0.0   30.0   0.0
50.0   30.0   0.0
0.0   60.0   0.0
0.0   30.0   16.666666666666668
50.0   30.0   0.0
50.0   60.0   0.0
0.0   60.0   0.0
50.0   60.0   16.666666666666668
0.0   30.0   16.666666666666668
0.0   60.0   16.666666666666668
50.0   60.0   16.666666666666668
0.0   60.0   0.0
0.0   30.0   16.666666666666668
50.0   60.0   16.666666666666668
50.0   30.0   16.666666666666668
50.0   30.0   0.0
0.0   30.0   16.666666666666668
50.0   60.0   16.666666666666668
50.0   30.0   0.0
0.0   60.0   0.0
0.0   30.0   16.666666666666668
50.0   30.0   16.666666666666668
0.0   60.0   16.666666666666668
0.0   30.0   33.333333333333336
50.0   30.0   16.666666666666668
50.0   60.0   16.666666666666668
0.0   60.0   16.666666666666668
50.0   60.0   33.333333333333336
0.0   30.0   33.333333333333336
0.0   60.0   33.333333333333336
50.0   60.0   33.333333333333336
0.0   60.0   16.666666666666668
0.0   30.0   33.333333333333336
50.0   60.0   33.333333333333336
50.0   30.0   33.333333333333336
50.0   30.0   16.666666666666668
0.0   30.0   33.333333333333336
50.0   60.0   33.333333333333336
50.0   30.0   16.666666666666668
0.0   60.0   16.666666666666668
0.0   30.0   33.333333333333336
50.0   30.0   33.333333333333336
0.0   60.0   33.333333333333336
0.0   30.0   50.0
50.0   30.0   33.333333333333336
50.0   60.0   33.333333333333336
0.0   60.0   33.333333333333336
50.0   60.0   50.0
0.0   30.0   50.0
0.0   60.0   50.0
50.0   60.0   50.0
0.0   60.0   33.333333333333336
0.0   30.0   50.0
50.0   60.0   50.0
50.0   30.0   50.0
50.0   30.0   33.333333333333336
0.0   30.0   50.0
50.0   60.0   50.0
50.0   30.0   33.333333333333336
0.0   60.0   33.333333333333336
0.0   60.0   0.0
50.0   60.0   0.0
0.0   90.0   0.0
0.0   60.0   16.666666666666668
50.0   60.0   0.0
50.0   90.0   0.0
0.0   90.0   0.0
50.0   90.0   16.666666666666668
0.0   60.0   16.666666666666668
0.0   90.0   16.666666666666668
50.0   90.0   16.666666666666668
0.0   90.0   0.0
0.0   60.0   16.666666666666668
50.0   90.0   16.666666666666668
50.0   60.0   16.666666666666668
50.0   60.0   0.0
0.0   60.0   16.666666666666668
50.0   90.0   16.666666666666668
50.0   60.0   0.0
0.0   90.0   0.0
0.0   60.0   16.666666666666668
50.0   60.0   16.666666666666668
0.0   90.0   16.666666666666668
0.0   60.0   33.333333333333336
50.0   60.0   16.666666666666668
50.0   90.0   16.666666666666668
0.0   90.0   16.666666666666668
50.0   90.0   33.333333333333336
0.0   60.0   33.333333333333336
0.0   90.0   33.333333333333336
50.0   90.0   33.333333333333336
0.0   90.0   16.666666666666668
0.0   60.0   33.333333333333336
50.0   90.0   33.333333333333336
50.0   60.0   33.333333333333336
50.0   60.0   16.666666666666668
0.0   60.0   33.333333333333336
50.0   90.0   33.333333333333336
50.0   60.0   16.666666666666668
0.0   90.0   16.666666666666668
0.0   60.0   33.333333333333336
50.0   60.0   33.333333333333336
0.0   90.0   33.333333333333336
0.0   60.0   50.0
50.0   60.0   33.333333333333336
50.0   90.0   33.333333333333336
0.0   90.0   33.333333333333336
50.0   90.0   50.0
0.0   60.0   50.0
0.0   90.0   50.0
50.0   90.0   50.0
0.0   90.0   33.333333333333336
0.0   60.0   50.0
50.0   90.0   50.0
50.0   60.0   50.0
50.0   60.0   33.333333333333336
0.0   60.0   50.0
50.0   90.0   50.0
50.0   60.0   33.333333333333336
0.0   90.0   33.333333333333336
0.0   90.0   0.0
50.0   90.0   0.0
0.0   120.0   0.0
0.0   90.0   16.666666666666668
50.0   90.0   0.0
50.0   120.0   0.0
0.0   120.0   0.0
50.0   120.0   16.666666666666668
0.0   90.0   16.666666666666668
0.0   120.0   16.666666666666668
50.0   120.0   16.666666666666668
0.0   120.0   0.0
0.0   90.0   16.666666666666668
50.0   120.0   16.666666666666668
50.0   90.0   16.666666666666668
50.0   90.0   0.0
0.0   90.0   16.666666666666668
50.0   120.0   16.666666666666668
50.0   90.0   0.0
0.0   120.0   0.0
0.0   90.0   16.666666666666668
50.0   90.0   16.666666666666668
0.0   120.0   16.666666666666668
0.0   90.0   33.333333333333336
50.0   90.0   16.666666666666668
50.0   120.0   16.666666666666668
0.0   120.0   16.666666666666668
50.0   120.0   33.333333333333336
0.0   90.0   33.333333333333336
0.0   120.0   33.333333333333336
50.0   120.0   33.333333333333336
0.0   120.0   16.666666666666668
0.0   90.0   33.333333333333336
50.0   120.0   33.333333333333336
50.0   90.0   33.333333333333336
50.0   90.0   16.666666666666668
0.0   90.0   33.333333333333336
50.0   120.0   33.333333333333336
50.0   90.0   16.666666666666668
0.0   120.0   16.666666666666668
0.0   90.0   33.333333333333336
50.0   90.0   33.333333333333336
0.0   120.0   33.333333333333336
0.0   90.0   50.0
50.0   90.0   33.333333333333336
50.0   120.0   33.333333333333336
0.0   120.0   33.333333333333336
50.0   120.0   50.0
0.0   90.0   50.0
0.0   120.0   50.0
50.0   120.0   50.0
0.0   120.0   33.333333333333336
0.0   90.0   50.0
50.0   120.0   50.0
50.0   90.0   50.0
50.0   90.0   33.333333333333336
0.0   90.0   50.0
50.0   120.0   50.0
50.0   90.0   33.333333333333336
0.0   120.0   33.333333333333336
0.0   120.0   0.0
50.0   120.0   0.0
0.0   150.0   0.0
0.0   120.0   16.666666666666668
50.0   120.0   0.0
50.0   150.0   0.0
0.0   150.0   0.0
50.0   150.0   16.666666666666668
0.0   120.0   16.666666666666668
0.0   150.0   16.666666666666668
50.0   150.0   16.666666666666668
0.0   150.0   0.0
0.0   120.0   16.666666666666668
50.0   150.0   16.666666666666668
50.0   120.0   16.666666666666668
50.0   120.0   0.0
0.0   120.0   16.666666666666668
50.0   150.0   16.666666666666668
50.0   120.0   0.0
0.0   150.0   0.0
0.0   120.0   16.666666666666668
50.0   120.0   16.666666666666668
0.0   150.0   16.666666666666668
0.0   120.0   33.333333333333336
50.0   120.0   16.666666666666668
50.0   150.0   16.666666666666668
0.0   150.0   16.666666666666668
50.0   150.0   33.333333333333336
0.0   120.0   33.333333333333336
0.0   150.0   33.333333333333336
50.0   150.0   33.333333333333336
0.0   150.0   16.666666666666668
0.0   120.0   33.333333333333336
50.0   150.0   33.333333333333336
50.0   120.0   33.333333333333336
50.0   120.0   16.666666666666668
0.0   120.0   33.333333333333336
50.0   150.0   33.333333333333336
50.0   120.0   16.666666666666668
0.0   150.0   16.666666666666668
0.0   120.0   33.333333333333336
50.0   120.0   33.333333333333336
0.0   150.0   33.333333333333336
0.0   120.0   50.0
50.0   120.0   33.333333333333336
50.0   150.0   33.333333333333336
0.0   150.0   33.333333333333336
50.0   150.0   50.0
0.0   120.0   50.0
0.0   150.0   50.0
50.0   150.0   50.0
0.0   150.0   33.333333333333336
0.0   120.0   50.0
50.0   150.0   50.0
50.0   120.0   50.0
50.0   120.0   33.333333333333336
0.0   120.0   50.0
50.0   150.0   50.0
50.0   120.0   33.333333333333336
0.0   150.0   33.333333333333336
50.0   0.0   0.0
100.0   0.0   0.0
50.0   30.0   0.0
50.0   0.0   16.666666666666668
100.0   0.0   0.0
100.0   30.0   0.0
50.0   30.0   0.0
100.0   30.0   16.666666666666668
50.0   0.0   16.666666666666668
50.0   30.0   16.666666666666668
100.0   30.0   16.666666666666668
50.0   30.0   0.0
50.0   0.0   16.666666666666668
100.0   30.0   16.666666666666668
100.0   0.0   16.666666666666668
100.0   0.0   0.0
50.0   0.0   16.666666666666668
100.0   30.0   16.666666666666668
100.0   0.0   0.0
50.0   30.0   0.0
50.0   0.0   16.666666666666668
100.0   0.0   16.666666666666668
50.0   30.0   16.666666666666668
50.0   0.0   33.333333333333336
100.0   0.0   16.666666666666668
100.0   30.0   16.666666666666668
50.0   30.0   16.666666666666668
100.0   30.0   33.333333333333336
50.0   0.0   33.333333333333336
50.0   30.0   33.333333333333336
100.0   30.0   33.333333333333336
50.0   30.0   16.666666666666668
50.0   0.0   33.333333333333336
100.0   30.0   33.333333333333336
100.0   0.0   33.333333333333336
100.0   0.0   16.666666666666668
50.0   0.0   33.333333333333336
100.0   30.0   33.333333333333336
100.0   0.0   16.666666666666668
50.0   30.0   16.666666666666668
50.0   0.0   33.333333333333336
100.0   0.0   33.333333333333336
50.0   30.0   33.333333333333336
50.0   0.0   50.0
100.0   0.0   33.333333333333336
100.0   30.0   33.333333333333336
50.0   30.0   33.333333333333336
100.0   30.0   50.0
50.0   0.0   50.0
50.0   30.0   50.0
100.0   30.0   50.0
50.0   30.0   33.333333333333336
50.0   0.0   50.0
100.0   30.0   50.0
100.0   0.0   50.0
100.0   0.0   33.333333333333336
50.0   0.0   50.0
100.0   30.0   50.0
100.0   0.0   33.333333333333336
50.0   30.0   33.333333333333336
50.0   30.0   0.0
100.0   30.0   0.0
50.0   60.0   0.0
50.0   30.0   16.666666666666668
100.0   30.0   0.0
100.0   60.0   0.0
50.0   60.0   0.0
100.0   60.0   16.666666666666668
50.0   30.0   16.666666666666668
50.0   60.0   16.666666666666668
100.0   60.0   16.666666666666668
50.0   60.0   0.0
50.0   30.0   16.666666666666668
100.0   60.0   16.666666666666668
100.0   30.0   16.666666666666668
100.0   30.0   0.0
50.0   30.0   16.666666666666668
100.0   60.0   16.666666666666668
100.0   30.0   0.0
50.0   60.0   0.0
50.0   30.0   16.666666666666668
100.0   30.0   16.666666666666668
50.0   60.0   16.666666666666668
50.0   30.0   33.333333333333336
100.0   30.0   16.666666666666668
100.0   60.0   16.666666666666668
50.0   60.0   16.666666666666668
100.0   60.0   33.333333333333336
50.0   30.0   33.333333333333336
50.0   60.0   33.333333333333336
100.0   60.0   33.333333333333336
50.0   60.0   16.666666666666668
50.0   30.0   33.333333333333336
100.0   60.0   33.333333333333336
100.0   30.0   33.333333333333336
100.0   30.0   16.666666666666668
50.0   30.0   33.333333333333336
100.0   60.0   33.333333333333336
100.0   30.0   16.666666666666668
50.0   60.0   16.666666666666668
50.0   30.0   33.333333333333336
100.0   30.0   33.333333333333336
50.0   60.0   33.333333333333336
50.0   30.0   50.0
100.0   30.0   33.333333333333336
100.0   60.0   33.333333333333336
50.0   60.0   33.333333333333336
100.0   60.0   50.0
50.0   30.0   50.0
50.0   60.0   50.0
100.0   60.0   50.0
50.0   60.0   33.333333333333336
50.0   30.0   50.0
100.0   60.0   50.0
100.0   30.0   50.0
100.0   30.0   33.333333333333336
50.0   30.0   50.0
100.0   60.0   50.0
100.0   30.0   33.333333333333336
50.0   60.0   33.333333333333336
50.0   60.0   0.0
100.0   60.0   0.0
50.0   90.0   0.0
50.0   60.0   16.666666666666668
100.0   60.0   0.0
100.0   90.0   0.0
50.0   90.0   0.0
100.0   90.0   16.666666666666668
50.0   60.0   16.666666666666668
50.0   90.0   16.666666666666668
100.0   90.0   16.666666666666668
50.0   90.0   0.0
50.0   60.0   16.666666666666668
100.0   90.0   16.666666666666668
100.0   60.0   16.666666666666668
100.0   60.0   0.0
50.0   60.0   16.666666666666668
100.0   90.0   16.666666666666668
100.0   60.0   0.0
50.0   90.0   0.0
50.0   60.0   16.666666666666668
100.0   60.0   16.666666666666668
50.0   90.0   16.666666666666668
50.0   60.0   33.333333333333336
100.0   60.0   16.666666666666668
100.0   90.0   16.666666666666668
50.0   90.0   16.666666666666668
100.0   90.0   33.333333333333336
50.0   60.0   33.333333333333336
50.0   90.0   33.333333333333336
100.0   90.0   33.333333333333336
50.0   90.0   16.666666666666668
50.0   60.0   33.333333333333336
100.0   90.0   33.333333333333336
100.0   60.0   33.333333333333336
100.0   60.0   16.666666666666668
50.0   60.0   33.333333333333336
100.0   90.0   33.333333333333336
100.0   60.0   16.666666666666668
50.0   90.0   16.666666666666668
50.0   60.0   33.333333333333336
100.0   60.0   33.333333333333336
50.0   90.0   33.333333333333336
50.0   60.0   50.0
100.0   60.0   33.333333333333336
100.0   90.0   33.333333333333336
50.0   90.0   33.333333333333336
100.0   90.0   50.0
50.0   60.0   50.0
50.0   90.0   50.0
100.0   90.0   50.0
50.0   90.0   33.333333333333336
50.0   60.0   50.0
100.0   90.0   50.0
100.0   60.0   50.0
100.0   60.0   33.333333333333336
50.0   60.0   50.0
100.0   90.0   50.0
100.0   60.0   33.333333333333336
50.0   90.0   33.333333333333336
50.0   90.0   0.0
100.0   90.0   0.0
50.0   120.0   0.0
50.0   90.0   16.666666666666668
100.0   90.0   0.0
100.0   120.0   0.0
50.0   120.0   0.0
100.0   120.0   16.666666666666668
50.0   90.0   16.666666666666668
50.0   120.0   16.666666666666668
100.0   120.0   16.666666666666668
50.0   120.0   0.0
50.0   90.0   16.666666666666668
100.0   120.0   16.666666666666668
100.0   90.0   16.666666666666668
100.0   90.0   0.0
50.0   90.0   16.666666666666668
100.0   120.0   16.666666666666668
100.0   90.0   0.0
50.0   120.0   0.0
50.0   90.0   16.666666666666668
100.0   90.0   16.666666666666668
50.0   120.0   16.666666666666668
50.0   90.0   33.333333333333336
100.0   90.0   16.666666666666668
100.0   120.0   16.666666666666668
50.0   120.0   16.666666666666668
100.0   120.0   33.333333333333336
50.0   90.0   33.333333333333336
50.0   120.0   33.333333333333336
100.0   120.0   33.333333333333336
50.0   120.0   16.666666666666668
50.0   90.0   33.333333333333336
100.0   120.0   33.333333333333336
100.0   90.0   33.333333333333336
100.0   90.0   16.666666666666668
50.0   90.0   33.333333333333336
100.0   120.0   33.333333333333336
100.0   90.0   16.666666666666668
50.0   120.0   16.666666666666668
50.0   90.0   33.333333333333336
100.0   90.0   33.333333333333336
50.0   120.0   33.333333333333336
50.0   90.0   50.0
100.0   90.0   33.333333333333336
100.0   120.0   33.333333333333336
50.0   120.0   33.333333333333336
100.0   120.0   50.0
50.0   90.0   50.0
50.0   120.0   50.0
100.0   120.0   50.0
50.0   120.0   33.333333333333336
50.0   90.0   50.0
100.0   120.0   50.0
100.0   90.0   50.0
100.0   90.0   33.333333333333336
50.0   90.0   50.0
100.0   120.0   50.0
100.0   90.0   33.333333333333336
50.0   120.0   33.333333333333336
50.0   120.0   0.0
100.0   120.0   0.0
50.0   150.0   0.0
50.0   120.0   16.666666666666668
100.0   120.0   0.0
100.0   150.0   0.0
50.0   150.0   0.0
100.0   150.0   16.666666666666668
50.0   120.0   16.666666666666668
50.0   150.0   16.666666666666668
100.0   150.0   16.666666666666668
50.0   150.0   0.0
50.0   120.0   16.666666666666668
100.0   150.0   16.666666666666668
100.0   120.0   16.666666666666668
100.0   120.0   0.0
50.0   120.0   16.666666666666668
100.0   150.0   16.666666666666668
100.0   120.0   0.0
50.0   150.0   0.0
50.0   120.0   16.666666666666668
100.0   120.0   16.666666666666668
50.0   150.0   16.666666666666668
50.0   120.0   33.333333333333336
100.0   120.0   16.666666666666668
100.0   150.0   16.666666666666668
50.0   150.0   16.666666666666668
100.0   150.0   33.333333333333336
50.0   120.0   33.333333333333336
50.0   150.0   33.333333333333336
100.0   150.0   33.333333333333336
50.0   150.0   16.666666666666668
50.0   120.0   33.333333333333336
100.0   150.0   33.333333333333336
100.0   120.0   33.333333333333336
100.0   120.0   16.666666666666668
50.0   120.0   33.333333333333336
100.0   150.0   33.333333333333336
100.0   120.0   16.666666666666668
50.0   150.0   16.666666666666668
50.0   120.0   33.333333333333336
100.0   120.0   33.333333333333336
50.0   150.0   33.333333333333336
50.0   120.0   50.0
100.0   120.0   33.333333333333336
100.0   150.0   33.333333333333336
50.0   150.0   33.333333333333336
100.0   150.0   50.0
50.0   120.0   50.0
50.0   150.0   50.0
100.0   150.0   50.0
50.0   150.0   33.333333333333336
50.0   120.0   50.0
100.0   150.0   50.0
100.0   120.0   50.0
100.0   120.0   33.333333333333336
50.0   120.0   50.0
100.0   150.0   50.0
100.0   120.0   33.333333333333336
50.0   150.0   33.333333333333336
100.0   0.0   0.0
150.0   0.0   0.0
100.0   30.0   0.0
100.0   0.0   16.666666666666668
150.0   0.0   0.0
150.0   30.0   0.0
100.0   30.0   0.0
150.0   30.0   16.666666666666668
100.0   0.0   16.666666666666668
100.0   30.0   16.666666666666668
150.0   30.0   16.666666666666668
100.0   30.0   0.0
100.0   0.0   16.666666666666668
150.0   30.0   16.666666666666668
150.0   0.0   16.666666666666668
150.0   0.0   0.0
100.0   0.0   16.666666666666668
150.0   30.0   16.666666666666668
150.0   0.0   0.0
100.0   30.0   0.0
100.0   0.0   16.666666666666668
150.0   0.0   16.666666666666668
100.0   30.0   16.666666666666668
100.0   0.0   33.333333333333336
150.0   0.0   16.666666666666668
150.0   30.0   16.666666666666668
100.0   30.0   16.666666666666668
150.0   30.0   33.333333333333336
100.0   0.0   33.333333333333336
100.0   30.0   33.333333333333336
150.0   30.0   33.333333333333336
100.0   30.0   16.666666666666668
100.0   0.0   33.333333333333336
150.0   30.0   33.333333333333336
150.0   0.0   33.333333333333336
150.0   0.0   16.666666666666668
100.0   0.0   33.333333333333336
150.0   30.0   33.333333333333336
150.0   0.0   16.666666666666668
100.0   30.0   16.666666666666668
100.0   0.0   33.333333333333336
150.0   0.0   33.333333333333336
100.0   30.0   33.333333333333336
100.0   0.0   50.0
150.0   0.0   33.333333333333336
150.0   30.0   33.333333333333336
100.0   30.0   33.333333333333336
150.0   30.0   50.0
100.0   0.0   50.0
100.0   30.0   50.0
150.0   30.0   50.0
100.0   30.0   33.333333333333336
100.0   0.0   50.0
150.0   30.0   50.0
150.0   0.0   50.0
150.0   0.0   33.333333333333336
100.0   0.0   50.0
150.0   30.0   50.0
150.0   0.0   33.333333333333336
100.0   30.0   33.333333333333336
100.0   30.0   0.0
150.0   30.0   0.0
100.0   60.0   0.0
100.0   30.0   16.666666666666668
150.0   30.0   0.0
150.0   60.0   0.0
100.0   60.0   0.0
150.0   60.0   16.666666666666668
100.0   30.0   16.666666666666668
100.0   60.0   16.666666666666668
150.0   60.0   16.666666666666668
100.0   60.0   0.0
100.0   30.0   16.666666666666668
150.0   60.0   16.666666666666668
150.0   30.0   16.666666666666668
150.0   30.0   0.0
100.0   30.0   16.666666666666668
150.0   60.0   16.666666666666668
150.0   30.0   0.0
100.0   60.0   0.0
100.0   30.0   16.666666666666668
150.0   30.0   16.666666666666668
100.0   60.0   16.666666666666668
100.0   30.0   33.333333333333336
150.0   30.0   16.666666666666668
150.0   60.0   16.666666666666668
100.0   60.0   16.666666666666668
150.0   60.0   33.333333333333336
100.0   30.0   33.333333333333336
100.0   60.0   33.333333333333336
150.0   60.0   33.333333333333336
100.0   60.0   16.666666666666668
100.0   30.0   33.333333333333336
150.0   60.0   33.333333333333336
150.0   30.0   33.333333333333336
150.0   30.0   16.666666666666668
100.0   30.0   33.333333333333336
150.0   60.0   33.333333333333336
150.0   30.0   16.666666666666668
100.0   60.0   16.666666666666668
100.0   30.0   33.333333333333336
150.0   30.0   33.333333333333336
100.0   60.0   33.333333333333336
100.0   30.0   50.0
150.0   30.0   33.333333333333336
150.0   60.0   33.333333333333336
100.0   60.0   33.333333333333336
150.0   60.0   50.0
100.0   30.0   50.0
100.0   60.0   50.0
150.0   60.0   50.0
100.0   60.0   33.333333333333336
100.0   30.0   50.0
150.0   60.0   50.0
150.0   30.0   50.0
150.0   30.0   33.333333333333336
100.0   30.0   50.0
150.0   60.0   50.0
150.0   30.0   33.333333333333336
100.0   60.0   33.333333333333336
100.0   60.0   0.0
150.0   60.0   0.0
100.0   90.0   0.0
100.0   60.0   16.666666666666668
150.0   60.0   0.0
150.0   90.0   0.0
100.0   90.0   0.0
150.0   90.0   16.666666666666668
100.0   60.0   16.666666666666668
100.0   90.0   16.666666666666668
150.0   90.0   16.666666666666668
100.0   90.0   0.0
100.0   60.0   16.666666666666668
150.0   90.0   16.666666666666668
150.0   60.0   16.666666666666668
150.0   60.0   0.0
100.0   60.0   16.666666666666668
150.0   90.0   16.666666666666668
150.0   60.0   0.0
100.0   90.0   0.0
100.0   60.0   16.666666666666668
150.0   60.0   16.666666666666668
100.0   90.0   16.666666666666668
100.0   60.0   33.333333333333336
150.0   60.0   16.666666666666668
150.0   90.0   16.666666666666668
100.0   90.0   16.666666666666668
150.0   90.0   33.333333333333336
100.0   60.0   33.333333333333336
100.0   90.0   33.333333333333336
150.0   90.0   33.333333333333336
100.0   90.0   16.666666666666668
100.0   60.0   33.333333333333336
150.0   90.0   33.333333333333336
150.0   60.0   33.333333333333336
150.0   60.0   16.666666666666668
100.0   60.0   33.333333333333336
150.0   90.0   33.333333333333336
150.0   60.0   16.666666666666668
100.0   90.0   16.666666666666668
100.0   60.0   33.333333333333336
150.0   60.0   33.333333333333336
100.0   90.0   33.333333333333336
100.0   60.0   50.0
150.0   60.0   33.333333333333336
150.0   90.0   33.333333333333336
100.0   90.0   33.333333333333336
150.0   90.0   50.0
100.0   60.0   50.0
100.0   90.0   50.0
150.0   90.0   50.0
100.0   90.0   33.333333333333336
100.0   60.0   50.0
150.0   90.0   50.0
150.0   60.0   50.0
150.0   60.0   33.333333333333336
100.0   60.0   50.0
150.0   90.0   50.0
150.0   60.0   33.333333333333336
100.0   90.0   33.333333333333336
100.0   90.0   0.0
150.0   90.0   0.0
100.0   120.0   0.0
100.0   90.0   16.666666666666668
150.0   90.0   0.0
150.0   120.0   0.0
100.0   120.0   0.0
150.0   120.0   16.666666666666668
100.0   90.0   16.666666666666668
100.0   120.0   16.666666666666668
150.0   120.0   16.666666666666668
100.0   120.0   0.0
100.0   90.0   16.666666666666668
150.0   120.0   16.666666666666668
150.0   90.0   16.666666666666668
150.0   90.0   0.0
100.0   90.0   16.666666666666668
150.0   120.0   16.666666666666668
150.0   90.0   0.0
100.0   120.0   0.0
100.0   90.0   16.666666666666668
150.0   90.0   16.666666666666668
100.0   120.0   16.666666666666668
100.0   90.0   33.333333333333336
150.0   90.0   16.666666666666668
150.0   120.0   16.666666666666668
100.0   120.0   16.666666666666668
150.0   120.0   33.333333333333336
100.0   90.0   33.333333333333336
100.0   120.0   33.333333333333336
150.0   120.0   33.333333333333336
100.0   120.0   16.666666666666668
100.0   90.0   33.333333333333336
150.0   120.0   33.333333333333336
150.0   90.0   33.333333333333336
150.0   90.0   16.666666666666668
100.0   90.0   33.333333333333336
150.0   120.0   33.333333333333336
150.0   90.0   16.666666666666668
100.0   120.0   16.666666666666668
100.0   90.0   33.333333333333336
150.0   90.0   33.333333333333336
100.0   120.0   33.333333333333336
100.0   90.0   50.0
150.0   90.0   33.333333333333336
150.0   120.0   33.333333333333336
100.0   120.0   33.333333333333336
150.0   120.0   50.0
100.0   90.0   50.0
100.0   120.0   50.0
150.0   120.0   50.0
100.0   120.0   33.333333333333336
100.0   90.0   50.0
150.0   120.0   50.0
150.0   90.0   50.0
150.0   90.0   33.333333333333336
100.0   90.0   50.0
150.0   120.0   50.0
150.0   90.0   33.333333333333336
100.0   120.0   33.333333333333336
100.0   120.0   0.0
150.0   120.0   0.0
100.0   150.0   0.0
100.0   120.0   16.666666666666668
150.0   120.0   0.0
150.0   150.0   0.0
100.0   150.0   0.0
150.0   150.0   16.666666666666668
100.0   120.0   16.666666666666668
100.0   150.0   16.666666666666668
150.0   150.0   16.666666666666668
100.0   150.0   0.0
100.0   120.0   16.666666666666668
150.0   150.0   16.666666666666668
150.0   120.0   16.666666666666668
150.0   120.0   0.0
100.0   120.0   16.666666666666668
150.0   150.0   16.666666666666668
150.0   120.0   0.0
100.0   150.0   0.0
100.0   120.0   16.666666666666668
150.0   120.0   16.666666666666668
100.0   150.0   16.666666666666668
100.0   120.0   33.333333333333336
150.0   120.0   16.666666666666668
150.0   150.0   16.666666666666668
100.0   150.0   16.666666666666668
150.0   150.0   33.333333333333336
100.0   120.0   33.333333333333336
100.0   150.0   33.333333333333336
150.0   150.0   33.333333333333336
100.0   150.0   16.666666666666668
100.0   120.0   33.333333333333336
150.0   150.0   33.333333333333336
150.0   120.0   33.333333333333336
150.0   120.0   16.666666666666668
100.0   120.0   33.333333333333336
150.0   150.0   33.333333333333336
150.0   120.0   16.666666666666668
100.0   150.0   16.666666666666668
100.0   120.0   33.333333333333336
150.0   120.0   33.333333333333336
100.0   150.0   33.333333333333336
100.0   120.0   50.0
150.0   120.0   33.333333333333336
150.0   150.0   33.333333333333336
100.0   150.0   33.333333333333336
150.0   150.0   50.0
100.0   120.0   50.0
100.0   150.0   50.0
150.0   150.0   50.0
100.0   150.0   33.333333333333336
100.0   120.0   50.0
150.0   150.0   50.0
150.0   120.0   50.0
150.0   120.0   33.333333333333336
100.0   120.0   50.0
150.0   150.0   50.0
150.0   120.0   33.333333333333336
100.0   150.0   33.333333333333336
150.0   0.0   0.0
200.0   0.0   0.0
150.0   30.0   0.0
150.0   0.0   16.666666666666668
200.0   0.0   0.0
200.0   30.0   0.0
150.0   30.0   0.0
200.0   30.0   16.666666666666668
150.0   0.0   16.666666666666668
150.0   30.0   16.666666666666668
200.0   30.0   16.666666666666668
150.0   30.0   0.0
150.0   0.0   16.666666666666668
200.0   30.0   16.666666666666668
200.0   0.0   16.666666666666668
200.0   0.0   0.0
150.0   0.0   16.666666666666668
200.0   30.0   16.666666666666668
200.0   0.0   0.0
150.0   30.0   0.0
150.0   0.0   16.666666666666668
200.0   0.0   16.666666666666668
150.0   30.0   16.666666666666668
150.0   0.0   33.333333333333336
200.0   0.0   16.666666666666668
200.0   30.0   16.666666666666668
150.0   30.0   16.666666666666668
200.0   30.0   33.333333333333336
150.0   0.0   33.333333333333336
150.0   30.0   33.333333333333336
200.0   30.0   33.333333333333336
150.0   30.0   16.666666666666668
150.0   0.0   33.333333333333336
200.0   30.0   33.333333333333336
200.0   0.0   33.333333333333336
200.0   0.0   16.666666666666668
150.0   0.0   33.333333333333336
200.0   30.0   33.333333333333336
200.0   0.0   16.666666666666668
150.0   30.0   16.666666666666668
150.0   0.0   33.333333333333336
200.0   0.0   33.333333333333336
150.0   30.0   33.333333333333336
150.0   0.0   50.0
200.0   0.0   33.333333333333336
200.0   30.0   33.333333333333336
150.0   30.0   33.333333333333336
200.0   30.0   50.0
150.0   0.0   50.0
150.0   30.0   50.0
200.0   30.0   50.0
150.0   30.0   33.333333333333336
150.0   0.0   50.0
200.0   30.0   50.0
200.0   0.0   50.0
200.0   0.0   33.333333333333336
150.0   0.0   50.0
200.0   30.0   50.0
200.0   0.0   33.333333333333336
150.0   30.0   33.333333333333336
150.0   30.0   0.0
200.0   30.0   0.0
150.0   60.0   0.0
150.0   30.0   16.666666666666668
200.0   30.0   0.0
200.0   60.0   0.0
150.0   60.0   0.0
200.0   60.0   16.666666666666668
150.0   30.0   16.666666666666668
150.0   60.0   16.666666666666668
200.0   60.0   16.666666666666668
150.0   60.0   0.0
150.0   30.0   16.666666666666668
200.0   60.0   16.666666666666668
200.0   30.0   16.666666666666668
200.0   30.0   0.0
150.0   30.0   16.666666666666668
200.0   60.0   16.666666666666668
200.0   30.0   0.0
150.0   60.0   0.0
150.0   30.0   16.666666666666668
200.0   30.0   16.666666666666668
150.0   60.0   16.666666666666668
150.0   30.0   33.333333333333336
200.0   30.0   16.666666666666668
200.0   60.0   16.666666666666668
150.0   60.0   16.666666666666668
200.0   60.0   33.333333333333336
150.0   30.0   33.333333333333336
150.0   60.0   33.333333333333336
200.0   60.0   33.333333333333336
150.0   60.0   16.666666666666668
150.0   30.0   33.333333333333336
200.0   60.0   33.333333333333336
200.0   30.0   33.333333333333336
200.0   30.0   16.666666666666668
150.0   30.0   33.333333333333336
200.0   60.0   33.333333333333336
200.0   30.0   16.666666666666668
150.0   60.0   16.666666666666668
150.0   30.0   33.333333333333336
200.0   30.0   33.333333333333336
150.0   60.0   33.333333333333336
150.0   30.0   50.0
200.0   30.0   33.333333333333336
200.0   60.0   33.333333333333336
150.0   60.0   33.333333333333336
200.0   60.0   50.0
150.0   30.0   50.0
150.0   60.0   50.0
200.0   60.0   50.0
150.0   60.0   33.333333333333336
150.0   30.0   50.0
200.0   60.0   50.0
200.0   30.0   50.0
200.0   30.0   33.333333333333336
150.0   30.0   50.0
200.0   60.0   50.0
200.0   30.0   33.333333333333336
150.0   60.0   33.333333333333336
150.0   60.0   0.0
200.0   60.0   0.0
150.0   90.0   0.0
150.0   60.0   16.666666666666668
200.0   60.0   0.0
200.0   90.0   0.0
150.0   90.0   0.0
200.0   90.0   16.666666666666668
150.0   60.0   16.666666666666668
150.0   90.0   16.666666666666668
200.0   90.0   16.666666666666668
150.0   90.0   0.0
150.0   60.0   16.666666666666668
200.0   90.0   16.666666666666668
200.0   60.0   16.666666666666668
200.0   60.0   0.0
150.0   60.0   16.666666666666668
200.0   90.0   16.666666666666668
200.0   60.0   0.0
150.0   90.0   0.0
150.0   60.0   16.666666666666668
200.0   60.0   16.666666666666668
150.0   90.0   16.666666666666668
150.0   60.0   33.333333333333336
200.0   60.0   16.666666666666668
200.0   90.0   16.666666666666668
150.0   90.0   16.666666666666668
200.0   90.0   33.333333333333336
150.0   60.0   33.333333333333336
150.0   90.0   33.333333333333336
200.0   90.0   33.333333333333336
150.0   90.0   16.666666666666668
150.0   60.0   33.333333333333336
200.0   90.0   33.333333333333336
200.0   60.0   33.333333333333336
200.0   60.0   16.666666666666668
150.0   60.0   33.333333333333336
200.0   90.0   33.333333333333336
200.0   60.0   16.666666666666668
150.0   90.0   16.666666666666668
150.0   60.0   33.333333333333336
200.0   60.0   33.333333333333336
150.0   90.0   33.333333333333336
150.0   60.0   50.0
200.0   60.0   33.333333333333336
200.0   90.0   33.333333333333336
150.0   90.0   33.333333333333336
200.0   90.0   50.0
150.0   60.0   50.0
150.0   90.0   50.0
200.0   90.0   50.0
150.0   90.0   33.333333333333336
150.0   60.0   50.0
200.0   90.0   50.0
200.0   60.0   50.0
200.0   60.0   33.333333333333336
150.0   60.0   50.0
200.0   90.0   50.0
200.0   60.0   33.333333333333336
150.0   90.0   33.333333333333336
150.0   90.0   0.0
200.0   90.0   0.0
150.0   120.0   0.0
150.0   90.0   16.666666666666668
200.0   90.0   0.0
200.0   120.0   0.0
150.0   120.0   0.0
200.0   120.0   16.666666666666668
150.0   90.0   16.666666666666668
150.0   120.0   16.666666666666668
200.0   120.0   16.666666666666668
150.0   120.0   0.0
150.0   90.0   16.666666666666668
200.0   120.0   16.666666666666668
200.0   90.0   16.666666666666668
200.0   90.0   0.0
150.0   90.0   16.666666666666668
200.0   120.0   16.666666666666668
200.0   90.0   0.0
150.0   120.0   0.0
150.0   90.0   16.666666666666668
200.0   90.0   16.666666666666668
150.0   120.0   16.666666666666668
150.0   90.0   33.333333333333336
200.0   90.0   16.666666666666668
200.0   120.0   16.666666666666668
150.0   120.0   16.666666666666668
200.0   120.0   33.333333333333336
150.0   90.0   33.333333333333336
150.0   120.0   33.333333333333336
200.0   120.0   33.333333333333336
150.0   120.0   16.666666666666668
150.0   90.0   33.333333333333336
200.0   120.0   33.333333333333336
200.0   90.0   33.333333333333336
200.0   90.0   16.666666666666668
150.0   90.0   33.333333333333336
200.0   120.0   33.333333333333336
200.0   90.0   16.666666666666668
150.0   120.0   16.666666666666668
150.0   90.0   33.333333333333336
200.0   90.0   33.333333333333336
150.0   120.0   33.333333333333336
150.0   90.0   50.0
200.0   90.0   33.333333333333336
200.0   120.0   33.333333333333336
150.0   120.0   33.333333333333336
200.0   120.0   50.0
150.0   90.0   50.0
150.0   120.0   50.0
200.0   120.0   50.0
150.0   120.0   33.333333333333336
150.0   90.0   50.0
200.0   120.0   50.0
200.0   90.0   50.0
200.0   90.0   33.333333333333336
150.0   90.0   50.0
200.0   120.0   50.0
200.0   90.0   33.333333333333336
150.0   120.0   33.333333333333336
150.0   120.0   0.0
200.0   120.0   0.0
150.0   150.0   0.0
150.0   120.0   16.666666666666668
200.0   120.0   0.0
200.0   150.0   0.0
150.0   150.0   0.0
200.0   150.0   16.666666666666668
150.0   120.0   16.666666666666668
150.0   150.0   16.666666666666668
200.0   150.0   16.666666666666668
150.0   150.0   0.0
150.0   120.0   16.666666666666668
200.0   150.0   16.666666666666668
200.0   120.0   16.666666666666668
200.0   120.0   0.0
150.0   120.0   16.666666666666668
200.0   150.0   16.666666666666668
200.0   120.0   0.0
150.0   150.0   0.0
150.0   120.0   16.666666666666668
200.0   120.0   16.666666666666668
150.0   150.0   16.666666666666668
150.0   120.0   33.333333333333336
200.0   120.0   16.666666666666668
200.0   150.0   16.666666666666668
150.0   150.0   16.666666666666668
200.0   150.0   33.333333333333336
150.0   120.0   33.333333333333336
150.0   150.0   33.333333333333336
200.0   150.0   33.333333333333336
150.0   150.0   16.666666666666668
150.0   120.0   33.333333333333336
200.0   150.0   33.333333333333336
200.0   120.0   33.333333333333336
200.0   120.0   16.666666666666668
150.0   120.0   33.333333333333336
200.0   150.0   33.333333333333336
200.0   120.0   16.666666666666668
150.0   150.0   16.666666666666668
150.0   120.0   33.333333333333336
200.0   120.0   33.333333333333336
150.0   150.0   33.333333333333336
150.0   120.0   50.0
200.0   120.0   33.333333333333336
200.0   150.0   33.333333333333336
150.0   150.0   33.333333333333336
200.0   150.0   50.0
150.0   120.0   50.0
150.0   150.0   50.0
200.0   150.0   50.0
150.0   150.0   33.333333333333336
150.0   120.0   50.0
200.0   150.0   50.0
200.0   120.0   50.0
200.0   120.0   33.333333333333336
150.0   120.0   50.0
200.0   150.0   50.0
200.0   120.0   33.333333333333336
150.0   150.0   33.333333333333336
200.0   0.0   0.0
250.0   0.0   0.0
200.0   30.0   0.0
200.0   0.0   16.666666666666668
250.0   0.0   0.0
250.0   30.0   0.0
200.0   30.0   0.0
250.0   30.0   16.666666666666668
200.0   0.0   16.666666666666668
200.0   30.0   16.666666666666668
250.0   30.0   16.666666666666668
200.0   30.0   0.0
200.0   0.0   16.666666666666668
250.0   30.0   16.666666666666668
250.0   0.0   16.666666666666668
250.0   0.0   0.0
200.0   0.0   16.666666666666668
250.0   30.0   16.666666666666668
250.0   0.0   0.0
200.0   30.0   0.0
200.0   0.0   16.666666666666668
250.0   0.0   16.666666666666668
200.0   30.0   16.666666666666668
200.0   0.0   33.333333333333336
250.0   0.0   16.666666666666668
250.0   30.0   16.666666666666668
200.0   30.0   16.666666666666668
250.0   30.0   33.333333333333336
200.0   0.0   33.333333333333336
200.0   30.0   33.333333333333336
250.0   30.0   33.333333333333336
200.0   30.0   16.666666666666668
200.0   0.0   33.333333333333336
250.0   30.0   33.333333333333336
250.0   0.0   33.333333333333336
250.0   0.0   16.666666666666668
200.0   0.0   33.333333333333336
250.0   30.0   33.333333333333336
250.0   0.0   16.666666666666668
200.0   30.0   16.666666666666668
200.0   0.0   33.333333333333336
250.0   0.0   33.333333333333336
200.0   30.0   33.333333333333336
200.0   0.0   50.0
250.0   0.0   33.333333333333336
250.0   30.0   33.333333333333336
200.0   30.0   33.333333333333336
250.0   30.0   50.0
200.0   0.0   50.0
200.0   30.0   50.0
250.0   30.0   50.0
200.0   30.0   33.333333333333336
200.0   0.0   50.0
250.0   30.0   50.0
250.0   0.0   50.0
250.0   0.0   33.333333333333336
200.0   0.0   50.0
250.0   30.0   50.0
250.0   0.0   33.333333333333336
200.0   30.0   33.333333333333336
200.0   30.0   0.0
250.0   30.0   0.0
200.0   60.0   0.0
200.0   30.0   16.666666666666668
250.0   30.0   0.0
250.0   60.0   0.0
200.0   60.0   0.0
250.0   60.0   16.666666666666668
200.0   30.0   16.666666666666668
200.0   60.0   16.666666666666668
250.0   60.0   16.666666666666668
200.0   60.0   0.0
200.0   30.0   16.666666666666668
250.0   60.0   16.666666666666668
250.0   30.0   16.666666666666668
250.0   30.0   0.0
200.0   30.0   16.666666666666668
250.0   60.0   16.666666666666668
250.0   30.0   0.0
200.0   60.0   0.0
200.0   30.0   16.666666666666668
250.0   30.0   16.666666666666668
200.0   60.0   16.666666666666668
200.0   30.0   33.333333333333336
250.0   30.0   16.666666666666668
250.0   60.0   16.666666666666668
200.0   60.0   16.666666666666668
250.0   60.0   33.333333333333336
200.0   30.0   33.333333333333336
200.0   60.0   33.333333333333336
250.0   60.0   33.333333333333336
200.0   60.0   16.666666666666668
200.0   30.0   33.333333333333336
250.0   60.0   33.333333333333336
250.0   30.0   33.333333333333336
250.0   30.0   16.666666666666668
200.0   30.0   33.333333333333336
250.0   60.0   33.333333333333336
250.0   30.0   16.666666666666668
200.0   60.0   16.666666666666668
200.0   30.0   33.333333333333336
250.0   30.0   33.333333333333336
200.0   60.0   33.333333333333336
200.0   30.0   50.0
250.0   30.0   33.333333333333336
250.0   60.0   33.333333333333336
200.0   60.0   33.333333333333336
250.0   60.0   50.0
200.0   30.0   50.0
200.0   60.0   50.0
250.0   60.0   50.0
200.0   60.0   33.333333333333336
200.0   30.0   50.0
250.0   60.0   50.0
250.0   30.0   50.0
250.0   30.0   33.333333333333336
200.0   30.0   50.0
250.0   60.0   50.0
250.0   30.0   33.333333333333336
200.0   60.0   33.333333333333336
200.0   60.0   0.0
250.0   60.0   0.0
200.0   90.0   0.0
200.0   60.0   16.666666666666668
250.0   60.0   0.0
250.0   90.0   0.0
200.0   90.0   0.0
250.0   90.0   16.666666666666668
200.0   60.0   16.666666666666668
200.0   90.0   16.666666666666668
250.0   90.0   16.666666666666668
200.0   90.0   0.0
200.0   60.0   16.666666666666668
250.0   90.0   16.666666666666668
250.0   60.0   16.666666666666668
250.0   60.0   0.0
200.0   60.0   16.666666666666668
250.0   90.0   16.666666666666668
250.0   60.0   0.0
200.0   90.0   0.0
200.0   60.0   16.666666666666668
250.0   60.0   16.666666666666668
200.0   90.0   16.666666666666668
200.0   60.0   33.333333333333336
250.0   60.0   16.666666666666668
250.0   90.0   16.666666666666668
200.0   90.0   16.666666666666668
250.0   90.0   33.333333333333336
200.0   60.0   33.333333333333336
200.0   90.0   33.333333333333336
250.0   90.0   33.333333333333336
200.0   90.0   16.666666666666668
200.0   60.0   33.333333333333336
250.0   90.0   33.333333333333336
250.0   60.0   33.333333333333336
250.0   60.0   16.666666666666668
200.0   60.0   33.333333333333336
250.0   90.0   33.333333333333336
250.0   60.0   16.666666666666668
200.0   90.0   16.666666666666668
200.0   60.0   33.333333333333336
250.0   60.0   33.333333333333336
200.0   90.0   33.333333333333336
200.0   60.0   50.0
250.0   60.0   33.333333333333336
250.0   90.0   33.333333333333336
200.0   90.0   33.333333333333336
250.0   90.0   50.0
200.0   60.0   50.0
200.0   90.0   50.0
250.0   90.0   50.0
200.0   90.0   33.333333333333336
200.0   60.0   50.0
250.0   90.0   50.0
250.0   60.0   50.0
250.0   60.0   33.333333333333336
200.0   60.0   50.0
250.0   90.0   50.0
250.0   60.0   33.333333333333336
200.0   90.0   33.333333333333336
200.0   90.0   0.0
250.0   90.0   0.0
200.0   120.0   0.0
200.0   90.0   16.666666666666668
250.0   90.0   0.0
250.0   120.0   0.0
200.0   120.0   0.0
250.0   120.0   16.666666666666668
200.0   90.0   16.666666666666668
200.0   120.0   16.666666666666668
250.0   120.0   16.666666666666668
200.0   120.0   0.0
200.0   90.0   16.666666666666668
250.0   120.0   16.666666666666668
250.0   90.0   16.666666666666668
250.0   90.0   0.0
200.0   90.0   16.666666666666668
250.0   120.0   16.666666666666668
250.0   90.0   0.0
200.0   120.0   0.0
200.0   90.0   16.666666666666668
250.0   90.0   16.666666666666668
200.0   120.0   16.666666666666668
200.0   90.0   33.333333333333336
250.0   90.0   16.666666666666668
250.0   120.0   16.666666666666668
200.0   120.0   16.666666666666668
250.0   120.0   33.333333333333336
200.0   90.0   33.333333333333336
200.0   120.0   33.333333333333336
250.0   120.0   33.333333333333336
200.0   120.0   16.666666666666668
200.0   90.0   33.333333333333336
250.0   120.0   33.333333333333336
250.0   90.0   33.333333333333336
250.0   90.0   16.666666666666668
200.0   90.0   33.333333333333336
250.0   120.0   33.333333333333336
250.0   90.0   16.666666666666668
200.0   120.0   16.666666666666668
200.0   90.0   33.333333333333336
250.0   90.0   33.333333333333336
200.0   120.0   33.333333333333336
200.0   90.0   50.0
250.0   90.0   33.333333333333336
250.0   120.0   33.333333333333336
200.0   120.0   33.333333333333336
250.0   120.0   50.0
200.0   90.0   50.0
200.0   120.0   50.0
250.0   120.0   50.0
200.0   120.0   33.333333333333336
200.0   90.0   50.0
250.0   120.0   50.0
250.0   90.0   50.0
250.0   90.0   33.333333333333336
200.0   90.0   50.0
250.0   120.0   50.0
250.0   90.0   33.333333333333336
200.0   120.0   33.333333333333336
200.0   120.0   0.0
250.0   120.0   0.0
200.0   150.0   0.0
200.0   120.0   16.666666666666668
250.0   120.0   0.0
250.0   150.0   0.0
200.0   150.0   0.0
250.0   150.0   16.666666666666668
200.0   120.0   16.666666666666668
200.0   150.0   16.666666666666668
250.0   150.0   16.666666666666668
200.0   150.0   0.0
200.0   120.0   16.666666666666668
250.0   150.0   16.666666666666668
250.0   120.0   16.666666666666668
250.0   120.0   0.0
200.0   120.0   16.666666666666668
250.0   150.0   16.666666666666668
250.0   120.0   0.0
200.0   150.0   0.0
200.0   120.0   16.666666666666668
250.0   120.0   16.666666666666668
200.0   150.0   16.666666666666668
200.0   120.0   33.333333333333336
250.0   120.0   16.666666666666668
250.0   150.0   16.666666666666668
200.0   150.0   16.666666666666668
250.0   150.0   33.333333333333336
200.0   120.0   33.333333333333336
200.0   150.0   33.333333333333336
250.0   150.0   33.333333333333336
200.0   150.0   16.666666666666668
200.0   120.0   33.333333333333336
250.0   150.0   33.333333333333336
250.0   120.0   33.333333333333336
250.0   120.0   16.666666666666668
200.0   120.0   33.333333333333336
250.0   150.0   33.333333333333336
250.0   120.0   16.666666666666668
200.0   150.0   16.666666666666668
200.0   120.0   33.333333333333336
250.0   120.0   33.333333333333336
200.0   150.0   33.333333333333336
200.0   120.0   50.0
250.0   120.0   33.333333333333336
250.0   150.0   33.333333333333336
200.0   150.0   33.333333333333336
250.0   150.0   50.0
200.0   120.0   50.0
200.0   150.0   50.0
250.0   150.0   50.0
200.0   150.0   33.333333333333336
200.0   120.0   50.0
250.0   150.0   50.0
250.0   120.0   50.0
250.0   120.0   33.333333333333336
200.0   120.0   50.0
250.0   150.0   50.0
250.0   120.0   33.333333333333336
200.0   150.0   33.333333333333336
250.0   0.0   0.0
300.0   0.0   0.0
250.0   30.0   0.0
250.0   0.0   16.666666666666668
300.0   0.0   0.0
300.0   30.0   0.0
250.0   30.0   0.0
300.0   30.0   16.666666666666668
250.0   0.0   16.666666666666668
250.0   30.0   16.666666666666668
300.0   30.0   16.666666666666668
250.0   30.0   0.0
250.0   0.0   16.666666666666668
300.0   30.0   16.666666666666668
300.0   0.0   16.666666666666668
300.0   0.0   0.0
250.0   0.0   16.666666666666668
300.0   30.0   16.666666666666668
300.0   0.0   0.0
250.0   30.0   0.0
250.0   0.0   16.666666666666668
300.0   0.0   16.666666666666668
250.0   30.0   16.666666666666668
250.0   0.0   33.333333333333336
300.0   0.0   16.666666666666668
300.0   30.0   16.666666666666668
250.0   30.0   16.666666666666668
300.0   30.0   33.333333333333336
250.0   0.0   33.333333333333336
250.0   30.0   33.333333333333336
300.0   30.0   33.333333333333336
250.0   30.0   16.666666666666668
250.0   0.0   33.333333333333336
300.0   30.0   33.333333333333336
300.0   0.0   33.333333333333336
300.0   0.0   16.666666666666668
250.0   0.0   33.333333333333336
300.0   30.0   33.333333333333336
300.0   0.0   16.666666666666668
250.0   30.0   16.666666666666668
250.0   0.0   33.333333333333336
300.0   0.0   33.333333333333336
250.0   30.0   33.333333333333336
250.0   0.0   50.0
300.0   0.0   33.333333333333336
300.0   30.0   33.333333333333336
250.0   30.0   33.333333333333336
300.0   30.0   50.0
250.0   0.0   50.0
250.0   30.0   50.0
300.0   30.0   50.0
250.0   30.0   33.333333333333336
250.0   0.0   50.0
300.0   30.0   50.0
300.0   0.0   50.0
300.0   0.0   33.333333333333336
250.0   0.0   50.0
300.0   30.0   50.0
300.0   0.0   33.333333333333336
250.0   30.0   33.333333333333336
250.0   30.0   0.0
300.0   30.0   0.0
250.0   60.0   0.0
250.0   30.0   16.666666666666668
300.0   30.0   0.0
300.0   60.0   0.0
250.0   60.0   0.0
300.0   60.0   16.666666666666668
250.0   30.0   16.666666666666668
250.0   60.0   16.666666666666668
300.0   60.0   16.666666666666668
250.0   60.0   0.0
250.0   30.0   16.666666666666668
300.0   60.0   16.666666666666668
300.0   30.0   16.666666666666668
300.0   30.0   0.0
250.0   30.0   16.666666666666668
300.0   60.0   16.666666666666668
300.0   30.0   0.0
250.0   60.0   0.0
250.0   30.0   16.666666666666668
300.0   30.0   16.666666666666668
250.0   60.0   16.666666666666668
250.0   30.0   33.333333333333336
300.0   30.0   16.666666666666668
300.0   60.0   16.666666666666668
250.0   60.0   16.666666666666668
300.0   60.0   33.333333333333336
250.0   30.0   33.333333333333336
250.0   60.0   33.333333333333336
300.0   60.0   33.333333333333336
250.0   60.0   16.666666666666668
250.0   30.0   33.333333333333336
300.0   60.0   33.333333333333336
300.0   30.0   33.333333333333336
300.0   30.0   16.666666666666668
250.0   30.0   33.333333333333336
300.0   60.0   33.333333333333336
300.0   30.0   16.666666666666668
250.0   60.0   16.666666666666668
250.0   30.0   33.333333333333336
300.0   30.0   33.333333333333336
250.0   60.0   33.333333333333336
250.0   30.0   50.0
300.0   30.0   33.333333333333336
300.0   60.0   33.333333333333336
250.0   60.0   33.333333333333336
300.0   60.0   50.0
250.0   30.0   50.0
250.0   60.0   50.0
300.0   60.0   50.0
250.0   60.0   33.333333333333336
250.0   30.0   50.0
300.0   60.0   50.0
300.0   30.0   50.0
300.0   30.0   33.333333333333336
250.0   30.0   50.0
300.0   60.0   50.0
300.0   30.0   33.333333333333336
250.0   60.0   33.333333333333336
250.0   60.0   0.0
300.0   60.0   0.0
250.0   90.0   0.0
250.0   60.0   16.666666666666668
300.0   60.0   0.0
300.0   90.0   0.0
250.0   90.0   0.0
300.0   90.0   16.666666666666668
250.0   60.0   16.666666666666668
250.0   90.0   16.666666666666668
300.0   90.0   16.666666666666668
250.0   90.0   0.0
250.0   60.0   16.666666666666668
300.0   90.0   16.666666666666668
300.0   60.0   16.666666666666668
300.0   60.0   0.0
250.0   60.0   16.666666666666668
300.0   90.0   16.666666666666668
300.0   60.0   0.0
250.0   90.0   0.0
250.0   60.0   16.666666666666668
300.0   60.0   16.666666666666668
250.0   90.0   16.666666666666668
250.0   60.0   33.333333333333336
300.0   60.0   16.666666666666668
300.0   90.0   16.666666666666668
250.0   90.0   16.666666666666668
300.0   90.0   33.333333333333336
250.0   60.0   33.333333333333336
250.0   90.0   33.333333333333336
300.0   90.0   33.333333333333336
250.0   90.0   16.666666666666668
250.0   60.0   33.333333333333336
300.0   90.0   33.333333333333336
300.0   60.0   33.333333333333336
300.0   60.0   16.666666666666668
250.0   60.0   33.333333333333336
300.0   90.0   33.333333333333336
300.0   60.0   16.666666666666668
250.0   90.0   16.666666666666668
250.0   60.0   33.333333333333336
300.0   60.0   33.333333333333336
250.0   90.0   33.333333333333336
250.0   60.0   50.0
300.0   60.0   33.333333333333336
300.0   90.0   33.333333333333336
250.0   90.0   33.333333333333336
300.0   90.0   50.0
250.0   60.0   50.0
250.0   90.0   50.0
300.0   90.0   50.0
250.0   90.0   33.333333333333336
250.0   60.0   50.0
300.0   90.0   50.0
300.0   60.0   50.0
300.0   60.0   33.333333333333336
250.0   60.0   50.0
300.0   90.0   50.0
300.0   60.0   33.333333333333336
250.0   90.0   33.333333333333336
250.0   90.0   0.0
300.0   90.0   0.0
250.0   120.0   0.0
250.0   90.0   16.666666666666668
300.0   90.0   0.0
300.0   120.0   0.0
250.0   120.0   0.0
300.0   120.0   16.666666666666668
250.0   90.0   16.666666666666668
250.0   120.0   16.666666666666668
300.0   120.0   16.666666666666668
250.0   120.0   0.0
250.0   90.0   16.666666666666668
300.0   120.0   16.666666666666668
300.0   90.0   16.666666666666668
300.0   90.0   0.0
250.0   90.0   16.666666666666668
300.0   120.0   16.666666666666668
300.0   90.0   0.0
250.0   120.0   0.0
250.0   90.0   16.666666666666668
300.0   90.0   16.666666666666668
250.0   120.0   16.666666666666668
250.0   90.0   33.333333333333336
300.0   90.0   16.666666666666668
300.0   120.0   16.666666666666668
250.0   120.0   16.666666666666668
300.0   120.0   33.333333333333336
250.0   90.0   33.333333333333336
250.0   120.0   33.333333333333336
300.0   120.0   33.333333333333336
250.0   120.0   16.666666666666668
250.0   90.0   33.333333333333336
300.0   120.0   33.333333333333336
300.0   90.0   33.333333333333336
300.0   90.0   16.666666666666668
250.0   90.0   33.333333333333336
300.0   120.0   33.333333333333336
300.0   90.0   16.666666666666668
250.0   120.0   16.666666666666668
250.0   90.0   33.333333333333336
300.0   90.0   33.333333333333336
250.0   120.0   33.333333333333336
250.0   90.0   50.0
300.0   90.0   33.333333333333336
300.0   120.0   33.333333333333336
250.0   120.0   33.333333333333336
300.0   120.0   50.0
250.0   90.0   50.0
250.0   120.0   50.0
300.0   120.0   50.0
250.0   120.0   33.333333333333336
250.0   90.0   50.0
300.0   120.0   50.0
300.0   90.0   50.0
300.0   90.0   33.333333333333336
250.0   90.0   50.0
300.0   120.0   50.0
300.0   90.0   33.333333333333336
250.0   120.0   33.333333333333336
250.0   120.0   0.0
300.0   120.0   0.0
250.0   150.0   0.0
250.0   120.0   16.666666666666668
300.0   120.0   0.0
300.0   150.0   0.0
250.0   150.0   0.0
300.0   150.0   16.666666666666668
250.0   120.0   16.666666666666668
250.0   150.0   16.666666666666668
300.0   150.0   16.666666666666668
250.0   150.0   0.0
250.0   120.0   16.666666666666668
300.0   150.0   16.666666666666668
300.0   120.0   16.666666666666668
300.0   120.0   0.0
250.0   120.0   16.666666666666668
300.0   150.0   16.666666666666668
300.0   120.0   0.0
250.0   150.0   0.0
250.0   120.0   16.666666666666668
300.0   120.0   16.666666666666668
250.0   150.0   16.666666666666668
250.0   120.0   33.333333333333336
300.0   120.0   16.666666666666668
300.0   150.0   16.666666666666668
250.0   150.0   16.666666666666668
300.0   150.0   33.333333333333336
250.0   120.0   33.333333333333336
250.0   150.0   33.333333333333336
300.0   150.0   33.333333333333336
250.0   150.0   16.666666666666668
250.0   120.0   33.333333333333336
300.0   150.0   33.333333333333336
300.0   120.0   33.333333333333336
300.0   120.0   16.666666666666668
250.0   120.0   33.333333333333336
300.0   150.0   33.333333333333336
300.0   120.0   16.666666666666668
250.0   150.0   16.666666666666668
250.0   120.0   33.333333333333336
300.0   120.0   33.333333333333336
250.0   150.0   33.333333333333336
250.0   120.0   50.0
300.0   120.0   33.333333333333336
300.0   150.0   33.333333333333336
250.0   150.0   33.333333333333336
300.0   150.0   50.0
250.0   120.0   50.0
250.0   150.0   50.0
300.0   150.0   50.0
250.0   150.0   33.333333333333336
250.0   120.0   50.0
300.0   150.0   50.0
300.0   120.0   50.0
300.0   120.0   33.333333333333336
250.0   120.0   50.0
300.0   150.0   50.0
300.0   120.0   33.333333333333336
250.0   150.0   33.333333333333336
300.0   0.0   0.0
350.0   0.0   0.0
300.0   30.0   0.0
300.0   0.0   16.666666666666668
350.0   0.0   0.0
350.0   30.0   0.0
300.0   30.0   0.0
350.0   30.0   16.666666666666668
300.0   0.0   16.666666666666668
300.0   30.0   16.666666666666668
350.0   30.0   16.666666666666668
300.0   30.0   0.0
300.0   0.0   16.666666666666668
350.0   30.0   16.666666666666668
350.0   0.0   16.666666666666668
350.0   0.0   0.0
300.0   0.0   16.666666666666668
350.0   30.0   16.666666666666668
350.0   0.0   0.0
300.0   30.0   0.0
300.0   0.0   16.666666666666668
350.0   0.0   16.666666666666668
300.0   30.0   16.666666666666668
300.0   0.0   33.333333333333336
350.0   0.0   16.666666666666668
350.0   30.0   16.666666666666668
300.0   30.0   16.666666666666668
350.0   30.0   33.333333333333336
300.0   0.0   33.333333333333336
300.0   30.0   33.333333333333336
350.0   30.0   33.333333333333336
300.0   30.0   16.666666666666668
300.0   0.0   33.333333333333336
350.0   30.0   33.333333333333336
350.0   0.0   33.333333333333336
350.0   0.0   16.666666666666668
300.0   0.0   33.333333333333336
350.0   30.0   33.333333333333336
350.0   0.0   16.666666666666668
300.0   30.0   16.666666666666668
300.0   0.0   33.333333333333336
350.0   0.0   33.333333333333336
300.0   30.0   33.333333333333336
300.0   0.0   50.0
350.0   0.0   33.333333333333336
350.0   30.0   33.333333333333336
300.0   30.0   33.333333333333336
350.0   30.0   50.0
300.0   0.0   50.0
300.0   30.0   50.0
350.0   30.0   50.0
300.0   30.0   33.333333333333336
300.0   0.0   50.0
350.0   30.0   50.0
350.0   0.0   50.0
350.0   0.0   33.333333333333336
300.0   0.0   50.0
350.0   30.0   50.0
350.0   0.0   33.333333333333336
300.0   30.0   33.333333333333336
300.0   30.0   0.0
350.0   30.0   0.0
300.0   60.0   0.0
300.0   30.0   16.666666666666668
350.0   30.0   0.0
350.0   60.0   0.0
300.0   60.0   0.0
350.0   60.0   16.666666666666668
300.0   30.0   16.666666666666668
300.0   60.0   16.666666666666668
350.0   60.0   16.666666666666668
300.0   60.0   0.0
300.0   30.0   16.666666666666668
350.0   60.0   16.666666666666668
350.0   30.0   16.666666666666668
350.0   30.0   0.0
300.0   30.0   16.666666666666668
350.0   60.0   16.666666666666668
350.0   30.0   0.0
300.0   60.0   0.0
300.0   30.0   16.666666666666668
350.0   30.0   16.666666666666668
300.0   60.0   16.666666666666668
300.0   30.0   33.333333333333336
350.0   30.0   16.666666666666668
350.0   60.0   16.666666666666668
300.0   60.0   16.666666666666668
350.0   60.0   33.333333333333336
300.0   30.0   33.333333333333336
300.0   60.0   33.333333333333336
350.0   60.0   33.333333333333336
300.0   60.0   16.666666666666668
300.0   30.0   33.333333333333336
350.0   60.0   33.333333333333336
350.0   30.0   33.333333333333336
350.0   30.0   16.666666666666668
300.0   30.0   33.333333333333336
350.0   60.0   33.333333333333336
350.0   30.0   16.666666666666668
300.0   60.0   16.666666666666668
300.0   30.0   33.333333333333336
350.0   30.0   33.333333333333336
300.0   60.0   33.333333333333336
300.0   30.0   50.0
350.0   30.0   33.333333333333336
350.0   60.0   33.333333333333336
300.0   60.0   33.333333333333336
350.0   60.0   50.0
300.0   30.0   50.0
300.0   60.0   50.0
350.0   60.0   50.0
300.0   60.0   33.333333333333336
300.0   30.0   50.0
350.0   60.0   50.0
350.0   30.0   50.0
350.0   30.0   33.333333333333336
300.0   30.0   50.0
350.0   60.0   50.0
350.0   30.0   33.333333333333336
300.0   60.0   33.333333333333336
300.0   60.0   0.0
350.0   60.0   0.0
300.0   90.0   0.0
300.0   60.0   16.666666666666668
350.0   60.0   0.0
350.0   90.0   0.0
300.0   90.0   0.0
350.0   90.0   16.666666666666668
300.0   60.0   16.666666666666668
300.0   90.0   16.666666666666668
350.0   90.0   16.666666666666668
300.0   90.0   0.0
300.0   60.0   16.666666666666668
350.0   90.0   16.666666666666668
350.0   60.0   16.666666666666668
350.0   60.0   0.0
300.0   60.0   16.666666666666668
350.0   90.0   16.666666666666668
350.0   60.0   0.0
300.0   90.0   0.0
300.0   60.0   16.666666666666668
350.0   60.0   16.666666666666668
300.0   90.0   16.666666666666668
300.0   60.0   33.333333333333336
350.0   60.0   16.666666666666668
350.0   90.0   16.666666666666668
300.0   90.0   16.666666666666668
350.0   90.0   33.333333333333336
300.0   60.0   33.333333333333336
300.0   90.0   33.333333333333336
350.0   90.0   33.333333333333336
300.0   90.0   16.666666666666668
300.0   60.0   33.333333333333336
350.0   90.0   33.333333333333336
350.0   60.0   33.333333333333336
350.0   60.0   16.666666666666668
300.0   60.0   33.333333333333336
350.0   90.0   33.333333333333336
350.0   60.0   16.666666666666668
300.0   90.0   16.666666666666668
300.0   60.0   33.333333333333336
350.0   60.0   33.333333333333336
300.0   90.0   33.333333333333336
300.0   60.0   50.0
350.0   60.0   33.333333333333336
350.0   90.0   33.333333333333336
300.0   90.0   33.333333333333336
350.0   90.0   50.0
300.0   60.0   50.0
300.0   90.0   50.0
350.0   90.0   50.0
300.0   90.0   33.333333333333336
300.0   60.0   50.0
350.0   90.0   50.0
350.0   60.0   50.0
350.0   60.0   33.333333333333336
300.0   60.0   50.0
350.0   90.0   50.0
350.0   60.0   33.333333333333336
300.0   90.0   33.333333333333336
300.0   90.0   0.0
350.0   90.0   0.0
300.0   120.0   0.0
300.0   90.0   16.666666666666668
350.0   90.0   0.0
350.0   120.0   0.0
300.0   120.0   0.0
350.0   120.0   16.666666666666668
300.0   90.0   16.666666666666668
300.0   120.0   16.666666666666668
350.0   120.0   16.666666666666668
300.0   120.0   0.0
300.0   90.0   16.666666666666668
350.0   120.0   16.666666666666668
350.0   90.0   16.666666666666668
350.0   90.0   0.0
300.0   90.0   16.666666666666668
350.0   120.0   16.666666666666668
350.0   90.0   0.0
300.0   120.0   0.0
300.0   90.0   16.666666666666668
350.0   90.0   16.666666666666668
300.0   120.0   16.666666666666668
300.0   90.0   33.333333333333336
350.0   90.0   16.666666666666668
350.0   120.0   16.666666666666668
300.0   120.0   16.666666666666668
350.0   120.0   33.333333333333336
300.0   90.0   33.333333333333336
300.0   120.0   33.333333333333336
350.0   120.0   33.333333333333336
300.0   120.0   16.666666666666668
300.0   90.0   33.333333333333336
350.0   120.0   33.333333333333336
350.0   90.0   33.333333333333336
350.0   90.0   16.666666666666668
300.0   90.0   33.333333333333336
350.0   120.0   33.333333333333336
350.0   90.0   16.666666666666668
300.0   120.0   16.666666666666668
300.0   90.0   33.333333333333336
350.0   90.0   33.333333333333336
300.0   120.0   33.333333333333336
300.0   90.0   50.0
350.0   90.0   33.333333333333336
350.0   120.0   33.333333333333336
300.0   120.0   33.333333333333336
350.0   120.0   50.0
300.0   90.0   50.0
300.0   120.0   50.0
350.0   120.0   50.0
300.0   120.0   33.333333333333336
300.0   90.0   50.0
350.0   120.0   50.0
350.0   90.0   50.0
350.0   90.0   33.333333333333336
300.0   90.0   50.0
350.0   120.0   50.0
350.0   90.0   33.333333333333336
300.0   120.0   33.333333333333336
300.0   120.0   0.0
350.0   120.0   0.0
300.0   150.0   0.0
300.0   120.0   16.666666666666668
350.0   120.0   0.0
350.0   150.0   0.0
300.0   150.0   0.0
350.0   150.0   16.666666666666668
300.0   120.0   16.666666666666668
300.0   150.0   16.666666666666668
350.0   150.0   16.666666666666668
300.0   150.0   0.0
300.0   120.0   16.666666666666668
350.0   150.0   16.666666666666668
350.0   120.0   16.666666666666668
350.0   120.0   0.0
300.0   120.0   16.666666666666668
350.0   150.0   16.666666666666668
350.0   120.0   0.0
300.0   150.0   0.0
300.0   120.0   16.666666666666668
350.0   120.0   16.666666666666668
300.0   150.0   16.666666666666668
300.0   120.0   33.333333333333336
350.0   120.0   16.666666666666668
350.0   150.0   16.666666666666668
300.0   150.0   16.666666666666668
350.0   150.0   33.333333333333336
300.0   120.0   33.333333333333336
300.0   150.0   33.333333333333336
350.0   150.0   33.333333333333336
300.0   150.0   16.666666666666668
300.0   120.0   33.333333333333336
350.0   150.0   33.333333333333336
350.0   120.0   33.333333333333336
350.0   120.0   16.666666666666668
300.0   120.0   33.333333333333336
350.0   150.0   33.333333333333336
350.0   120.0   16.666666666666668
300.0   150.0   16.666666666666668
300.0   120.0   33.333333333333336
350.0   120.0   33.333333333333336
300.0   150.0   33.333333333333336
300.0   120.0   50.0
350.0   120.0   33.333333333333336
350.0   150.0   33.333333333333336
300.0   150.0   33.333333333333336
350.0   150.0   50.0
300.0   120.0   50.0
300.0   150.0   50.0
350.0   150.0   50.0
300.0   150.0   33.333333333333336
300.0   120.0   50.0
350.0   150.0   50.0
350.0   120.0   50.0
350.0   120.0   33.333333333333336
300.0   120.0   50.0
350.0   150.0   50.0
350.0   120.0   33.333333333333336
300.0   150.0   33.333333333333336
350.0   0.0   0.0
400.0   0.0   0.0
350.0   30.0   0.0
350.0   0.0   16.666666666666668
400.0   0.0   0.0
400.0   30.0   0.0
350.0   30.0   0.0
400.0   30.0   16.666666666666668
350.0   0.0   16.666666666666668
350.0   30.0   16.666666666666668
400.0   30.0   16.666666666666668
350.0   30.0   0.0
350.0   0.0   16.666666666666668
400.0   30.0   16.666666666666668
400.0   0.0   16.666666666666668
400.0   0.0   0.0
350.0   0.0   16.666666666666668
400.0   30.0   16.666666666666668
400.0   0.0   0.0
350.0   30.0   0.0
350.0   0.0   16.666666666666668
400.0   0.0   16.666666666666668
350.0   30.0   16.666666666666668
350.0   0.0   33.333333333333336
400.0   0.0   16.666666666666668
400.0   30.0   16.666666666666668
350.0   30.0   16.666666666666668
400.0   30.0   33.333333333333336
350.0   0.0   33.333333333333336
350.0   30.0   33.333333333333336
400.0   30.0   33.333333333333336
350.0   30.0   16.666666666666668
350.0   0.0   33.333333333333336
400.0   30.0   33.333333333333336
400.0   0.0   33.333333333333336
400.0   0.0   16.666666666666668
350.0   0.0   33.333333333333336
400.0   30.0   33.333333333333336
400.0   0.0   16.666666666666668
350.0   30.0   16.666666666666668
350.0   0.0   33.333333333333336
400.0   0.0   33.333333333333336
350.0   30.0   33.333333333333336
350.0   0.0   50.0
400.0   0.0   33.333333333333336
400.0   30.0   33.333333333333336
350.0   30.0   33.333333333333336
400.0   30.0   50.0
350.0   0.0   50.0
350.0   30.0   50.0
400.0   30.0   50.0
350.0   30.0   33.333333333333336
350.0   0.0   50.0
400.0   30.0   50.0
400.0   0.0   50.0
400.0   0.0   33.333333333333336
350.0   0.0   50.0
400.0   30.0   50.0
400.0   0.0   33.333333333333336
350.0   30.0   33.333333333333336
350.0   30.0   0.0
400.0   30.0   0.0
350.0   60.0   0.0
350.0   30.0   16.666666666666668
400.0   30.0   0.0
400.0   60.0   0.0
350.0   60.0   0.0
400.0   60.0   16.666666666666668
350.0   30.0   16.666666666666668
350.0   60.0   16.666666666666668
400.0   60.0   16.666666666666668
350.0   60.0   0.0
350.0   30.0   16.666666666666668
400.0   60.0   16.666666666666668
400.0   30.0   16.666666666666668
400.0   30.0   0.0
350.0   30.0   16.666666666666668
400.0   60.0   16.666666666666668
400.0   30.0   0.0
350.0   60.0   0.0
350.0   30.0   16.666666666666668
400.0   30.0   16.666666666666668
350.0   60.0   16.666666666666668
350.0   30.0   33.333333333333336
400.0   30.0   16.666666666666668
400.0   60.0   16.666666666666668
350.0   60.0   16.666666666666668
400.0   60.0   33.333333333333336
350.0   30.0   33.333333333333336
350.0   60.0   33.333333333333336
400.0   60.0   33.333333333333336
350.0   60.0   16.666666666666668
350.0   30.0   33.333333333333336
400.0   60.0   33.333333333333336
400.0   30.0   33.333333333333336
400.0   30.0   16.666666666666668
350.0   30.0   33.333333333333336
400.0   60.0   33.333333333333336
400.0   30.0   16.666666666666668
350.0   60.0   16.666666666666668
350.0   30.0   33.333333333333336
400.0   30.0   33.333333333333336
350.0   60.0   33.333333333333336
350.0   30.0   50.0
400.0   30.0   33.333333333333336
400.0   60.0   33.333333333333336
350.0   60.0   33.333333333333336
400.0   60.0   50.0
350.0   30.0   50.0
350.0   60.0   50.0
400.0   60.0   50.0
350.0   60.0   33.333333333333336
350.0   30.0   50.0
400.0   60.0   50.0
400.0   30.0   50.0
400.0   30.0   33.333333333333336
350.0   30.0   50.0
400.0   60.0   50.0
400.0   30.0   33.333333333333336
350.0   60.0   33.333333333333336
350.0   60.0   0.0
400.0   60.0   0.0
350.0   90.0   0.0
350.0   60.0   16.666666666666668
400.0   60.0   0.0
400.0   90.0   0.0
350.0   90.0   0.0
400.0   90.0   16.666666666666668
350.0   60.0   16.666666666666668
350.0   90.0   16.666666666666668
400.0   90.0   16.666666666666668
350.0   90.0   0.0
350.0   60.0   16.666666666666668
400.0   90.0   16.666666666666668
400.0   60.0   16.666666666666668
400.0   60.0   0.0
350.0   60.0   16.666666666666668
400.0   90.0   16.666666666666668
400.0   60.0   0.0
350.0   90.0   0.0
350.0   60.0   16.666666666666668
400.0   60.0   16.666666666666668
350.0   90.0   16.666666666666668
350.0   60.0   33.333333333333336
400.0   60.0   16.666666666666668
400.0   90.0   16.666666666666668
350.0   90.0   16.666666666666668
400.0   90.0   33.333333333333336
350.0   60.0   33.333333333333336
350.0   90.0   33.333333333333336
400.0   90.0   33.333333333333336
350.0   90.0   16.666666666666668
350.0   60.0   33.333333333333336
400.0   90.0   33.333333333333336
400.0   60.0   33.333333333333336
400.0   60.0   16.666666666666668
350.0   60.0   33.333333333333336
400.0   90.0   33.333333333333336
400.0   60.0   16.666666666666668
350.0   90.0   16.666666666666668
350.0   60.0   33.333333333333336
400.0   60.0   33.333333333333336
350.0   90.0   33.333333333333336
350.0   60.0   50.0
400.0   60.0   33.333333333333336
400.0   90.0   33.333333333333336
350.0   90.0   33.333333333333336
400.0   90.0   50.0
350.0   60.0   50.0
350.0   90.0   50.0
400.0   90.0   50.0
350.0   90.0   33.333333333333336
350.0   60.0   50.0
400.0   90.0   50.0
400.0   60.0   50.0
400.0   60.0   33.333333333333336
350.0   60.0   50.0
400.0   90.0   50.0
400.0   60.0   33.333333333333336
350.0   90.0   33.333333333333336
350.0   90.0   0.0
400.0   90.0   0.0
350.0   120.0   0.0
350.0   90.0   16.666666666666668
400.0   90.0   0.0
400.0   120.0   0.0
350.0   120.0   0.0
400.0   120.0   16.666666666666668
350.0   90.0   16.666666666666668
350.0   120.0   16.666666666666668
400.0   120.0   16.666666666666668
350.0   120.0   0.0
350.0   90.0   16.666666666666668
400.0   120.0   16.666666666666668
400.0   90.0   16.666666666666668
400.0   90.0   0.0
350.0   90.0   16.666666666666668
400.0   120.0   16.666666666666668
400.0   90.0   0.0
350.0   120.0   0.0
350.0   90.0   16.666666666666668
400.0   90.0   16.666666666666668
350.0   120.0   16.666666666666668
350.0   90.0   33.333333333333336
400.0   90.0   16.666666666666668
400.0   120.0   16.666666666666668
350.0   120.0   16.666666666666668
400.0   120.0   33.333333333333336
350.0   90.0   33.333333333333336
350.0   120.0   33.333333333333336
400.0   120.0   33.333333333333336
350.0   120.0   16.666666666666668
350.0   90.0   33.333333333333336
400.0   120.0   33.333333333333336
400.0   90.0   33.333333333333336
400.0   90.0   16.666666666666668
350.0   90.0   33.333333333333336
400.0   120.0   33.333333333333336
400.0   90.0   16.666666666666668
350.0   120.0   16.666666666666668
350.0   90.0   33.333333333333336
400.0   90.0   33.333333333333336
350.0   120.0   33.333333333333336
350.0   90.0   50.0
400.0   90.0   33.333333333333336
400.0   120.0   33.333333333333336
350.0   120.0   33.333333333333336
400.0   120.0   50.0
350.0   90.0   50.0
350.0   120.0   50.0
400.0   120.0   50.0
350.0   120.0   33.333333333333336
350.0   90.0   50.0
400.0   120.0   50.0
400.0   90.0   50.0
400.0   90.0   33.333333333333336
350.0   90.0   50.0
400.0   120.0   50.0
400.0   90.0   33.333333333333336
350.0   120.0   33.333333333333336
350.0   120.0   0.0
400.0   120.0   0.0
350.0   150.0   0.0
350.0   120.0   16.666666666666668
400.0   120.0   0.0
400.0   150.0   0.0
350.0   150.0   0.0
400.0   150.0   16.666666666666668
350.0   120.0   16.666666666666668
350.0   150.0   16.666666666666668
400.0   150.0   16.666666666666668
350.0   150.0   0.0
350.0   120.0   16.666666666666668
400.0   150.0   16.666666666666668
400.0   120.0   16.666666666666668
400.0   120.0   0.0
350.0   120.0   16.666666666666668
400.0   150.0   16.666666666666668
400.0   120.0   0.0
350.0   150.0   0.0
350.0   120.0   16.666666666666668
400.0   120.0   16.666666666666668
350.0   150.0   16.666666666666668
350.0   120.0   33.333333333333336
400.0   120.0   16.666666666666668
400.0   150.0   16.666666666666668
350.0   150.0   16.666666666666668
400.0   150.0   33.333333333333336
350.0   120.0   33.333333333333336
350.0   150.0   33.333333333333336
400.0   150.0   33.333333333333336
350.0   150.0   16.666666666666668
350.0   120.0   33.333333333333336
400.0   150.0   33.333333333333336
400.0   120.0   33.333333333333336
400.0   120.0   16.666666666666668
350.0   120.0   33.333333333333336
400.0   150.0   33.333333333333336
400.0   120.0   16.666666666666668
350.0   150.0   16.666666666666668
350.0   120.0   33.333333333333336
400.0   120.0   33.333333333333336
350.0   150.0   33.333333333333336
350.0   120.0   50.0
400.0   120.0   33.333333333333336
400.0   150.0   33.333333333333336
350.0   150.0   33.333333333333336
400.0   150.0   50.0
350.0   120.0   50.0
350.0   150.0   50.0
400.0   150.0   50.0
350.0   150.0   33.333333333333336
350.0   120.0   50.0
400.0   150.0   50.0
400.0   120.0   50.0
400.0   120.0   33.333333333333336
350.0   120.0   50.0
400.0   150.0   50.0
400.0   120.0   33.333333333333336
350.0   150.0   33.333333333333336
400.0   0.0   0.0
450.0   0.0   0.0
400.0   30.0   0.0
400.0   0.0   16.666666666666668
450.0   0.0   0.0
450.0   30.0   0.0
400.0   30.0   0.0
450.0   30.0   16.666666666666668
400.0   0.0   16.666666666666668
400.0   30.0   16.666666666666668
450.0   30.0   16.666666666666668
400.0   30.0   0.0
400.0   0.0   16.666666666666668
450.0   30.0   16.666666666666668
450.0   0.0   16.666666666666668
450.0   0.0   0.0
400.0   0.0   16.666666666666668
450.0   30.0   16.666666666666668
450.0   0.0   0.0
400.0   30.0   0.0
400.0   0.0   16.666666666666668
450.0   0.0   16.666666666666668
400.0   30.0   16.666666666666668
400.0   0.0   33.333333333333336
450.0   0.0   16.666666666666668
450.0   30.0   16.666666666666668
400.0   30.0   16.666666666666668
450.0   30.0   33.333333333333336
400.0   0.0   33.333333333333336
400.0   30.0   33.333333333333336
450.0   30.0   33.333333333333336
400.0   30.0   16.666666666666668
400.0   0.0   33.333333333333336
450.0   30.0   33.333333333333336
450.0   0.0   33.333333333333336
450.0   0.0   16.666666666666668
400.0   0.0   33.333333333333336
450.0   30.0   33.333333333333336
450.0   0.0   16.666666666666668
400.0   30.0   16.666666666666668
400.0   0.0   33.333333333333336
450.0   0.0   33.333333333333336
400.0   30.0   33.333333333333336
400.0   0.0   50.0
450.0   0.0   33.333333333333336
450.0   30.0   33.333333333333336
400.0   30.0   33.333333333333336
450.0   30.0   50.0
400.0   0.0   50.0
400.0   30.0   50.0
450.0   30.0   50.0
400.0   30.0   33.333333333333336
400.0   0.0   50.0
450.0   30.0   50.0
450.0   0.0   50.0
450.0   0.0   33.333333333333336
400.0   0.0   50.0
450.0   30.0   50.0
450.0   0.0   33.333333333333336
400.0   30.0   33.333333333333336
400.0   30.0   0.0
450.0   30.0   0.0
400.0   60.0   0.0
400.0   30.0   16.666666666666668
450.0   30.0   0.0
450.0   60.0   0.0
400.0   60.0   0.0
450.0   60.0   16.666666666666668
400.0   30.0   16.666666666666668
400.0   60.0   16.666666666666668
450.0   60.0   16.666666666666668
400.0   60.0   0.0
400.0   30.0   16.666666666666668
450.0   60.0   16.666666666666668
450.0   30.0   16.666666666666668
450.0   30.0   0.0
400.0   30.0   16.666666666666668
450.0   60.0   16.666666666666668
450.0   30.0   0.0
400.0   60.0   0.0
400.0   30.0   16.666666666666668
450.0   30.0   16.666666666666668
400.0   60.0   16.666666666666668
400.0   30.0   33.333333333333336
450.0   30.0   16.666666666666668
450.0   60.0   16.666666666666668
400.0   60.0   16.666666666666668
450.0   60.0   33.333333333333336
400.0   30.0   33.333333333333336
400.0   60.0   33.333333333333336
450.0   60.0   33.333333333333336
400.0   60.0   16.666666666666668
400.0   30.0   33.333333333333336
450.0   60.0   33.333333333333336
450.0   30.0   33.333333333333336
450.0   30.0   16.666666666666668
400.0   30.0   33.333333333333336
450.0   60.0   33.333333333333336
450.0   30.0   16.666666666666668
400.0   60.0   16.666666666666668
400.0   30.0   33.333333333333336
450.0   30.0   33.333333333333336
400.0   60.0   33.333333333333336
400.0   30.0   50.0
450.0   30.0   33.333333333333336
450.0   60.0   33.333333333333336
400.0   60.0   33.333333333333336
450.0   60.0   50.0
400.0   30.0   50.0
400.0   60.0   50.0
450.0   60.0   50.0
400.0   60.0   33.333333333333336
400.0   30.0   50.0
450.0   60.0   50.0
450.0   30.0   50.0
450.0   30.0   33.333333333333336
400.0   30.0   50.0
450.0   60.0   50.0
450.0   30.0   33.333333333333336
400.0   60.0   33.333333333333336
400.0   60.0   0.0
450.0   60.0   0.0
400.0   90.0   0.0
400.0   60.0   16.666666666666668
450.0   60.0   0.0
450.0   90.0   0.0
400.0   90.0   0.0
450.0   90.0   16.666666666666668
400.0   60.0   16.666666666666668
400.0   90.0   16.666666666666668
450.0   90.0   16.666666666666668
400.0   90.0   0.0
400.0   60.0   16.666666666666668
450.0   90.0   16.666666666666668
450.0   60.0   16.666666666666668
450.0   60.0   0.0
400.0   60.0   16.666666666666668
450.0   90.0   16.666666666666668
450.0   60.0   0.0
400.0   90.0   0.0
400.0   60.0   16.666666666666668
450.0   60.0   16.666666666666668
400.0   90.0   16.666666666666668
400.0   60.0   33.333333333333336
450.0   60.0   16.666666666666668
450.0   90.0   16.666666666666668
400.0   90.0   16.666666666666668
450.0   90.0   33.333333333333336
400.0   60.0   33.333333333333336
400.0   90.0   33.333333333333336
450.0   90.0   33.333333333333336
400.0   90.0   16.666666666666668
400.0   60.0   33.333333333333336
450.0   90.0   33.333333333333336
450.0   60.0   33.333333333333336
450.0   60.0   16.666666666666668
400.0   60.0   33.333333333333336
450.0   90.0   33.333333333333336
450.0   60.0   16.666666666666668
400.0   90.0   16.666666666666668
400.0   60.0   33.333333333333336
450.0   60.0   33.333333333333336
400.0   90.0   33.333333333333336
400.0   60.0   50.0
450.0   60.0   33.333333333333336
450.0   90.0   33.333333333333336
400.0   90.0   33.333333333333336
450.0   90.0   50.0
400.0   60.0   50.0
400.0   90.0   50.0
450.0   90.0   50.0
400.0   90.0   33.333333333333336
400.0   60.0   50.0
450.0   90.0   50.0
450.0   60.0   50.0
450.0   60.0   33.333333333333336
400.0   60.0   50.0
450.0   90.0   50.0
450.0   60.0   33.333333333333336
400.0   90.0   33.333333333333336
400.0   90.0   0.0
450.0   90.0   0.0
400.0   120.0   0.0
400.0   90.0   16.666666666666668
450.0   90.0   0.0
450.0   120.0   0.0
400.0   120.0   0.0
450.0   120.0   16.666666666666668
400.0   90.0   16.666666666666668
400.0   120.0   16.666666666666668
450.0   120.0   16.666666666666668
400.0   120.0   0.0
400.0   90.0   16.666666666666668
450.0   120.0   16.666666666666668
450.0   90.0   16.666666666666668
450.0   90.0   0.0
400.0   90.0   16.666666666666668
450.0   120.0   16.666666666666668
450.0   90.0   0.0
400.0   120.0   0.0
400.0   90.0   16.666666666666668
450.0   90.0   16.666666666666668
400.0   120.0   16.666666666666668
400.0   90.0   33.333333333333336
450.0   90.0   16.666666666666668
450.0   120.0   16.666666666666668
400.0   120.0   16.666666666666668
450.0   120.0   33.333333333333336
400.0   90.0   33.333333333333336
400.0   120.0   33.333333333333336
450.0   120.0   33.333333333333336
400.0   120.0   16.666666666666668
400.0   90.0   33.333333333333336
450.0   120.0   33.333333333333336
450.0   90.0   33.333333333333336
450.0   90.0   16.666666666666668
400.0   90.0   33.333333333333336
450.0   120.0   33.333333333333336
450.0   90.0   16.666666666666668
400.0   120.0   16.666666666666668
400.0   90.0   33.333333333333336
450.0   90.0   33.333333333333336
400.0   120.0   33.333333333333336
400.0   90.0   50.0
450.0   90.0   33.333333333333336
450.0   120.0   33.333333333333336
400.0   120.0   33.333333333333336
450.0   120.0   50.0
400.0   90.0   50.0
400.0   120.0   50.0
450.0   120.0   50.0
400.0   120.0   33.333333333333336
400.0   90.0   50.0
450.0   120.0   50.0
450.0   90.0   50.0
450.0   90.0   33.333333333333336
400.0   90.0   50.0
450.0   120.0   50.0
450.0   90.0   33.333333333333336
400.0   120.0   33.333333333333336
400.0   120.0   0.0
450.0   120.0   0.0
400.0   150.0   0.0
400.0   120.0   16.666666666666668
450.0   120.0   0.0
450.0   150.0   0.0
400.0   150.0   0.0
450.0   150.0   16.666666666666668
400.0   120.0   16.666666666666668
400.0   150.0   16.666666666666668
450.0   150.0   16.666666666666668
400.0   150.0   0.0
400.0   120.0   16.666666666666668
450.0   150.0   16.666666666666668
450.0   120.0   16.666666666666668
450.0   120.0   0.0
400.0   120.0   16.666666666666668
450.0   150.0   16.666666666666668
450.0   120.0   0.0
400.0   150.0   0.0
400.0   120.0   16.666666666666668
450.0   120.0   16.666666666666668
400.0   150.0   16.666666666666668
400.0   120.0   33.333333333333336
450.0   120.0   16.666666666666668
450.0   150.0   16.666666666666668
400.0   150.0   16.666666666666668
450.0   150.0   33.333333333333336
400.0   120.0   33.333333333333336
400.0   150.0   33.333333333333336
450.0   150.0   33.333333333333336
400.0   150.0   16.666666666666668
400.0   120.0   33.333333333333336
450.0   150.0   33.333333333333336
450.0   120.0   33.333333333333336
450.0   120.0   16.666666666666668
400.0   120.0   33.333333333333336
450.0   150.0   33.333333333333336
450.0   120.0   16.666666666666668
400.0   150.0   16.666666666666668
400.0   120.0   33.333333333333336
450.0   120.0   33.333333333333336
400.0   150.0   33.333333333333336
400.0   120.0   50.0
450.0   120.0   33.333333333333336
450.0   150.0   33.333333333333336
400.0   150.0   33.333333333333336
450.0   150.0   50.0
400.0   120.0   50.0
400.0   150.0   50.0
450.0   150.0   50.0
400.0   150.0   33.333333333333336
400.0   120.0   50.0
450.0   150.0   50.0
450.0   120.0   50.0
450.0   120.0   33.333333333333336
400.0   120.0   50.0
450.0   150.0   50.0
450.0   120.0   33.333333333333336
400.0   150.0   33.333333333333336
450.0   0.0   0.0
500.0   0.0   0.0
450.0   30.0   0.0
450.0   0.0   16.666666666666668
500.0   0.0   0.0
500.0   30.0   0.0
450.0   30.0   0.0
500.0   30.0   16.666666666666668
450.0   0.0   16.666666666666668
450.0   30.0   16.666666666666668
500.0   30.0   16.666666666666668
450.0   30.0   0.0
450.0   0.0   16.666666666666668
500.0   30.0   16.666666666666668
500.0   0.0   16.666666666666668
500.0   0.0   0.0
450.0   0.0   16.666666666666668
500.0   30.0   16.666666666666668
500.0   0.0   0.0
450.0   30.0   0.0
450.0   0.0   16.666666666666668
500.0   0.0   16.666666666666668
450.0   30.0   16.666666666666668
450.0   0.0   33.333333333333336
500.0   0.0   16.666666666666668
500.0   30.0   16.666666666666668
450.0   30.0   16.666666666666668
500.0   30.0   33.333333333333336
450.0   0.0   33.333333333333336
450.0   30.0   33.333333333333336
500.0   30.0   33.333333333333336
450.0   30.0   16.666666666666668
450.0   0.0   33.333333333333336
500.0   30.0   33.333333333333336
500.0   0.0   33.333333333333336
500.0   0.0   16.666666666666668
450.0   0.0   33.333333333333336
500.0   30.0   33.333333333333336
500.0   0.0   16.666666666666668
450.0   30.0   16.666666666666668
450.0   0.0   33.333333333333336
500.0   0.0   33.333333333333336
450.0   30.0   33.333333333333336
450.0   0.0   50.0
500.0   0.0   33.333333333333336
500.0   30.0   33.333333333333336
450.0   30.0   33.333333333333336
500.0   30.0   50.0
450.0   0.0   50.0
450.0   30.0   50.0
500.0   30.0   50.0
450.0   30.0   33.333333333333336
450.0   0.0   50.0
500.0   30.0   50.0
500.0   0.0   50.0
500.0   0.0   33.333333333333336
450.0   0.0   50.0
500.0   30.0   50.0
500.0   0.0   33.333333333333336
450.0   30.0   33.333333333333336
450.0   30.0   0.0
500.0   30.0   0.0
450.0   60.0   0.0
450.0   30.0   16.666666666666668
500.0   30.0   0.0
500.0   60.0   0.0
450.0   60.0   0.0
500.0   60.0   16.666666666666668
450.0   30.0   16.666666666666668
450.0   60.0   16.666666666666668
500.0   60.0   16.666666666666668
450.0   60.0   0.0
450.0   30.0   16.666666666666668
500.0   60.0   16.666666666666668
500.0   30.0   16.666666666666668
500.0   30.0   0.0
450.0   30.0   16.666666666666668
500.0   60.0   16.666666666666668
500.0   30.0   0.0
450.0   60.0   0.0
450.0   30.0   16.666666666666668
500.0   30.0   16.666666666666668
450.0   60.0   16.666666666666668
450.0   30.0   33.333333333333336
500.0   30.0   16.666666666666668
500.0   60.0   16.666666666666668
450.0   60.0   16.666666666666668
500.0   60.0   33.333333333333336
450.0   30.0   33.333333333333336
450.0   60.0   33.333333333333336
500.0   60.0   33.333333333333336
450.0   60.0   16.666666666666668
450.0   30.0   33.333333333333336
500.0   60.0   33.333333333333336
500.0   30.0   33.333333333333336
500.0   30.0   16.666666666666668
450.0   30.0   33.333333333333336
500.0   60.0   33.333333333333336
500.0   30.0   16.666666666666668
450.0   60.0   16.666666666666668
450.0   30.0   33.333333333333336
500.0   30.0   33.333333333333336
450.0   60.0   33.333333333333336
450.0   30.0   50.0
500.0   30.0   33.333333333333336
500.0   60.0   33.333333333333336
450.0   60.0   33.333333333333336
500.0   60.0   50.0
450.0   30.0   50.0
450.0   60.0   50.0
500.0   60.0   50.0
450.0   60.0   33.333333333333336
450.0   30.0   50.0
500.0   60.0   50.0
500.0   30.0   50.0
500.0   30.0   33.333333333333336
450.0   30.0   50.0
500.0   60.0   50.0
500.0   30.0   33.333333333333336
450.0   60.0   33.333333333333336
450.0   60.0   0.0
500.0   60.0   0.0
450.0   90.0   0.0
450.0   60.0   16.666666666666668
500.0   60.0   0.0
500.0   90.0   0.0
450.0   90.0   0.0
500.0   90.0   16.666666666666668
450.0   60.0   16.666666666666668
450.0   90.0   16.666666666666668
500.0   90.0   16.666666666666668
450.0   90.0   0.0
450.0   60.0   16.666666666666668
500.0   90.0   16.666666666666668
500.0   60.0   16.666666666666668
500.0   60.0   0.0
450.0   60.0   16.666666666666668
500.0   90.0   16.666666666666668
500.0   60.0   0.0
450.0   90.0   0.0
450.0   60.0   16.666666666666668
500.0   60.0   16.666666666666668
450.0   90.0   16.666666666666668
450.0   60.0   33.333333333333336
500.0   60.0   16.666666666666668
500.0   90.0   16.666666666666668
450.0   90.0   16.666666666666668
500.0   90.0   33.333333333333336
450.0   60.0   33.333333333333336
450.0   90.0   33.333333333333336
500.0   90.0   33.333333333333336
450.0   90.0   16.666666666666668
450.0   60.0   33.333333333333336
500.0   90.0   33.333333333333336
500.0   60.0   33.333333333333336
500.0   60.0   16.666666666666668
450.0   60.0   33.333333333333336
500.0   90.0   33.333333333333336
500.0   60.0   16.666666666666668
450.0   90.0   16.666666666666668
450.0   60.0   33.333333333333336
500.0   60.0   33.333333333333336
450.0   90.0   33.333333333333336
450.0   60.0   50.0
500.0   60.0   33.333333333333336
500.0   90.0   33.333333333333336
450.0   90.0   33.333333333333336
500.0   90.0   50.0
450.0   60.0   50.0
450.0   90.0   50.0
500.0   90.0   50.0
450.0   90.0   33.333333333333336
450.0   60.0   50.0
500.0   90.0   50.0
500.0   60.0   50.0
500.0   60.0   33.333333333333336
450.0   60.0   50.0
500.0   90.0   50.0
500.0   60.0   33.333333333333336
450.0   90.0   33.333333333333336
450.0   90.0   0.0
500.0   90.0   0.0
450.0   120.0   0.0
450.0   90.0   16.666666666666668
500.0   90.0   0.0
500.0   120.0   0.0
450.0   120.0   0.0
500.0   120.0   16.666666666666668
450.0   90.0   16.666666666666668
450.0   120.0   16.666666666666668
500.0   120.0   16.666666666666668
450.0   120.0   0.0
450.0   90.0   16.666666666666668
500.0   120.0   16.666666666666668
500.0   90.0   16.666666666666668
500.0   90.0   0.0
450.0   90.0   16.666666666666668
500.0   120.0   16.666666666666668
500.0   90.0   0.0
450.0   120.0   0.0
450.0   90.0   16.666666666666668
500.0   90.0   16.666666666666668
450.0   120.0   16.666666666666668
450.0   90.0   33.333333333333336
500.0   90.0   16.666666666666668
500.0   120.0   16.666666666666668
450.0   120.0   16.666666666666668
500.0   120.0   33.333333333333336
450.0   90.0   33.333333333333336
450.0   120.0   33.333333333333336
500.0   120.0   33.333333333333336
450.0   120.0   16.666666666666668
450.0   90.0   33.333333333333336
500.0   120.0   33.333333333333336
500.0   90.0   33.333333333333336
500.0   90.0   16.666666666666668
450.0   90.0   33.333333333333336
500.0   120.0   33.333333333333336
500.0   90.0   16.666666666666668
450.0   120.0   16.666666666666668
450.0   90.0   33.333333333333336
500.0   90.0   33.333333333333336
450.0   120.0   33.333333333333336
450.0   90.0   50.0
500.0   90.0   33.333333333333336
500.0   120.0   33.333333333333336
450.0   120.0   33.333333333333336
500.0   120.0   50.0
450.0   90.0   50.0
450.0   120.0   50.0
500.0   120.0   50.0
450.0   120.0   33.333333333333336
450.0   90.0   50.0
500.0   120.0   50.0
500.0   90.0   50.0
500.0   90.0   33.333333333333336
450.0   90.0   50.0
500.0   120.0   50.0
500.0   90.0   33.333333333333336
450.0   120.0   33.333333333333336
450.0   120.0   0.0
500.0   120.0   0.0
450.0   150.0   0.0
450.0   120.0   16.666666666666668
500.0   120.0   0.0
500.0   150.0   0.0
450.0   150.0   0.0
500.0   150.0   16.666666666666668
450.0   120.0   16.666666666666668
450.0   150.0   16.666666666666668
500.0   150.0   16.666666666666668
450.0   150.0   0.0
450.0   120.0   16.666666666666668
500.0   150.0   16.666666666666668
500.0   120.0   16.666666666666668
500.0   120.0   0.0
450.0   120.0   16.666666666666668
500.0   150.0   16.666666666666668
500.0   120.0   0.0
450.0   150.0   0.0
450.0   120.0   16.666666666666668
500.0   120.0   16.666666666666668
450.0   150.0   16.666666666666668
450.0   120.0   33.333333333333336
500.0   120.0   16.666666666666668
500.0   150.0   16.666666666666668
450.0   150.0   16.666666666666668
500.0   150.0   33.333333333333336
450.0   120.0   33.333333333333336
450.0   150.0   33.333333333333336
500.0   150.0   33.333333333333336
450.0   150.0   16.666666666666668
450.0   120.0   33.333333333333336
500.0   150.0   33.333333333333336
500.0   120.0   33.333333333333336
500.0   120.0   16.666666666666668
450.0   120.0   33.333333333333336
500.0   150.0   33.333333333333336
500.0   120.0   16.666666666666668
450.0   150.0   16.666666666666668
450.0   120.0   33.333333333333336
500.0   120.0   33.333333333333336
450.0   150.0   33.333333333333336
450.0   120.0   50.0
500.0   120.0   33.333333333333336
500.0   150.0   33.333333333333336
450.0   150.0   33.333333333333336
500.0   150.0   50.0
450.0   120.0   50.0
450.0   150.0   50.0
500.0   150.0   50.0
450.0   150.0   33.333333333333336
450.0   120.0   50.0
500.0   150.0   50.0
500.0   120.0   50.0
500.0   120.0   33.333333333333336
450.0   120.0   50.0
500.0   150.0   50.0
500.0   120.0   33.333333333333336
450.0   150.0   33.333333333333336
             </DataArray>   
          </Points>  
          <Cells>  
             <DataArray type="Int32" Name="connectivity" format="ascii">   
0   1   2   3
4   5   6   7
8   9   10   11
12   13   14   15
16   17   18   19
20   21   22   23
24   25   26   27
28   29   30   31
32   33   34   35
36   37   38   39
40   41   42   43
44   45   46   47
48   49   50   51
52   53   54   55
56   57   58   59
60   61   62   63
64   65   66   67
68   69   70   71
72   73   74   75
76   77   78   79
80   81   82   83
84   85   86   87
88   89   90   91
92   93   94   95
96   97   98   99
100   101   102   103
104   105   106   107
108   109   110   111
112   113   114   115
116   117   118   119
120   121   122   123
124   125   126   127
128   129   130   131
132   133   134   135
136   137   138   139
140   141   142   143
144   145   146   147
148   149   150   151
152   153   154   155
156   157   158   159
160   161   162   163
164   165   166   167
168   169   170   171
172   173   174   175
176   177   178   179
180   181   182   183
184   185   186   187
188   189   190   191
192   193   194   195
196   197   198   199
200   201   202   203
204   205   206   207
208   209   210   211
212   213   214   215
216   217   218   219
220   221   222   223
224   225   226   227
228   229   230   231
232   233   234   235
236   237   238   239
240   241   242   243
244   245   246   247
248   249   250   251
252   253   254   255
256   257   258   259
260   261   262   263
264   265   266   267
268   269   270   271
272   273   274   275
276   277   278   279
280   281   282   283
284   285   286   287
288   289   290   291
292   293   294   295
296   297   298   299
300   301   302   303
304   305   306   307
308   309   310   311
312   313   314   315
316   317   318   319
320   321   322   323
324   325   326   327
328   329   330   331
332   333   334   335
336   337   338   339
340   341   342   343
344   345   346   347
348   349   350   351
352   353   354   355
356   357   358   359
360   361   362   363
364   365   366   367
368   369   370   371
372   373   374   375
376   377   378   379
380   381   382   383
384   385   386   387
388   389   390   391
392   393   394   395
396   397   398   399
400   401   402   403
404   405   406   407
408   409   410   411
412   413   414   415
416   417   418   419
420   421   422   423
424   425   426   427
428   429   430   431
432   433   434   435
436   437   438   439
440   441   442   443
444   445   446   447
448   449   450   451
452   453   454   455
456   457   458   459
460   461   462   463
464   465   466   467
468   469   470   471
472   473   474   475
476   477   478   479
480   481   482   483
484   485   486   487
488   489   490   491
492   493   494   495
496   497   498   499
500   501   502   503
504   505   506   507
508   509   510   511
512   513   514   515
516   517   518   519
520   521   522   523
524   525   526   527
528   529   530   531
532   533   534   535
536   537   538   539
540   541   542   543
544   545   546   547
548   549   550   551
552   553   554   555
556   557   558   559
560   561   562   563
564   565   566   567
568   569   570   571
572   573   574   575
576   577   578   579
580   581   582   583
584   585   586   587
588   589   590   591
592   593   594   595
596   597   598   599
600   601   602   603
604   605   606   607
608   609   610   611
612   613   614   615
616   617   618   619
620   621   622   623
624   625   626   627
628   629   630   631
632   633   634   635
636   637   638   639
640   641   642   643
644   645   646   647
648   649   650   651
652   653   654   655
656   657   658   659
660   661   662   663
664   665   666   667
668   669   670   671
672   673   674   675
676   677   678   679
680   681   682   683
684   685   686   687
688   689   690   691
692   693   694   695
696   697   698   699
700   701   702   703
704   705   706   707
708   709   710   711
712   713   714   715
716   717   718   719
720   721   722   723
724   725   726   727
728   729   730   731
732   733   734   735
736   737   738   739
740   741   742   743
744   745   746   747
748   749   750   751
752   753   754   755
756   757   758   759
760   761   762   763
764   765   766   767
768   769   770   771
772   773   774   775
776   777   778   779
780   781   782   783
784   785   786   787
788   789   790   791
792   793   794   795
796   797   798   799
800   801   802   803
804   805   806   807
808   809   810   811
812   813   814   815
816   817   818   819
820   821   822   823
824   825   826   827
828   829   830   831
832   833   834   835
836   837   838   839
840   841   842   843
844   845   846   847
848   849   850   851
852   853   854   855
856   857   858   859
860   861   862   863
864   865   866   867
868   869   870   871
872   873   874   875
876   877   878   879
880   881   882   883
884   885   886   887
888   889   890   891
892   893   894   895
896   897   898   899
900   901   902   903
904   905   906   907
908   909   910   911
912   913   914   915
916   917   918   919
920   921   922   923
924   925   926   927
928   929   930   931
932   933   934   935
936   937   938   939
940   941   942   943
944   945   946   947
948   949   950   951
952   953   954   955
956   957   958   959
960   961   962   963
964   965   966   967
968   969   970   971
972   973   974   975
976   977   978   979
980   981   982   983
984   985   986   987
988   989   990   991
992   993   994   995
996   997   998   999
1000   1001   1002   1003
1004   1005   1006   1007
1008   1009   1010   1011
1012   1013   1014   1015
1016   1017   1018   1019
1020   1021   1022   1023
1024   1025   1026   1027
1028   1029   1030   1031
1032   1033   1034   1035
1036   1037   1038   1039
1040   1041   1042   1043
1044   1045   1046   1047
1048   1049   1050   1051
1052   1053   1054   1055
1056   1057   1058   1059
1060   1061   1062   1063
1064   1065   1066   1067
1068   1069   1070   1071
1072   1073   1074   1075
1076   1077   1078   1079
1080   1081   1082   1083
1084   1085   1086   1087
1088   1089   1090   1091
1092   1093   1094   1095
1096   1097   1098   1099
1100   1101   1102   1103
1104   1105   1106   1107
1108   1109   1110   1111
1112   1113   1114   1115
1116   1117   1118   1119
1120   1121   1122   1123
1124   1125   1126   1127
1128   1129   1130   1131
1132   1133   1134   1135
1136   1137   1138   1139
1140   1141   1142   1143
1144   1145   1146   1147
1148   1149   1150   1151
1152   1153   1154   1155
1156   1157   1158   1159
1160   1161   1162   1163
1164   1165   1166   1167
1168   1169   1170   1171
1172   1173   1174   1175
1176   1177   1178   1179
1180   1181   1182   1183
1184   1185   1186   1187
1188   1189   1190   1191
1192   1193   1194   1195
1196   1197   1198   1199
1200   1201   1202   1203
1204   1205   1206   1207
1208   1209   1210   1211
1212   1213   1214   1215
1216   1217   1218   1219
1220   1221   1222   1223
1224   1225   1226   1227
1228   1229   1230   1231
1232   1233   1234   1235
1236   1237   1238   1239
1240   1241   1242   1243
1244   1245   1246   1247
1248   1249   1250   1251
1252   1253   1254   1255
1256   1257   1258   1259
1260   1261   1262   1263
1264   1265   1266   1267
1268   1269   1270   1271
1272   1273   1274   1275
1276   1277   1278   1279
1280   1281   1282   1283
1284   1285   1286   1287
1288   1289   1290   1291
1292   1293   1294   1295
1296   1297   1298   1299
1300   1301   1302   1303
1304   1305   1306   1307
1308   1309   1310   1311
1312   1313   1314   1315
1316   1317   1318   1319
1320   1321   1322   1323
1324   1325   1326   1327
1328   1329   1330   1331
1332   1333   1334   1335
1336   1337   1338   1339
1340   1341   1342   1343
1344   1345   1346   1347
1348   1349   1350   1351
1352   1353   1354   1355
1356   1357   1358   1359
1360   1361   1362   1363
1364   1365   1366   1367
1368   1369   1370   1371
1372   1373   1374   1375
1376   1377   1378   1379
1380   1381   1382   1383
1384   1385   1386   1387
1388   1389   1390   1391
1392   1393   1394   1395
1396   1397   1398   1399
1400   1401   1402   1403
1404   1405   1406   1407
1408   1409   1410   1411
1412   1413   1414   1415
1416   1417   1418   1419
1420   1421   1422   1423
1424   1425   1426   1427
1428   1429   1430   1431
1432   1433   1434   1435
1436   1437   1438   1439
1440   1441   1442   1443
1444   1445   1446   1447
1448   1449   1450   1451
1452   1453   1454   1455
1456   1457   1458   1459
1460   1461   1462   1463
1464   1465   1466   1467
1468   1469   1470   1471
1472   1473   1474   1475
1476   1477   1478   1479
1480   1481   1482   1483
1484   1485   1486   1487
1488   1489   1490   1491
1492   1493   1494   1495
1496   1497   1498   1499
1500   1501   1502   1503
1504   1505   1506   1507
1508   1509   1510   1511
1512   1513   1514   1515
1516   1517   1518   1519
1520   1521   1522   1523
1524   1525   1526   1527
1528   1529   1530   1531
1532   1533   1534   1535
1536   1537   1538   1539
1540   1541   1542   1543
1544   1545   1546   1547
1548   1549   1550   1551
1552   1553   1554   1555
1556   1557   1558   1559
1560   1561   1562   1563
1564   1565   1566   1567
1568   1569   1570   1571
1572   1573   1574   1575
1576   1577   1578   1579
1580   1581   1582   1583
1584   1585   1586   1587
1588   1589   1590   1591
1592   1593   1594   1595
1596   1597   1598   1599
1600   1601   1602   1603
1604   1605   1606   1607
1608   1609   1610   1611
1612   1613   1614   1615
1616   1617   1618   1619
1620   1621   1622   1623
1624   1625   1626   1627
1628   1629   1630   1631
1632   1633   1634   1635
1636   1637   1638   1639
1640   1641   1642   1643
1644   1645   1646   1647
1648   1649   1650   1651
1652   1653   1654   1655
1656   1657   1658   1659
1660   1661   1662   1663
1664   1665   1666   1667
1668   1669   1670   1671
1672   1673   1674   1675
1676   1677   1678   1679
1680   1681   1682   1683
1684   1685   1686   1687
1688   1689   1690   1691
1692   1693   1694   1695
1696   1697   1698   1699
1700   1701   1702   1703
1704   1705   1706   1707
1708   1709   1710   1711
1712   1713   1714   1715
1716   1717   1718   1719
1720   1721   1722   1723
1724   1725   1726   1727
1728   1729   1730   1731
1732   1733   1734   1735
1736   1737   1738   1739
1740   1741   1742   1743
1744   1745   1746   1747
1748   1749   1750   1751
1752   1753   1754   1755
1756   1757   1758   1759
1760   1761   1762   1763
1764   1765   1766   1767
1768   1769   1770   1771
1772   1773   1774   1775
1776   1777   1778   1779
1780   1781   1782   1783
1784   1785   1786   1787
1788   1789   1790   1791
1792   1793   1794   1795
1796   1797   1798   1799
1800   1801   1802   1803
1804   1805   1806   1807
1808   1809   1810   1811
1812   1813   1814   1815
1816   1817   1818   1819
1820   1821   1822   1823
1824   1825   1826   1827
1828   1829   1830   1831
1832   1833   1834   1835
1836   1837   1838   1839
1840   1841   1842   1843
1844   1845   1846   1847
1848   1849   1850   1851
1852   1853   1854   1855
1856   1857   1858   1859
1860   1861   1862   1863
1864   1865   1866   1867
1868   1869   1870   1871
1872   1873   1874   1875
1876   1877   1878   1879
1880   1881   1882   1883
1884   1885   1886   1887
1888   1889   1890   1891
1892   1893   1894   1895
1896   1897   1898   1899
1900   1901   1902   1903
1904   1905   1906   1907
1908   1909   1910   1911
1912   1913   1914   1915
1916   1917   1918   1919
1920   1921   1922   1923
1924   1925   1926   1927
1928   1929   1930   1931
1932   1933   1934   1935
1936   1937   1938   1939
1940   1941   1942   1943
1944   1945   1946   1947
1948   1949   1950   1951
1952   1953   1954   1955
1956   1957   1958   1959
1960   1961   1962   1963
1964   1965   1966   1967
1968   1969   1970   1971
1972   1973   1974   1975
1976   1977   1978   1979
1980   1981   1982   1983
1984   1985   1986   1987
1988   1989   1990   1991
1992   1993   1994   1995
1996   1997   1998   1999
2000   2001   2002   2003
2004   2005   2006   2007
2008   2009   2010   2011
2012   2013   2014   2015
2016   2017   2018   2019
2020   2021   2022   2023
2024   2025   2026   2027
2028   2029   2030   2031
2032   2033   2034   2035
2036   2037   2038   2039
2040   2041   2042   2043
2044   2045   2046   2047
2048   2049   2050   2051
2052   2053   2054   2055
2056   2057   2058   2059
2060   2061   2062   2063
2064   2065   2066   2067
2068   2069   2070   2071
2072   2073   2074   2075
2076   2077   2078   2079
2080   2081   2082   2083
2084   2085   2086   2087
2088   2089   2090   2091
2092   2093   2094   2095
2096   2097   2098   2099
2100   2101   2102   2103
2104   2105   2106   2107
2108   2109   2110   2111
2112   2113   2114   2115
2116   2117   2118   2119
2120   2121   2122   2123
2124   2125   2126   2127
2128   2129   2130   2131
2132   2133   2134   2135
2136   2137   2138   2139
2140   2141   2142   2143
2144   2145   2146   2147
2148   2149   2150   2151
2152   2153   2154   2155
2156   2157   2158   2159
2160   2161   2162   2163
2164   2165   2166   2167
2168   2169   2170   2171
2172   2173   2174   2175
2176   2177   2178   2179
2180   2181   2182   2183
2184   2185   2186   2187
2188   2189   2190   2191
2192   2193   2194   2195
2196   2197   2198   2199
2200   2201   2202   2203
2204   2205   2206   2207
2208   2209   2210   2211
2212   2213   2214   2215
2216   2217   2218   2219
2220   2221   2222   2223
2224   2225   2226   2227
2228   2229   2230   2231
2232   2233   2234   2235
2236   2237   2238   2239
2240   2241   2242   2243
2244   2245   2246   2247
2248   2249   2250   2251
2252   2253   2254   2255
2256   2257   2258   2259
2260   2261   2262   2263
2264   2265   2266   2267
2268   2269   2270   2271
2272   2273   2274   2275
2276   2277   2278   2279
2280   2281   2282   2283
2284   2285   2286   2287
2288   2289   2290   2291
2292   2293   2294   2295
2296   2297   2298   2299
2300   2301   2302   2303
2304   2305   2306   2307
2308   2309   2310   2311
2312   2313   2314   2315
2316   2317   2318   2319
2320   2321   2322   2323
2324   2325   2326   2327
2328   2329   2330   2331
2332   2333   2334   2335
2336   2337   2338   2339
2340   2341   2342   2343
2344   2345   2346   2347
2348   2349   2350   2351
2352   2353   2354   2355
2356   2357   2358   2359
2360   2361   2362   2363
2364   2365   2366   2367
2368   2369   2370   2371
2372   2373   2374   2375
2376   2377   2378   2379
2380   2381   2382   2383
2384   2385   2386   2387
2388   2389   2390   2391
2392   2393   2394   2395
2396   2397   2398   2399
2400   2401   2402   2403
2404   2405   2406   2407
2408   2409   2410   2411
2412   2413   2414   2415
2416   2417   2418   2419
2420   2421   2422   2423
2424   2425   2426   2427
2428   2429   2430   2431
2432   2433   2434   2435
2436   2437   2438   2439
2440   2441   2442   2443
2444   2445   2446   2447
2448   2449   2450   2451
2452   2453   2454   2455
2456   2457   2458   2459
2460   2461   2462   2463
2464   2465   2466   2467
2468   2469   2470   2471
2472   2473   2474   2475
2476   2477   2478   2479
2480   2481   2482   2483
2484   2485   2486   2487
2488   2489   2490   2491
2492   2493   2494   2495
2496   2497   2498   2499
2500   2501   2502   2503
2504   2505   2506   2507
2508   2509   2510   2511
2512   2513   2514   2515
2516   2517   2518   2519
2520   2521   2522   2523
2524   2525   2526   2527
2528   2529   2530   2531
2532   2533   2534   2535
2536   2537   2538   2539
2540   2541   2542   2543
2544   2545   2546   2547
2548   2549   2550   2551
2552   2553   2554   2555
2556   2557   2558   2559
2560   2561   2562   2563
2564   2565   2566   2567
2568   2569   2570   2571
2572   2573   2574   2575
2576   2577   2578   2579
2580   2581   2582   2583
2584   2585   2586   2587
2588   2589   2590   2591
2592   2593   2594   2595
2596   2597   2598   2599
2600   2601   2602   2603
2604   2605   2606   2607
2608   2609   2610   2611
2612   2613   2614   2615
2616   2617   2618   2619
2620   2621   2622   2623
2624   2625   2626   2627
2628   2629   2630   2631
2632   2633   2634   2635
2636   2637   2638   2639
2640   2641   2642   2643
2644   2645   2646   2647
2648   2649   2650   2651
2652   2653   2654   2655
2656   2657   2658   2659
2660   2661   2662   2663
2664   2665   2666   2667
2668   2669   2670   2671
2672   2673   2674   2675
2676   2677   2678   2679
2680   2681   2682   2683
2684   2685   2686   2687
2688   2689   2690   2691
2692   2693   2694   2695
2696   2697   2698   2699
2700   2701   2702   2703
2704   2705   2706   2707
2708   2709   2710   2711
2712   2713   2714   2715
2716   2717   2718   2719
2720   2721   2722   2723
2724   2725   2726   2727
2728   2729   2730   2731
2732   2733   2734   2735
2736   2737   2738   2739
2740   2741   2742   2743
2744   2745   2746   2747
2748   2749   2750   2751
2752   2753   2754   2755
2756   2757   2758   2759
2760   2761   2762   2763
2764   2765   2766   2767
2768   2769   2770   2771
2772   2773   2774   2775
2776   2777   2778   2779
2780   2781   2782   2783
2784   2785   2786   2787
2788   2789   2790   2791
2792   2793   2794   2795
2796   2797   2798   2799
2800   2801   2802   2803
2804   2805   2806   2807
2808   2809   2810   2811
2812   2813   2814   2815
2816   2817   2818   2819
2820   2821   2822   2823
2824   2825   2826   2827
2828   2829   2830   2831
2832   2833   2834   2835
2836   2837   2838   2839
2840   2841   2842   2843
2844   2845   2846   2847
2848   2849   2850   2851
2852   2853   2854   2855
2856   2857   2858   2859
2860   2861   2862   2863
2864   2865   2866   2867
2868   2869   2870   2871
2872   2873   2874   2875
2876   2877   2878   2879
2880   2881   2882   2883
2884   2885   2886   2887
2888   2889   2890   2891
2892   2893   2894   2895
2896   2897   2898   2899
2900   2901   2902   2903
2904   2905   2906   2907
2908   2909   2910   2911
2912   2913   2914   2915
2916   2917   2918   2919
2920   2921   2922   2923
2924   2925   2926   2927
2928   2929   2930   2931
2932   2933   2934   2935
2936   2937   2938   2939
2940   2941   2942   2943
2944   2945   2946   2947
2948   2949   2950   2951
2952   2953   2954   2955
2956   2957   2958   2959
2960   2961   2962   2963
2964   2965   2966   2967
2968   2969   2970   2971
2972   2973   2974   2975
2976   2977   2978   2979
2980   2981   2982   2983
2984   2985   2986   2987
2988   2989   2990   2991
2992   2993   2994   2995
2996   2997   2998   2999
3000   3001   3002   3003
3004   3005   3006   3007
3008   3009   3010   3011
3012   3013   3014   3015
3016   3017   3018   3019
3020   3021   3022   3023
3024   3025   3026   3027
3028   3029   3030   3031
3032   3033   3034   3035
3036   3037   3038   3039
3040   3041   3042   3043
3044   3045   3046   3047
3048   3049   3050   3051
3052   3053   3054   3055
3056   3057   3058   3059
3060   3061   3062   3063
3064   3065   3066   3067
3068   3069   3070   3071
3072   3073   3074   3075
3076   3077   3078   3079
3080   3081   3082   3083
3084   3085   3086   3087
3088   3089   3090   3091
3092   3093   3094   3095
3096   3097   3098   3099
3100   3101   3102   3103
3104   3105   3106   3107
3108   3109   3110   3111
3112   3113   3114   3115
3116   3117   3118   3119
3120   3121   3122   3123
3124   3125   3126   3127
3128   3129   3130   3131
3132   3133   3134   3135
3136   3137   3138   3139
3140   3141   3142   3143
3144   3145   3146   3147
3148   3149   3150   3151
3152   3153   3154   3155
3156   3157   3158   3159
3160   3161   3162   3163
3164   3165   3166   3167
3168   3169   3170   3171
3172   3173   3174   3175
3176   3177   3178   3179
3180   3181   3182   3183
3184   3185   3186   3187
3188   3189   3190   3191
3192   3193   3194   3195
3196   3197   3198   3199
3200   3201   3202   3203
3204   3205   3206   3207
3208   3209   3210   3211
3212   3213   3214   3215
3216   3217   3218   3219
3220   3221   3222   3223
3224   3225   3226   3227
3228   3229   3230   3231
3232   3233   3234   3235
3236   3237   3238   3239
3240   3241   3242   3243
3244   3245   3246   3247
3248   3249   3250   3251
3252   3253   3254   3255
3256   3257   3258   3259
3260   3261   3262   3263
3264   3265   3266   3267
3268   3269   3270   3271
3272   3273   3274   3275
3276   3277   3278   3279
3280   3281   3282   3283
3284   3285   3286   3287
3288   3289   3290   3291
3292   3293   3294   3295
3296   3297   3298   3299
3300   3301   3302   3303
3304   3305   3306   3307
3308   3309   3310   3311
3312   3313   3314   3315
3316   3317   3318   3319
3320   3321   3322   3323
3324   3325   3326   3327
3328   3329   3330   3331
3332   3333   3334   3335
3336   3337   3338   3339
3340   3341   3342   3343
3344   3345   3346   3347
3348   3349   3350   3351
3352   3353   3354   3355
3356   3357   3358   3359
3360   3361   3362   3363
3364   3365   3366   3367
3368   3369   3370   3371
3372   3373   3374   3375
3376   3377   3378   3379
3380   3381   3382   3383
3384   3385   3386   3387
3388   3389   3390   3391
3392   3393   3394   3395
3396   3397   3398   3399
3400   3401   3402   3403
3404   3405   3406   3407
3408   3409   3410   3411
3412   3413   3414   3415
3416   3417   3418   3419
3420   3421   3422   3423
3424   3425   3426   3427
3428   3429   3430   3431
3432   3433   3434   3435
3436   3437   3438   3439
3440   3441   3442   3443
3444   3445   3446   3447
3448   3449   3450   3451
3452   3453   3454   3455
3456   3457   3458   3459
3460   3461   3462   3463
3464   3465   3466   3467
3468   3469   3470   3471
3472   3473   3474   3475
3476   3477   3478   3479
3480   3481   3482   3483
3484   3485   3486   3487
3488   3489   3490   3491
3492   3493   3494   3495
3496   3497   3498   3499
3500   3501   3502   3503
3504   3505   3506   3507
3508   3509   3510   3511
3512   3513   3514   3515
3516   3517   3518   3519
3520   3521   3522   3523
3524   3525   3526   3527
3528   3529   3530   3531
3532   3533   3534   3535
3536   3537   3538   3539
3540   3541   3542   3543
3544   3545   3546   3547
3548   3549   3550   3551
3552   3553   3554   3555
3556   3557   3558   3559
3560   3561   3562   3563
3564   3565   3566   3567
3568   3569   3570   3571
3572   3573   3574   3575
3576   3577   3578   3579
3580   3581   3582   3583
3584   3585   3586   3587
3588   3589   3590   3591
3592   3593   3594   3595
3596   3597   3598   3599
3600   3601   3602   3603
3604   3605   3606   3607
3608   3609   3610   3611
3612   3613   3614   3615
3616   3617   3618   3619
3620   3621   3622   3623
3624   3625   3626   3627
3628   3629   3630   3631
3632   3633   3634   3635
3636   3637   3638   3639
3640   3641   3642   3643
3644   3645   3646   3647
3648   3649   3650   3651
3652   3653   3654   3655
3656   3657   3658   3659
3660   3661   3662   3663
3664   3665   3666   3667
3668   3669   3670   3671
3672   3673   3674   3675
3676   3677   3678   3679
3680   3681   3682   3683
3684   3685   3686   3687
3688   3689   3690   3691
3692   3693   3694   3695
3696   3697   3698   3699
3700   3701   3702   3703
3704   3705   3706   3707
3708   3709   3710   3711
3712   3713   3714   3715
3716   3717   3718   3719
3720   3721   3722   3723
3724   3725   3726   3727
3728   3729   3730   3731
3732   3733   3734   3735
3736   3737   3738   3739
3740   3741   3742   3743
3744   3745   3746   3747
3748   3749   3750   3751
3752   3753   3754   3755
3756   3757   3758   3759
3760   3761   3762   3763
3764   3765   3766   3767
3768   3769   3770   3771
3772   3773   3774   3775
3776   3777   3778   3779
3780   3781   3782   3783
3784   3785   3786   3787
3788   3789   3790   3791
3792   3793   3794   3795
3796   3797   3798   3799
3800   3801   3802   3803
3804   3805   3806   3807
3808   3809   3810   3811
3812   3813   3814   3815
3816   3817   3818   3819
3820   3821   3822   3823
3824   3825   3826   3827
3828   3829   3830   3831
3832   3833   3834   3835
3836   3837   3838   3839
3840   3841   3842   3843
3844   3845   3846   3847
3848   3849   3850   3851
3852   3853   3854   3855
3856   3857   3858   3859
3860   3861   3862   3863
3864   3865   3866   3867
3868   3869   3870   3871
3872   3873   3874   3875
3876   3877   3878   3879
3880   3881   3882   3883
3884   3885   3886   3887
3888   3889   3890   3891
3892   3893   3894   3895
3896   3897   3898   3899
3900   3901   3902   3903
3904   3905   3906   3907
3908   3909   3910   3911
3912   3913   3914   3915
3916   3917   3918   3919
3920   3921   3922   3923
3924   3925   3926   3927
3928   3929   3930   3931
3932   3933   3934   3935
3936   3937   3938   3939
3940   3941   3942   3943
3944   3945   3946   3947
3948   3949   3950   3951
3952   3953   3954   3955
3956   3957   3958   3959
3960   3961   3962   3963
3964   3965   3966   3967
3968   3969   3970   3971
3972   3973   3974   3975
3976   3977   3978   3979
3980   3981   3982   3983
3984   3985   3986   3987
3988   3989   3990   3991
3992   3993   3994   3995
3996   3997   3998   3999
4000   4001   4002   4003
4004   4005   4006   4007
4008   4009   4010   4011
4012   4013   4014   4015
4016   4017   4018   4019
4020   4021   4022   4023
4024   4025   4026   4027
4028   4029   4030   4031
4032   4033   4034   4035
4036   4037   4038   4039
4040   4041   4042   4043
4044   4045   4046   4047
4048   4049   4050   4051
4052   4053   4054   4055
4056   4057   4058   4059
4060   4061   4062   4063
4064   4065   4066   4067
4068   4069   4070   4071
4072   4073   4074   4075
4076   4077   4078   4079
4080   4081   4082   4083
4084   4085   4086   4087
4088   4089   4090   4091
4092   4093   4094   4095
4096   4097   4098   4099
4100   4101   4102   4103
4104   4105   4106   4107
4108   4109   4110   4111
4112   4113   4114   4115
4116   4117   4118   4119
4120   4121   4122   4123
4124   4125   4126   4127
4128   4129   4130   4131
4132   4133   4134   4135
4136   4137   4138   4139
4140   4141   4142   4143
4144   4145   4146   4147
4148   4149   4150   4151
4152   4153   4154   4155
4156   4157   4158   4159
4160   4161   4162   4163
4164   4165   4166   4167
4168   4169   4170   4171
4172   4173   4174   4175
4176   4177   4178   4179
4180   4181   4182   4183
4184   4185   4186   4187
4188   4189   4190   4191
4192   4193   4194   4195
4196   4197   4198   4199
4200   4201   4202   4203
4204   4205   4206   4207
4208   4209   4210   4211
4212   4213   4214   4215
4216   4217   4218   4219
4220   4221   4222   4223
4224   4225   4226   4227
4228   4229   4230   4231
4232   4233   4234   4235
4236   4237   4238   4239
4240   4241   4242   4243
4244   4245   4246   4247
4248   4249   4250   4251
4252   4253   4254   4255
4256   4257   4258   4259
4260   4261   4262   4263
4264   4265   4266   4267
4268   4269   4270   4271
4272   4273   4274   4275
4276   4277   4278   4279
4280   4281   4282   4283
4284   4285   4286   4287
4288   4289   4290   4291
4292   4293   4294   4295
4296   4297   4298   4299
4300   4301   4302   4303
4304   4305   4306   4307
4308   4309   4310   4311
4312   4313   4314   4315
4316   4317   4318   4319
4320   4321   4322   4323
4324   4325   4326   4327
4328   4329   4330   4331
4332   4333   4334   4335
4336   4337   4338   4339
4340   4341   4342   4343
4344   4345   4346   4347
4348   4349   4350   4351
4352   4353   4354   4355
4356   4357   4358   4359
4360   4361   4362   4363
4364   4365   4366   4367
4368   4369   4370   4371
4372   4373   4374   4375
4376   4377   4378   4379
4380   4381   4382   4383
4384   4385   4386   4387
4388   4389   4390   4391
4392   4393   4394   4395
4396   4397   4398   4399
4400   4401   4402   4403
4404   4405   4406   4407
4408   4409   4410   4411
4412   4413   4414   4415
4416   4417   4418   4419
4420   4421   4422   4423
4424   4425   4426   4427
4428   4429   4430   4431
4432   4433   4434   4435
4436   4437   4438   4439
4440   4441   4442   4443
4444   4445   4446   4447
4448   4449   4450   4451
4452   4453   4454   4455
4456   4457   4458   4459
4460   4461   4462   4463
4464   4465   4466   4467
4468   4469   4470   4471
4472   4473   4474   4475
4476   4477   4478   4479
4480   4481   4482   4483
4484   4485   4486   4487
4488   4489   4490   4491
4492   4493   4494   4495
4496   4497   4498   4499
4500   4501   4502   4503
4504   4505   4506   4507
4508   4509   4510   4511
4512   4513   4514   4515
4516   4517   4518   4519
4520   4521   4522   4523
4524   4525   4526   4527
4528   4529   4530   4531
4532   4533   4534   4535
4536   4537   4538   4539
4540   4541   4542   4543
4544   4545   4546   4547
4548   4549   4550   4551
4552   4553   4554   4555
4556   4557   4558   4559
4560   4561   4562   4563
4564   4565   4566   4567
4568   4569   4570   4571
4572   4573   4574   4575
4576   4577   4578   4579
4580   4581   4582   4583
4584   4585   4586   4587
4588   4589   4590   4591
4592   4593   4594   4595
4596   4597   4598   4599
4600   4601   4602   4603
4604   4605   4606   4607
4608   4609   4610   4611
4612   4613   4614   4615
4616   4617   4618   4619
4620   4621   4622   4623
4624   4625   4626   4627
4628   4629   4630   4631
4632   4633   4634   4635
4636   4637   4638   4639
4640   4641   4642   4643
4644   4645   4646   4647
4648   4649   4650   4651
4652   4653   4654   4655
4656   4657   4658   4659
4660   4661   4662   4663
4664   4665   4666   4667
4668   4669   4670   4671
4672   4673   4674   4675
4676   4677   4678   4679
4680   4681   4682   4683
4684   4685   4686   4687
4688   4689   4690   4691
4692   4693   4694   4695
4696   4697   4698   4699
4700   4701   4702   4703
4704   4705   4706   4707
4708   4709   4710   4711
4712   4713   4714   4715
4716   4717   4718   4719
4720   4721   4722   4723
4724   4725   4726   4727
4728   4729   4730   4731
4732   4733   4734   4735
4736   4737   4738   4739
4740   4741   4742   4743
4744   4745   4746   4747
4748   4749   4750   4751
4752   4753   4754   4755
4756   4757   4758   4759
4760   4761   4762   4763
4764   4765   4766   4767
4768   4769   4770   4771
4772   4773   4774   4775
4776   4777   4778   4779
4780   4781   4782   4783
4784   4785   4786   4787
4788   4789   4790   4791
4792   4793   4794   4795
4796   4797   4798   4799
4800   4801   4802   4803
4804   4805   4806   4807
4808   4809   4810   4811
4812   4813   4814   4815
4816   4817   4818   4819
4820   4821   4822   4823
4824   4825   4826   4827
4828   4829   4830   4831
4832   4833   4834   4835
4836   4837   4838   4839
4840   4841   4842   4843
4844   4845   4846   4847
4848   4849   4850   4851
4852   4853   4854   4855
4856   4857   4858   4859
4860   4861   4862   4863
4864   4865   4866   4867
4868   4869   4870   4871
4872   4873   4874   4875
4876   4877   4878   4879
4880   4881   4882   4883
4884   4885   4886   4887
4888   4889   4890   4891
4892   4893   4894   4895
4896   4897   4898   4899
4900   4901   4902   4903
4904   4905   4906   4907
4908   4909   4910   4911
4912   4913   4914   4915
4916   4917   4918   4919
4920   4921   4922   4923
4924   4925   4926   4927
4928   4929   4930   4931
4932   4933   4934   4935
4936   4937   4938   4939
4940   4941   4942   4943
4944   4945   4946   4947
4948   4949   4950   4951
4952   4953   4954   4955
4956   4957   4958   4959
4960   4961   4962   4963
4964   4965   4966   4967
4968   4969   4970   4971
4972   4973   4974   4975
4976   4977   4978   4979
4980   4981   4982   4983
4984   4985   4986   4987
4988   4989   4990   4991
4992   4993   4994   4995
4996   4997   4998   4999
5000   5001   5002   5003
5004   5005   5006   5007
5008   5009   5010   5011
5012   5013   5014   5015
5016   5017   5018   5019
5020   5021   5022   5023
5024   5025   5026   5027
5028   5029   5030   5031
5032   5033   5034   5035
5036   5037   5038   5039
5040   5041   5042   5043
5044   5045   5046   5047
5048   5049   5050   5051
5052   5053   5054   5055
5056   5057   5058   5059
5060   5061   5062   5063
5064   5065   5066   5067
5068   5069   5070   5071
5072   5073   5074   5075
5076   5077   5078   5079
5080   5081   5082   5083
5084   5085   5086   5087
5088   5089   5090   5091
5092   5093   5094   5095
5096   5097   5098   5099
5100   5101   5102   5103
5104   5105   5106   5107
5108   5109   5110   5111
5112   5113   5114   5115
5116   5117   5118   5119
5120   5121   5122   5123
5124   5125   5126   5127
5128   5129   5130   5131
5132   5133   5134   5135
5136   5137   5138   5139
5140   5141   5142   5143
5144   5145   5146   5147
5148   5149   5150   5151
5152   5153   5154   5155
5156   5157   5158   5159
5160   5161   5162   5163
5164   5165   5166   5167
5168   5169   5170   5171
5172   5173   5174   5175
5176   5177   5178   5179
5180   5181   5182   5183
5184   5185   5186   5187
5188   5189   5190   5191
5192   5193   5194   5195
5196   5197   5198   5199
5200   5201   5202   5203
5204   5205   5206   5207
5208   5209   5210   5211
5212   5213   5214   5215
5216   5217   5218   5219
5220   5221   5222   5223
5224   5225   5226   5227
5228   5229   5230   5231
5232   5233   5234   5235
5236   5237   5238   5239
5240   5241   5242   5243
5244   5245   5246   5247
5248   5249   5250   5251
5252   5253   5254   5255
5256   5257   5258   5259
5260   5261   5262   5263
5264   5265   5266   5267
5268   5269   5270   5271
5272   5273   5274   5275
5276   5277   5278   5279
5280   5281   5282   5283
5284   5285   5286   5287
5288   5289   5290   5291
5292   5293   5294   5295
5296   5297   5298   5299
5300   5301   5302   5303
5304   5305   5306   5307
5308   5309   5310   5311
5312   5313   5314   5315
5316   5317   5318   5319
5320   5321   5322   5323
5324   5325   5326   5327
5328   5329   5330   5331
5332   5333   5334   5335
5336   5337   5338   5339
5340   5341   5342   5343
5344   5345   5346   5347
5348   5349   5350   5351
5352   5353   5354   5355
5356   5357   5358   5359
5360   5361   5362   5363
5364   5365   5366   5367
5368   5369   5370   5371
5372   5373   5374   5375
5376   5377   5378   5379
5380   5381   5382   5383
5384   5385   5386   5387
5388   5389   5390   5391
5392   5393   5394   5395
5396   5397   5398   5399
5400   5401   5402   5403
5404   5405   5406   5407
5408   5409   5410   5411
5412   5413   5414   5415
5416   5417   5418   5419
5420   5421   5422   5423
5424   5425   5426   5427
5428   5429   5430   5431
5432   5433   5434   5435
5436   5437   5438   5439
5440   5441   5442   5443
5444   5445   5446   5447
5448   5449   5450   5451
5452   5453   5454   5455
5456   5457   5458   5459
5460   5461   5462   5463
5464   5465   5466   5467
5468   5469   5470   5471
5472   5473   5474   5475
5476   5477   5478   5479
5480   5481   5482   5483
5484   5485   5486   5487
5488   5489   5490   5491
5492   5493   5494   5495
5496   5497   5498   5499
5500   5501   5502   5503
5504   5505   5506   5507
5508   5509   5510   5511
5512   5513   5514   5515
5516   5517   5518   5519
5520   5521   5522   5523
5524   5525   5526   5527
5528   5529   5530   5531
5532   5533   5534   5535
5536   5537   5538   5539
5540   5541   5542   5543
5544   5545   5546   5547
5548   5549   5550   5551
5552   5553   5554   5555
5556   5557   5558   5559
5560   5561   5562   5563
5564   5565   5566   5567
5568   5569   5570   5571
5572   5573   5574   5575
5576   5577   5578   5579
5580   5581   5582   5583
5584   5585   5586   5587
5588   5589   5590   5591
5592   5593   5594   5595
5596   5597   5598   5599
5600   5601   5602   5603
5604   5605   5606   5607
5608   5609   5610   5611
5612   5613   5614   5615
5616   5617   5618   5619
5620   5621   5622   5623
5624   5625   5626   5627
5628   5629   5630   5631
5632   5633   5634   5635
5636   5637   5638   5639
5640   5641   5642   5643
5644   5645   5646   5647
5648   5649   5650   5651
5652   5653   5654   5655
5656   5657   5658   5659
5660   5661   5662   5663
5664   5665   5666   5667
5668   5669   5670   5671
5672   5673   5674   5675
5676   5677   5678   5679
5680   5681   5682   5683
5684   5685   5686   5687
5688   5689   5690   5691
5692   5693   5694   5695
5696   5697   5698   5699
5700   5701   5702   5703
5704   5705   5706   5707
5708   5709   5710   5711
5712   5713   5714   5715
5716   5717   5718   5719
5720   5721   5722   5723
5724   5725   5726   5727
5728   5729   5730   5731
5732   5733   5734   5735
5736   5737   5738   5739
5740   5741   5742   5743
5744   5745   5746   5747
5748   5749   5750   5751
5752   5753   5754   5755
5756   5757   5758   5759
5760   5761   5762   5763
5764   5765   5766   5767
5768   5769   5770   5771
5772   5773   5774   5775
5776   5777   5778   5779
5780   5781   5782   5783
5784   5785   5786   5787
5788   5789   5790   5791
5792   5793   5794   5795
5796   5797   5798   5799
5800   5801   5802   5803
5804   5805   5806   5807
5808   5809   5810   5811
5812   5813   5814   5815
5816   5817   5818   5819
5820   5821   5822   5823
5824   5825   5826   5827
5828   5829   5830   5831
5832   5833   5834   5835
5836   5837   5838   5839
5840   5841   5842   5843
5844   5845   5846   5847
5848   5849   5850   5851
5852   5853   5854   5855
5856   5857   5858   5859
5860   5861   5862   5863
5864   5865   5866   5867
5868   5869   5870   5871
5872   5873   5874   5875
5876   5877   5878   5879
5880   5881   5882   5883
5884   5885   5886   5887
5888   5889   5890   5891
5892   5893   5894   5895
5896   5897   5898   5899
5900   5901   5902   5903
5904   5905   5906   5907
5908   5909   5910   5911
5912   5913   5914   5915
5916   5917   5918   5919
5920   5921   5922   5923
5924   5925   5926   5927
5928   5929   5930   5931
5932   5933   5934   5935
5936   5937   5938   5939
5940   5941   5942   5943
5944   5945   5946   5947
5948   5949   5950   5951
5952   5953   5954   5955
5956   5957   5958   5959
5960   5961   5962   5963
5964   5965   5966   5967
5968   5969   5970   5971
5972   5973   5974   5975
5976   5977   5978   5979
5980   5981   5982   5983
5984   5985   5986   5987
5988   5989   5990   5991
5992   5993   5994   5995
5996   5997   5998   5999
              </DataArray>   
              <DataArray type="Int32" Name="offsets" format="ascii">   
4
8
12
16
20
24
28
32
36
40
44
48
52
56
60
64
68
72
76
80
84
88
92
96
100
104
108
112
116
120
124
128
132
136
140
144
148
152
156
160
164
168
172
176
180
184
188
192
196
200
204
208
212
216
220
224
228
232
236
240
244
248
252
256
260
264
268
272
276
280
284
288
292
296
300
304
308
312
316
320
324
328
332
336
340
344
348
352
356
360
364
368
372
376
380
384
388
392
396
400
404
408
412
416
420
424
428
432
436
440
444
448
452
456
460
464
468
472
476
480
484
488
492
496
500
504
508
512
516
520
524
528
532
536
540
544
548
552
556
560
564
568
572
576
580
584
588
592
596
600
604
608
612
616
620
624
628
632
636
640
644
648
652
656
660
664
668
672
676
680
684
688
692
696
700
704
708
712
716
720
724
728
732
736
740
744
748
752
756
760
764
768
772
776
780
784
788
792
796
800
804
808
812
816
820
824
828
832
836
840
844
848
852
856
860
864
868
872
876
880
884
888
892
896
900
904
908
912
916
920
924
928
932
936
940
944
948
952
956
960
964
968
972
976
980
984
988
992
996
1000
1004
1008
1012
1016
1020
1024
1028
1032
1036
1040
1044
1048
1052
1056
1060
1064
1068
1072
1076
1080
1084
1088
1092
1096
1100
1104
1108
1112
1116
1120
1124
1128
1132
1136
1140
1144
1148
1152
1156
1160
1164
1168
1172
1176
1180
1184
1188
1192
1196
1200
1204
1208
1212
1216
1220
1224
1228
1232
1236
1240
1244
1248
1252
1256
1260
1264
1268
1272
1276
1280
1284
1288
1292
1296
1300
1304
1308
1312
1316
1320
1324
1328
1332
1336
1340
1344
1348
1352
1356
1360
1364
1368
1372
1376
1380
1384
1388
1392
1396
1400
1404
1408
1412
1416
1420
1424
1428
1432
1436
1440
1444
1448
1452
1456
1460
1464
1468
1472
1476
1480
1484
1488
1492
1496
1500
1504
1508
1512
1516
1520
1524
1528
1532
1536
1540
1544
1548
1552
1556
1560
1564
1568
1572
1576
1580
1584
1588
1592
1596
1600
1604
1608
1612
1616
1620
1624
1628
1632
1636
1640
1644
1648
1652
1656
1660
1664
1668
1672
1676
1680
1684
1688
1692
1696
1700
1704
1708
1712
1716
1720
1724
1728
1732
1736
1740
1744
1748
1752
1756
1760
1764
1768
1772
1776
1780
1784
1788
1792
1796
1800
1804
1808
1812
1816
1820
1824
1828
1832
1836
1840
1844
1848
1852
1856
1860
1864
1868
1872
1876
1880
1884
1888
1892
1896
1900
1904
1908
1912
1916
1920
1924
1928
1932
1936
1940
1944
1948
1952
1956
1960
1964
1968
1972
1976
1980
1984
1988
1992
1996
2000
2004
2008
2012
2016
2020
2024
2028
2032
2036
2040
2044
2048
2052
2056
2060
2064
2068
2072
2076
2080
2084
2088
2092
2096
2100
2104
2108
2112
2116
2120
2124
2128
2132
2136
2140
2144
2148
2152
2156
2160
2164
2168
2172
2176
2180
2184
2188
2192
2196
2200
2204
2208
2212
2216
2220
2224
2228
2232
2236
2240
2244
2248
2252
2256
2260
2264
2268
2272
2276
2280
2284
2288
2292
2296
2300
2304
2308
2312
2316
2320
2324
2328
2332
2336
2340
2344
2348
2352
2356
2360
2364
2368
2372
2376
2380
2384
2388
2392
2396
2400
2404
2408
2412
2416
2420
2424
2428
2432
2436
2440
2444
2448
2452
2456
2460
2464
2468
2472
2476
2480
2484
2488
2492
2496
2500
2504
2508
2512
2516
2520
2524
2528
2532
2536
2540
2544
2548
2552
2556
2560
2564
2568
2572
2576
2580
2584
2588
2592
2596
2600
2604
2608
2612
2616
2620
2624
2628
2632
2636
2640
2644
2648
2652
2656
2660
2664
2668
2672
2676
2680
2684
2688
2692
2696
2700
2704
2708
2712
2716
2720
2724
2728
2732
2736
2740
2744
2748
2752
2756
2760
2764
2768
2772
2776
2780
2784
2788
2792
2796
2800
2804
2808
2812
2816
2820
2824
2828
2832
2836
2840
2844
2848
2852
2856
2860
2864
2868
2872
2876
2880
2884
2888
2892
2896
2900
2904
2908
2912
2916
2920
2924
2928
2932
2936
2940
2944
2948
2952
2956
2960
2964
2968
2972
2976
2980
2984
2988
2992
2996
3000
3004
3008
3012
3016
3020
3024
3028
3032
3036
3040
3044
3048
3052
3056
3060
3064
3068
3072
3076
3080
3084
3088
3092
3096
3100
3104
3108
3112
3116
3120
3124
3128
3132
3136
3140
3144
3148
3152
3156
3160
3164
3168
3172
3176
3180
3184
3188
3192
3196
3200
3204
3208
3212
3216
3220
3224
3228
3232
3236
3240
3244
3248
3252
3256
3260
3264
3268
3272
3276
3280
3284
3288
3292
3296
3300
3304
3308
3312
3316
3320
3324
3328
3332
3336
3340
3344
3348
3352
3356
3360
3364
3368
3372
3376
3380
3384
3388
3392
3396
3400
3404
3408
3412
3416
3420
3424
3428
3432
3436
3440
3444
3448
3452
3456
3460
3464
3468
3472
3476
3480
3484
3488
3492
3496
3500
3504
3508
3512
3516
3520
3524
3528
3532
3536
3540
3544
3548
3552
3556
3560
3564
3568
3572
3576
3580
3584
3588
3592
3596
3600
3604
3608
3612
3616
3620
3624
3628
3632
3636
3640
3644
3648
3652
3656
3660
3664
3668
3672
3676
3680
3684
3688
3692
3696
3700
3704
3708
3712
3716
3720
3724
3728
3732
3736
3740
3744
3748
3752
3756
3760
3764
3768
3772
3776
3780
3784
3788
3792
3796
3800
3804
3808
3812
3816
3820
3824
3828
3832
3836
3840
3844
3848
3852
3856
3860
3864
3868
3872
3876
3880
3884
3888
3892
3896
3900
3904
3908
3912
3916
3920
3924
3928
3932
3936
3940
3944
3948
3952
3956
3960
3964
3968
3972
3976
3980
3984
3988
3992
3996
4000
4004
4008
4012
4016
4020
4024
4028
4032
4036
4040
4044
4048
4052
4056
4060
4064
4068
4072
4076
4080
4084
4088
4092
4096
4100
4104
4108
4112
4116
4120
4124
4128
4132
4136
4140
4144
4148
4152
4156
4160
4164
4168
4172
4176
4180
4184
4188
4192
4196
4200
4204
4208
4212
4216
4220
4224
4228
4232
4236
4240
4244
4248
4252
4256
4260
4264
4268
4272
4276
4280
4284
4288
4292
4296
4300
4304
4308
4312
4316
4320
4324
4328
4332
4336
4340
4344
4348
4352
4356
4360
4364
4368
4372
4376
4380
4384
4388
4392
4396
4400
4404
4408
4412
4416
4420
4424
4428
4432
4436
4440
4444
4448
4452
4456
4460
4464
4468
4472
4476
4480
4484
4488
4492
4496
4500
4504
4508
4512
4516
4520
4524
4528
4532
4536
4540
4544
4548
4552
4556
4560
4564
4568
4572
4576
4580
4584
4588
4592
4596
4600
4604
4608
4612
4616
4620
4624
4628
4632
4636
4640
4644
4648
4652
4656
4660
4664
4668
4672
4676
4680
4684
4688
4692
4696
4700
4704
4708
4712
4716
4720
4724
4728
4732
4736
4740
4744
4748
4752
4756
4760
4764
4768
4772
4776
4780
4784
4788
4792
4796
4800
4804
4808
4812
4816
4820
4824
4828
4832
4836
4840
4844
4848
4852
4856
4860
4864
4868
4872
4876
4880
4884
4888
4892
4896
4900
4904
4908
4912
4916
4920
4924
4928
4932
4936
4940
4944
4948
4952
4956
4960
4964
4968
4972
4976
4980
4984
4988
4992
4996
5000
5004
5008
5012
5016
5020
5024
5028
5032
5036
5040
5044
5048
5052
5056
5060
5064
5068
5072
5076
5080
5084
5088
5092
5096
5100
5104
5108
5112
5116
5120
5124
5128
5132
5136
5140
5144
5148
5152
5156
5160
5164
5168
5172
5176
5180
5184
5188
5192
5196
5200
5204
5208
5212
5216
5220
5224
5228
5232
5236
5240
5244
5248
5252
5256
5260
5264
5268
5272
5276
5280
5284
5288
5292
5296
5300
5304
5308
5312
5316
5320
5324
5328
5332
5336
5340
5344
5348
5352
5356
5360
5364
5368
5372
5376
5380
5384
5388
5392
5396
5400
5404
5408
5412
5416
5420
5424
5428
5432
5436
5440
5444
5448
5452
5456
5460
5464
5468
5472
5476
5480
5484
5488
5492
5496
5500
5504
5508
5512
5516
5520
5524
5528
5532
5536
5540
5544
5548
5552
5556
5560
5564
5568
5572
5576
5580
5584
5588
5592
5596
5600
5604
5608
5612
5616
5620
5624
5628
5632
5636
5640
5644
5648
5652
5656
5660
5664
5668
5672
5676
5680
5684
5688
5692
5696
5700
5704
5708
5712
5716
5720
5724
5728
5732
5736
5740
5744
5748
5752
5756
5760
5764
5768
5772
5776
5780
5784
5788
5792
5796
5800
5804
5808
5812
5816
5820
5824
5828
5832
5836
5840
5844
5848
5852
5856
5860
5864
5868
5872
5876
5880
5884
5888
5892
5896
5900
5904
5908
5912
5916
5920
5924
5928
5932
5936
5940
5944
5948
5952
5956
5960
5964
5968
5972
5976
5980
5984
5988
5992
5996
6000
              </DataArray>   
              <DataArray type="UInt8" Name="types" format="ascii">   
10
10
10
10
10
10
10
10
10
10
10
10
10
10
10
10
10
10
10
10
10
10
10
10
10
10
10
10
10
10
10
10
10
10
10
10
10
10
10
10
10
10
10
10
10
10
10
10
10
10
10
10
10
10
10
10
10
10
10
10
10
10
10
10
10
10
10
10
10
10
10
10
10
10
10
10
10
10
10
10
10
10
10
10
10
10
10
10
10
10
10
10
10
10
10
10
10
10
10
10
10
10
10
10
10
10
10
10
10
10
10
10
10
10
10
10
10
10
10
10
10
10
10
10
10
10
10
10
10
10
10
10
10
10
10
10
10
10
10
10
10
10
10
10
10
10
10
10
10
10
10
10
10
10
10
10
10
10
10
10
10
10
10
10
10
10
10
10
10
10
10
10
10
10
10
10
10
10
10
10
10
10
10
10
10
10
10
10
10
10
10
10
10
10
10
10
10
10
10
10
10
10
10
10
10
10
10
10
10
10
10
10
10
10
10
10
10
10
10
10
10
10
10
10
10
10
10
10
10
10
10
10
10
10
10
10
10
10
10
10
10
10
10
10
10
10
10
10
10
10
10
10
10
10
10
10
10
10
10
10
10
10
10
10
10
10
10
10
10
10
10
10
10
10
10
10
10
10
10
10
10
10
10
10
10
10
10
10
10
10
10
10
10
10
10
10
10
10
10
10
10
10
10
10
10
10
10
10
10
10
10
10
10
10
10
10
10
10
10
10
10
10
10
10
10
10
10
10
10
10
10
10
10
10
10
10
10
10
10
10
10
10
10
10
10
10
10
10
10
10
10
10
10
10
10
10
10
10
10
10
10
10
10
10
10
10
10
10
10
10
10
10
10
10
10
10
10
10
10
10
10
10
10
10
10
10
10
10
10
10
10
10
10
10
10
10
10
10
10
10
10
10
10
10
10
10
10
10
10
10
10
10
10
10
10
10
10
10
10
10
10
10
10
10
10
10
10
10
10
10
10
10
10
10
10
10
10
10
10
10
10
10
10
10
10
10
10
10
10
10
10
10
10
10
10
10
10
10
10
10
10
10
10
10
10
10
10
10
10
10
10
10
10
10
10
10
10
10
10
10
10
10
10
10
10
10
10
10
10
10
10
10
10
10
10
10
10
10
10
10
10
10
10
10
10
10
10
10
10
10
10
10
10
10
10
10
10
10
10
10
10
10
10
10
10
10
10
10
10
10
10
10
10
10
10
10
10
10
10
10
10
10
10
10
10
10
10
10
10
10
10
10
10
10
10
10
10
10
10
10
10
10
10
10
10
10
10
10
10
10
10
10
10
10
10
10
10
10
10
10
10
10
10
10
10
10
10
10
10
10
10
10
10
10
10
10
10
10
10
10
10
10
10
10
10
10
10
10
10
10
10
10
10
10
10
10
10
10
10
10
10
10
10
10
10
10
10
10
10
10
10
10
10
10
10
10
10
10
10
10
10
10
10
10
10
10
10
10
10
10
10
10
10
10
10
10
10
10
10
10
10
10
10
10
10
10
10
10
10
10
10
10
10
10
10
10
10
10
10
10
10
10
10
10
10
10
10
10
10
10
10
10
10
10
10
10
10
10
10
10
10
10
10
10
10
10
10
10
10
10
10
10
10
10
10
10
10
10
10
10
10
10
10
10
10
10
10
10
10
10
10
10
10
10
10
10
10
10
10
10
10
10
10
10
10
10
10
10
10
10
10
10
10
10
10
10
10
10
10
10
10
10
10
10
10
10
10
10
10
10
10
10
10
10
10
10
10
10
10
10
10
10
10
10
10
10
10
10
10
10
10
10
10
10
10
10
10
10
10
10
10
10
10
10
10
10
10
10
10
10
10
10
10
10
10
10
10
10
10
10
10
10
10
10
10
10
10
10
10
10
10
10
10
10
10
10
10
10
10
10
10
10
10
10
10
10
10
10
10
10
10
10
10
10
10
10
10
10
10
10
10
10
10
10
10
10
10
10
10
10
10
10
10
10
10
10
10
10
10
10
10
10
10
10
10
10
10
10
10
10
10
10
10
10
10
10
10
10
10
10
10
10
10
10
10
10
10
10
10
10
10
10
10
10
10
10
10
10
10
10
10
10
10
10
10
10
10
10
10
10
10
10
10
10
10
10
10
10
10
10
10
10
10
10
10
10
10
10
10
10
10
10
10
10
10
10
10
10
10
10
10
10
10
10
10
10
10
10
10
10
10
10
10
10
10
10
10
10
10
10
10
10
10
10
10
10
10
10
10
10
10
10
10
10
10
10
10
10
10
10
10
10
10
10
10
10
10
10
10
10
10
10
10
10
10
10
10
10
10
10
10
10
10
10
10
10
10
10
10
10
10
10
10
10
10
10
10
10
10
10
10
10
10
10
10
10
10
10
10
10
10
10
10
10
10
10
10
10
10
10
10
10
10
10
10
10
10
10
10
10
10
10
10
10
10
10
10
10
10
10
10
10
10
10
10
10
10
10
10
10
10
10
10
10
10
10
10
10
10
10
10
10
10
10
10
10
10
10
10
10
10
10
10
10
10
10
10
10
10
10
10
10
10
10
10
10
10
10
10
10
10
10
10
10
10
10
10
10
10
10
10
10
10
10
10
10
10
10
10
10
10
10
10
10
10
10
10
10
10
10
10
10
10
10
10
10
10
10
10
10
10
10
10
10
10
10
10
10
10
10
10
10
10
10
10
10
10
10
10
10
10
10
10
10
10
10
10
10
10
10
10
10
10
10
10
10
10
10
10
10
10
10
10
10
10
10
10
10
10
10
10
10
10
10
10
10
10
10
10
10
10
10
10
10
10
10
10
10
10
10
10
10
10
10
10
10
10
10
10
10
10
10
10
10
10
10
10
10
10
10
10
10
10
10
10
10
10
10
10
10
10
10
10
10
10
10
10
10
10
10
10
10
10
10
10
10
10
10
10
10
10
10
10
10
10
10
10
10
10
10
10
10
10
10
10
10
10
10
10
10
10
10
10
10
10
10
10
10
10
10
10
10
10
10
10
10
10
10
10
10
10
10
10
10
10
10
10
10
10
10
10
10
10
10
10
10
10
10
10
10
10
10
10
10
10
10
10
10
10
10
10
10
10
10
10
10
10
10
10
10
10
10
10
10
10
10
10
10
10
10
10
10
10
10
10
10
10
10
10
10
10
10
10
10
10
10
10
10
10
10
10
10
10
10
10
10
10
10
10
10
10
10
10
10
10
10
10
10
10
10
10
10
10
10
10
10
10
10
10
10
10
10
10
10
10
10
10
10
10
10
10
10
10
10
10
10
10
10
10
10
10
10
10
10
10
10
10
10
10
10
10
10
10
10
10
10
10
10
10
10
10
10
10
10
10
10
10
10
10
10
10
10
10
10
10
10
10
10
10
10
10
10
10
10
10
10
10
10
10
10
              </DataArray>   
          </Cells>  
          <PointData>  
             <DataArray type="Float64" NumberOfComponents="3" Name="Strains" format="ascii">   
-0.0006263538703274182   0.0   -0.0004096035263897369
-0.0006263538703274182   0.0   -0.0004096035263897369
-0.0006263538703274182   0.0   -0.0004096035263897369
-0.0006263538703274182   0.0   -0.0004096035263897369
-0.0003987068735498437   6.958353287009843e-05   1.1558254628278803e-05
-0.0003987068735498437   6.958353287009843e-05   1.1558254628278803e-05
-0.0003987068735498437   6.958353287009843e-05   1.1558254628278803e-05
-0.0003987068735498437   6.958353287009843e-05   1.1558254628278803e-05
-0.00039092373339936066   0.0   -0.00038639084066641785
-0.00039092373339936066   0.0   -0.00038639084066641785
-0.00039092373339936066   0.0   -0.00038639084066641785
-0.00039092373339936066   0.0   -0.00038639084066641785
-0.0006556350915579047   8.341049054337926e-05   4.748461938463124e-06
-0.0006556350915579047   8.341049054337926e-05   4.748461938463124e-06
-0.0006556350915579047   8.341049054337926e-05   4.748461938463124e-06
-0.0006556350915579047   8.341049054337926e-05   4.748461938463124e-06
-0.0005086388018633885   1.934390476943245e-05   -0.00020180540275469558
-0.0005086388018633885   1.934390476943245e-05   -0.00020180540275469558
-0.0005086388018633885   1.934390476943245e-05   -0.00020180540275469558
-0.0005086388018633885   1.934390476943245e-05   -0.00020180540275469558
-0.0006556350915579059   0.0   -0.0004364371349924456
-0.0006556350915579059   0.0   -0.0004364371349924456
-0.0006556350915579059   0.0   -0.0004364371349924456
-0.0006556350915579059   0.0   -0.0004364371349924456
-0.00039092373339936066   8.341049054337948e-05   5.479475626449064e-05
-0.00039092373339936066   8.341049054337948e-05   5.479475626449064e-05
-0.00039092373339936066   8.341049054337948e-05   5.479475626449064e-05
-0.00039092373339936066   8.341049054337948e-05   5.479475626449064e-05
-0.0003921364938206074   0.0   -0.0003958780156387278
-0.0003921364938206074   0.0   -0.0003958780156387278
-0.0003921364938206074   0.0   -0.0003958780156387278
-0.0003921364938206074   0.0   -0.0003958780156387278
-0.0006762496365794417   8.933635447080327e-05   2.4042076276849364e-05
-0.0006762496365794417   8.933635447080327e-05   2.4042076276849364e-05
-0.0006762496365794417   8.933635447080327e-05   2.4042076276849364e-05
-0.0006762496365794417   8.933635447080327e-05   2.4042076276849364e-05
-0.0005238857926892557   3.379926612809807e-05   -0.00019657541053450412
-0.0005238857926892557   3.379926612809807e-05   -0.00019657541053450412
-0.0005238857926892557   3.379926612809807e-05   -0.00019657541053450412
-0.0005238857926892557   3.379926612809807e-05   -0.00019657541053450412
-0.0006762496365794429   0.0   -0.0004494798283212099
-0.0006762496365794429   0.0   -0.0004494798283212099
-0.0006762496365794429   0.0   -0.0004494798283212099
-0.0006762496365794429   0.0   -0.0004494798283212099
-0.0003921364938206074   8.933635447080338e-05   7.764388895933124e-05
-0.0003921364938206074   8.933635447080338e-05   7.764388895933124e-05
-0.0003921364938206074   8.933635447080338e-05   7.764388895933124e-05
-0.0003921364938206074   8.933635447080338e-05   7.764388895933124e-05
-0.0003920547017004932   0.0   -0.00039829845023679446
-0.0003920547017004932   0.0   -0.00039829845023679446
-0.0003920547017004932   0.0   -0.00039829845023679446
-0.0003920547017004932   0.0   -0.00039829845023679446
-0.0007205495985912408   0.00010169305492303805   8.817721162729711e-05
-0.0007205495985912408   0.00010169305492303805   8.817721162729711e-05
-0.0007205495985912408   0.00010169305492303805   8.817721162729711e-05
-0.0007205495985912408   0.00010169305492303805   8.817721162729711e-05
-0.0005341521691399671   4.265114840367953e-05   -0.00018706002687987692
-0.0005341521691399671   4.265114840367953e-05   -0.00018706002687987692
-0.0005341521691399671   4.265114840367953e-05   -0.00018706002687987692
-0.0005341521691399671   4.265114840367953e-05   -0.00018706002687987692
-0.0003987068735498444   0.0   -0.00036785340666767774
-0.0003987068735498444   0.0   -0.00036785340666767774
-0.0003987068735498444   0.0   -0.00036785340666767774
-0.0003987068735498444   0.0   -0.00036785340666767774
-0.00018144572817014343   2.5558230924426135e-05   9.583440853145947e-06
-0.00018144572817014343   2.5558230924426135e-05   9.583440853145947e-06
-0.00018144572817014343   2.5558230924426135e-05   9.583440853145947e-06
-0.00018144572817014343   2.5558230924426135e-05   9.583440853145947e-06
-0.0001746194236693023   0.0   -0.00036459728710536735
-0.0001746194236693023   0.0   -0.00036459728710536735
-0.0001746194236693023   0.0   -0.00036459728710536735
-0.0001746194236693023   0.0   -0.00036459728710536735
-0.00039092373339936066   3.632258926841757e-05   -2.588365778298735e-05
-0.00039092373339936066   3.632258926841757e-05   -2.588365778298735e-05
-0.00039092373339936066   3.632258926841757e-05   -2.588365778298735e-05
-0.00039092373339936066   3.632258926841757e-05   -2.588365778298735e-05
-0.0002866631486095728   2.713432968592022e-06   -0.0001794858053194037
-0.0002866631486095728   2.713432968592022e-06   -0.0001794858053194037
-0.0002866631486095728   2.713432968592022e-06   -0.0001794858053194037
-0.0002866631486095728   2.713432968592022e-06   -0.0001794858053194037
-0.0003909237333993603   0.0   -0.0003863908406664175
-0.0003909237333993603   0.0   -0.0003863908406664175
-0.0003909237333993603   0.0   -0.0003863908406664175
-0.0003909237333993603   0.0   -0.0003863908406664175
-0.0001746194236693023   3.632258926841757e-05   -4.0901042219367956e-06
-0.0001746194236693023   3.632258926841757e-05   -4.0901042219367956e-06
-0.0001746194236693023   3.632258926841757e-05   -4.0901042219367956e-06
-0.0001746194236693023   3.632258926841757e-05   -4.0901042219367956e-06
-0.00017083064315485307   0.0   -0.0003691967740703493
-0.00017083064315485307   0.0   -0.0003691967740703493
-0.00017083064315485307   0.0   -0.0003691967740703493
-0.00017083064315485307   0.0   -0.0003691967740703493
-0.0003921364938206074   4.446873594729755e-05   -2.703493119580395e-05
-0.0003921364938206074   4.446873594729755e-05   -2.703493119580395e-05
-0.0003921364938206074   4.446873594729755e-05   -2.703493119580395e-05
-0.0003921364938206074   4.446873594729755e-05   -2.703493119580395e-05
-0.00028087718827710627   1.4328388830057157e-05   -0.00019438289883129325
-0.00028087718827710627   1.4328388830057157e-05   -0.00019438289883129325
-0.00028087718827710627   1.4328388830057157e-05   -0.00019438289883129325
-0.00028087718827710627   1.4328388830057157e-05   -0.00019438289883129325
-0.0003921364938206074   0.0   -0.0003958780156387278
-0.0003921364938206074   0.0   -0.0003958780156387278
-0.0003921364938206074   0.0   -0.0003958780156387278
-0.0003921364938206074   0.0   -0.0003958780156387278
-0.00017083064315485307   4.446873594729755e-05   -3.5368962742550643e-07
-0.00017083064315485307   4.446873594729755e-05   -3.5368962742550643e-07
-0.00017083064315485307   4.446873594729755e-05   -3.5368962742550643e-07
-0.00017083064315485307   4.446873594729755e-05   -3.5368962742550643e-07
-0.0001673988804074749   0.0   -0.000367267407561348
-0.0001673988804074749   0.0   -0.000367267407561348
-0.0001673988804074749   0.0   -0.000367267407561348
-0.0001673988804074749   0.0   -0.000367267407561348
-0.00039205470170049217   5.171840445907677e-05   -2.387208141509708e-05
-0.00039205470170049217   5.171840445907677e-05   -2.387208141509708e-05
-0.00039205470170049217   5.171840445907677e-05   -2.387208141509708e-05
-0.00039205470170049217   5.171840445907677e-05   -2.387208141509708e-05
-0.00027976768711404106   2.384217339781628e-05   -0.00019429136708909415
-0.00027976768711404106   2.384217339781628e-05   -0.00019429136708909415
-0.00027976768711404106   2.384217339781628e-05   -0.00019429136708909415
-0.00027976768711404106   2.384217339781628e-05   -0.00019429136708909415
-0.00018144572817014375   0.0   -0.00035251846811302205
-0.00018144572817014375   0.0   -0.00035251846811302205
-0.00018144572817014375   0.0   -0.00035251846811302205
-0.00018144572817014375   0.0   -0.00035251846811302205
2.39194948265252e-05   -3.245989550092719e-06   -1.2190690181962455e-05
2.39194948265252e-05   -3.245989550092719e-06   -1.2190690181962455e-05
2.39194948265252e-05   -3.245989550092719e-06   -1.2190690181962455e-05
2.39194948265252e-05   -3.245989550092719e-06   -1.2190690181962455e-05
2.8225589856371942e-05   0.0   -0.000360741079213065
2.8225589856371942e-05   0.0   -0.000360741079213065
2.8225589856371942e-05   0.0   -0.000360741079213065
2.8225589856371942e-05   0.0   -0.000360741079213065
-0.0001746194236693023   6.427013153835156e-06   -2.652226456257683e-05
-0.0001746194236693023   6.427013153835156e-06   -2.652226456257683e-05
-0.0001746194236693023   6.427013153835156e-06   -2.652226456257683e-05
-0.0001746194236693023   6.427013153835156e-06   -2.652226456257683e-05
-7.661006915688572e-05   -6.852175916703467e-06   -0.00018190367530761386
-7.661006915688572e-05   -6.852175916703467e-06   -0.00018190367530761386
-7.661006915688572e-05   -6.852175916703467e-06   -0.00018190367530761386
-7.661006915688572e-05   -6.852175916703467e-06   -0.00018190367530761386
-0.0001746194236693023   0.0   -0.00036459728710536735
-0.0001746194236693023   0.0   -0.00036459728710536735
-0.0001746194236693023   0.0   -0.00036459728710536735
-0.0001746194236693023   0.0   -0.00036459728710536735
2.8225589856371993e-05   6.427013153835156e-06   -2.2666056670275653e-05
2.8225589856371993e-05   6.427013153835156e-06   -2.2666056670275653e-05
2.8225589856371993e-05   6.427013153835156e-06   -2.2666056670275653e-05
2.8225589856371993e-05   6.427013153835156e-06   -2.2666056670275653e-05
3.160965598557225e-05   0.0   -0.0003602334539396969
3.160965598557225e-05   0.0   -0.0003602334539396969
3.160965598557225e-05   0.0   -0.0003602334539396969
3.160965598557225e-05   0.0   -0.0003602334539396969
-0.00017083064315485277   1.4938866884419539e-05   -3.179627550297363e-05
-0.00017083064315485277   1.4938866884419539e-05   -3.179627550297363e-05
-0.00017083064315485277   1.4938866884419539e-05   -3.179627550297363e-05
-0.00017083064315485277   1.4938866884419539e-05   -3.179627550297363e-05
-7.1504883841865e-05   3.636527638058195e-06   -0.00019055780414347015
-7.1504883841865e-05   3.636527638058195e-06   -0.00019055780414347015
-7.1504883841865e-05   3.636527638058195e-06   -0.00019055780414347015
-7.1504883841865e-05   3.636527638058195e-06   -0.00019055780414347015
-0.00017083064315485307   0.0   -0.0003691967740703493
-0.00017083064315485307   0.0   -0.0003691967740703493
-0.00017083064315485307   0.0   -0.0003691967740703493
-0.00017083064315485307   0.0   -0.0003691967740703493
3.16096559855723e-05   1.4938866884419539e-05   -2.2832955372321965e-05
3.16096559855723e-05   1.4938866884419539e-05   -2.2832955372321965e-05
3.16096559855723e-05   1.4938866884419539e-05   -2.2832955372321965e-05
3.16096559855723e-05   1.4938866884419539e-05   -2.2832955372321965e-05
3.619954334696353e-05   0.0   -0.0003523848155178582
3.619954334696353e-05   0.0   -0.0003523848155178582
3.619954334696353e-05   0.0   -0.0003523848155178582
3.619954334696353e-05   0.0   -0.0003523848155178582
-0.00016739888040747473   2.480432007248253e-05   -2.7936701303950566e-05
-0.00016739888040747473   2.480432007248253e-05   -2.7936701303950566e-05
-0.00016739888040747473   2.480432007248253e-05   -2.7936701303950566e-05
-0.00016739888040747473   2.480432007248253e-05   -2.7936701303950566e-05
-6.731554990394462e-05   1.4009965460408716e-05   -0.00018826563937592302
-6.731554990394462e-05   1.4009965460408716e-05   -0.00018826563937592302
-6.731554990394462e-05   1.4009965460408716e-05   -0.00018826563937592302
-6.731554990394462e-05   1.4009965460408716e-05   -0.00018826563937592302
2.3919494826525243e-05   0.0   -0.0003544660618430777
2.3919494826525243e-05   0.0   -0.0003544660618430777
2.3919494826525243e-05   0.0   -0.0003544660618430777
2.3919494826525243e-05   0.0   -0.0003544660618430777
0.0002467465081860339   -2.8940264023330736e-05   -4.518646578947623e-07
0.0002467465081860339   -2.8940264023330736e-05   -4.518646578947623e-07
0.0002467465081860339   -2.8940264023330736e-05   -4.518646578947623e-07
0.0002467465081860339   -2.8940264023330736e-05   -4.518646578947623e-07
0.0002470429534330101   0.0   -0.0003738500087269151
0.0002470429534330101   0.0   -0.0003738500087269151
0.0002470429534330101   0.0   -0.0003738500087269151
0.0002470429534330101   0.0   -0.0003738500087269151
2.822558985637204e-05   -2.184821585641476e-05   3.954526747997125e-06
2.822558985637204e-05   -2.184821585641476e-05   3.954526747997125e-06
2.822558985637204e-05   -2.184821585641476e-05   3.954526747997125e-06
2.822558985637204e-05   -2.184821585641476e-05   3.954526747997125e-06
0.00013548122412976768   -1.615328906986454e-05   -0.00017822181977959222
0.00013548122412976768   -1.615328906986454e-05   -0.00017822181977959222
0.00013548122412976768   -1.615328906986454e-05   -0.00017822181977959222
0.00013548122412976768   -1.615328906986454e-05   -0.00017822181977959222
2.822558985637204e-05   0.0   -0.00036074107921306626
2.822558985637204e-05   0.0   -0.00036074107921306626
2.822558985637204e-05   0.0   -0.00036074107921306626
2.822558985637204e-05   0.0   -0.00036074107921306626
0.0002470429534330101   -2.184821585641476e-05   -9.15440276585169e-06
0.0002470429534330101   -2.184821585641476e-05   -9.15440276585169e-06
0.0002470429534330101   -2.184821585641476e-05   -9.15440276585169e-06
0.0002470429534330101   -2.184821585641476e-05   -9.15440276585169e-06
0.0002458622628942452   0.0   -0.0003685105522159978
0.0002458622628942452   0.0   -0.0003685105522159978
0.0002458622628942452   0.0   -0.0003685105522159978
0.0002458622628942452   0.0   -0.0003685105522159978
3.16096559855723e-05   -1.3795163793833788e-05   -3.1457757585761153e-06
3.16096559855723e-05   -1.3795163793833788e-05   -3.1457757585761153e-06
3.16096559855723e-05   -1.3795163793833788e-05   -3.1457757585761153e-06
3.16096559855723e-05   -1.3795163793833788e-05   -3.1457757585761153e-06
0.0001370439263753086   -6.474560835776331e-06   -0.0001832619215163043
0.0001370439263753086   -6.474560835776331e-06   -0.0001832619215163043
0.0001370439263753086   -6.474560835776331e-06   -0.0001832619215163043
0.0001370439263753086   -6.474560835776331e-06   -0.0001832619215163043
3.1609655985572274e-05   0.0   -0.0003602334539396972
3.1609655985572274e-05   0.0   -0.0003602334539396972
3.1609655985572274e-05   0.0   -0.0003602334539396972
3.1609655985572274e-05   0.0   -0.0003602334539396972
0.0002458622628942452   -1.3795163793833788e-05   -1.1422874034876403e-05
0.0002458622628942452   -1.3795163793833788e-05   -1.1422874034876403e-05
0.0002458622628942452   -1.3795163793833788e-05   -1.1422874034876403e-05
0.0002458622628942452   -1.3795163793833788e-05   -1.1422874034876403e-05
0.00025050603301955096   0.0   -0.0003541645273244334
0.00025050603301955096   0.0   -0.0003541645273244334
0.00025050603301955096   0.0   -0.0003541645273244334
0.00025050603301955096   0.0   -0.0003541645273244334
3.619954334696359e-05   -2.966186344290989e-06   4.792667269786752e-06
3.619954334696359e-05   -2.966186344290989e-06   4.792667269786752e-06
3.619954334696359e-05   -2.966186344290989e-06   4.792667269786752e-06
3.619954334696359e-05   -2.966186344290989e-06   4.792667269786752e-06
0.0001410578445025615   5.057438846053453e-06   -0.00017478534310374962
0.0001410578445025615   5.057438846053453e-06   -0.00017478534310374962
0.0001410578445025615   5.057438846053453e-06   -0.00017478534310374962
0.0001410578445025615   5.057438846053453e-06   -0.00017478534310374962
0.0002467465081860339   0.0   -0.0003718302202570761
0.0002467465081860339   0.0   -0.0003718302202570761
0.0002467465081860339   0.0   -0.0003718302202570761
0.0002467465081860339   0.0   -0.0003718302202570761
0.0005563130205882447   -7.326769726816857e-05   0.00010015334871904373
0.0005563130205882447   -7.326769726816857e-05   0.00010015334871904373
0.0005563130205882447   -7.326769726816857e-05   0.00010015334871904373
0.0005563130205882447   -7.326769726816857e-05   0.00010015334871904373
0.0005222828509466483   0.0   -0.0004112985987914818
0.0005222828509466483   0.0   -0.0004112985987914818
0.0005222828509466483   0.0   -0.0004112985987914818
0.0005222828509466483   0.0   -0.0004112985987914818
0.0002470429534330101   -6.241431677427782e-05   8.488315379581507e-05
0.0002470429534330101   -6.241431677427782e-05   8.488315379581507e-05
0.0002470429534330101   -6.241431677427782e-05   8.488315379581507e-05
0.0002470429534330101   -6.241431677427782e-05   8.488315379581507e-05
0.0003845146795663411   -3.289031544533808e-05   -0.00016195079055710015
0.0003845146795663411   -3.289031544533808e-05   -0.00016195079055710015
0.0003845146795663411   -3.289031544533808e-05   -0.00016195079055710015
0.0003845146795663411   -3.289031544533808e-05   -0.00016195079055710015
0.0002470429534330099   0.0   -0.00037385000872691476
0.0002470429534330099   0.0   -0.00037385000872691476
0.0002470429534330099   0.0   -0.00037385000872691476
0.0002470429534330099   0.0   -0.00037385000872691476
0.0005222828509466465   -6.24143167742776e-05   4.743456373124827e-05
0.0005222828509466465   -6.24143167742776e-05   4.743456373124827e-05
0.0005222828509466465   -6.24143167742776e-05   4.743456373124827e-05
0.0005222828509466465   -6.24143167742776e-05   4.743456373124827e-05
0.0005065347831648834   0.0   -0.0004027461314396701
0.0005065347831648834   0.0   -0.0004027461314396701
0.0005065347831648834   0.0   -0.0004027461314396701
0.0005065347831648834   0.0   -0.0004027461314396701
0.0002458622628942452   -5.705929870612053e-05   6.594364823506583e-05
0.0002458622628942452   -5.705929870612053e-05   6.594364823506583e-05
0.0002458622628942452   -5.705929870612053e-05   6.594364823506583e-05
0.0002458622628942452   -5.705929870612053e-05   6.594364823506583e-05
0.00037678886829894655   -2.4080102260629218e-05   -0.00017205487864006458
0.00037678886829894655   -2.4080102260629218e-05   -0.00017205487864006458
0.00037678886829894655   -2.4080102260629218e-05   -0.00017205487864006458
0.00037678886829894655   -2.4080102260629218e-05   -0.00017205487864006458
0.0002458622628942452   0.0   -0.0003685105522159978
0.0002458622628942452   0.0   -0.0003685105522159978
0.0002458622628942452   0.0   -0.0003685105522159978
0.0002458622628942452   0.0   -0.0003685105522159978
0.0005065347831648817   -5.7059298706120315e-05   3.170806901139336e-05
0.0005065347831648817   -5.7059298706120315e-05   3.170806901139336e-05
0.0005065347831648817   -5.7059298706120315e-05   3.170806901139336e-05
0.0005065347831648817   -5.7059298706120315e-05   3.170806901139336e-05
0.0004831760592700565   0.0   -0.00038082625406255665
0.0004831760592700565   0.0   -0.00038082625406255665
0.0004831760592700565   0.0   -0.00038082625406255665
0.0004831760592700565   0.0   -0.00038082625406255665
0.00025050603301955096   -4.443621123020652e-05   3.361884975974387e-05
0.00025050603301955096   -4.443621123020652e-05   3.361884975974387e-05
0.00025050603301955096   -4.443621123020652e-05   3.361884975974387e-05
0.00025050603301955096   -4.443621123020652e-05   3.361884975974387e-05
0.00036451916108215125   -1.026308487213286e-05   -0.000176906906159434
0.00036451916108215125   -1.026308487213286e-05   -0.000176906906159434
0.00036451916108215125   -1.026308487213286e-05   -0.000176906906159434
0.00036451916108215125   -1.026308487213286e-05   -0.000176906906159434
-0.0005445419352821708   6.958353287009832e-05   -0.0003563098281304702
-0.0005445419352821708   6.958353287009832e-05   -0.0003563098281304702
-0.0005445419352821708   6.958353287009832e-05   -0.0003563098281304702
-0.0005445419352821708   6.958353287009832e-05   -0.0003563098281304702
-0.0003486765703525519   6.26413276131805e-05   -3.4032876401922634e-05
-0.0003486765703525519   6.26413276131805e-05   -3.4032876401922634e-05
-0.0003486765703525519   6.26413276131805e-05   -3.4032876401922634e-05
-0.0003486765703525519   6.26413276131805e-05   -3.4032876401922634e-05
-0.00035751029126378914   8.341049054337915e-05   -0.000299150013608588
-0.00035751029126378914   8.341049054337915e-05   -0.000299150013608588
-0.00035751029126378914   8.341049054337915e-05   -0.000299150013608588
-0.00035751029126378914   8.341049054337915e-05   -0.000299150013608588
-0.0005505641402668917   7.512373115153349e-05   2.757845703169103e-05
-0.0005505641402668917   7.512373115153349e-05   2.757845703169103e-05
-0.0005505641402668917   7.512373115153349e-05   2.757845703169103e-05
-0.0005505641402668917   7.512373115153349e-05   2.757845703169103e-05
-0.000432493932582495   7.265191077918034e-05   -0.00016772213021889418
-0.000432493932582495   7.265191077918034e-05   -0.00016772213021889418
-0.000432493932582495   7.265191077918034e-05   -0.00016772213021889418
-0.000432493932582495   7.265191077918034e-05   -0.00016772213021889418
-0.0005505641402668917   8.341049054337915e-05   -0.0002941779579734805
-0.0005505641402668917   8.341049054337915e-05   -0.0002941779579734805
-0.0005505641402668917   8.341049054337915e-05   -0.0002941779579734805
-0.0005505641402668917   8.341049054337915e-05   -0.0002941779579734805
-0.0003575102912637904   7.51237311515337e-05   2.2606401396583825e-05
-0.0003575102912637904   7.51237311515337e-05   2.2606401396583825e-05
-0.0003575102912637904   7.51237311515337e-05   2.2606401396583825e-05
-0.0003575102912637904   7.51237311515337e-05   2.2606401396583825e-05
-0.0003594252847564304   8.933635447080327e-05   -0.0002688853699253065
-0.0003594252847564304   8.933635447080327e-05   -0.0002688853699253065
-0.0003594252847564304   8.933635447080327e-05   -0.0002688853699253065
-0.0003594252847564304   8.933635447080327e-05   -0.0002688853699253065
-0.0005545488644358737   8.075505737659399e-05   6.146937446362263e-05
-0.0005545488644358737   8.075505737659399e-05   6.146937446362263e-05
-0.0005545488644358737   8.075505737659399e-05   6.146937446362263e-05
-0.0005545488644358737   8.075505737659399e-05   6.146937446362263e-05
-0.0004452938202115167   8.050365615794525e-05   -0.00012047152517911464
-0.0004452938202115167   8.050365615794525e-05   -0.00012047152517911464
-0.0004452938202115167   8.050365615794525e-05   -0.00012047152517911464
-0.0004452938202115167   8.050365615794525e-05   -0.00012047152517911464
-0.0005545488644358726   8.933635447080327e-05   -0.0002637365916687808
-0.0005545488644358726   8.933635447080327e-05   -0.0002637365916687808
-0.0005545488644358726   8.933635447080327e-05   -0.0002637365916687808
-0.0005545488644358726   8.933635447080327e-05   -0.0002637365916687808
-0.0003594252847564311   8.075505737659399e-05   5.632059620709704e-05
-0.0003594252847564311   8.075505737659399e-05   5.632059620709704e-05
-0.0003594252847564311   8.075505737659399e-05   5.632059620709704e-05
-0.0003594252847564311   8.075505737659399e-05   5.632059620709704e-05
-0.0003574548131026942   0.00010169305492303783   -0.00019846816214691225
-0.0003574548131026942   0.00010169305492303783   -0.00019846816214691225
-0.0003574548131026942   0.00010169305492303783   -0.00019846816214691225
-0.0003574548131026942   0.00010169305492303783   -0.00019846816214691225
-0.0005393319386120976   8.520067173314189e-05   0.00011455581028269567
-0.0005393319386120976   8.520067173314189e-05   0.00011455581028269567
-0.0005393319386120976   8.520067173314189e-05   0.00011455581028269567
-0.0005393319386120976   8.520067173314189e-05   0.00011455581028269567
-0.0004338109617033276   8.826373744859816e-05   -6.31503239945277e-05
-0.0004338109617033276   8.826373744859816e-05   -6.31503239945277e-05
-0.0004338109617033276   8.826373744859816e-05   -6.31503239945277e-05
-0.0004338109617033276   8.826373744859816e-05   -6.31503239945277e-05
-0.0003486765703525519   2.5558230924426135e-05   -0.0003777849036144094
-0.0003486765703525519   2.5558230924426135e-05   -0.0003777849036144094
-0.0003486765703525519   2.5558230924426135e-05   -0.0003777849036144094
-0.0003486765703525519   2.5558230924426135e-05   -0.0003777849036144094
-0.00016504766778570407   2.9145901781208686e-05   -6.95841301555931e-05
-0.00016504766778570407   2.9145901781208686e-05   -6.95841301555931e-05
-0.00016504766778570407   2.9145901781208686e-05   -6.95841301555931e-05
-0.00016504766778570407   2.9145901781208686e-05   -6.95841301555931e-05
-0.00016905581200521395   3.632258926841746e-05   -0.0003772465634116016
-0.00016905581200521395   3.632258926841746e-05   -0.0003772465634116016
-0.00016905581200521395   3.632258926841746e-05   -0.0003772465634116016
-0.00016905581200521395   3.632258926841746e-05   -0.0003772465634116016
-0.00035751029126378914   4.0625696342524954e-05   -6.573762889177303e-05
-0.00035751029126378914   4.0625696342524954e-05   -6.573762889177303e-05
-0.00035751029126378914   4.0625696342524954e-05   -6.573762889177303e-05
-0.00035751029126378914   4.0625696342524954e-05   -6.573762889177303e-05
-0.0002593446090037045   3.271796533437605e-05   -0.00022460246072036037
-0.0002593446090037045   3.271796533437605e-05   -0.00022460246072036037
-0.0002593446090037045   3.271796533437605e-05   -0.00022460246072036037
-0.0002593446090037045   3.271796533437605e-05   -0.00022460246072036037
-0.00035751029126378887   3.632258926841746e-05   -0.00037982842765606553
-0.00035751029126378887   3.632258926841746e-05   -0.00037982842765606553
-0.00035751029126378887   3.632258926841746e-05   -0.00037982842765606553
-0.00035751029126378887   3.632258926841746e-05   -0.00037982842765606553
-0.00016905581200521425   4.062569634252517e-05   -6.31557646473087e-05
-0.00016905581200521425   4.062569634252517e-05   -6.31557646473087e-05
-0.00016905581200521425   4.062569634252517e-05   -6.31557646473087e-05
-0.00016905581200521425   4.062569634252517e-05   -6.31557646473087e-05
-0.00017036652632739576   4.4468735947297334e-05   -0.00037017314147505575
-0.00017036652632739576   4.4468735947297334e-05   -0.00037017314147505575
-0.00017036652632739576   4.4468735947297334e-05   -0.00037017314147505575
-0.00017036652632739576   4.4468735947297334e-05   -0.00037017314147505575
-0.0003594252847564304   5.012048362294016e-05   -5.846625936538406e-05
-0.0003594252847564304   5.012048362294016e-05   -5.846625936538406e-05
-0.0003594252847564304   5.012048362294016e-05   -5.846625936538406e-05
-0.0003594252847564304   5.012048362294016e-05   -5.846625936538406e-05
-0.0002614376383277448   4.1495149792455466e-05   -0.00021660380311490173
-0.0002614376383277448   4.1495149792455466e-05   -0.00021660380311490173
-0.0002614376383277448   4.1495149792455466e-05   -0.00021660380311490173
-0.0002614376383277448   4.1495149792455466e-05   -0.00021660380311490173
-0.0003594252847564304   4.4468735947297334e-05   -0.00037356419008044146
-0.0003594252847564304   4.4468735947297334e-05   -0.00037356419008044146
-0.0003594252847564304   4.4468735947297334e-05   -0.00037356419008044146
-0.0003594252847564304   4.4468735947297334e-05   -0.00037356419008044146
-0.00017036652632739635   5.0120483622940375e-05   -5.507521075999856e-05
-0.00017036652632739635   5.0120483622940375e-05   -5.507521075999856e-05
-0.00017036652632739635   5.0120483622940375e-05   -5.507521075999856e-05
-0.00017036652632739635   5.0120483622940375e-05   -5.507521075999856e-05
-0.00017002042693236975   5.171840445907677e-05   -0.0003663661989675624
-0.00017002042693236975   5.171840445907677e-05   -0.0003663661989675624
-0.00017002042693236975   5.171840445907677e-05   -0.0003663661989675624
-0.00017002042693236975   5.171840445907677e-05   -0.0003663661989675624
-0.0003574548131026939   6.033021975168813e-05   -5.9142644525922525e-05
-0.0003574548131026939   6.033021975168813e-05   -5.9142644525922525e-05
-0.0003574548131026939   6.033021975168813e-05   -5.9142644525922525e-05
-0.0003574548131026939   6.033021975168813e-05   -5.9142644525922525e-05
-0.00026304787053076843   4.9439159148274934e-05   -0.00020995291245041775
-0.00026304787053076843   4.9439159148274934e-05   -0.00020995291245041775
-0.00026304787053076843   4.9439159148274934e-05   -0.00020995291245041775
-0.00026304787053076843   4.9439159148274934e-05   -0.00020995291245041775
-0.00016504766778570378   -3.245989550092719e-06   -0.00039545883840539286
-0.00016504766778570378   -3.245989550092719e-06   -0.00039545883840539286
-0.00016504766778570378   -3.245989550092719e-06   -0.00039545883840539286
-0.00016504766778570378   -3.245989550092719e-06   -0.00039545883840539286
1.6275993778933862e-05   -8.506721857501429e-07   -9.181554537905754e-05
1.6275993778933862e-05   -8.506721857501429e-07   -9.181554537905754e-05
1.6275993778933862e-05   -8.506721857501429e-07   -9.181554537905754e-05
1.6275993778933862e-05   -8.506721857501429e-07   -9.181554537905754e-05
1.5463579183994734e-05   6.427013153835156e-06   -0.0003977011770755598
1.5463579183994734e-05   6.427013153835156e-06   -0.0003977011770755598
1.5463579183994734e-05   6.427013153835156e-06   -0.0003977011770755598
1.5463579183994734e-05   6.427013153835156e-06   -0.0003977011770755598
-0.00016905581200521395   9.722924281638842e-06   -9.214640510355951e-05
-0.00016905581200521395   9.722924281638842e-06   -9.214640510355951e-05
-0.00016905581200521395   9.722924281638842e-06   -9.214640510355951e-05
-0.00016905581200521395   9.722924281638842e-06   -9.214640510355951e-05
-7.605214903635186e-05   3.222187175335768e-06   -0.0002432520677878822
-7.605214903635186e-05   3.222187175335768e-06   -0.0002432520677878822
-7.605214903635186e-05   3.222187175335768e-06   -0.0002432520677878822
-7.605214903635186e-05   3.222187175335768e-06   -0.0002432520677878822
-0.00016905581200521395   6.427013153835156e-06   -0.00039967872375224156
-0.00016905581200521395   6.427013153835156e-06   -0.00039967872375224156
-0.00016905581200521395   6.427013153835156e-06   -0.00039967872375224156
-0.00016905581200521395   6.427013153835156e-06   -0.00039967872375224156
1.5463579183994734e-05   9.722924281638842e-06   -9.016885842687733e-05
1.5463579183994734e-05   9.722924281638842e-06   -9.016885842687733e-05
1.5463579183994734e-05   9.722924281638842e-06   -9.016885842687733e-05
1.5463579183994734e-05   9.722924281638842e-06   -9.016885842687733e-05
1.4375903031680266e-05   1.4938866884419539e-05   -0.00039854792111373755
1.4375903031680266e-05   1.4938866884419539e-05   -0.00039854792111373755
1.4375903031680266e-05   1.4938866884419539e-05   -0.00039854792111373755
1.4375903031680266e-05   1.4938866884419539e-05   -0.00039854792111373755
-0.00017036652632739576   2.0051877279196433e-05   -9.371167841881083e-05
-0.00017036652632739576   2.0051877279196433e-05   -9.371167841881083e-05
-0.00017036652632739576   2.0051877279196433e-05   -9.371167841881083e-05
-0.00017036652632739576   2.0051877279196433e-05   -9.371167841881083e-05
-7.754231167939133e-05   1.2187378864060225e-05   -0.00024370000378306884
-7.754231167939133e-05   1.2187378864060225e-05   -0.00024370000378306884
-7.754231167939133e-05   1.2187378864060225e-05   -0.00024370000378306884
-7.754231167939133e-05   1.2187378864060225e-05   -0.00024370000378306884
-0.00017036652632739576   1.4938866884419539e-05   -0.0004016157273506038
-0.00017036652632739576   1.4938866884419539e-05   -0.0004016157273506038
-0.00017036652632739576   1.4938866884419539e-05   -0.0004016157273506038
-0.00017036652632739576   1.4938866884419539e-05   -0.0004016157273506038
1.4375903031680286e-05   2.0051877279196433e-05   -9.064387218194473e-05
1.4375903031680286e-05   2.0051877279196433e-05   -9.064387218194473e-05
1.4375903031680286e-05   2.0051877279196433e-05   -9.064387218194473e-05
1.4375903031680286e-05   2.0051877279196433e-05   -9.064387218194473e-05
1.2262454616444159e-05   2.480432007248253e-05   -0.0003978546828154602
1.2262454616444159e-05   2.480432007248253e-05   -0.0003978546828154602
1.2262454616444159e-05   2.480432007248253e-05   -0.0003978546828154602
1.2262454616444159e-05   2.480432007248253e-05   -0.0003978546828154602
-0.00017002042693236986   3.081628459981932e-05   -9.765705895050574e-05
-0.00017002042693236986   3.081628459981932e-05   -9.765705895050574e-05
-0.00017002042693236986   3.081628459981932e-05   -9.765705895050574e-05
-0.00017002042693236986   3.081628459981932e-05   -9.765705895050574e-05
-7.847297354846917e-05   2.1397290849385847e-05   -0.00024458475167341324
-7.847297354846917e-05   2.1397290849385847e-05   -0.00024458475167341324
-7.847297354846917e-05   2.1397290849385847e-05   -0.00024458475167341324
-7.847297354846917e-05   2.1397290849385847e-05   -0.00024458475167341324
1.6275993778933862e-05   -2.8940264023330628e-05   -0.00036491866404872117
1.6275993778933862e-05   -2.8940264023330628e-05   -0.00036491866404872117
1.6275993778933862e-05   -2.8940264023330628e-05   -0.00036491866404872117
1.6275993778933862e-05   -2.8940264023330628e-05   -0.00036491866404872117
0.00020313590477056827   -2.9758925520899674e-05   -5.3976675961205046e-05
0.00020313590477056827   -2.9758925520899674e-05   -5.3976675961205046e-05
0.00020313590477056827   -2.9758925520899674e-05   -5.3976675961205046e-05
0.00020313590477056827   -2.9758925520899674e-05   -5.3976675961205046e-05
0.0002047208081906763   -2.184821585641465e-05   -0.00037006989667184674
0.0002047208081906763   -2.184821585641465e-05   -0.00037006989667184674
0.0002047208081906763   -2.184821585641465e-05   -0.00037006989667184674
0.0002047208081906763   -2.184821585641465e-05   -0.00037006989667184674
1.5463579183994734e-05   -2.016372088068318e-05   -5.5651878646148934e-05
1.5463579183994734e-05   -2.016372088068318e-05   -5.5651878646148934e-05
1.5463579183994734e-05   -2.016372088068318e-05   -5.5651878646148934e-05
1.5463579183994734e-05   -2.016372088068318e-05   -5.5651878646148934e-05
0.00010849357609337   -2.4117975760713697e-05   -0.0002083293205670901
0.00010849357609337   -2.4117975760713697e-05   -0.0002083293205670901
0.00010849357609337   -2.4117975760713697e-05   -0.0002083293205670901
0.00010849357609337   -2.4117975760713697e-05   -0.0002083293205670901
1.546357918399471e-05   -2.184821585641465e-05   -0.00037108059365728634
1.546357918399471e-05   -2.184821585641465e-05   -0.00037108059365728634
1.546357918399471e-05   -2.184821585641465e-05   -0.00037108059365728634
1.546357918399471e-05   -2.184821585641465e-05   -0.00037108059365728634
0.0002047208081906767   -2.016372088068318e-05   -5.4641181660709933e-05
0.0002047208081906767   -2.016372088068318e-05   -5.4641181660709933e-05
0.0002047208081906767   -2.016372088068318e-05   -5.4641181660709933e-05
0.0002047208081906767   -2.016372088068318e-05   -5.4641181660709933e-05
0.000203624596878222   -1.3795163793833788e-05   -0.0003770380056992246
0.000203624596878222   -1.3795163793833788e-05   -0.0003770380056992246
0.000203624596878222   -1.3795163793833788e-05   -0.0003770380056992246
0.000203624596878222   -1.3795163793833788e-05   -0.0003770380056992246
1.4375903031680266e-05   -1.0757270792555824e-05   -6.34462517557554e-05
1.4375903031680266e-05   -1.0757270792555824e-05   -6.34462517557554e-05
1.4375903031680266e-05   -1.0757270792555824e-05   -6.34462517557554e-05
1.4375903031680266e-05   -1.0757270792555824e-05   -6.34462517557554e-05
0.00010726170969712598   -1.6446260043454257e-05   -0.00021484253598095873
0.00010726170969712598   -1.6446260043454257e-05   -0.00021484253598095873
0.00010726170969712598   -1.6446260043454257e-05   -0.00021484253598095873
0.00010726170969712598   -1.6446260043454257e-05   -0.00021484253598095873
1.4375903031680253e-05   -1.3795163793833788e-05   -0.0003788607414999915
1.4375903031680253e-05   -1.3795163793833788e-05   -0.0003788607414999915
1.4375903031680253e-05   -1.3795163793833788e-05   -0.0003788607414999915
1.4375903031680253e-05   -1.3795163793833788e-05   -0.0003788607414999915
0.00020362459687822275   -1.0757270792555824e-05   -6.16235159549886e-05
0.00020362459687822275   -1.0757270792555824e-05   -6.16235159549886e-05
0.00020362459687822275   -1.0757270792555824e-05   -6.16235159549886e-05
0.00020362459687822275   -1.0757270792555824e-05   -6.16235159549886e-05
0.0001976073554431257   -2.9661863442910974e-06   -0.0003776961856348761
0.0001976073554431257   -2.9661863442910974e-06   -0.0003776961856348761
0.0001976073554431257   -2.9661863442910974e-06   -0.0003776961856348761
0.0001976073554431257   -2.9661863442910974e-06   -0.0003776961856348761
1.2262454616444159e-05   8.866814062682884e-07   -7.109973824074287e-05
1.2262454616444159e-05   8.866814062682884e-07   -7.109973824074287e-05
1.2262454616444159e-05   8.866814062682884e-07   -7.109973824074287e-05
1.2262454616444159e-05   8.866814062682884e-07   -7.109973824074287e-05
0.00010601857061936041   -7.485049020236438e-06   -0.0002223368933230331
0.00010601857061936041   -7.485049020236438e-06   -0.0002223368933230331
0.00010601857061936041   -7.485049020236438e-06   -0.0002223368933230331
0.00010601857061936041   -7.485049020236438e-06   -0.0002223368933230331
0.00020313590477056827   -7.326769726816857e-05   -0.00022084402920942295
0.00020313590477056827   -7.326769726816857e-05   -0.00022084402920942295
0.00020313590477056827   -7.326769726816857e-05   -0.00022084402920942295
0.00020313590477056827   -7.326769726816857e-05   -0.00022084402920942295
0.0003876991786211392   -5.537023301215114e-05   9.749990576180499e-05
0.0003876991786211392   -5.537023301215114e-05   9.749990576180499e-05
0.0003876991786211392   -5.537023301215114e-05   9.749990576180499e-05
0.0003876991786211392   -5.537023301215114e-05   9.749990576180499e-05
0.00040224629102555206   -6.241431677427782e-05   -0.0002687577552075798
0.00040224629102555206   -6.241431677427782e-05   -0.0002687577552075798
0.00040224629102555206   -6.241431677427782e-05   -0.0002687577552075798
0.00040224629102555206   -6.241431677427782e-05   -0.0002687577552075798
0.000204720808190677   -5.029000860327514e-05   5.317679794794442e-05
0.000204720808190677   -5.029000860327514e-05   5.317679794794442e-05
0.000204720808190677   -5.029000860327514e-05   5.317679794794442e-05
0.000204720808190677   -5.029000860327514e-05   5.317679794794442e-05
0.0002855277904537731   -6.009325800777833e-05   -7.561955618118094e-05
0.0002855277904537731   -6.009325800777833e-05   -7.561955618118094e-05
0.0002855277904537731   -6.009325800777833e-05   -7.561955618118094e-05
0.0002855277904537731   -6.009325800777833e-05   -7.561955618118094e-05
0.00020472080819067652   -6.241431677427771e-05   -0.0002760323401101805
0.00020472080819067652   -6.241431677427771e-05   -0.0002760323401101805
0.00020472080819067652   -6.241431677427771e-05   -0.0002760323401101805
0.00020472080819067652   -6.241431677427771e-05   -0.0002760323401101805
0.00040224629102555206   -5.029000860327514e-05   6.0451382850545965e-05
0.00040224629102555206   -5.029000860327514e-05   6.0451382850545965e-05
0.00040224629102555206   -5.029000860327514e-05   6.0451382850545965e-05
0.00040224629102555206   -5.029000860327514e-05   6.0451382850545965e-05
0.00040060636874203785   -5.705929870612042e-05   -0.0002923610487092829
0.00040060636874203785   -5.705929870612042e-05   -0.0002923610487092829
0.00040060636874203785   -5.705929870612042e-05   -0.0002923610487092829
0.00040060636874203785   -5.705929870612042e-05   -0.0002923610487092829
0.00020362459687822275   -4.487524083945254e-05   2.863146967707446e-05
0.00020362459687822275   -4.487524083945254e-05   2.863146967707446e-05
0.00020362459687822275   -4.487524083945254e-05   2.863146967707446e-05
0.00020362459687822275   -4.487524083945254e-05   2.863146967707446e-05
0.0002953798998448571   -5.311159651306117e-05   -0.00011935222186315098
0.0002953798998448571   -5.311159651306117e-05   -0.00011935222186315098
0.0002953798998448571   -5.311159651306117e-05   -0.00011935222186315098
0.0002953798998448571   -5.311159651306117e-05   -0.00011935222186315098
0.00020362459687822243   -5.7059298706120315e-05   -0.00029967148342928326
0.00020362459687822243   -5.7059298706120315e-05   -0.00029967148342928326
0.00020362459687822243   -5.7059298706120315e-05   -0.00029967148342928326
0.00020362459687822243   -5.7059298706120315e-05   -0.00029967148342928326
0.00040060636874203785   -4.487524083945254e-05   3.5941904397075296e-05
0.00040060636874203785   -4.487524083945254e-05   3.5941904397075296e-05
0.00040060636874203785   -4.487524083945254e-05   3.5941904397075296e-05
0.00040060636874203785   -4.487524083945254e-05   3.5941904397075296e-05
0.0003980278482836041   -4.443621123020652e-05   -0.00034035910541357515
0.0003980278482836041   -4.443621123020652e-05   -0.00034035910541357515
0.0003980278482836041   -4.443621123020652e-05   -0.00034035910541357515
0.0003980278482836041   -4.443621123020652e-05   -0.00034035910541357515
0.0001976073554431264   -3.321756802225563e-05   -1.3056136604216442e-05
0.0001976073554431264   -3.321756802225563e-05   -1.3056136604216442e-05
0.0001976073554431264   -3.321756802225563e-05   -1.3056136604216442e-05
0.0001976073554431264   -3.321756802225563e-05   -1.3056136604216442e-05
0.0002868249755708475   -4.5761753816001005e-05   -0.0001542256586741709
0.0002868249755708475   -4.5761753816001005e-05   -0.0001542256586741709
0.0002868249755708475   -4.5761753816001005e-05   -0.0001542256586741709
0.0002868249755708475   -4.5761753816001005e-05   -0.0001542256586741709
-0.00043467436182905816   6.26413276131805e-05   -0.00029935621122253856
-0.00043467436182905816   6.26413276131805e-05   -0.00029935621122253856
-0.00043467436182905816   6.26413276131805e-05   -0.00029935621122253856
-0.00043467436182905816   6.26413276131805e-05   -0.00029935621122253856
-0.00028475204320347984   4.7942053594609256e-05   -5.830524459105079e-05
-0.00028475204320347984   4.7942053594609256e-05   -5.830524459105079e-05
-0.00028475204320347984   4.7942053594609256e-05   -5.830524459105079e-05
-0.00028475204320347984   4.7942053594609256e-05   -5.830524459105079e-05
-0.00028616648581901384   7.512373115153349e-05   -0.00024851600156317825
-0.00028616648581901384   7.512373115153349e-05   -0.00024851600156317825
-0.00028616648581901384   7.512373115153349e-05   -0.00024851600156317825
-0.00028616648581901384   7.512373115153349e-05   -0.00024851600156317825
-0.000428198659935124   5.795403314236237e-05   -1.4938925641588482e-06
-0.000428198659935124   5.795403314236237e-05   -1.4938925641588482e-06
-0.000428198659935124   5.795403314236237e-05   -1.4938925641588482e-06
-0.000428198659935124   5.795403314236237e-05   -1.4938925641588482e-06
-0.0003432940010968092   6.367597430063628e-05   -0.0001464348219896495
-0.0003432940010968092   6.367597430063628e-05   -0.0001464348219896495
-0.0003432940010968092   6.367597430063628e-05   -0.0001464348219896495
-0.0003432940010968092   6.367597430063628e-05   -0.0001464348219896495
-0.000428198659935124   7.512373115153349e-05   -0.00023821418275767558
-0.000428198659935124   7.512373115153349e-05   -0.00023821418275767558
-0.000428198659935124   7.512373115153349e-05   -0.00023821418275767558
-0.000428198659935124   7.512373115153349e-05   -0.00023821418275767558
-0.00028616648581901384   5.795403314236237e-05   -1.1795711369660868e-05
-0.00028616648581901384   5.795403314236237e-05   -1.1795711369660868e-05
-0.00028616648581901384   5.795403314236237e-05   -1.1795711369660868e-05
-0.00028616648581901384   5.795403314236237e-05   -1.1795711369660868e-05
-0.00028591685545985496   8.075505737659399e-05   -0.00021257882803882387
-0.00028591685545985496   8.075505737659399e-05   -0.00021257882803882387
-0.00028591685545985496   8.075505737659399e-05   -0.00021257882803882387
-0.00028591685545985496   8.075505737659399e-05   -0.00021257882803882387
-0.00042186541881199095   6.234557075628132e-05   2.5047802853588996e-05
-0.00042186541881199095   6.234557075628132e-05   2.5047802853588996e-05
-0.00042186541881199095   6.234557075628132e-05   2.5047802853588996e-05
-0.00042186541881199095   6.234557075628132e-05   2.5047802853588996e-05
-0.00034632200005917444   6.94806408677892e-05   -0.00010513893713467288
-0.00034632200005917444   6.94806408677892e-05   -0.00010513893713467288
-0.00034632200005917444   6.94806408677892e-05   -0.00010513893713467288
-0.00034632200005917444   6.94806408677892e-05   -0.00010513893713467288
-0.00042186541881199095   8.075505737659399e-05   -0.00020153313606663696
-0.00042186541881199095   8.075505737659399e-05   -0.00020153313606663696
-0.00042186541881199095   8.075505737659399e-05   -0.00020153313606663696
-0.00042186541881199095   8.075505737659399e-05   -0.00020153313606663696
-0.0002859168554598554   6.234557075628132e-05   1.4002110881403606e-05
-0.0002859168554598554   6.234557075628132e-05   1.4002110881403606e-05
-0.0002859168554598554   6.234557075628132e-05   1.4002110881403606e-05
-0.0002859168554598554   6.234557075628132e-05   1.4002110881403606e-05
-0.00028623797090994885   8.520067173314189e-05   -0.00016219511598505269
-0.00028623797090994885   8.520067173314189e-05   -0.00016219511598505269
-0.00028623797090994885   8.520067173314189e-05   -0.00016219511598505269
-0.00028623797090994885   8.520067173314189e-05   -0.00016219511598505269
-0.00041356558082475837   6.664417616545877e-05   6.115146454690329e-05
-0.00041356558082475837   6.664417616545877e-05   6.115146454690329e-05
-0.00041356558082475837   6.664417616545877e-05   6.115146454690329e-05
-0.00041356558082475837   6.664417616545877e-05   6.115146454690329e-05
-0.00033848404488003313   7.251607578692048e-05   -6.750756846717705e-05
-0.00033848404488003313   7.251607578692048e-05   -6.750756846717705e-05
-0.00033848404488003313   7.251607578692048e-05   -6.750756846717705e-05
-0.00033848404488003313   7.251607578692048e-05   -6.750756846717705e-05
-0.00028475204320347984   2.9145901781208686e-05   -0.00034587963190142105
-0.00028475204320347984   2.9145901781208686e-05   -0.00034587963190142105
-0.00028475204320347984   2.9145901781208686e-05   -0.00034587963190142105
-0.00028475204320347984   2.9145901781208686e-05   -0.00034587963190142105
-0.0001446930309756103   2.38760067686819e-05   -0.0001156098818624879
-0.0001446930309756103   2.38760067686819e-05   -0.0001156098818624879
-0.0001446930309756103   2.38760067686819e-05   -0.0001156098818624879
-0.0001446930309756103   2.38760067686819e-05   -0.0001156098818624879
-0.00014648203172731053   4.0625696342524954e-05   -0.0003410055792890548
-0.00014648203172731053   4.0625696342524954e-05   -0.0003410055792890548
-0.00014648203172731053   4.0625696342524954e-05   -0.0003410055792890548
-0.00014648203172731053   4.0625696342524954e-05   -0.0003410055792890548
-0.0002861664858190134   3.371645061332534e-05   -0.00010405260836536295
-0.0002861664858190134   3.371645061332534e-05   -0.00010405260836536295
-0.0002861664858190134   3.371645061332534e-05   -0.00010405260836536295
-0.0002861664858190134   3.371645061332534e-05   -0.00010405260836536295
-0.00021368266694435278   3.3574258124831596e-05   -0.0002247736576633689
-0.00021368266694435278   3.3574258124831596e-05   -0.0002247736576633689
-0.00021368266694435278   3.3574258124831596e-05   -0.0002247736576633689
-0.00021368266694435278   3.3574258124831596e-05   -0.0002247736576633689
-0.0002861664858190136   4.0625696342524954e-05   -0.000336860031851534
-0.0002861664858190136   4.0625696342524954e-05   -0.000336860031851534
-0.0002861664858190136   4.0625696342524954e-05   -0.000336860031851534
-0.0002861664858190136   4.0625696342524954e-05   -0.000336860031851534
-0.0001464820317273108   3.371645061332534e-05   -0.0001081981558028821
-0.0001464820317273108   3.371645061332534e-05   -0.0001081981558028821
-0.0001464820317273108   3.371645061332534e-05   -0.0001081981558028821
-0.0001464820317273108   3.371645061332534e-05   -0.0001081981558028821
-0.00014765305996580986   5.012048362294016e-05   -0.00033196819569958477
-0.00014765305996580986   5.012048362294016e-05   -0.00033196819569958477
-0.00014765305996580986   5.012048362294016e-05   -0.00033196819569958477
-0.00014765305996580986   5.012048362294016e-05   -0.00033196819569958477
-0.00028591685545985496   4.2449630142473316e-05   -9.692602445456468e-05
-0.00028591685545985496   4.2449630142473316e-05   -9.692602445456468e-05
-0.00028591685545985496   4.2449630142473316e-05   -9.692602445456468e-05
-0.00028591685545985496   4.2449630142473316e-05   -9.692602445456468e-05
-0.00021410686283933404   4.166375885081026e-05   -0.0002161378227137638
-0.00021410686283933404   4.166375885081026e-05   -0.0002161378227137638
-0.00021410686283933404   4.166375885081026e-05   -0.0002161378227137638
-0.00021410686283933404   4.166375885081026e-05   -0.0002161378227137638
-0.00028591685545985496   5.012048362294016e-05   -0.00032736568361130497
-0.00028591685545985496   5.012048362294016e-05   -0.00032736568361130497
-0.00028591685545985496   5.012048362294016e-05   -0.00032736568361130497
-0.00028591685545985496   5.012048362294016e-05   -0.00032736568361130497
-0.0001476530599658103   4.244963014247375e-05   -0.0001015285365428435
-0.0001476530599658103   4.244963014247375e-05   -0.0001015285365428435
-0.0001476530599658103   4.244963014247375e-05   -0.0001015285365428435
-0.0001476530599658103   4.244963014247375e-05   -0.0001015285365428435
-0.00014915663483936484   6.033021975168835e-05   -0.0003311584031567491
-0.00014915663483936484   6.033021975168835e-05   -0.0003311584031567491
-0.00014915663483936484   6.033021975168835e-05   -0.0003311584031567491
-0.00014915663483936484   6.033021975168835e-05   -0.0003311584031567491
-0.00028623797090994863   5.172978262332935e-05   -9.75292474287607e-05
-0.00028623797090994863   5.172978262332935e-05   -9.75292474287607e-05
-0.00028623797090994863   5.172978262332935e-05   -9.75292474287607e-05
-0.00028623797090994863   5.172978262332935e-05   -9.75292474287607e-05
-0.0002166739459653327   4.966808766534341e-05   -0.00021223227202832665
-0.0002166739459653327   4.966808766534341e-05   -0.00021223227202832665
-0.0002166739459653327   4.966808766534341e-05   -0.00021223227202832665
-0.0002166739459653327   4.966808766534341e-05   -0.00021223227202832665
-0.00014469303097561004   -8.506721857501429e-07   -0.0003727101745510074
-0.00014469303097561004   -8.506721857501429e-07   -0.0003727101745510074
-0.00014469303097561004   -8.506721857501429e-07   -0.0003727101745510074
-0.00014469303097561004   -8.506721857501429e-07   -0.0003727101745510074
-6.234693994600246e-06   1.2653991006850857e-06   -0.00014067663681079632
-6.234693994600246e-06   1.2653991006850857e-06   -0.00014067663681079632
-6.234693994600246e-06   1.2653991006850857e-06   -0.00014067663681079632
-6.234693994600246e-06   1.2653991006850857e-06   -0.00014067663681079632
-7.674122012923007e-06   9.722924281638842e-06   -0.00036926391312989233
-7.674122012923007e-06   9.722924281638842e-06   -0.00036926391312989233
-7.674122012923007e-06   9.722924281638842e-06   -0.00036926391312989233
-7.674122012923007e-06   9.722924281638842e-06   -0.00036926391312989233
-0.00014648203172731053   1.0943435307327314e-05   -0.0001386497035546603
-0.00014648203172731053   1.0943435307327314e-05   -0.0001386497035546603
-0.00014648203172731053   1.0943435307327314e-05   -0.0001386497035546603
-0.00014648203172731053   1.0943435307327314e-05   -0.0001386497035546603
-7.584581641747833e-05   6.369788130016971e-06   -0.00025363254076466086
-7.584581641747833e-05   6.369788130016971e-06   -0.00025363254076466086
-7.584581641747833e-05   6.369788130016971e-06   -0.00025363254076466086
-7.584581641747833e-05   6.369788130016971e-06   -0.00025363254076466086
-0.00014648203172731053   9.722924281638842e-06   -0.0003699962197453062
-0.00014648203172731053   9.722924281638842e-06   -0.0003699962197453062
-0.00014648203172731053   9.722924281638842e-06   -0.0003699962197453062
-0.00014648203172731053   9.722924281638842e-06   -0.0003699962197453062
-7.674122012923021e-06   1.0943435307327314e-05   -0.000137917396939246
-7.674122012923021e-06   1.0943435307327314e-05   -0.000137917396939246
-7.674122012923021e-06   1.0943435307327314e-05   -0.000137917396939246
-7.674122012923021e-06   1.0943435307327314e-05   -0.000137917396939246
-8.725225972181602e-06   2.0051877279196433e-05   -0.00037028073205550146
-8.725225972181602e-06   2.0051877279196433e-05   -0.00037028073205550146
-8.725225972181602e-06   2.0051877279196433e-05   -0.00037028073205550146
-8.725225972181602e-06   2.0051877279196433e-05   -0.00037028073205550146
-0.00014765305996581013   2.0591762784022936e-05   -0.00013905827336901835
-0.00014765305996581013   2.0591762784022936e-05   -0.00013905827336901835
-0.00014765305996581013   2.0591762784022936e-05   -0.00013905827336901835
-0.00014765305996581013   2.0591762784022936e-05   -0.00013905827336901835
-7.769446695743687e-05   1.4902635265508397e-05   -0.0002522424518718626
-7.769446695743687e-05   1.4902635265508397e-05   -0.0002522424518718626
-7.769446695743687e-05   1.4902635265508397e-05   -0.0002522424518718626
-7.769446695743687e-05   1.4902635265508397e-05   -0.0002522424518718626
-0.00014765305996581013   2.0051877279196433e-05   -0.00037060466335839823
-0.00014765305996581013   2.0051877279196433e-05   -0.00037060466335839823
-0.00014765305996581013   2.0051877279196433e-05   -0.00037060466335839823
-0.00014765305996581013   2.0051877279196433e-05   -0.00037060466335839823
-8.725225972181615e-06   2.059176278402337e-05   -0.0001387343420661206
-8.725225972181615e-06   2.059176278402337e-05   -0.0001387343420661206
-8.725225972181615e-06   2.059176278402337e-05   -0.0001387343420661206
-8.725225972181615e-06   2.059176278402337e-05   -0.0001387343420661206
-1.0358713911547722e-05   3.081628459981932e-05   -0.00037505048712680334
-1.0358713911547722e-05   3.081628459981932e-05   -0.00037505048712680334
-1.0358713911547722e-05   3.081628459981932e-05   -0.00037505048712680334
-1.0358713911547722e-05   3.081628459981932e-05   -0.00037505048712680334
-0.00014915663483936473   3.0465317316645535e-05   -0.000143510038543872
-0.00014915663483936473   3.0465317316645535e-05   -0.000143510038543872
-0.00014915663483936473   3.0465317316645535e-05   -0.000143510038543872
-0.00014915663483936473   3.0465317316645535e-05   -0.000143510038543872
-7.96565985368033e-05   2.3536760016183884e-05   -0.00025518629800119503
-7.96565985368033e-05   2.3536760016183884e-05   -0.00025518629800119503
-7.96565985368033e-05   2.3536760016183884e-05   -0.00025518629800119503
-7.96565985368033e-05   2.3536760016183884e-05   -0.00025518629800119503
-6.234693994600253e-06   -2.9758925520899674e-05   -0.0003331104654627525
-6.234693994600253e-06   -2.9758925520899674e-05   -0.0003331104654627525
-6.234693994600253e-06   -2.9758925520899674e-05   -0.0003331104654627525
-6.234693994600253e-06   -2.9758925520899674e-05   -0.0003331104654627525
0.0001315828107355187   -2.000416615077251e-05   -9.756176862381121e-05
0.0001315828107355187   -2.000416615077251e-05   -9.756176862381121e-05
0.0001315828107355187   -2.000416615077251e-05   -9.756176862381121e-05
0.0001315828107355187   -2.000416615077251e-05   -9.756176862381121e-05
0.00013145042253832136   -2.016372088068318e-05   -0.00032933565855877136
0.00013145042253832136   -2.016372088068318e-05   -0.00032933565855877136
0.00013145042253832136   -2.016372088068318e-05   -0.00032933565855877136
0.00013145042253832136   -2.016372088068318e-05   -0.00032933565855877136
-7.674122012923021e-06   -1.1144929563360571e-05   -0.00010287269243042421
-7.674122012923021e-06   -1.1144929563360571e-05   -0.00010287269243042421
-7.674122012923021e-06   -1.1144929563360571e-05   -0.00010287269243042421
-7.674122012923021e-06   -1.1144929563360571e-05   -0.00010287269243042421
6.180169838794895e-05   -1.9576301103275007e-05   -0.00021360690350792904
6.180169838794895e-05   -1.9576301103275007e-05   -0.00021360690350792904
6.180169838794895e-05   -1.9576301103275007e-05   -0.00021360690350792904
6.180169838794895e-05   -1.9576301103275007e-05   -0.00021360690350792904
-7.674122012923021e-06   -2.016372088068318e-05   -0.0003347469333491646
-7.674122012923021e-06   -2.016372088068318e-05   -0.0003347469333491646
-7.674122012923021e-06   -2.016372088068318e-05   -0.0003347469333491646
-7.674122012923021e-06   -2.016372088068318e-05   -0.0003347469333491646
0.00013145042253832136   -1.1144929563360571e-05   -9.746141764003027e-05
0.00013145042253832136   -1.1144929563360571e-05   -9.746141764003027e-05
0.00013145042253832136   -1.1144929563360571e-05   -9.746141764003027e-05
0.00013145042253832136   -1.1144929563360571e-05   -9.746141764003027e-05
0.0001320255946304778   -1.0757270792555824e-05   -0.0003380864055875989
0.0001320255946304778   -1.0757270792555824e-05   -0.0003380864055875989
0.0001320255946304778   -1.0757270792555824e-05   -0.0003380864055875989
0.0001320255946304778   -1.0757270792555824e-05   -0.0003380864055875989
-8.725225972181629e-06   -2.4294273896982577e-06   -0.00010849841062488132
-8.725225972181629e-06   -2.4294273896982577e-06   -0.00010849841062488132
-8.725225972181629e-06   -2.4294273896982577e-06   -0.00010849841062488132
-8.725225972181629e-06   -2.4294273896982577e-06   -0.00010849841062488132
5.988909039472481e-05   -1.189159516294452e-05   -0.00021717830390577592
5.988909039472481e-05   -1.189159516294452e-05   -0.00021717830390577592
5.988909039472481e-05   -1.189159516294452e-05   -0.00021717830390577592
5.988909039472481e-05   -1.189159516294452e-05   -0.00021717830390577592
-8.725225972181602e-06   -1.0757270792555824e-05   -0.0003430831116293116
-8.725225972181602e-06   -1.0757270792555824e-05   -0.0003430831116293116
-8.725225972181602e-06   -1.0757270792555824e-05   -0.0003430831116293116
-8.725225972181602e-06   -1.0757270792555824e-05   -0.0003430831116293116
0.0001320255946304778   -2.4294273896982577e-06   -0.00010350170458316545
0.0001320255946304778   -2.4294273896982577e-06   -0.00010350170458316545
0.0001320255946304778   -2.4294273896982577e-06   -0.00010350170458316545
0.0001320255946304778   -2.4294273896982577e-06   -0.00010350170458316545
0.00013097606293424764   8.866814062685052e-07   -0.0003479693794079823
0.00013097606293424764   8.866814062685052e-07   -0.0003479693794079823
0.00013097606293424764   8.866814062685052e-07   -0.0003479693794079823
0.00013097606293424764   8.866814062685052e-07   -0.0003479693794079823
-1.0358713911547735e-05   7.771624282036389e-06   -0.0001165423837237847
-1.0358713911547735e-05   7.771624282036389e-06   -0.0001165423837237847
-1.0358713911547735e-05   7.771624282036389e-06   -0.0001165423837237847
-1.0358713911547735e-05   7.771624282036389e-06   -0.0001165423837237847
5.92004633530599e-05   -3.660086930997071e-06   -0.00022561531910364236
5.92004633530599e-05   -3.660086930997071e-06   -0.00022561531910364236
5.92004633530599e-05   -3.660086930997071e-06   -0.00022561531910364236
5.92004633530599e-05   -3.660086930997071e-06   -0.00022561531910364236
0.00013158281073551837   -5.537023301215092e-05   -0.00018651950667127612
0.00013158281073551837   -5.537023301215092e-05   -0.00018651950667127612
0.00013158281073551837   -5.537023301215092e-05   -0.00018651950667127612
0.00013158281073551837   -5.537023301215092e-05   -0.00018651950667127612
0.00026086209711007676   -3.63565229251025e-05   4.03541966718839e-05
0.00026086209711007676   -3.63565229251025e-05   4.03541966718839e-05
0.00026086209711007676   -3.63565229251025e-05   4.03541966718839e-05
0.00026086209711007676   -3.63565229251025e-05   4.03541966718839e-05
0.00026954008578451564   -5.029000860327514e-05   -0.00021010566163098343
0.00026954008578451564   -5.029000860327514e-05   -0.00021010566163098343
0.00026954008578451564   -5.029000860327514e-05   -0.00021010566163098343
0.00026954008578451564   -5.029000860327514e-05   -0.00021010566163098343
0.0001314504225383212   -3.1269979738054576e-05   8.63175979354269e-06
0.0001314504225383212   -3.1269979738054576e-05   8.63175979354269e-06
0.0001314504225383212   -3.1269979738054576e-05   8.63175979354269e-06
0.0001314504225383212   -3.1269979738054576e-05   8.63175979354269e-06
0.00018987924530788195   -4.281246396265013e-05   -8.1824120954302e-05
0.00018987924530788195   -4.281246396265013e-05   -8.1824120954302e-05
0.00018987924530788195   -4.281246396265013e-05   -8.1824120954302e-05
0.00018987924530788195   -4.281246396265013e-05   -8.1824120954302e-05
0.00013145042253832103   -5.029000860327514e-05   -0.00022151767895011538
0.00013145042253832103   -5.029000860327514e-05   -0.00022151767895011538
0.00013145042253832103   -5.029000860327514e-05   -0.00022151767895011538
0.00013145042253832103   -5.029000860327514e-05   -0.00022151767895011538
0.00026954008578451564   -3.1269979738054576e-05   2.004377711267583e-05
0.00026954008578451564   -3.1269979738054576e-05   2.004377711267583e-05
0.00026954008578451564   -3.1269979738054576e-05   2.004377711267583e-05
0.00026954008578451564   -3.1269979738054576e-05   2.004377711267583e-05
0.00027618784128872185   -4.487524083945254e-05   -0.000237037990997466
0.00027618784128872185   -4.487524083945254e-05   -0.000237037990997466
0.00027618784128872185   -4.487524083945254e-05   -0.000237037990997466
0.00027618784128872185   -4.487524083945254e-05   -0.000237037990997466
0.00013202559463047742   -2.688619257600446e-05   -7.561008858462037e-06
0.00013202559463047742   -2.688619257600446e-05   -7.561008858462037e-06
0.00013202559463047742   -2.688619257600446e-05   -7.561008858462037e-06
0.00013202559463047742   -2.688619257600446e-05   -7.561008858462037e-06
0.00019626358780649119   -3.952859557462612e-05   -0.0001070388890193107
0.00019626358780649119   -3.952859557462612e-05   -0.0001070388890193107
0.00019626358780649119   -3.952859557462612e-05   -0.0001070388890193107
0.00019626358780649119   -3.952859557462612e-05   -0.0001070388890193107
0.00013202559463047764   -4.487524083945254e-05   -0.000247831419955535
0.00013202559463047764   -4.487524083945254e-05   -0.000247831419955535
0.00013202559463047764   -4.487524083945254e-05   -0.000247831419955535
0.00013202559463047764   -4.487524083945254e-05   -0.000247831419955535
0.0002761878412887214   -2.688619257600446e-05   3.23242009960846e-06
0.0002761878412887214   -2.688619257600446e-05   3.23242009960846e-06
0.0002761878412887214   -2.688619257600446e-05   3.23242009960846e-06
0.0002761878412887214   -2.688619257600446e-05   3.23242009960846e-06
0.00028325297330879977   -3.321756802225563e-05   -0.00028280969091479366
0.00028325297330879977   -3.321756802225563e-05   -0.00028280969091479366
0.00028325297330879977   -3.321756802225563e-05   -0.00028280969091479366
0.00028325297330879977   -3.321756802225563e-05   -0.00028280969091479366
0.0001309760629342472   -1.7504555510593472e-05   -3.8442647797538236e-05
0.0001309760629342472   -1.7504555510593472e-05   -3.8442647797538236e-05
0.0001309760629342472   -1.7504555510593472e-05   -3.8442647797538236e-05
0.0001309760629342472   -1.7504555510593472e-05   -3.8442647797538236e-05
0.00019535739744790408   -3.407861211430531e-05   -0.00013580043802473817
0.00019535739744790408   -3.407861211430531e-05   -0.00013580043802473817
0.00019535739744790408   -3.407861211430531e-05   -0.00013580043802473817
0.00019535739744790408   -3.407861211430531e-05   -0.00013580043802473817
-0.0003131177278099498   4.7942053594609256e-05   -0.00023772914534651683
-0.0003131177278099498   4.7942053594609256e-05   -0.00023772914534651683
-0.0003131177278099498   4.7942053594609256e-05   -0.00023772914534651683
-0.0003131177278099498   4.7942053594609256e-05   -0.00023772914534651683
-0.00021290949667006885   3.0569756275464384e-05   -8.113880517153504e-05
-0.00021290949667006885   3.0569756275464384e-05   -8.113880517153504e-05
-0.00021290949667006885   3.0569756275464384e-05   -8.113880517153504e-05
-0.00021290949667006885   3.0569756275464384e-05   -8.113880517153504e-05
-0.00021214023262572596   5.795403314236237e-05   -0.0002019466095757004
-0.00021214023262572596   5.795403314236237e-05   -0.0002019466095757004
-0.00021214023262572596   5.795403314236237e-05   -0.0002019466095757004
-0.00021214023262572596   5.795403314236237e-05   -0.0002019466095757004
-0.00030382200561229105   3.887334772391046e-05   -3.7695243347019534e-05
-0.00030382200561229105   3.887334772391046e-05   -3.7695243347019534e-05
-0.00030382200561229105   3.887334772391046e-05   -3.7695243347019534e-05
-0.00030382200561229105   3.887334772391046e-05   -3.7695243347019534e-05
-0.0002494476297453445   4.615196075390734e-05   -0.00013268637094326257
-0.0002494476297453445   4.615196075390734e-05   -0.00013268637094326257
-0.0002494476297453445   4.615196075390734e-05   -0.00013268637094326257
-0.0002494476297453445   4.615196075390734e-05   -0.00013268637094326257
-0.00030382200561229105   5.795403314236237e-05   -0.0001904981983246283
-0.00030382200561229105   5.795403314236237e-05   -0.0001904981983246283
-0.00030382200561229105   5.795403314236237e-05   -0.0001904981983246283
-0.00030382200561229105   5.795403314236237e-05   -0.0001904981983246283
-0.00021214023262572618   3.887334772391046e-05   -4.91436545980912e-05
-0.00021214023262572618   3.887334772391046e-05   -4.91436545980912e-05
-0.00021214023262572618   3.887334772391046e-05   -4.91436545980912e-05
-0.00021214023262572618   3.887334772391046e-05   -4.91436545980912e-05
-0.00021053528599123718   6.234557075628132e-05   -0.00017609146254107116
-0.00021053528599123718   6.234557075628132e-05   -0.00017609146254107116
-0.00021053528599123718   6.234557075628132e-05   -0.00017609146254107116
-0.00021053528599123718   6.234557075628132e-05   -0.00017609146254107116
-0.00029686100882523486   4.273236850155064e-05   -2.0447336464904375e-05
-0.00029686100882523486   4.273236850155064e-05   -2.0447336464904375e-05
-0.00029686100882523486   4.273236850155064e-05   -2.0447336464904375e-05
-0.00029686100882523486   4.273236850155064e-05   -2.0447336464904375e-05
-0.0002494846935454365   5.0783325501373676e-05   -0.0001042384361311299
-0.0002494846935454365   5.0783325501373676e-05   -0.0001042384361311299
-0.0002494846935454365   5.0783325501373676e-05   -0.0001042384361311299
-0.0002494846935454365   5.0783325501373676e-05   -0.0001042384361311299
-0.00029686100882523486   6.234557075628132e-05   -0.00016432354118823362
-0.00029686100882523486   6.234557075628132e-05   -0.00016432354118823362
-0.00029686100882523486   6.234557075628132e-05   -0.00016432354118823362
-0.00029686100882523486   6.234557075628132e-05   -0.00016432354118823362
-0.0002105352859912376   4.273236850155064e-05   -3.2215257817741916e-05
-0.0002105352859912376   4.273236850155064e-05   -3.2215257817741916e-05
-0.0002105352859912376   4.273236850155064e-05   -3.2215257817741916e-05
-0.0002105352859912376   4.273236850155064e-05   -3.2215257817741916e-05
-0.00020988485747988422   6.664417616545877e-05   -0.00014026453343887052
-0.00020988485747988422   6.664417616545877e-05   -0.00014026453343887052
-0.00020988485747988422   6.664417616545877e-05   -0.00014026453343887052
-0.00020988485747988422   6.664417616545877e-05   -0.00014026453343887052
-0.00028773894796487354   4.75699043618388e-05   9.368471182834986e-07
-0.00028773894796487354   4.75699043618388e-05   9.368471182834986e-07
-0.00028773894796487354   4.75699043618388e-05   9.368471182834986e-07
-0.00028773894796487354   4.75699043618388e-05   9.368471182834986e-07
-0.00024211575989028643   5.327412085680272e-05   -7.852432956967272e-05
-0.00024211575989028643   5.327412085680272e-05   -7.852432956967272e-05
-0.00024211575989028643   5.327412085680272e-05   -7.852432956967272e-05
-0.00024211575989028643   5.327412085680272e-05   -7.852432956967272e-05
-0.0002129094966700684   2.38760067686819e-05   -0.0003022952240019244
-0.0002129094966700684   2.38760067686819e-05   -0.0003022952240019244
-0.0002129094966700684   2.38760067686819e-05   -0.0003022952240019244
-0.0002129094966700684   2.38760067686819e-05   -0.0003022952240019244
-0.00012217061554278504   1.5757013119347546e-05   -0.00015593515164605254
-0.00012217061554278504   1.5757013119347546e-05   -0.00015593515164605254
-0.00012217061554278504   1.5757013119347546e-05   -0.00015593515164605254
-0.00012217061554278504   1.5757013119347546e-05   -0.00015593515164605254
-0.00012222714939719723   3.371645061332534e-05   -0.00029972342002031107
-0.00012222714939719723   3.371645061332534e-05   -0.00029972342002031107
-0.00012222714939719723   3.371645061332534e-05   -0.00029972342002031107
-0.00012222714939719723   3.371645061332534e-05   -0.00029972342002031107
-0.00021214023262572596   2.4516594865142856e-05   -0.00014434836785718642
-0.00021214023262572596   2.4516594865142856e-05   -0.00014434836785718642
-0.00021214023262572596   2.4516594865142856e-05   -0.00014434836785718642
-0.00021214023262572596   2.4516594865142856e-05   -0.00014434836785718642
-0.00016582123158067377   2.608636686190699e-05   -0.00022248856613033214
-0.00016582123158067377   2.608636686190699e-05   -0.00022248856613033214
-0.00016582123158067377   2.608636686190699e-05   -0.00022248856613033214
-0.00016582123158067377   2.608636686190699e-05   -0.00022248856613033214
-0.00021214023262572574   3.371645061332534e-05   -0.00029420350657139967
-0.00021214023262572574   3.371645061332534e-05   -0.00029420350657139967
-0.00021214023262572574   3.371645061332534e-05   -0.00029420350657139967
-0.00021214023262572574   3.371645061332534e-05   -0.00029420350657139967
-0.00012222714939719723   2.4516594865142856e-05   -0.0001498682813060961
-0.00012222714939719723   2.4516594865142856e-05   -0.0001498682813060961
-0.00012222714939719723   2.4516594865142856e-05   -0.0001498682813060961
-0.00012222714939719723   2.4516594865142856e-05   -0.0001498682813060961
-0.0001221324799432692   4.2449630142473316e-05   -0.0002930029380277272
-0.0001221324799432692   4.2449630142473316e-05   -0.0002930029380277272
-0.0001221324799432692   4.2449630142473316e-05   -0.0002930029380277272
-0.0001221324799432692   4.2449630142473316e-05   -0.0002930029380277272
-0.00021053528599123718   3.247739655799168e-05   -0.00013968158779709182
-0.00021053528599123718   3.247739655799168e-05   -0.00013968158779709182
-0.00021053528599123718   3.247739655799168e-05   -0.00013968158779709182
-0.00021053528599123718   3.247739655799168e-05   -0.00013968158779709182
-0.00016504377553024882   3.327078984693716e-05   -0.00021597680787210417
-0.00016504377553024882   3.327078984693716e-05   -0.00021597680787210417
-0.00016504377553024882   3.327078984693716e-05   -0.00021597680787210417
-0.00016504377553024882   3.327078984693716e-05   -0.00021597680787210417
-0.00021053528599123718   4.2449630142473316e-05   -0.0002870195978770386
-0.00021053528599123718   4.2449630142473316e-05   -0.0002870195978770386
-0.00021053528599123718   4.2449630142473316e-05   -0.0002870195978770386
-0.00021053528599123718   4.2449630142473316e-05   -0.0002870195978770386
-0.00012213247994326954   3.247739655799255e-05   -0.00014566492794778002
-0.00012213247994326954   3.247739655799255e-05   -0.00014566492794778002
-0.00012213247994326954   3.247739655799255e-05   -0.00014566492794778002
-0.00012213247994326954   3.247739655799255e-05   -0.00014566492794778002
-0.00012222382098527182   5.172978262332935e-05   -0.00029418052040060044
-0.00012222382098527182   5.172978262332935e-05   -0.00029418052040060044
-0.00012222382098527182   5.172978262332935e-05   -0.00029418052040060044
-0.00012222382098527182   5.172978262332935e-05   -0.00029418052040060044
-0.00020988485747988443   4.1114495412204397e-05   -0.0001417096205829035
-0.00020988485747988443   4.1114495412204397e-05   -0.0001417096205829035
-0.00020988485747988443   4.1114495412204397e-05   -0.0001417096205829035
-0.00020988485747988443   4.1114495412204397e-05   -0.0001417096205829035
-0.0001661079840157077   4.036791130063687e-05   -0.00021422312588959078
-0.0001661079840157077   4.036791130063687e-05   -0.00021422312588959078
-0.0001661079840157077   4.036791130063687e-05   -0.00021422312588959078
-0.0001661079840157077   4.036791130063687e-05   -0.00021422312588959078
-0.00012217061554278482   1.2653991006850857e-06   -0.0003335030179116949
-0.00012217061554278482   1.2653991006850857e-06   -0.0003335030179116949
-0.00012217061554278482   1.2653991006850857e-06   -0.0003335030179116949
-0.00012217061554278482   1.2653991006850857e-06   -0.0003335030179116949
-3.2736370350574054e-05   2.6831124045282456e-06   -0.00018359531460903885
-3.2736370350574054e-05   2.6831124045282456e-06   -0.00018359531460903885
-3.2736370350574054e-05   2.6831124045282456e-06   -0.00018359531460903885
-3.2736370350574054e-05   2.6831124045282456e-06   -0.00018359531460903885
-3.279377558394025e-05   1.0943435307327314e-05   -0.00032985306138196046
-3.279377558394025e-05   1.0943435307327314e-05   -0.00032985306138196046
-3.279377558394025e-05   1.0943435307327314e-05   -0.00032985306138196046
-3.279377558394025e-05   1.0943435307327314e-05   -0.00032985306138196046
-0.000122227149397197   1.1479945957538866e-05   -0.00018111934474999243
-0.000122227149397197   1.1479945957538866e-05   -0.00018111934474999243
-0.000122227149397197   1.1479945957538866e-05   -0.00018111934474999243
-0.000122227149397197   1.1479945957538866e-05   -0.00018111934474999243
-7.696964911988548e-05   7.722307524681872e-06   -0.00025429392881913093
-7.696964911988548e-05   7.722307524681872e-06   -0.00025429392881913093
-7.696964911988548e-05   7.722307524681872e-06   -0.00025429392881913093
-7.696964911988548e-05   7.722307524681872e-06   -0.00025429392881913093
-0.000122227149397197   1.0943435307327314e-05   -0.0003301749677720872
-0.000122227149397197   1.0943435307327314e-05   -0.0003301749677720872
-0.000122227149397197   1.0943435307327314e-05   -0.0003301749677720872
-0.000122227149397197   1.0943435307327314e-05   -0.0003301749677720872
-3.279377558394025e-05   1.1479945957538866e-05   -0.00018079743835986567
-3.279377558394025e-05   1.1479945957538866e-05   -0.00018079743835986567
-3.279377558394025e-05   1.1479945957538866e-05   -0.00018079743835986567
-3.279377558394025e-05   1.1479945957538866e-05   -0.00018079743835986567
-3.267288729483228e-05   2.059176278402337e-05   -0.0003307048885572818
-3.267288729483228e-05   2.059176278402337e-05   -0.0003307048885572818
-3.267288729483228e-05   2.059176278402337e-05   -0.0003307048885572818
-3.267288729483228e-05   2.059176278402337e-05   -0.0003307048885572818
-0.0001221324799432692   2.030473994505365e-05   -0.00018143335377317216
-0.0001221324799432692   2.030473994505365e-05   -0.00018143335377317216
-0.0001221324799432692   2.030473994505365e-05   -0.00018143335377317216
-0.0001221324799432692   2.030473994505365e-05   -0.00018143335377317216
-7.748089431408498e-05   1.541176496931869e-05   -0.0002529168781697053
-7.748089431408498e-05   1.541176496931869e-05   -0.0002529168781697053
-7.748089431408498e-05   1.541176496931869e-05   -0.0002529168781697053
-7.748089431408498e-05   1.541176496931869e-05   -0.0002529168781697053
-0.0001221324799432692   2.059176278402337e-05   -0.00033053267485390033
-0.0001221324799432692   2.059176278402337e-05   -0.00033053267485390033
-0.0001221324799432692   2.059176278402337e-05   -0.00033053267485390033
-0.0001221324799432692   2.059176278402337e-05   -0.00033053267485390033
-3.2672887294832336e-05   2.030473994505365e-05   -0.00018160556747655278
-3.2672887294832336e-05   2.030473994505365e-05   -0.00018160556747655278
-3.2672887294832336e-05   2.030473994505365e-05   -0.00018160556747655278
-3.2672887294832336e-05   2.030473994505365e-05   -0.00018160556747655278
-3.272249306379859e-05   3.0465317316645535e-05   -0.0003357099401125408
-3.272249306379859e-05   3.0465317316645535e-05   -0.0003357099401125408
-3.272249306379859e-05   3.0465317316645535e-05   -0.0003357099401125408
-3.272249306379859e-05   3.0465317316645535e-05   -0.0003357099401125408
-0.00012222382098527165   2.928383252690566e-05   -0.00018583216936957276
-0.00012222382098527165   2.928383252690566e-05   -0.00018583216936957276
-0.00012222382098527165   2.928383252690566e-05   -0.00018583216936957276
-0.00012222382098527165   2.928383252690566e-05   -0.00018583216936957276
-7.8143154634564e-05   2.320211936544022e-05   -0.0002556509187238743
-7.8143154634564e-05   2.320211936544022e-05   -0.0002556509187238743
-7.8143154634564e-05   2.320211936544022e-05   -0.0002556509187238743
-7.8143154634564e-05   2.320211936544022e-05   -0.0002556509187238743
-3.2736370350574006e-05   -2.0004166150772076e-05   -0.0002953903773644808
-3.2736370350574006e-05   -2.0004166150772076e-05   -0.0002953903773644808
-3.2736370350574006e-05   -2.0004166150772076e-05   -0.0002953903773644808
-3.2736370350574006e-05   -2.0004166150772076e-05   -0.0002953903773644808
5.546367817122887e-05   -9.281888064618243e-06   -0.0001419569296431172
5.546367817122887e-05   -9.281888064618243e-06   -0.0001419569296431172
5.546367817122887e-05   -9.281888064618243e-06   -0.0001419569296431172
5.546367817122887e-05   -9.281888064618243e-06   -0.0001419569296431172
5.6186244702913484e-05   -1.1144929563360571e-05   -0.00028872533125386124
5.6186244702913484e-05   -1.1144929563360571e-05   -0.00028872533125386124
5.6186244702913484e-05   -1.1144929563360571e-05   -0.00028872533125386124
5.6186244702913484e-05   -1.1144929563360571e-05   -0.00028872533125386124
-3.279377558394025e-05   -1.0065535312334464e-06   -0.000146508323061715
-3.279377558394025e-05   -1.0065535312334464e-06   -0.000146508323061715
-3.279377558394025e-05   -1.0065535312334464e-06   -0.000146508323061715
-3.279377558394025e-05   -1.0065535312334464e-06   -0.000146508323061715
1.1572291202821012e-05   -9.596326172247802e-06   -0.0002152979041217081
1.1572291202821012e-05   -9.596326172247802e-06   -0.0002152979041217081
1.1572291202821012e-05   -9.596326172247802e-06   -0.0002152979041217081
1.1572291202821012e-05   -9.596326172247802e-06   -0.0002152979041217081
-3.279377558394025e-05   -1.1144929563360571e-05   -0.0002948083568731375
-3.279377558394025e-05   -1.1144929563360571e-05   -0.0002948083568731375
-3.279377558394025e-05   -1.1144929563360571e-05   -0.0002948083568731375
-3.279377558394025e-05   -1.1144929563360571e-05   -0.0002948083568731375
5.618624470291359e-05   -1.0065535312334464e-06   -0.00014042529744243875
5.618624470291359e-05   -1.0065535312334464e-06   -0.00014042529744243875
5.618624470291359e-05   -1.0065535312334464e-06   -0.00014042529744243875
5.618624470291359e-05   -1.0065535312334464e-06   -0.00014042529744243875
5.7872338408924626e-05   -2.4294273896982577e-06   -0.0002948327581423671
5.7872338408924626e-05   -2.4294273896982577e-06   -0.0002948327581423671
5.7872338408924626e-05   -2.4294273896982577e-06   -0.0002948327581423671
5.7872338408924626e-05   -2.4294273896982577e-06   -0.0002948327581423671
-3.2672887294832336e-05   6.9642375664256614e-06   -0.00014956024760977936
-3.2672887294832336e-05   6.9642375664256614e-06   -0.00014956024760977936
-3.2672887294832336e-05   6.9642375664256614e-06   -0.00014956024760977936
-3.2672887294832336e-05   6.9642375664256614e-06   -0.00014956024760977936
1.1065773524147262e-05   -2.714435399929667e-06   -0.00021665081186159958
1.1065773524147262e-05   -2.714435399929667e-06   -0.00021665081186159958
1.1065773524147262e-05   -2.714435399929667e-06   -0.00021665081186159958
1.1065773524147262e-05   -2.714435399929667e-06   -0.00021665081186159958
-3.267288729483231e-05   -2.4294273896982577e-06   -0.0003004689571160404
-3.267288729483231e-05   -2.4294273896982577e-06   -0.0003004689571160404
-3.267288729483231e-05   -2.4294273896982577e-06   -0.0003004689571160404
-3.267288729483231e-05   -2.4294273896982577e-06   -0.0003004689571160404
5.787233840892495e-05   6.964237566424794e-06   -0.00014392404863610526
5.787233840892495e-05   6.964237566424794e-06   -0.00014392404863610526
5.787233840892495e-05   6.964237566424794e-06   -0.00014392404863610526
5.787233840892495e-05   6.964237566424794e-06   -0.00014392404863610526
5.8693249286731627e-05   7.771624282035955e-06   -0.0003035282870052138
5.8693249286731627e-05   7.771624282035955e-06   -0.0003035282870052138
5.8693249286731627e-05   7.771624282035955e-06   -0.0003035282870052138
5.8693249286731627e-05   7.771624282035955e-06   -0.0003035282870052138
-3.2722493063798526e-05   1.6110654144260196e-05   -0.00015617213433833106
-3.2722493063798526e-05   1.6110654144260196e-05   -0.00015617213433833106
-3.2722493063798526e-05   1.6110654144260196e-05   -0.00015617213433833106
-3.2722493063798526e-05   1.6110654144260196e-05   -0.00015617213433833106
1.1377203989544521e-05   4.657704111872031e-06   -0.00022279985940780255
1.1377203989544521e-05   4.657704111872031e-06   -0.00022279985940780255
1.1377203989544521e-05   4.657704111872031e-06   -0.00022279985940780255
1.1377203989544521e-05   4.657704111872031e-06   -0.00022279985940780255
5.546367817122887e-05   -3.63565229251025e-05   -0.00016244927126932195
5.546367817122887e-05   -3.63565229251025e-05   -0.00016244927126932195
5.546367817122887e-05   -3.63565229251025e-05   -0.00016244927126932195
5.546367817122887e-05   -3.63565229251025e-05   -0.00016244927126932195
0.0001340492048130873   -1.7115622830204784e-05   -1.9928853475952024e-05
0.0001340492048130873   -1.7115622830204784e-05   -1.9928853475952024e-05
0.0001340492048130873   -1.7115622830204784e-05   -1.9928853475952024e-05
0.0001340492048130873   -1.7115622830204784e-05   -1.9928853475952024e-05
0.0001432936942866829   -3.1269979738054576e-05   -0.00017078457932635772
0.0001432936942866829   -3.1269979738054576e-05   -0.00017078457932635772
0.0001432936942866829   -3.1269979738054576e-05   -0.00017078457932635772
0.0001432936942866829   -3.1269979738054576e-05   -0.00017078457932635772
5.6186244702913484e-05   -1.1524022248168321e-05   -3.7453071180673344e-05
5.6186244702913484e-05   -1.1524022248168321e-05   -3.7453071180673344e-05
5.6186244702913484e-05   -1.1524022248168321e-05   -3.7453071180673344e-05
5.6186244702913484e-05   -1.1524022248168321e-05   -3.7453071180673344e-05
9.310167171263896e-05   -2.3323189944894455e-05   -9.189928224551309e-05
9.310167171263896e-05   -2.3323189944894455e-05   -9.189928224551309e-05
9.310167171263896e-05   -2.3323189944894455e-05   -9.189928224551309e-05
9.310167171263896e-05   -2.3323189944894455e-05   -9.189928224551309e-05
5.6186244702913484e-05   -3.1269979738054576e-05   -0.00018263215382028708
5.6186244702913484e-05   -3.1269979738054576e-05   -0.00018263215382028708
5.6186244702913484e-05   -3.1269979738054576e-05   -0.00018263215382028708
5.6186244702913484e-05   -3.1269979738054576e-05   -0.00018263215382028708
0.00014329369428668247   -1.1524022248168321e-05   -2.5605496686741808e-05
0.00014329369428668247   -1.1524022248168321e-05   -2.5605496686741808e-05
0.00014329369428668247   -1.1524022248168321e-05   -2.5605496686741808e-05
0.00014329369428668247   -1.1524022248168321e-05   -2.5605496686741808e-05
0.00015039860520125645   -2.688619257600446e-05   -0.00018735140360471095
0.00015039860520125645   -2.688619257600446e-05   -0.00018735140360471095
0.00015039860520125645   -2.688619257600446e-05   -0.00018735140360471095
0.00015039860520125645   -2.688619257600446e-05   -0.00018735140360471095
5.787233840892495e-05   -7.651761221084442e-06   -4.4681617763776306e-05
5.787233840892495e-05   -7.651761221084442e-06   -4.4681617763776306e-05
5.787233840892495e-05   -7.651761221084442e-06   -4.4681617763776306e-05
5.787233840892495e-05   -7.651761221084442e-06   -4.4681617763776306e-05
9.877317255107897e-05   -2.0457315419032673e-05   -0.00010516634214859794
9.877317255107897e-05   -2.0457315419032673e-05   -0.00010516634214859794
9.877317255107897e-05   -2.0457315419032673e-05   -0.00010516634214859794
9.877317255107897e-05   -2.0457315419032673e-05   -0.00010516634214859794
5.7872338408924734e-05   -2.6886192576004893e-05   -0.0001988920624176626
5.7872338408924734e-05   -2.6886192576004893e-05   -0.0001988920624176626
5.7872338408924734e-05   -2.6886192576004893e-05   -0.0001988920624176626
5.7872338408924734e-05   -2.6886192576004893e-05   -0.0001988920624176626
0.00015039860520125602   -7.651761221084442e-06   -3.314095895082334e-05
0.00015039860520125602   -7.651761221084442e-06   -3.314095895082334e-05
0.00015039860520125602   -7.651761221084442e-06   -3.314095895082334e-05
0.00015039860520125602   -7.651761221084442e-06   -3.314095895082334e-05
0.00015982546290288242   -1.7504555510593905e-05   -0.00021906682627490263
0.00015982546290288242   -1.7504555510593905e-05   -0.00021906682627490263
0.00015982546290288242   -1.7504555510593905e-05   -0.00021906682627490263
0.00015982546290288242   -1.7504555510593905e-05   -0.00021906682627490263
5.8693249286731735e-05   -1.6737961383225808e-08   -6.100582744417724e-05
5.8693249286731735e-05   -1.6737961383225808e-08   -6.100582744417724e-05
5.8693249286731735e-05   -1.6737961383225808e-08   -6.100582744417724e-05
5.8693249286731735e-05   -1.6737961383225808e-08   -6.100582744417724e-05
0.00010062434599232301   -1.6161692081053704e-05   -0.00012120401614836192
0.00010062434599232301   -1.6161692081053704e-05   -0.00012120401614836192
0.00010062434599232301   -1.6161692081053704e-05   -0.00012120401614836192
0.00010062434599232301   -1.6161692081053704e-05   -0.00012120401614836192
-0.00019019325935326539   3.0569756275464384e-05   -0.0001778065691917718
-0.00019019325935326539   3.0569756275464384e-05   -0.0001778065691917718
-0.00019019325935326539   3.0569756275464384e-05   -0.0001778065691917718
-0.00019019325935326539   3.0569756275464384e-05   -0.0001778065691917718
-0.0001400610268088194   1.2517567052409452e-05   -0.00010508416181819521
-0.0001400610268088194   1.2517567052409452e-05   -0.00010508416181819521
-0.0001400610268088194   1.2517567052409452e-05   -0.00010508416181819521
-0.0001400610268088194   1.2517567052409452e-05   -0.00010508416181819521
-0.0001379802845058477   3.8873347723909595e-05   -0.0001568551199408316
-0.0001379802845058477   3.8873347723909595e-05   -0.0001568551199408316
-0.0001379802845058477   3.8873347723909595e-05   -0.0001568551199408316
-0.0001379802845058477   3.8873347723909595e-05   -0.0001568551199408316
-0.00017990480683768807   1.944038172865467e-05   -7.532113645727619e-05
-0.00017990480683768807   1.944038172865467e-05   -7.532113645727619e-05
-0.00017990480683768807   1.944038172865467e-05   -7.532113645727619e-05
-0.00017990480683768807   1.944038172865467e-05   -7.532113645727619e-05
-0.00015516865053372142   2.740853360925534e-05   -0.0001213289547589225
-0.00015516865053372142   2.740853360925534e-05   -0.0001213289547589225
-0.00015516865053372142   2.740853360925534e-05   -0.0001213289547589225
-0.00015516865053372142   2.740853360925534e-05   -0.0001213289547589225
-0.00017990480683768807   3.8873347723909595e-05   -0.00014519534034367803
-0.00017990480683768807   3.8873347723909595e-05   -0.00014519534034367803
-0.00017990480683768807   3.8873347723909595e-05   -0.00014519534034367803
-0.00017990480683768807   3.8873347723909595e-05   -0.00014519534034367803
-0.00013798028450584792   1.9440381728653804e-05   -8.698091605443062e-05
-0.00013798028450584792   1.9440381728653804e-05   -8.698091605443062e-05
-0.00013798028450584792   1.9440381728653804e-05   -8.698091605443062e-05
-0.00013798028450584792   1.9440381728653804e-05   -8.698091605443062e-05
-0.00013501694479070743   4.273236850155064e-05   -0.00014007186117565885
-0.00013501694479070743   4.273236850155064e-05   -0.00014007186117565885
-0.00013501694479070743   4.273236850155064e-05   -0.00014007186117565885
-0.00013501694479070743   4.273236850155064e-05   -0.00014007186117565885
-0.00017167951068407174   2.292654959784937e-05   -6.708409334449687e-05
-0.00017167951068407174   2.292654959784937e-05   -6.708409334449687e-05
-0.00017167951068407174   2.292654959784937e-05   -6.708409334449687e-05
-0.00017167951068407174   2.292654959784937e-05   -6.708409334449687e-05
-0.0001524449486341536   3.11392930304015e-05   -0.0001040693428205593
-0.0001524449486341536   3.11392930304015e-05   -0.0001040693428205593
-0.0001524449486341536   3.11392930304015e-05   -0.0001040693428205593
-0.0001524449486341536   3.11392930304015e-05   -0.0001040693428205593
-0.00017167951068407174   4.273236850155064e-05   -0.0001281883698334386
-0.00017167951068407174   4.273236850155064e-05   -0.0001281883698334386
-0.00017167951068407174   4.273236850155064e-05   -0.0001281883698334386
-0.00017167951068407174   4.273236850155064e-05   -0.0001281883698334386
-0.00013501694479070765   2.292654959784937e-05   -7.896758468671754e-05
-0.00013501694479070765   2.292654959784937e-05   -7.896758468671754e-05
-0.00013501694479070765   2.292654959784937e-05   -7.896758468671754e-05
-0.00013501694479070765   2.292654959784937e-05   -7.896758468671754e-05
-0.00013298138126839913   4.75699043618388e-05   -0.0001185161677417692
-0.00013298138126839913   4.75699043618388e-05   -0.0001185161677417692
-0.00013298138126839913   4.75699043618388e-05   -0.0001185161677417692
-0.00013298138126839913   4.75699043618388e-05   -0.0001185161677417692
-0.00016120124591149226   2.8443099945421255e-05   -6.000697735342739e-05
-0.00016120124591149226   2.8443099945421255e-05   -6.000697735342739e-05
-0.00016120124591149226   2.8443099945421255e-05   -6.000697735342739e-05
-0.00016120124591149226   2.8443099945421255e-05   -6.000697735342739e-05
-0.00014530908888846662   3.370753515317005e-05   -8.965256684979016e-05
-0.00014530908888846662   3.370753515317005e-05   -8.965256684979016e-05
-0.00014530908888846662   3.370753515317005e-05   -8.965256684979016e-05
-0.00014530908888846662   3.370753515317005e-05   -8.965256684979016e-05
-0.0001400610268088194   1.5757013119347546e-05   -0.0002585628330105216
-0.0001400610268088194   1.5757013119347546e-05   -0.0002585628330105216
-0.0001400610268088194   1.5757013119347546e-05   -0.0002585628330105216
-0.0001400610268088194   1.5757013119347546e-05   -0.0002585628330105216
-9.937353472371836e-05   7.1240361388122744e-06   -0.00019593013239034085
-9.937353472371836e-05   7.1240361388122744e-06   -0.00019593013239034085
-9.937353472371836e-05   7.1240361388122744e-06   -0.00019593013239034085
-9.937353472371836e-05   7.1240361388122744e-06   -0.00019593013239034085
-9.7996896529392e-05   2.451659486514199e-05   -0.00025773631645319584
-9.7996896529392e-05   2.451659486514199e-05   -0.00025773631645319584
-9.7996896529392e-05   2.451659486514199e-05   -0.00025773631645319584
-9.7996896529392e-05   2.451659486514199e-05   -0.00025773631645319584
-0.00013798028450584814   1.5055789443029106e-05   -0.0001854208532391659
-0.00013798028450584814   1.5055789443029106e-05   -0.0001854208532391659
-0.00013798028450584814   1.5055789443029106e-05   -0.0001854208532391659
-0.00013798028450584814   1.5055789443029106e-05   -0.0001854208532391659
-0.00011769476916552397   1.7119477502285443e-05   -0.00022046825830859818
-0.00011769476916552397   1.7119477502285443e-05   -0.00022046825830859818
-0.00011769476916552397   1.7119477502285443e-05   -0.00022046825830859818
-0.00011769476916552397   1.7119477502285443e-05   -0.00022046825830859818
-0.0001379802845058475   2.4516594865142856e-05   -0.00025205983319992594
-0.0001379802845058475   2.4516594865142856e-05   -0.00025205983319992594
-0.0001379802845058475   2.4516594865142856e-05   -0.00025205983319992594
-0.0001379802845058475   2.4516594865142856e-05   -0.00025205983319992594
-9.7996896529392e-05   1.5055789443029974e-05   -0.00019109733649243493
-9.7996896529392e-05   1.5055789443029974e-05   -0.00019109733649243493
-9.7996896529392e-05   1.5055789443029974e-05   -0.00019109733649243493
-9.7996896529392e-05   1.5055789443029974e-05   -0.00019109733649243493
-9.647847265592925e-05   3.247739655799255e-05   -0.0002535718234617356
-9.647847265592925e-05   3.247739655799255e-05   -0.0002535718234617356
-9.647847265592925e-05   3.247739655799255e-05   -0.0002535718234617356
-9.647847265592925e-05   3.247739655799255e-05   -0.0002535718234617356
-0.00013501694479070786   2.2421342713447798e-05   -0.0001833074042637095
-0.00013501694479070786   2.2421342713447798e-05   -0.0001833074042637095
-0.00013501694479070786   2.2421342713447798e-05   -0.0001833074042637095
-0.00013501694479070786   2.2421342713447798e-05   -0.0001833074042637095
-0.00011589193641692037   2.3521886704593736e-05   -0.00021584274461470816
-0.00011589193641692037   2.3521886704593736e-05   -0.00021584274461470816
-0.00011589193641692037   2.3521886704593736e-05   -0.00021584274461470816
-0.00011589193641692037   2.3521886704593736e-05   -0.00021584274461470816
-0.00013501694479070743   3.247739655799168e-05   -0.0002475381911550079
-0.00013501694479070743   3.247739655799168e-05   -0.0002475381911550079
-0.00013501694479070743   3.247739655799168e-05   -0.0002475381911550079
-0.00013501694479070743   3.247739655799168e-05   -0.0002475381911550079
-9.647847265592904e-05   2.2421342713447798e-05   -0.00018934103657043634
-9.647847265592904e-05   2.2421342713447798e-05   -0.00018934103657043634
-9.647847265592904e-05   2.2421342713447798e-05   -0.00018934103657043634
-9.647847265592904e-05   2.2421342713447798e-05   -0.00018934103657043634
-9.512256266809083e-05   4.111449541220353e-05   -0.0002560290417987325
-9.512256266809083e-05   4.111449541220353e-05   -0.0002560290417987325
-9.512256266809083e-05   4.111449541220353e-05   -0.0002560290417987325
-9.512256266809083e-05   4.111449541220353e-05   -0.0002560290417987325
-0.00013298138126839935   3.059621301562329e-05   -0.00018662004136026826
-0.00013298138126839935   3.059621301562329e-05   -0.00018662004136026826
-0.00013298138126839935   3.059621301562329e-05   -0.00018662004136026826
-0.00013298138126839935   3.059621301562329e-05   -0.00018662004136026826
-0.00011516906903353018   2.999611296013345e-05   -0.00021594716838509273
-0.00011516906903353018   2.999611296013345e-05   -0.00021594716838509273
-0.00011516906903353018   2.999611296013345e-05   -0.00021594716838509273
-0.00011516906903353018   2.999611296013345e-05   -0.00021594716838509273
-9.937353472371803e-05   2.6831124045282456e-06   -0.0002922534101441345
-9.937353472371803e-05   2.6831124045282456e-06   -0.0002922534101441345
-9.937353472371803e-05   2.6831124045282456e-06   -0.0002922534101441345
-9.937353472371803e-05   2.6831124045282456e-06   -0.0002922534101441345
-5.9764277451789116e-05   4.041486164685533e-06   -0.00022542295710149167
-5.9764277451789116e-05   4.041486164685533e-06   -0.00022542295710149167
-5.9764277451789116e-05   4.041486164685533e-06   -0.00022542295710149167
-5.9764277451789116e-05   4.041486164685533e-06   -0.00022542295710149167
-5.841924081797116e-05   1.1479945957538866e-05   -0.00028860982835451996
-5.841924081797116e-05   1.1479945957538866e-05   -0.00028860982835451996
-5.841924081797116e-05   1.1479945957538866e-05   -0.00028860982835451996
-5.841924081797116e-05   1.1479945957538866e-05   -0.00028860982835451996
-9.7996896529392e-05   1.2109198528495457e-05   -0.00022302462037805627
-9.7996896529392e-05   1.2109198528495457e-05   -0.00022302462037805627
-9.7996896529392e-05   1.2109198528495457e-05   -0.00022302462037805627
-9.7996896529392e-05   1.2109198528495457e-05   -0.00022302462037805627
-7.838427701684474e-05   8.69531746681973e-06   -0.0002536639909286345
-7.838427701684474e-05   8.69531746681973e-06   -0.0002536639909286345
-7.838427701684474e-05   8.69531746681973e-06   -0.0002536639909286345
-7.838427701684474e-05   8.69531746681973e-06   -0.0002536639909286345
-9.799689652939178e-05   1.1479945957539733e-05   -0.0002889873798970922
-9.799689652939178e-05   1.1479945957539733e-05   -0.0002889873798970922
-9.799689652939178e-05   1.1479945957539733e-05   -0.0002889873798970922
-9.799689652939178e-05   1.1479945957539733e-05   -0.0002889873798970922
-5.841924081797116e-05   1.2109198528495457e-05   -0.00022264706883548362
-5.841924081797116e-05   1.2109198528495457e-05   -0.00022264706883548362
-5.841924081797116e-05   1.2109198528495457e-05   -0.00022264706883548362
-5.841924081797116e-05   1.2109198528495457e-05   -0.00022264706883548362
-5.691210445839814e-05   2.030473994505365e-05   -0.00028937424059643883
-5.691210445839814e-05   2.030473994505365e-05   -0.00028937424059643883
-5.691210445839814e-05   2.030473994505365e-05   -0.00028937424059643883
-5.691210445839814e-05   2.030473994505365e-05   -0.00028937424059643883
-9.647847265592904e-05   2.0248087762866906e-05   -0.0002233963022912407
-9.647847265592904e-05   2.0248087762866906e-05   -0.0002233963022912407
-9.647847265592904e-05   2.0248087762866906e-05   -0.0002233963022912407
-9.647847265592904e-05   2.0248087762866906e-05   -0.0002233963022912407
-7.747226704437532e-05   1.5619310564285796e-05   -0.00025229604532468275
-7.747226704437532e-05   1.5619310564285796e-05   -0.00025229604532468275
-7.747226704437532e-05   1.5619310564285796e-05   -0.00025229604532468275
-7.747226704437532e-05   1.5619310564285796e-05   -0.00025229604532468275
-9.647847265592893e-05   2.0304739945054516e-05   -0.000289340249287126
-9.647847265592893e-05   2.0304739945054516e-05   -0.000289340249287126
-9.647847265592893e-05   2.0304739945054516e-05   -0.000289340249287126
-9.647847265592893e-05   2.0304739945054516e-05   -0.000289340249287126
-5.6912104458398244e-05   2.0248087762866906e-05   -0.00022343029360055331
-5.6912104458398244e-05   2.0248087762866906e-05   -0.00022343029360055331
-5.6912104458398244e-05   2.0248087762866906e-05   -0.00022343029360055331
-5.6912104458398244e-05   2.0248087762866906e-05   -0.00022343029360055331
-5.5556290262725606e-05   2.928383252690566e-05   -0.00029424718222379864
-5.5556290262725606e-05   2.928383252690566e-05   -0.00029424718222379864
-5.5556290262725606e-05   2.928383252690566e-05   -0.00029424718222379864
-5.5556290262725606e-05   2.928383252690566e-05   -0.00029424718222379864
-9.512256266809094e-05   2.8509225918455297e-05   -0.00022783863091645077
-9.512256266809094e-05   2.8509225918455297e-05   -0.00022783863091645077
-9.512256266809094e-05   2.8509225918455297e-05   -0.00022783863091645077
-9.512256266809094e-05   2.8509225918455297e-05   -0.00022783863091645077
-7.671218195383928e-05   2.2635176829062693e-05   -0.00025499816931990357
-7.671218195383928e-05   2.2635176829062693e-05   -0.00025499816931990357
-7.671218195383928e-05   2.2635176829062693e-05   -0.00025499816931990357
-7.671218195383928e-05   2.2635176829062693e-05   -0.00025499816931990357
-5.9764277451788905e-05   -9.281888064618243e-06   -0.0002562333677738112
-5.9764277451788905e-05   -9.281888064618243e-06   -0.0002562333677738112
-5.9764277451788905e-05   -9.281888064618243e-06   -0.0002562333677738112
-5.9764277451788905e-05   -9.281888064618243e-06   -0.0002562333677738112
-2.1275770138213146e-05   1.6530526839118181e-06   -0.00018552489113540013
-2.1275770138213146e-05   1.6530526839118181e-06   -0.00018552489113540013
-2.1275770138213146e-05   1.6530526839118181e-06   -0.00018552489113540013
-2.1275770138213146e-05   1.6530526839118181e-06   -0.00018552489113540013
-1.9280788741793224e-05   -1.0065535312334464e-06   -0.00024804107841834
-1.9280788741793224e-05   -1.0065535312334464e-06   -0.00024804107841834
-1.9280788741793224e-05   -1.0065535312334464e-06   -0.00024804107841834
-1.9280788741793224e-05   -1.0065535312334464e-06   -0.00024804107841834
-5.841924081797105e-05   9.459504198812765e-06   -0.00018908995959606936
-5.841924081797105e-05   9.459504198812765e-06   -0.00018908995959606936
-5.841924081797105e-05   9.459504198812765e-06   -0.00018908995959606936
-5.841924081797105e-05   9.459504198812765e-06   -0.00018908995959606936
-3.928519318761441e-05   1.023409472803924e-06   -0.00021591838214439615
-3.928519318761441e-05   1.023409472803924e-06   -0.00021591838214439615
-3.928519318761441e-05   1.023409472803924e-06   -0.00021591838214439615
-3.928519318761441e-05   1.023409472803924e-06   -0.00021591838214439615
-5.841924081797095e-05   -1.0065535312334464e-06   -0.00025432071305636714
-5.841924081797095e-05   -1.0065535312334464e-06   -0.00025432071305636714
-5.841924081797095e-05   -1.0065535312334464e-06   -0.00025432071305636714
-5.841924081797095e-05   -1.0065535312334464e-06   -0.00025432071305636714
-1.9280788741793224e-05   9.459504198812765e-06   -0.00018281032495804338
-1.9280788741793224e-05   9.459504198812765e-06   -0.00018281032495804338
-1.9280788741793224e-05   9.459504198812765e-06   -0.00018281032495804338
-1.9280788741793224e-05   9.459504198812765e-06   -0.00018281032495804338
-1.6342656925016474e-05   6.964237566424794e-06   -0.00025141288600798607
-1.6342656925016474e-05   6.964237566424794e-06   -0.00025141288600798607
-1.6342656925016474e-05   6.964237566424794e-06   -0.00025141288600798607
-1.6342656925016474e-05   6.964237566424794e-06   -0.00025141288600798607
-5.691210445839814e-05   1.682429543588878e-05   -0.00018971317484069383
-5.691210445839814e-05   1.682429543588878e-05   -0.00018971317484069383
-5.691210445839814e-05   1.682429543588878e-05   -0.00018971317484069383
-5.691210445839814e-05   1.682429543588878e-05   -0.00018971317484069383
-3.8071854051387075e-05   7.321212279840644e-06   -0.00021541174229208315
-3.8071854051387075e-05   7.321212279840644e-06   -0.00021541174229208315
-3.8071854051387075e-05   7.321212279840644e-06   -0.00021541174229208315
-3.8071854051387075e-05   7.321212279840644e-06   -0.00021541174229208315
-5.691210445839799e-05   6.964237566424794e-06   -0.0002573289207296629
-5.691210445839799e-05   6.964237566424794e-06   -0.0002573289207296629
-5.691210445839799e-05   6.964237566424794e-06   -0.0002573289207296629
-5.691210445839799e-05   6.964237566424794e-06   -0.0002573289207296629
-1.6342656925016582e-05   1.682429543588878e-05   -0.00018379714011901565
-1.6342656925016582e-05   1.682429543588878e-05   -0.00018379714011901565
-1.6342656925016582e-05   1.682429543588878e-05   -0.00018379714011901565
-1.6342656925016582e-05   1.682429543588878e-05   -0.00018379714011901565
-1.4287210230501065e-05   1.6110654144261063e-05   -0.0002584470907024592
-1.4287210230501065e-05   1.6110654144261063e-05   -0.0002584470907024592
-1.4287210230501065e-05   1.6110654144261063e-05   -0.0002584470907024592
-1.4287210230501065e-05   1.6110654144261063e-05   -0.0002584470907024592
-5.5556290262725606e-05   2.5162596838013487e-05   -0.00019509645626500258
-5.5556290262725606e-05   2.5162596838013487e-05   -0.00019509645626500258
-5.5556290262725606e-05   2.5162596838013487e-05   -0.00019509645626500258
-5.5556290262725606e-05   2.5162596838013487e-05   -0.00019509645626500258
-3.679737602746819e-05   1.3932633886395984e-05   -0.00021962333555279405
-3.679737602746819e-05   1.3932633886395984e-05   -0.00021962333555279405
-3.679737602746819e-05   1.3932633886395984e-05   -0.00021962333555279405
-3.679737602746819e-05   1.3932633886395984e-05   -0.00021962333555279405
-2.1275770138213038e-05   -1.7115622830204784e-05   -0.00013918886721446663
-2.1275770138213038e-05   -1.7115622830204784e-05   -0.00013918886721446663
-2.1275770138213038e-05   -1.7115622830204784e-05   -0.00013918886721446663
-2.1275770138213038e-05   -1.7115622830204784e-05   -0.00013918886721446663
7.498368558430182e-06   2.20907380511174e-06   -7.963715140553787e-05
7.498368558430182e-06   2.20907380511174e-06   -7.963715140553787e-05
7.498368558430182e-06   2.20907380511174e-06   -7.963715140553787e-05
7.498368558430182e-06   2.20907380511174e-06   -7.963715140553787e-05
1.7870245265630847e-05   -1.1524022248169188e-05   -0.00013313324858747885
1.7870245265630847e-05   -1.1524022248169188e-05   -0.00013313324858747885
1.7870245265630847e-05   -1.1524022248169188e-05   -0.00013313324858747885
1.7870245265630847e-05   -1.1524022248169188e-05   -0.00013313324858747885
-1.9280788741793224e-05   8.368650366991082e-06   -8.315046214420001e-05
-1.9280788741793224e-05   8.368650366991082e-06   -8.315046214420001e-05
-1.9280788741793224e-05   8.368650366991082e-06   -8.315046214420001e-05
-1.9280788741793224e-05   8.368650366991082e-06   -8.315046214420001e-05
-3.718815481652902e-06   -3.673326335142113e-06   -0.00010186189822315684
-3.718815481652902e-06   -3.673326335142113e-06   -0.00010186189822315684
-3.718815481652902e-06   -3.673326335142113e-06   -0.00010186189822315684
-3.718815481652902e-06   -3.673326335142113e-06   -0.00010186189822315684
-1.9280788741793224e-05   -1.1524022248169188e-05   -0.00014506885215657267
-1.9280788741793224e-05   -1.1524022248169188e-05   -0.00014506885215657267
-1.9280788741793224e-05   -1.1524022248169188e-05   -0.00014506885215657267
-1.9280788741793224e-05   -1.1524022248169188e-05   -0.00014506885215657267
1.7870245265630847e-05   8.368650366991082e-06   -7.121485857510511e-05
1.7870245265630847e-05   8.368650366991082e-06   -7.121485857510511e-05
1.7870245265630847e-05   8.368650366991082e-06   -7.121485857510511e-05
1.7870245265630847e-05   8.368650366991082e-06   -7.121485857510511e-05
2.605626575883247e-05   -7.651761221084442e-06   -0.00014047642302114855
2.605626575883247e-05   -7.651761221084442e-06   -0.00014047642302114855
2.605626575883247e-05   -7.651761221084442e-06   -0.00014047642302114855
2.605626575883247e-05   -7.651761221084442e-06   -0.00014047642302114855
-1.6342656925016474e-05   1.1838292303095917e-05   -8.150558399590713e-05
-1.6342656925016474e-05   1.1838292303095917e-05   -8.150558399590713e-05
-1.6342656925016474e-05   1.1838292303095917e-05   -8.150558399590713e-05
-1.6342656925016474e-05   1.1838292303095917e-05   -8.150558399590713e-05
1.577894711794997e-06   -7.33523575315205e-07   -0.00010383008053021299
1.577894711794997e-06   -7.33523575315205e-07   -0.00010383008053021299
1.577894711794997e-06   -7.33523575315205e-07   -0.00010383008053021299
1.577894711794997e-06   -7.33523575315205e-07   -0.00010383008053021299
-1.6342656925016474e-05   -7.651761221084442e-06   -0.0001521704551356571
-1.6342656925016474e-05   -7.651761221084442e-06   -0.0001521704551356571
-1.6342656925016474e-05   -7.651761221084442e-06   -0.0001521704551356571
-1.6342656925016474e-05   -7.651761221084442e-06   -0.0001521704551356571
2.605626575883247e-05   1.1838292303095917e-05   -6.981155188139944e-05
2.605626575883247e-05   1.1838292303095917e-05   -6.981155188139944e-05
2.605626575883247e-05   1.1838292303095917e-05   -6.981155188139944e-05
2.605626575883247e-05   1.1838292303095917e-05   -6.981155188139944e-05
3.636348269400367e-05   -1.673796138409317e-08   -0.00015746397110695922
3.636348269400367e-05   -1.673796138409317e-08   -0.00015746397110695922
3.636348269400367e-05   -1.673796138409317e-08   -0.00015746397110695922
3.636348269400367e-05   -1.673796138409317e-08   -0.00015746397110695922
-1.4287210230501065e-05   1.8016979736417034e-05   -8.386638018479677e-05
-1.4287210230501065e-05   1.8016979736417034e-05   -8.386638018479677e-05
-1.4287210230501065e-05   1.8016979736417034e-05   -8.386638018479677e-05
-1.4287210230501065e-05   1.8016979736417034e-05   -8.386638018479677e-05
6.088831632822408e-06   2.647768353986925e-06   -0.00010860492312754618
6.088831632822408e-06   2.647768353986925e-06   -0.00010860492312754618
6.088831632822408e-06   2.647768353986925e-06   -0.00010860492312754618
6.088831632822408e-06   2.647768353986925e-06   -0.00010860492312754618
-6.694352837812714e-05   1.2517567052409452e-05   -0.00011904128264642825
-6.694352837812714e-05   1.2517567052409452e-05   -0.00011904128264642825
-6.694352837812714e-05   1.2517567052409452e-05   -0.00011904128264642825
-6.694352837812714e-05   1.2517567052409452e-05   -0.00011904128264642825
-6.718448902216659e-05   -5.721569696408302e-06   -0.00013038636576911695
-6.718448902216659e-05   -5.721569696408302e-06   -0.00013038636576911695
-6.718448902216659e-05   -5.721569696408302e-06   -0.00013038636576911695
-6.718448902216659e-05   -5.721569696408302e-06   -0.00013038636576911695
-6.378097751778898e-05   1.944038172865467e-05   -0.00011183175995271334
-6.378097751778898e-05   1.944038172865467e-05   -0.00011183175995271334
-6.378097751778898e-05   1.944038172865467e-05   -0.00011183175995271334
-6.378097751778898e-05   1.944038172865467e-05   -0.00011183175995271334
-5.53646998293013e-05   -1.0832992192698343e-07   -0.00011412966244317684
-5.53646998293013e-05   -1.0832992192698343e-07   -0.00011412966244317684
-5.53646998293013e-05   -1.0832992192698343e-07   -0.00011412966244317684
-5.53646998293013e-05   -1.0832992192698343e-07   -0.00011412966244317684
-6.054798665842585e-05   8.613948053255022e-06   -0.00011072421784641667
-6.054798665842585e-05   8.613948053255022e-06   -0.00011072421784641667
-6.054798665842585e-05   8.613948053255022e-06   -0.00011072421784641667
-6.054798665842585e-05   8.613948053255022e-06   -0.00011072421784641667
-5.536469982930087e-05   1.944038172865467e-05   -0.0001001025329623647
-5.536469982930087e-05   1.944038172865467e-05   -0.0001001025329623647
-5.536469982930087e-05   1.944038172865467e-05   -0.0001001025329623647
-5.536469982930087e-05   1.944038172865467e-05   -0.0001001025329623647
-6.378097751778898e-05   -1.0832992192698343e-07   -0.0001258588894335268
-6.378097751778898e-05   -1.0832992192698343e-07   -0.0001258588894335268
-6.378097751778898e-05   -1.0832992192698343e-07   -0.0001258588894335268
-6.378097751778898e-05   -1.0832992192698343e-07   -0.0001258588894335268
-5.9495600117543236e-05   2.292654959784937e-05   -0.00010378673117518097
-5.9495600117543236e-05   2.292654959784937e-05   -0.00010378673117518097
-5.9495600117543236e-05   2.292654959784937e-05   -0.00010378673117518097
-5.9495600117543236e-05   2.292654959784937e-05   -0.00010378673117518097
-4.5767320904991325e-05   3.0536470549246547e-06   -0.00011474345500367801
-4.5767320904991325e-05   3.0536470549246547e-06   -0.00011474345500367801
-4.5767320904991325e-05   3.0536470549246547e-06   -0.00011474345500367801
-4.5767320904991325e-05   3.0536470549246547e-06   -0.00011474345500367801
-5.504520101261615e-05   1.1488442261439746e-05   -0.00010434119861488407
-5.504520101261615e-05   1.1488442261439746e-05   -0.00010434119861488407
-5.504520101261615e-05   1.1488442261439746e-05   -0.00010434119861488407
-5.504520101261615e-05   1.1488442261439746e-05   -0.00010434119861488407
-4.5767320904991325e-05   2.292654959784937e-05   -9.186298964942562e-05
-4.5767320904991325e-05   2.292654959784937e-05   -9.186298964942562e-05
-4.5767320904991325e-05   2.292654959784937e-05   -9.186298964942562e-05
-4.5767320904991325e-05   2.292654959784937e-05   -9.186298964942562e-05
-5.949560011754345e-05   3.05364705492292e-06   -0.00012666719652943293
-5.949560011754345e-05   3.05364705492292e-06   -0.00012666719652943293
-5.949560011754345e-05   3.05364705492292e-06   -0.00012666719652943293
-5.949560011754345e-05   3.05364705492292e-06   -0.00012666719652943293
-5.6134695345451575e-05   2.8443099945421255e-05   -9.627989608951282e-05
-5.6134695345451575e-05   2.8443099945421255e-05   -9.627989608951282e-05
-5.6134695345451575e-05   2.8443099945421255e-05   -9.627989608951282e-05
-5.6134695345451575e-05   2.8443099945421255e-05   -9.627989608951282e-05
-3.391767033505966e-05   9.364634969659738e-06   -0.00012186119212137612
-3.391767033505966e-05   9.364634969659738e-06   -0.00012186119212137612
-3.391767033505966e-05   9.364634969659738e-06   -0.00012186119212137612
-3.391767033505966e-05   9.364634969659738e-06   -0.00012186119212137612
-4.815100166258833e-05   1.422627367535581e-05   -0.00010105595646558172
-4.815100166258833e-05   1.422627367535581e-05   -0.00010105595646558172
-4.815100166258833e-05   1.422627367535581e-05   -0.00010105595646558172
-4.815100166258833e-05   1.422627367535581e-05   -0.00010105595646558172
-6.718448902216637e-05   7.1240361388122744e-06   -0.0002156509490795419
-6.718448902216637e-05   7.1240361388122744e-06   -0.0002156509490795419
-6.718448902216637e-05   7.1240361388122744e-06   -0.0002156509490795419
-6.718448902216637e-05   7.1240361388122744e-06   -0.0002156509490795419
-7.689991916467456e-05   -1.2830585637089303e-06   -0.00023688758947190258
-7.689991916467456e-05   -1.2830585637089303e-06   -0.00023688758947190258
-7.689991916467456e-05   -1.2830585637089303e-06   -0.00023688758947190258
-7.689991916467456e-05   -1.2830585637089303e-06   -0.00023688758947190258
-7.413533847587148e-05   1.5055789443029106e-05   -0.0002158307331511138
-7.413533847587148e-05   1.5055789443029106e-05   -0.0002158307331511138
-7.413533847587148e-05   1.5055789443029106e-05   -0.0002158307331511138
-7.413533847587148e-05   1.5055789443029106e-05   -0.0002158307331511138
-6.37809775177892e-05   5.790729420255408e-06   -0.0002275289654009192
-6.37809775177892e-05   5.790729420255408e-06   -0.0002275289654009192
-6.37809775177892e-05   5.790729420255408e-06   -0.0002275289654009192
-6.37809775177892e-05   5.790729420255408e-06   -0.0002275289654009192
-6.967777329975998e-05   8.211924816665245e-06   -0.0002191536896688185
-6.967777329975998e-05   8.211924816665245e-06   -0.0002191536896688185
-6.967777329975998e-05   8.211924816665245e-06   -0.0002191536896688185
-6.967777329975998e-05   8.211924816665245e-06   -0.0002191536896688185
-6.378097751778898e-05   1.5055789443029106e-05   -0.00021027169713744732
-6.378097751778898e-05   1.5055789443029106e-05   -0.00021027169713744732
-6.378097751778898e-05   1.5055789443029106e-05   -0.00021027169713744732
-6.378097751778898e-05   1.5055789443029106e-05   -0.00021027169713744732
-7.413533847587138e-05   5.790729420255408e-06   -0.00023308800141458438
-7.413533847587138e-05   5.790729420255408e-06   -0.00023308800141458438
-7.413533847587138e-05   5.790729420255408e-06   -0.00023308800141458438
-7.413533847587138e-05   5.790729420255408e-06   -0.00023308800141458438
-7.126133878969756e-05   2.2421342713447798e-05   -0.00021402391786619346
-7.126133878969756e-05   2.2421342713447798e-05   -0.00021402391786619346
-7.126133878969756e-05   2.2421342713447798e-05   -0.00021402391786619346
-7.126133878969756e-05   2.2421342713447798e-05   -0.00021402391786619346
-5.949560011754345e-05   1.2592397523413998e-05   -0.00022773611520576298
-5.949560011754345e-05   1.2592397523413998e-05   -0.00022773611520576298
-5.949560011754345e-05   1.2592397523413998e-05   -0.00022773611520576298
-5.949560011754345e-05   1.2592397523413998e-05   -0.00022773611520576298
-6.69061739106137e-05   1.390342590669967e-05   -0.0002161717759139514
-6.69061739106137e-05   1.390342590669967e-05   -0.0002161717759139514
-6.69061739106137e-05   1.390342590669967e-05   -0.0002161717759139514
-6.69061739106137e-05   1.390342590669967e-05   -0.0002161717759139514
-5.9495600117543236e-05   2.2421342713447798e-05   -0.00020812655075217162
-5.9495600117543236e-05   2.2421342713447798e-05   -0.00020812655075217162
-5.9495600117543236e-05   2.2421342713447798e-05   -0.00020812655075217162
-5.9495600117543236e-05   2.2421342713447798e-05   -0.00020812655075217162
-7.126133878969734e-05   1.2592397523413998e-05   -0.00023363348231978092
-7.126133878969734e-05   1.2592397523413998e-05   -0.00023363348231978092
-7.126133878969734e-05   1.2592397523413998e-05   -0.00023363348231978092
-7.126133878969734e-05   1.2592397523413998e-05   -0.00023363348231978092
-6.85494452717433e-05   3.0596213015622424e-05   -0.00021756453720431137
-6.85494452717433e-05   3.0596213015622424e-05   -0.00021756453720431137
-6.85494452717433e-05   3.0596213015622424e-05   -0.00021756453720431137
-6.85494452717433e-05   3.0596213015622424e-05   -0.00021756453720431137
-5.613469534545179e-05   2.0350113419276283e-05   -0.0002321081273236555
-5.613469534545179e-05   2.0350113419276283e-05   -0.0002321081273236555
-5.613469534545179e-05   2.0350113419276283e-05   -0.0002321081273236555
-5.613469534545179e-05   2.0350113419276283e-05   -0.0002321081273236555
-6.446166476600936e-05   1.98636282415475e-05   -0.00021793795384942227
-6.446166476600936e-05   1.98636282415475e-05   -0.00021793795384942227
-6.446166476600936e-05   1.98636282415475e-05   -0.00021793795384942227
-6.446166476600936e-05   1.98636282415475e-05   -0.00021793795384942227
-7.689991916467413e-05   4.041486164685533e-06   -0.00025100305486829965
-7.689991916467413e-05   4.041486164685533e-06   -0.00025100305486829965
-7.689991916467413e-05   4.041486164685533e-06   -0.00025100305486829965
-7.689991916467413e-05   4.041486164685533e-06   -0.00025100305486829965
-8.719984535372585e-05   5.805571890896838e-06   -0.0002671111470809928
-8.719984535372585e-05   5.805571890896838e-06   -0.0002671111470809928
-8.719984535372585e-05   5.805571890896838e-06   -0.0002671111470809928
-8.719984535372585e-05   5.805571890896838e-06   -0.0002671111470809928
-8.447947352915565e-05   1.2109198528495457e-05   -0.0002471602085621933
-8.447947352915565e-05   1.2109198528495457e-05   -0.0002471602085621933
-8.447947352915565e-05   1.2109198528495457e-05   -0.0002471602085621933
-8.447947352915565e-05   1.2109198528495457e-05   -0.0002471602085621933
-7.413533847587148e-05   1.3105545986068223e-05   -0.00026499824212554315
-7.413533847587148e-05   1.3105545986068223e-05   -0.00026499824212554315
-7.413533847587148e-05   1.3105545986068223e-05   -0.00026499824212554315
-7.413533847587148e-05   1.3105545986068223e-05   -0.00026499824212554315
-8.019338637316912e-05   9.899075452382902e-06   -0.00025297761330983796
-8.019338637316912e-05   9.899075452382902e-06   -0.00025297761330983796
-8.019338637316912e-05   9.899075452382902e-06   -0.00025297761330983796
-8.019338637316912e-05   9.899075452382902e-06   -0.00025297761330983796
-7.413533847587127e-05   1.2109198528495457e-05   -0.0002477580170367347
-7.413533847587127e-05   1.2109198528495457e-05   -0.0002477580170367347
-7.413533847587127e-05   1.2109198528495457e-05   -0.0002477580170367347
-7.413533847587127e-05   1.2109198528495457e-05   -0.0002477580170367347
-8.44794735291558e-05   1.3105545986066489e-05   -0.00026440043365099936
-8.44794735291558e-05   1.3105545986066489e-05   -0.00026440043365099936
-8.44794735291558e-05   1.3105545986066489e-05   -0.00026440043365099936
-8.44794735291558e-05   1.3105545986066489e-05   -0.00026440043365099936
-8.162344757365811e-05   2.0248087762866906e-05   -0.0002478873565465141
-8.162344757365811e-05   2.0248087762866906e-05   -0.0002478873565465141
-8.162344757365811e-05   2.0248087762866906e-05   -0.0002478873565465141
-8.162344757365811e-05   2.0248087762866906e-05   -0.0002478873565465141
-7.126133878969756e-05   2.0567799497005906e-05   -0.000265349364893598
-7.126133878969756e-05   2.0567799497005906e-05   -0.000265349364893598
-7.126133878969756e-05   2.0567799497005906e-05   -0.000265349364893598
-7.126133878969756e-05   2.0567799497005906e-05   -0.000265349364893598
-7.790280333219008e-05   1.6135888852599617e-05   -0.000251621110936136
-7.790280333219008e-05   1.6135888852599617e-05   -0.000251621110936136
-7.790280333219008e-05   1.6135888852599617e-05   -0.000251621110936136
-7.790280333219008e-05   1.6135888852599617e-05   -0.000251621110936136
-7.126133878969734e-05   2.0248087762866906e-05   -0.0002480791835869963
-7.126133878969734e-05   2.0248087762866906e-05   -0.0002480791835869963
-7.126133878969734e-05   2.0248087762866906e-05   -0.0002480791835869963
-7.126133878969734e-05   2.0248087762866906e-05   -0.0002480791835869963
-8.162344757365811e-05   2.0567799497005906e-05   -0.000265157537853113
-8.162344757365811e-05   2.0567799497005906e-05   -0.000265157537853113
-8.162344757365811e-05   2.0567799497005906e-05   -0.000265157537853113
-8.162344757365811e-05   2.0567799497005906e-05   -0.000265157537853113
-7.892847289369848e-05   2.8509225918456164e-05   -0.00025269822137814237
-7.892847289369848e-05   2.8509225918456164e-05   -0.00025269822137814237
-7.892847289369848e-05   2.8509225918456164e-05   -0.00025269822137814237
-7.892847289369848e-05   2.8509225918456164e-05   -0.00025269822137814237
-6.85494452717433e-05   2.8132452492460325e-05   -0.0002697705366924703
-6.85494452717433e-05   2.8132452492460325e-05   -0.0002697705366924703
-6.85494452717433e-05   2.8132452492460325e-05   -0.0002697705366924703
-6.85494452717433e-05   2.8132452492460325e-05   -0.0002697705366924703
-7.578975423229286e-05   2.2459593099693337e-05   -0.00025429963945589333
-7.578975423229286e-05   2.2459593099693337e-05   -0.00025429963945589333
-7.578975423229286e-05   2.2459593099693337e-05   -0.00025429963945589333
-7.578975423229286e-05   2.2459593099693337e-05   -0.00025429963945589333
-8.719984535372554e-05   1.6530526839109508e-06   -0.00021660750191560083
-8.719984535372554e-05   1.6530526839109508e-06   -0.00021660750191560083
-8.719984535372554e-05   1.6530526839109508e-06   -0.00021660750191560083
-8.719984535372554e-05   1.6530526839109508e-06   -0.00021660750191560083
-9.802705891717809e-05   1.2927901295596567e-05   -0.00022788794868767656
-9.802705891717809e-05   1.2927901295596567e-05   -0.00022788794868767656
-9.802705891717809e-05   1.2927901295596567e-05   -0.00022788794868767656
-9.802705891717809e-05   1.2927901295596567e-05   -0.00022788794868767656
-9.474561808538152e-05   9.459504198812765e-06   -0.00020713089849930082
-9.474561808538152e-05   9.459504198812765e-06   -0.00020713089849930082
-9.474561808538152e-05   9.459504198812765e-06   -0.00020713089849930082
-9.474561808538152e-05   9.459504198812765e-06   -0.00020713089849930082
-8.447947352915565e-05   2.0246505571277357e-05   -0.0002307133402498217
-8.447947352915565e-05   2.0246505571277357e-05   -0.0002307133402498217
-8.447947352915565e-05   2.0246505571277357e-05   -0.0002307133402498217
-8.447947352915565e-05   2.0246505571277357e-05   -0.0002307133402498217
-9.0410419429076e-05   1.189146937027874e-05   -0.00021581540869602663
-9.0410419429076e-05   1.189146937027874e-05   -0.00021581540869602663
-9.0410419429076e-05   1.189146937027874e-05   -0.00021581540869602663
-9.0410419429076e-05   1.189146937027874e-05   -0.00021581540869602663
-8.447947352915552e-05   9.459504198812765e-06   -0.00021360309932277975
-8.447947352915552e-05   9.459504198812765e-06   -0.00021360309932277975
-8.447947352915552e-05   9.459504198812765e-06   -0.00021360309932277975
-8.447947352915552e-05   9.459504198812765e-06   -0.00021360309932277975
-9.474561808538152e-05   2.0246505571277357e-05   -0.00022424113942634463
-9.474561808538152e-05   2.0246505571277357e-05   -0.00022424113942634463
-9.474561808538152e-05   2.0246505571277357e-05   -0.00022424113942634463
-9.474561808538152e-05   2.0246505571277357e-05   -0.00022424113942634463
-9.052828052566605e-05   1.6824295435889647e-05   -0.00020806161591664825
-9.052828052566605e-05   1.6824295435889647e-05   -0.00020806161591664825
-9.052828052566605e-05   1.6824295435889647e-05   -0.00020806161591664825
-9.052828052566605e-05   1.6824295435889647e-05   -0.00020806161591664825
-8.162344757365796e-05   2.700533188590079e-05   -0.0002290116260400004
-8.162344757365796e-05   2.700533188590079e-05   -0.0002290116260400004
-8.162344757365796e-05   2.700533188590079e-05   -0.0002290116260400004
-8.162344757365796e-05   2.700533188590079e-05   -0.0002290116260400004
-8.747928447870224e-05   1.7691490020489697e-05   -0.00021366359274568316
-8.747928447870224e-05   1.7691490020489697e-05   -0.00021366359274568316
-8.747928447870224e-05   1.7691490020489697e-05   -0.00021366359274568316
-8.747928447870224e-05   1.7691490020489697e-05   -0.00021366359274568316
-8.162344757365774e-05   1.682429543588878e-05   -0.00021417023778665285
-8.162344757365774e-05   1.682429543588878e-05   -0.00021417023778665285
-8.162344757365774e-05   1.682429543588878e-05   -0.00021417023778665285
-8.162344757365774e-05   1.682429543588878e-05   -0.00021417023778665285
-9.052828052566616e-05   2.700533188590079e-05   -0.00022290300416999333
-9.052828052566616e-05   2.700533188590079e-05   -0.00022290300416999333
-9.052828052566616e-05   2.700533188590079e-05   -0.00022290300416999333
-9.052828052566616e-05   2.700533188590079e-05   -0.00022290300416999333
-8.72092657736856e-05   2.5162596838013487e-05   -0.0002138340126201536
-8.72092657736856e-05   2.5162596838013487e-05   -0.0002138340126201536
-8.72092657736856e-05   2.5162596838013487e-05   -0.0002138340126201536
-8.72092657736856e-05   2.5162596838013487e-05   -0.0002138340126201536
-7.892847289369848e-05   3.4591380407131625e-05   -0.00023329260422826802
-7.892847289369848e-05   3.4591380407131625e-05   -0.00023329260422826802
-7.892847289369848e-05   3.4591380407131625e-05   -0.00023329260422826802
-7.892847289369848e-05   3.4591380407131625e-05   -0.00023329260422826802
-8.526425910726886e-05   2.3628918313471636e-05   -0.00021615548328278618
-8.526425910726886e-05   2.3628918313471636e-05   -0.00021615548328278618
-8.526425910726886e-05   2.3628918313471636e-05   -0.00021615548328278618
-8.526425910726886e-05   2.3628918313471636e-05   -0.00021615548328278618
-9.802705891717766e-05   2.20907380511174e-06   -0.0001155496709999166
-9.802705891717766e-05   2.20907380511174e-06   -0.0001155496709999166
-9.802705891717766e-05   2.20907380511174e-06   -0.0001155496709999166
-9.802705891717766e-05   2.20907380511174e-06   -0.0001155496709999166
-0.00011828666487626776   2.167946162711168e-05   -0.00013763344823853295
-0.00011828666487626776   2.167946162711168e-05   -0.00013763344823853295
-0.00011828666487626776   2.167946162711168e-05   -0.00013763344823853295
-0.00011828666487626776   2.167946162711168e-05   -0.00013763344823853295
-0.00010678145614394078   8.368650366991082e-06   -9.550960325780105e-05
-0.00010678145614394078   8.368650366991082e-06   -9.550960325780105e-05
-0.00010678145614394078   8.368650366991082e-06   -9.550960325780105e-05
-0.00010678145614394078   8.368650366991082e-06   -9.550960325780105e-05
-9.474561808538141e-05   2.8304371079755294e-05   -0.00012753076578305713
-9.474561808538141e-05   2.8304371079755294e-05   -0.00012753076578305713
-9.474561808538141e-05   2.8304371079755294e-05   -0.00012753076578305713
-9.474561808538141e-05   2.8304371079755294e-05   -0.00012753076578305713
-0.00010023186292053071   1.5954489065507158e-05   -0.00011097709518259656
-0.00010023186292053071   1.5954489065507158e-05   -0.00011097709518259656
-0.00010023186292053071   1.5954489065507158e-05   -0.00011097709518259656
-0.00010023186292053071   1.5954489065507158e-05   -0.00011097709518259656
-9.474561808538108e-05   8.368650366991082e-06   -0.00010747103568545854
-9.474561808538108e-05   8.368650366991082e-06   -0.00010747103568545854
-9.474561808538108e-05   8.368650366991082e-06   -0.00010747103568545854
-9.474561808538108e-05   8.368650366991082e-06   -0.00010747103568545854
-0.00010678145614394078   2.8304371079755294e-05   -0.00011556933335539997
-0.00010678145614394078   2.8304371079755294e-05   -0.00011556933335539997
-0.00010678145614394078   2.8304371079755294e-05   -0.00011556933335539997
-0.00010678145614394078   2.8304371079755294e-05   -0.00011556933335539997
-9.742356213320253e-05   1.1838292303095917e-05   -9.406984735169576e-05
-9.742356213320253e-05   1.1838292303095917e-05   -9.406984735169576e-05
-9.742356213320253e-05   1.1838292303095917e-05   -9.406984735169576e-05
-9.742356213320253e-05   1.1838292303095917e-05   -9.406984735169576e-05
-9.052828052566605e-05   3.133864637283601e-05   -0.00011726219580609977
-9.052828052566605e-05   3.133864637283601e-05   -0.00011726219580609977
-9.052828052566605e-05   3.133864637283601e-05   -0.00011726219580609977
-9.052828052566605e-05   3.133864637283601e-05   -0.00011726219580609977
-9.527048956780416e-05   1.900973788681974e-05   -0.00010196116897759388
-9.527048956780416e-05   1.900973788681974e-05   -0.00010196116897759388
-9.527048956780416e-05   1.900973788681974e-05   -0.00010196116897759388
-9.527048956780416e-05   1.900973788681974e-05   -0.00010196116897759388
-9.052828052566594e-05   1.1838292303095917e-05   -0.00010577005979353973
-9.052828052566594e-05   1.1838292303095917e-05   -0.00010577005979353973
-9.052828052566594e-05   1.1838292303095917e-05   -0.00010577005979353973
-9.052828052566594e-05   1.1838292303095917e-05   -0.00010577005979353973
-9.742356213320253e-05   3.1338646372834275e-05   -0.00010556198336425515
-9.742356213320253e-05   3.1338646372834275e-05   -0.00010556198336425515
-9.742356213320253e-05   3.1338646372834275e-05   -0.00010556198336425515
-9.742356213320253e-05   3.1338646372834275e-05   -0.00010556198336425515
-8.600355746883506e-05   1.8016979736417034e-05   -9.720427631292267e-05
-8.600355746883506e-05   1.8016979736417034e-05   -9.720427631292267e-05
-8.600355746883506e-05   1.8016979736417034e-05   -9.720427631292267e-05
-8.600355746883506e-05   1.8016979736417034e-05   -9.720427631292267e-05
-8.720926577368549e-05   3.606835614188182e-05   -0.0001060255883147817
-8.720926577368549e-05   3.606835614188182e-05   -0.0001060255883147817
-8.720926577368549e-05   3.606835614188182e-05   -0.0001060255883147817
-8.720926577368549e-05   3.606835614188182e-05   -0.0001060255883147817
-8.806161512859385e-05   2.1498278174002933e-05   -9.586295927587439e-05
-8.806161512859385e-05   2.1498278174002933e-05   -9.586295927587439e-05
-8.806161512859385e-05   2.1498278174002933e-05   -9.586295927587439e-05
-8.806161512859385e-05   2.1498278174002933e-05   -9.586295927587439e-05
5.769661785472776e-05   -5.721569696408302e-06   -6.088657807796615e-05
5.769661785472776e-05   -5.721569696408302e-06   -6.088657807796615e-05
5.769661785472776e-05   -5.721569696408302e-06   -6.088657807796615e-05
5.769661785472776e-05   -5.721569696408302e-06   -6.088657807796615e-05
5.798452084249377e-06   -2.4346599447180872e-05   -0.00015855853887922731
5.798452084249377e-06   -2.4346599447180872e-05   -0.00015855853887922731
5.798452084249377e-06   -2.4346599447180872e-05   -0.00015855853887922731
5.798452084249377e-06   -2.4346599447180872e-05   -0.00015855853887922731
1.0473705431154673e-05   -1.0832992192698343e-07   -6.712248789028478e-05
1.0473705431154673e-05   -1.0832992192698343e-07   -6.712248789028478e-05
1.0473705431154673e-05   -1.0832992192698343e-07   -6.712248789028478e-05
1.0473705431154673e-05   -1.0832992192698343e-07   -6.712248789028478e-05
7.063198526442629e-05   -1.99914275233002e-05   -0.00015545642905157812
7.063198526442629e-05   -1.99914275233002e-05   -0.00015545642905157812
7.063198526442629e-05   -1.99914275233002e-05   -0.00015545642905157812
7.063198526442629e-05   -1.99914275233002e-05   -0.00015545642905157812
3.481176941024899e-05   -1.0129896228620178e-05   -0.00010167298807142473
3.481176941024899e-05   -1.0129896228620178e-05   -0.00010167298807142473
3.481176941024899e-05   -1.0129896228620178e-05   -0.00010167298807142473
3.481176941024899e-05   -1.0129896228620178e-05   -0.00010167298807142473
7.063198526442585e-05   -1.0832992192698343e-07   -5.519262932945912e-05
7.063198526442585e-05   -1.0832992192698343e-07   -5.519262932945912e-05
7.063198526442585e-05   -1.0832992192698343e-07   -5.519262932945912e-05
7.063198526442585e-05   -1.0832992192698343e-07   -5.519262932945912e-05
1.0473705431154456e-05   -1.99914275233002e-05   -0.00016738628761240335
1.0473705431154456e-05   -1.99914275233002e-05   -0.00016738628761240335
1.0473705431154456e-05   -1.99914275233002e-05   -0.00016738628761240335
1.0473705431154456e-05   -1.99914275233002e-05   -0.00016738628761240335
1.597803256898943e-05   3.0536470549246547e-06   -6.758874396648774e-05
1.597803256898943e-05   3.0536470549246547e-06   -6.758874396648774e-05
1.597803256898943e-05   3.0536470549246547e-06   -6.758874396648774e-05
1.597803256898943e-05   3.0536470549246547e-06   -6.758874396648774e-05
8.158911985843131e-05   -1.7103487058550693e-05   -0.00016484627564747074
8.158911985843131e-05   -1.7103487058550693e-05   -0.00016484627564747074
8.158911985843131e-05   -1.7103487058550693e-05   -0.00016484627564747074
8.158911985843131e-05   -1.7103487058550693e-05   -0.00016484627564747074
4.3033957115482186e-05   -8.104515294291709e-06   -0.00010598705413445006
4.3033957115482186e-05   -8.104515294291709e-06   -0.00010598705413445006
4.3033957115482186e-05   -8.104515294291709e-06   -0.00010598705413445006
4.3033957115482186e-05   -8.104515294291709e-06   -0.00010598705413445006
8.158911985843131e-05   3.0536470549246547e-06   -5.549446349840167e-05
8.158911985843131e-05   3.0536470549246547e-06   -5.549446349840167e-05
8.158911985843131e-05   3.0536470549246547e-06   -5.549446349840167e-05
8.158911985843131e-05   3.0536470549246547e-06   -5.549446349840167e-05
1.597803256898943e-05   -1.7103487058550693e-05   -0.00017694055611555638
1.597803256898943e-05   -1.7103487058550693e-05   -0.00017694055611555638
1.597803256898943e-05   -1.7103487058550693e-05   -0.00017694055611555638
1.597803256898943e-05   -1.7103487058550693e-05   -0.00017694055611555638
2.0527180621571087e-05   9.364634969659738e-06   -7.393269512871899e-05
2.0527180621571087e-05   9.364634969659738e-06   -7.393269512871899e-05
2.0527180621571087e-05   9.364634969659738e-06   -7.393269512871899e-05
2.0527180621571087e-05   9.364634969659738e-06   -7.393269512871899e-05
9.474937086874748e-05   -9.811394995083711e-06   -0.0001861307275618355
9.474937086874748e-05   -9.811394995083711e-06   -0.0001861307275618355
9.474937086874748e-05   -9.811394995083711e-06   -0.0001861307275618355
9.474937086874748e-05   -9.811394995083711e-06   -0.0001861307275618355
4.9613783803714316e-05   -5.143923023292335e-06   -0.00011370523230319184
4.9613783803714316e-05   -5.143923023292335e-06   -0.00011370523230319184
4.9613783803714316e-05   -5.143923023292335e-06   -0.00011370523230319184
4.9613783803714316e-05   -5.143923023292335e-06   -0.00011370523230319184
5.798452084249377e-06   -1.2830585637089303e-06   -0.00017351856280970347
5.798452084249377e-06   -1.2830585637089303e-06   -0.00017351856280970347
5.798452084249377e-06   -1.2830585637089303e-06   -0.00017351856280970347
5.798452084249377e-06   -1.2830585637089303e-06   -0.00017351856280970347
-5.5055356828043276e-05   -9.694343159916477e-06   -0.00027998834842124856
-5.5055356828043276e-05   -9.694343159916477e-06   -0.00027998834842124856
-5.5055356828043276e-05   -9.694343159916477e-06   -0.00027998834842124856
-5.5055356828043276e-05   -9.694343159916477e-06   -0.00027998834842124856
-5.094084922407905e-05   5.790729420255408e-06   -0.00017451117509688537
-5.094084922407905e-05   5.790729420255408e-06   -0.00017451117509688537
-5.094084922407905e-05   5.790729420255408e-06   -0.00017451117509688537
-5.094084922407905e-05   5.790729420255408e-06   -0.00017451117509688537
1.0473705431154456e-05   -3.7402893117623875e-06   -0.00027115015494973225
1.0473705431154456e-05   -3.7402893117623875e-06   -0.00027115015494973225
1.0473705431154456e-05   -3.7402893117623875e-06   -0.00027115015494973225
1.0473705431154456e-05   -3.7402893117623875e-06   -0.00027115015494973225
-2.1908523528443044e-05   -4.1410548180104145e-07   -0.00021917548364837965
-2.1908523528443044e-05   -4.1410548180104145e-07   -0.00021917548364837965
-2.1908523528443044e-05   -4.1410548180104145e-07   -0.00021917548364837965
-2.1908523528443044e-05   -4.1410548180104145e-07   -0.00021917548364837965
1.0473705431154673e-05   5.790729420255408e-06   -0.0001687925638576759
1.0473705431154673e-05   5.790729420255408e-06   -0.0001687925638576759
1.0473705431154673e-05   5.790729420255408e-06   -0.0001687925638576759
1.0473705431154673e-05   5.790729420255408e-06   -0.0001687925638576759
-5.094084922407905e-05   -3.7402893117623875e-06   -0.00027686876618894345
-5.094084922407905e-05   -3.7402893117623875e-06   -0.00027686876618894345
-5.094084922407905e-05   -3.7402893117623875e-06   -0.00027686876618894345
-5.094084922407905e-05   -3.7402893117623875e-06   -0.00027686876618894345
-4.68034417121471e-05   1.2592397523415733e-05   -0.0001747665847527044
-4.68034417121471e-05   1.2592397523415733e-05   -0.0001747665847527044
-4.68034417121471e-05   1.2592397523415733e-05   -0.0001747665847527044
-4.68034417121471e-05   1.2592397523415733e-05   -0.0001747665847527044
1.597803256898943e-05   2.4108606735979282e-06   -0.00027329345311137695
1.597803256898943e-05   2.4108606735979282e-06   -0.00027329345311137695
1.597803256898943e-05   2.4108606735979282e-06   -0.00027329345311137695
1.597803256898943e-05   2.4108606735979282e-06   -0.00027329345311137695
-1.8255572754402453e-05   4.4651699868236e-06   -0.000217470029826992
-1.8255572754402453e-05   4.4651699868236e-06   -0.000217470029826992
-1.8255572754402453e-05   4.4651699868236e-06   -0.000217470029826992
-1.8255572754402453e-05   4.4651699868236e-06   -0.000217470029826992
1.597803256898943e-05   1.2592397523413998e-05   -0.00016865766264281563
1.597803256898943e-05   1.2592397523413998e-05   -0.00016865766264281563
1.597803256898943e-05   1.2592397523413998e-05   -0.00016865766264281563
1.597803256898943e-05   1.2592397523413998e-05   -0.00016865766264281563
-4.68034417121471e-05   2.4108606735979282e-06   -0.000279402375221267
-4.68034417121471e-05   2.4108606735979282e-06   -0.000279402375221267
-4.68034417121471e-05   2.4108606735979282e-06   -0.000279402375221267
-4.68034417121471e-05   2.4108606735979282e-06   -0.000279402375221267
-4.284551058068202e-05   2.0350113419276283e-05   -0.0001791304367460174
-4.284551058068202e-05   2.0350113419276283e-05   -0.0001791304367460174
-4.284551058068202e-05   2.0350113419276283e-05   -0.0001791304367460174
-4.284551058068202e-05   2.0350113419276283e-05   -0.0001791304367460174
2.052718062157087e-05   9.686971085151597e-06   -0.0002783537033492962
2.052718062157087e-05   9.686971085151597e-06   -0.0002783537033492962
2.052718062157087e-05   9.686971085151597e-06   -0.0002783537033492962
2.052718062157087e-05   9.686971085151597e-06   -0.0002783537033492962
-1.4197386704280983e-05   9.865187325437674e-06   -0.0002205863542170507
-1.4197386704280983e-05   9.865187325437674e-06   -0.0002205863542170507
-1.4197386704280983e-05   9.865187325437674e-06   -0.0002205863542170507
-1.4197386704280983e-05   9.865187325437674e-06   -0.0002205863542170507
-5.5055356828043384e-05   5.805571890896838e-06   -0.00020984734261224585
-5.5055356828043384e-05   5.805571890896838e-06   -0.00020984734261224585
-5.5055356828043384e-05   5.805571890896838e-06   -0.00020984734261224585
-5.5055356828043384e-05   5.805571890896838e-06   -0.00020984734261224585
-0.00011540561132228266   7.322286841356801e-06   -0.00030952107113236746
-0.00011540561132228266   7.322286841356801e-06   -0.00030952107113236746
-0.00011540561132228266   7.322286841356801e-06   -0.00030952107113236746
-0.00011540561132228266   7.322286841356801e-06   -0.00030952107113236746
-0.00011125885027885585   1.3105545986068223e-05   -0.0002061182283735778
-0.00011125885027885585   1.3105545986068223e-05   -0.0002061182283735778
-0.00011125885027885585   1.3105545986068223e-05   -0.0002061182283735778
-0.00011125885027885585   1.3105545986068223e-05   -0.0002061182283735778
-5.094084922407905e-05   1.361085837651467e-05   -0.00030695141756580764
-5.094084922407905e-05   1.361085837651467e-05   -0.00030695141756580764
-5.094084922407905e-05   1.361085837651467e-05   -0.00030695141756580764
-5.094084922407905e-05   1.361085837651467e-05   -0.00030695141756580764
-8.268289801182029e-05   1.1245916521735247e-05   -0.00025262903780670436
-8.268289801182029e-05   1.1245916521735247e-05   -0.00025262903780670436
-8.268289801182029e-05   1.1245916521735247e-05   -0.00025262903780670436
-8.268289801182029e-05   1.1245916521735247e-05   -0.00025262903780670436
-5.094084922407905e-05   1.3105545986068223e-05   -0.00020642141580784652
-5.094084922407905e-05   1.3105545986068223e-05   -0.00020642141580784652
-5.094084922407905e-05   1.3105545986068223e-05   -0.00020642141580784652
-5.094084922407905e-05   1.3105545986068223e-05   -0.00020642141580784652
-0.00011125885027885585   1.3610858376516405e-05   -0.0003066482301315402
-0.00011125885027885585   1.3610858376516405e-05   -0.0003066482301315402
-0.00011125885027885585   1.3610858376516405e-05   -0.0003066482301315402
-0.00011125885027885585   1.3610858376516405e-05   -0.0003066482301315402
-0.00010704974578123   2.0567799497005906e-05   -0.00020665892301659564
-0.00010704974578123   2.0567799497005906e-05   -0.00020665892301659564
-0.00010704974578123   2.0567799497005906e-05   -0.00020665892301659564
-0.00010704974578123   2.0567799497005906e-05   -0.00020665892301659564
-4.680344171214721e-05   2.0273706680215553e-05   -0.00030689297410832483
-4.680344171214721e-05   2.0273706680215553e-05   -0.00030689297410832483
-4.680344171214721e-05   2.0273706680215553e-05   -0.00030689297410832483
-4.680344171214721e-05   2.0273706680215553e-05   -0.00030689297410832483
-7.902769467541791e-05   1.6728742214139683e-05   -0.0002510589071565651
-7.902769467541791e-05   1.6728742214139683e-05   -0.0002510589071565651
-7.902769467541791e-05   1.6728742214139683e-05   -0.0002510589071565651
-7.902769467541791e-05   1.6728742214139683e-05   -0.0002510589071565651
-4.680344171214721e-05   2.0567799497005906e-05   -0.00020648246732652038
-4.680344171214721e-05   2.0567799497005906e-05   -0.00020648246732652038
-4.680344171214721e-05   2.0567799497005906e-05   -0.00020648246732652038
-4.680344171214721e-05   2.0567799497005906e-05   -0.00020648246732652038
-0.00010704974578122983   2.0273706680215553e-05   -0.00030706942979840095
-0.00010704974578122983   2.0273706680215553e-05   -0.00030706942979840095
-0.00010704974578122983   2.0273706680215553e-05   -0.00030706942979840095
-0.00010704974578122983   2.0273706680215553e-05   -0.00030706942979840095
-0.00010303529777104368   2.8132452492460325e-05   -0.00021129396166636675
-0.00010303529777104368   2.8132452492460325e-05   -0.00021129396166636675
-0.00010303529777104368   2.8132452492460325e-05   -0.00021129396166636675
-0.00010303529777104368   2.8132452492460325e-05   -0.00021129396166636675
-4.284551058068202e-05   2.7051160310221853e-05   -0.0003109614983409592
-4.284551058068202e-05   2.7051160310221853e-05   -0.0003109614983409592
-4.284551058068202e-05   2.7051160310221853e-05   -0.0003109614983409592
-4.284551058068202e-05   2.7051160310221853e-05   -0.0003109614983409592
-7.56226775511876e-05   2.2294180182614448e-05   -0.0002534786986468881
-7.56226775511876e-05   2.2294180182614448e-05   -0.0002534786986468881
-7.56226775511876e-05   2.2294180182614448e-05   -0.0002534786986468881
-7.56226775511876e-05   2.2294180182614448e-05   -0.0002534786986468881
-0.00011540561132228287   1.2927901295596567e-05   -0.00017647902441566502
-0.00011540561132228287   1.2927901295596567e-05   -0.00017647902441566502
-0.00011540561132228287   1.2927901295596567e-05   -0.00017647902441566502
-0.00011540561132228287   1.2927901295596567e-05   -0.00017647902441566502
-0.00017494178815934656   2.381068434500859e-05   -0.0002691763159811235
-0.00017494178815934656   2.381068434500859e-05   -0.0002691763159811235
-0.00017494178815934656   2.381068434500859e-05   -0.0002691763159811235
-0.00017494178815934656   2.381068434500859e-05   -0.0002691763159811235
-0.00017021122021062727   2.0246505571277357e-05   -0.00016626568806374972
-0.00017021122021062727   2.0246505571277357e-05   -0.00016626568806374972
-0.00017021122021062727   2.0246505571277357e-05   -0.00016626568806374972
-0.00017021122021062727   2.0246505571277357e-05   -0.00016626568806374972
-0.00011125885027885585   3.0522250419029104e-05   -0.0002706850848586865
-0.00011125885027885585   3.0522250419029104e-05   -0.0002706850848586865
-0.00011125885027885585   3.0522250419029104e-05   -0.0002706850848586865
-0.00011125885027885585   3.0522250419029104e-05   -0.0002706850848586865
-0.00014196556897236404   2.2757075965334703e-05   -0.0002148481156972903
-0.00014196556897236404   2.2757075965334703e-05   -0.0002148481156972903
-0.00014196556897236404   2.2757075965334703e-05   -0.0002148481156972903
-0.00014196556897236404   2.2757075965334703e-05   -0.0002148481156972903
-0.00011125885027885604   2.0246505571275622e-05   -0.00017243113497240024
-0.00011125885027885604   2.0246505571275622e-05   -0.00017243113497240024
-0.00011125885027885604   2.0246505571275622e-05   -0.00017243113497240024
-0.00011125885027885604   2.0246505571275622e-05   -0.00017243113497240024
-0.0001702112202106276   3.052225041902737e-05   -0.0002645196379500378
-0.0001702112202106276   3.052225041902737e-05   -0.0002645196379500378
-0.0001702112202106276   3.052225041902737e-05   -0.0002645196379500378
-0.0001702112202106276   3.052225041902737e-05   -0.0002645196379500378
-0.00016456833385461277   2.700533188590079e-05   -0.00016477204331317736
-0.00016456833385461277   2.700533188590079e-05   -0.00016477204331317736
-0.00016456833385461277   2.700533188590079e-05   -0.00016477204331317736
-0.00016456833385461277   2.700533188590079e-05   -0.00016477204331317736
-0.00010704974578123   3.657361170307516e-05   -0.00026637732465912054
-0.00010704974578123   3.657361170307516e-05   -0.00026637732465912054
-0.00010704974578123   3.657361170307516e-05   -0.00026637732465912054
-0.00010704974578123   3.657361170307516e-05   -0.00026637732465912054
-0.00013720834371591697   2.8049471914554786e-05   -0.00021099851089486624
-0.00013720834371591697   2.8049471914554786e-05   -0.00021099851089486624
-0.00013720834371591697   2.8049471914554786e-05   -0.00021099851089486624
-0.00013720834371591697   2.8049471914554786e-05   -0.00021099851089486624
-0.00010704974578122994   2.700533188590079e-05   -0.00017051301120348146
-0.00010704974578122994   2.700533188590079e-05   -0.00017051301120348146
-0.00010704974578122994   2.700533188590079e-05   -0.00017051301120348146
-0.00010704974578122994   2.700533188590079e-05   -0.00017051301120348146
-0.00016456833385461277   3.6573611703076894e-05   -0.0002606363567688166
-0.00016456833385461277   3.6573611703076894e-05   -0.0002606363567688166
-0.00016456833385461277   3.6573611703076894e-05   -0.0002606363567688166
-0.00016456833385461277   3.6573611703076894e-05   -0.0002606363567688166
-0.0001598616769692573   3.4591380407131625e-05   -0.00016933061533016148
-0.0001598616769692573   3.4591380407131625e-05   -0.00016933061533016148
-0.0001598616769692573   3.4591380407131625e-05   -0.00016933061533016148
-0.0001598616769692573   3.4591380407131625e-05   -0.00016933061533016148
-0.00010303529777104368   4.335696343447416e-05   -0.00026930059714358977
-0.00010303529777104368   4.335696343447416e-05   -0.00026930059714358977
-0.00010303529777104368   4.335696343447416e-05   -0.00026930059714358977
-0.00010303529777104368   4.335696343447416e-05   -0.00026930059714358977
-0.00013399159377283003   3.3272248256461384e-05   -0.00021165594136713978
-0.00013399159377283003   3.3272248256461384e-05   -0.00021165594136713978
-0.00013399159377283003   3.3272248256461384e-05   -0.00021165594136713978
-0.00013399159377283003   3.3272248256461384e-05   -0.00021165594136713978
-0.00017494178815934656   2.167946162711168e-05   -9.137708683007537e-05
-0.00017494178815934656   2.167946162711168e-05   -9.137708683007537e-05
-0.00017494178815934656   2.167946162711168e-05   -9.137708683007537e-05
-0.00017494178815934656   2.167946162711168e-05   -9.137708683007537e-05
-0.000242690542925181   4.0918120061940455e-05   -0.00019274848304556835
-0.000242690542925181   4.0918120061940455e-05   -0.00019274848304556835
-0.000242690542925181   4.0918120061940455e-05   -0.00019274848304556835
-0.000242690542925181   4.0918120061940455e-05   -0.00019274848304556835
-0.0002298216720427117   2.8304371079755294e-05   -5.7812503451489666e-05
-0.0002298216720427117   2.8304371079755294e-05   -5.7812503451489666e-05
-0.0002298216720427117   2.8304371079755294e-05   -5.7812503451489666e-05
-0.0002298216720427117   2.8304371079755294e-05   -5.7812503451489666e-05
-0.00017021122021062727   4.787572269471414e-05   -0.00016890606747393716
-0.00017021122021062727   4.787572269471414e-05   -0.00016890606747393716
-0.00017021122021062727   4.787572269471414e-05   -0.00016890606747393716
-0.00017021122021062727   4.787572269471414e-05   -0.00016890606747393716
-0.0001960974515407352   3.5506073168106375e-05   -0.00011834055887445993
-0.0001960974515407352   3.5506073168106375e-05   -0.00011834055887445993
-0.0001960974515407352   3.5506073168106375e-05   -0.00011834055887445993
-0.0001960974515407352   3.5506073168106375e-05   -0.00011834055887445993
-0.00017021122021062748   2.8304371079755294e-05   -6.955531442046255e-05
-0.00017021122021062748   2.8304371079755294e-05   -6.955531442046255e-05
-0.00017021122021062748   2.8304371079755294e-05   -6.955531442046255e-05
-0.00017021122021062748   2.8304371079755294e-05   -6.955531442046255e-05
-0.00022982167204271082   4.787572269471414e-05   -0.00015716325650496406
-0.00022982167204271082   4.787572269471414e-05   -0.00015716325650496406
-0.00022982167204271082   4.787572269471414e-05   -0.00015716325650496406
-0.00022982167204271082   4.787572269471414e-05   -0.00015716325650496406
-0.00021918456932357795   3.133864637283601e-05   -4.7715253197476264e-05
-0.00021918456932357795   3.133864637283601e-05   -4.7715253197476264e-05
-0.00021918456932357795   3.133864637283601e-05   -4.7715253197476264e-05
-0.00021918456932357795   3.133864637283601e-05   -4.7715253197476264e-05
-0.00016456833385461244   5.036528262584994e-05   -0.00015015829406422594
-0.00016456833385461244   5.036528262584994e-05   -0.00015015829406422594
-0.00016456833385461244   5.036528262584994e-05   -0.00015015829406422594
-0.00016456833385461244   5.036528262584994e-05   -0.00015015829406422594
-0.00019131351600010324   3.862050761489072e-05   -9.853612548183454e-05
-0.00019131351600010324   3.862050761489072e-05   -9.853612548183454e-05
-0.00019131351600010324   3.862050761489072e-05   -9.853612548183454e-05
-0.00019131351600010324   3.862050761489072e-05   -9.853612548183454e-05
-0.00016456833385461277   3.133864637283601e-05   -5.913123494928445e-05
-0.00016456833385461277   3.133864637283601e-05   -5.913123494928445e-05
-0.00016456833385461277   3.133864637283601e-05   -5.913123494928445e-05
-0.00016456833385461277   3.133864637283601e-05   -5.913123494928445e-05
-0.00021918456932357752   5.0365282625848204e-05   -0.00013874231231241884
-0.00021918456932357752   5.0365282625848204e-05   -0.00013874231231241884
-0.00021918456932357752   5.0365282625848204e-05   -0.00013874231231241884
-0.00021918456932357752   5.0365282625848204e-05   -0.00013874231231241884
-0.00020663246284780609   3.606835614188009e-05   -3.723015625489712e-05
-0.00020663246284780609   3.606835614188009e-05   -3.723015625489712e-05
-0.00020663246284780609   3.606835614188009e-05   -3.723015625489712e-05
-0.00020663246284780609   3.606835614188009e-05   -3.723015625489712e-05
-0.0001598616769692573   5.3552878313961605e-05   -0.00012567217935572728
-0.0001598616769692573   5.3552878313961605e-05   -0.00012567217935572728
-0.0001598616769692573   5.3552878313961605e-05   -0.00012567217935572728
-0.0001598616769692573   5.3552878313961605e-05   -0.00012567217935572728
-0.0001813455995263589   4.013551454475767e-05   -8.181522349903748e-05
-0.0001813455995263589   4.013551454475767e-05   -8.181522349903748e-05
-0.0001813455995263589   4.013551454475767e-05   -8.181522349903748e-05
-0.0001813455995263589   4.013551454475767e-05   -8.181522349903748e-05
0.00018526925335848226   -2.4346599447182607e-05   -2.4647161376680285e-06
0.00018526925335848226   -2.4346599447182607e-05   -2.4647161376680285e-06
0.00018526925335848226   -2.4346599447182607e-05   -2.4647161376680285e-06
0.00018526925335848226   -2.4346599447182607e-05   -2.4647161376680285e-06
7.914442826714805e-05   -4.405965593140895e-05   -0.00019116725851375978
7.914442826714805e-05   -4.405965593140895e-05   -0.00019116725851375978
7.914442826714805e-05   -4.405965593140895e-05   -0.00019116725851375978
7.914442826714805e-05   -4.405965593140895e-05   -0.00019116725851375978
8.48535594396994e-05   -1.9991427523301936e-05   -2.1998258387993797e-05
8.48535594396994e-05   -1.9991427523301936e-05   -2.1998258387993797e-05
8.48535594396994e-05   -1.9991427523301936e-05   -2.1998258387993797e-05
8.48535594396994e-05   -1.9991427523301936e-05   -2.1998258387993797e-05
0.000199456749982846   -4.095939655797583e-05   -0.00020042279453910163
0.000199456749982846   -4.095939655797583e-05   -0.00020042279453910163
0.000199456749982846   -4.095939655797583e-05   -0.00020042279453910163
0.000199456749982846   -4.095939655797583e-05   -0.00020042279453910163
0.00013165795713500187   -2.8992939626933806e-05   -9.460468061798545e-05
0.00013165795713500187   -2.8992939626933806e-05   -9.460468061798545e-05
0.00013165795713500187   -2.8992939626933806e-05   -9.460468061798545e-05
0.00013165795713500187   -2.8992939626933806e-05   -9.460468061798545e-05
0.00019945674998284664   -1.9991427523301936e-05   -9.417476967189982e-06
0.00019945674998284664   -1.9991427523301936e-05   -9.417476967189982e-06
0.00019945674998284664   -1.9991427523301936e-05   -9.417476967189982e-06
0.00019945674998284664   -1.9991427523301936e-05   -9.417476967189982e-06
8.485355943969918e-05   -4.095939655797583e-05   -0.00021300357595990718
8.485355943969918e-05   -4.095939655797583e-05   -0.00021300357595990718
8.485355943969918e-05   -4.095939655797583e-05   -0.00021300357595990718
8.485355943969918e-05   -4.095939655797583e-05   -0.00021300357595990718
9.117258194731416e-05   -1.7103487058550693e-05   -3.053301637842738e-05
9.117258194731416e-05   -1.7103487058550693e-05   -3.053301637842738e-05
9.117258194731416e-05   -1.7103487058550693e-05   -3.053301637842738e-05
9.117258194731416e-05   -1.7103487058550693e-05   -3.053301637842738e-05
0.0002113971608606424   -3.831558794867643e-05   -0.0002181800540332346
0.0002113971608606424   -3.831558794867643e-05   -0.0002181800540332346
0.0002113971608606424   -3.831558794867643e-05   -0.0002181800540332346
0.0002113971608606424   -3.831558794867643e-05   -0.0002181800540332346
0.00014231721043576917   -2.7817474774429266e-05   -0.00010934567122966154
0.00014231721043576917   -2.7817474774429266e-05   -0.00010934567122966154
0.00014231721043576917   -2.7817474774429266e-05   -0.00010934567122966154
0.00014231721043576917   -2.7817474774429266e-05   -0.00010934567122966154
0.00021139716086064262   -1.7103487058550693e-05   -1.7805755844352462e-05
0.00021139716086064262   -1.7103487058550693e-05   -1.7805755844352462e-05
0.00021139716086064262   -1.7103487058550693e-05   -1.7805755844352462e-05
0.00021139716086064262   -1.7103487058550693e-05   -1.7805755844352462e-05
9.117258194731373e-05   -3.831558794867643e-05   -0.00023090731456731038
9.117258194731373e-05   -3.831558794867643e-05   -0.00023090731456731038
9.117258194731373e-05   -3.831558794867643e-05   -0.00023090731456731038
9.117258194731373e-05   -3.831558794867643e-05   -0.00023090731456731038
9.641329568941853e-05   -9.811394995083711e-06   -5.02985877910752e-05
9.641329568941853e-05   -9.811394995083711e-06   -5.02985877910752e-05
9.641329568941853e-05   -9.811394995083711e-06   -5.02985877910752e-05
9.641329568941853e-05   -9.811394995083711e-06   -5.02985877910752e-05
0.0002252581690005426   -2.9931644913838013e-05   -0.0002529678933583606
0.0002252581690005426   -2.9931644913838013e-05   -0.0002529678933583606
0.0002252581690005426   -2.9931644913838013e-05   -0.0002529678933583606
0.0002252581690005426   -2.9931644913838013e-05   -0.0002529678933583606
0.0001481553103598761   -2.4562806773662307e-05   -0.00012768443184136159
0.0001481553103598761   -2.4562806773662307e-05   -0.00012768443184136159
0.0001481553103598761   -2.4562806773662307e-05   -0.00012768443184136159
0.0001481553103598761   -2.4562806773662307e-05   -0.00012768443184136159
7.914442826714805e-05   -9.694343159916477e-06   -0.00013067558881250073
7.914442826714805e-05   -9.694343159916477e-06   -0.00013067558881250073
7.914442826714805e-05   -9.694343159916477e-06   -0.00013067558881250073
7.914442826714805e-05   -9.694343159916477e-06   -0.00013067558881250073
-3.3393100635344835e-05   -2.0740480925081003e-05   -0.0003248658196424205
-3.3393100635344835e-05   -2.0740480925081003e-05   -0.0003248658196424205
-3.3393100635344835e-05   -2.0740480925081003e-05   -0.0003248658196424205
-3.3393100635344835e-05   -2.0740480925081003e-05   -0.0003248658196424205
-2.806881280011705e-05   -3.740289311760653e-06   -0.00013339830381416812
-2.806881280011705e-05   -3.740289311760653e-06   -0.00013339830381416812
-2.806881280011705e-05   -3.740289311760653e-06   -0.00013339830381416812
-2.806881280011705e-05   -3.740289311760653e-06   -0.00013339830381416812
8.48535594396994e-05   -1.6467252793165785e-05   -0.00031396607945835195
8.48535594396994e-05   -1.6467252793165785e-05   -0.00031396607945835195
8.48535594396994e-05   -1.6467252793165785e-05   -0.00031396607945835195
8.48535594396994e-05   -1.6467252793165785e-05   -0.00031396607945835195
2.5920109903516866e-05   -1.0048195876119492e-05   -0.000219595097714942
2.5920109903516866e-05   -1.0048195876119492e-05   -0.000219595097714942
2.5920109903516866e-05   -1.0048195876119492e-05   -0.000219595097714942
2.5920109903516866e-05   -1.0048195876119492e-05   -0.000219595097714942
8.485355943969918e-05   -3.740289311760653e-06   -0.000125762125725324
8.485355943969918e-05   -3.740289311760653e-06   -0.000125762125725324
8.485355943969918e-05   -3.740289311760653e-06   -0.000125762125725324
8.485355943969918e-05   -3.740289311760653e-06   -0.000125762125725324
-2.806881280011705e-05   -1.6467252793165785e-05   -0.00032160225754719433
-2.806881280011705e-05   -1.6467252793165785e-05   -0.00032160225754719433
-2.806881280011705e-05   -1.6467252793165785e-05   -0.00032160225754719433
-2.806881280011705e-05   -1.6467252793165785e-05   -0.00032160225754719433
-2.298476786974314e-05   2.4108606735979282e-06   -0.00013507688059016636
-2.298476786974314e-05   2.4108606735979282e-06   -0.00013507688059016636
-2.298476786974314e-05   2.4108606735979282e-06   -0.00013507688059016636
-2.298476786974314e-05   2.4108606735979282e-06   -0.00013507688059016636
9.117258194731373e-05   -1.1240751352926959e-05   -0.0003171481630693438
9.117258194731373e-05   -1.1240751352926959e-05   -0.0003171481630693438
9.117258194731373e-05   -1.1240751352926959e-05   -0.0003171481630693438
9.117258194731373e-05   -1.1240751352926959e-05   -0.0003171481630693438
3.0160231358120375e-05   -6.276553298508944e-06   -0.00021843943092000146
3.0160231358120375e-05   -6.276553298508944e-06   -0.00021843943092000146
3.0160231358120375e-05   -6.276553298508944e-06   -0.00021843943092000146
3.0160231358120375e-05   -6.276553298508944e-06   -0.00021843943092000146
9.117258194731416e-05   2.4108606735979282e-06   -0.0001268859133742497
9.117258194731416e-05   2.4108606735979282e-06   -0.0001268859133742497
9.117258194731416e-05   2.4108606735979282e-06   -0.0001268859133742497
9.117258194731416e-05   2.4108606735979282e-06   -0.0001268859133742497
-2.298476786974314e-05   -1.1240751352928693e-05   -0.0003253391302852609
-2.298476786974314e-05   -1.1240751352928693e-05   -0.0003253391302852609
-2.298476786974314e-05   -1.1240751352928693e-05   -0.0003253391302852609
-2.298476786974314e-05   -1.1240751352928693e-05   -0.0003253391302852609
-1.820482136408847e-05   9.686971085151597e-06   -0.00013963113517486553
-1.820482136408847e-05   9.686971085151597e-06   -0.00013963113517486553
-1.820482136408847e-05   9.686971085151597e-06   -0.00013963113517486553
-1.820482136408847e-05   9.686971085151597e-06   -0.00013963113517486553
9.641329568941853e-05   -4.671678206809651e-06   -0.00032204614068886755
9.641329568941853e-05   -4.671678206809651e-06   -0.00032204614068886755
9.641329568941853e-05   -4.671678206809651e-06   -0.00032204614068886755
9.641329568941853e-05   -4.671678206809651e-06   -0.00032204614068886755
3.542462413261971e-05   -1.6297240683880998e-06   -0.00022222352724392855
3.542462413261971e-05   -1.6297240683880998e-06   -0.00022222352724392855
3.542462413261971e-05   -1.6297240683880998e-06   -0.00022222352724392855
3.542462413261971e-05   -1.6297240683880998e-06   -0.00022222352724392855
-3.3393100635344835e-05   7.322286841356801e-06   -0.00016774602315299415
-3.3393100635344835e-05   7.322286841356801e-06   -0.00016774602315299415
-3.3393100635344835e-05   7.322286841356801e-06   -0.00016774602315299415
-3.3393100635344835e-05   7.322286841356801e-06   -0.00016774602315299415
-0.00014394923988259874   3.563655766628329e-06   -0.000354261433876589
-0.00014394923988259874   3.563655766628329e-06   -0.000354261433876589
-0.00014394923988259874   3.563655766628329e-06   -0.000354261433876589
-0.00014394923988259874   3.563655766628329e-06   -0.000354261433876589
-0.00013821683207019208   1.361085837651467e-05   -0.0001666343064556583
-0.00013821683207019208   1.361085837651467e-05   -0.0001666343064556583
-0.00013821683207019208   1.361085837651467e-05   -0.0001666343064556583
-0.00013821683207019208   1.361085837651467e-05   -0.0001666343064556583
-2.806881280011705e-05   8.35527293547092e-06   -0.00034706098730782333
-2.806881280011705e-05   8.35527293547092e-06   -0.00034706098730782333
-2.806881280011705e-05   8.35527293547092e-06   -0.00034706098730782333
-2.806881280011705e-05   8.35527293547092e-06   -0.00034706098730782333
-8.531463409140776e-05   1.0030969130714329e-05   -0.0002526567028728183
-8.531463409140776e-05   1.0030969130714329e-05   -0.0002526567028728183
-8.531463409140776e-05   1.0030969130714329e-05   -0.0002526567028728183
-8.531463409140776e-05   1.0030969130714329e-05   -0.0002526567028728183
-2.806881280011705e-05   1.361085837651467e-05   -0.00016348095519103274
-2.806881280011705e-05   1.361085837651467e-05   -0.00016348095519103274
-2.806881280011705e-05   1.361085837651467e-05   -0.00016348095519103274
-2.806881280011705e-05   1.361085837651467e-05   -0.00016348095519103274
-0.00013821683207019208   8.35527293547092e-06   -0.0003502143385724502
-0.00013821683207019208   8.35527293547092e-06   -0.0003502143385724502
-0.00013821683207019208   8.35527293547092e-06   -0.0003502143385724502
-0.00013821683207019208   8.35527293547092e-06   -0.0003502143385724502
-0.00013269060362027798   2.0273706680215553e-05   -0.00016638237049853774
-0.00013269060362027798   2.0273706680215553e-05   -0.00016638237049853774
-0.00013269060362027798   2.0273706680215553e-05   -0.00016638237049853774
-0.00013269060362027798   2.0273706680215553e-05   -0.00016638237049853774
-2.298476786974314e-05   1.3915554978023367e-05   -0.00034541053906144824
-2.298476786974314e-05   1.3915554978023367e-05   -0.00034541053906144824
-2.298476786974314e-05   1.3915554978023367e-05   -0.00034541053906144824
-2.298476786974314e-05   1.3915554978023367e-05   -0.00034541053906144824
-8.037625689011381e-05   1.4514849438544003e-05   -0.000250117634037142
-8.037625689011381e-05   1.4514849438544003e-05   -0.000250117634037142
-8.037625689011381e-05   1.4514849438544003e-05   -0.000250117634037142
-8.037625689011381e-05   1.4514849438544003e-05   -0.000250117634037142
-2.298476786974314e-05   2.0273706680215553e-05   -0.0001625674794772233
-2.298476786974314e-05   2.0273706680215553e-05   -0.0001625674794772233
-2.298476786974314e-05   2.0273706680215553e-05   -0.0001625674794772233
-2.298476786974314e-05   2.0273706680215553e-05   -0.0001625674794772233
-0.00013269060362027798   1.3915554978025102e-05   -0.00034922543008276356
-0.00013269060362027798   1.3915554978025102e-05   -0.00034922543008276356
-0.00013269060362027798   1.3915554978025102e-05   -0.00034922543008276356
-0.00013269060362027798   1.3915554978025102e-05   -0.00034922543008276356
-0.00012758359386416885   2.7051160310221853e-05   -0.00017027328186044674
-0.00012758359386416885   2.7051160310221853e-05   -0.00017027328186044674
-0.00012758359386416885   2.7051160310221853e-05   -0.00017027328186044674
-0.00012758359386416885   2.7051160310221853e-05   -0.00017027328186044674
-1.8204821364088577e-05   1.9664098486232157e-05   -0.0003481389989328553
-1.8204821364088577e-05   1.9664098486232157e-05   -0.0003481389989328553
-1.8204821364088577e-05   1.9664098486232157e-05   -0.0003481389989328553
-1.8204821364088577e-05   1.9664098486232157e-05   -0.0003481389989328553
-7.595923023718759e-05   1.911606864872517e-05   -0.0002515528329085218
-7.595923023718759e-05   1.911606864872517e-05   -0.0002515528329085218
-7.595923023718759e-05   1.911606864872517e-05   -0.0002515528329085218
-7.595923023718759e-05   1.911606864872517e-05   -0.0002515528329085218
-0.00014394923988259896   2.381068434500859e-05   -0.00013618611647623312
-0.00014394923988259896   2.381068434500859e-05   -0.00013618611647623312
-0.00014394923988259896   2.381068434500859e-05   -0.00013618611647623312
-0.00014394923988259896   2.381068434500859e-05   -0.00013618611647623312
-0.0002523361210398466   2.8733201150767454e-05   -0.00031387740832152563
-0.0002523361210398466   2.8733201150767454e-05   -0.00031387740832152563
-0.0002523361210398466   2.8733201150767454e-05   -0.00031387740832152563
-0.0002523361210398466   2.8733201150767454e-05   -0.00031387740832152563
-0.000245434432488919   3.0522250419029104e-05   -0.00012808505669585635
-0.000245434432488919   3.0522250419029104e-05   -0.00012808505669585635
-0.000245434432488919   3.0522250419029104e-05   -0.00012808505669585635
-0.000245434432488919   3.0522250419029104e-05   -0.00012808505669585635
-0.0001382168320701923   3.483242456394503e-05   -0.00030936716188068394
-0.0001382168320701923   3.483242456394503e-05   -0.00030936716188068394
-0.0001382168320701923   3.483242456394503e-05   -0.00030936716188068394
-0.0001382168320701923   3.483242456394503e-05   -0.00030936716188068394
-0.0001935570859390222   3.076526651361877e-05   -0.00021469311060243982
-0.0001935570859390222   3.076526651361877e-05   -0.00021469311060243982
-0.0001935570859390222   3.076526651361877e-05   -0.00021469311060243982
-0.0001935570859390222   3.076526651361877e-05   -0.00021469311060243982
-0.0001382168320701923   3.052225041902737e-05   -0.00013067116118280556
-0.0001382168320701923   3.052225041902737e-05   -0.00013067116118280556
-0.0001382168320701923   3.052225041902737e-05   -0.00013067116118280556
-0.0001382168320701923   3.052225041902737e-05   -0.00013067116118280556
-0.00024543443248891946   3.483242456394503e-05   -0.00030678105739373376
-0.00024543443248891946   3.483242456394503e-05   -0.00030678105739373376
-0.00024543443248891946   3.483242456394503e-05   -0.00030678105739373376
-0.00024543443248891946   3.483242456394503e-05   -0.00030678105739373376
-0.00023781427893488578   3.657361170307516e-05   -0.00012358207942154108
-0.00023781427893488578   3.657361170307516e-05   -0.00012358207942154108
-0.00023781427893488578   3.657361170307516e-05   -0.00012358207942154108
-0.00023781427893488578   3.657361170307516e-05   -0.00012358207942154108
-0.00013269060362027822   4.008725493260569e-05   -0.00030089639088360406
-0.00013269060362027822   4.008725493260569e-05   -0.00030089639088360406
-0.00013269060362027822   4.008725493260569e-05   -0.00030089639088360406
-0.00013269060362027822   4.008725493260569e-05   -0.00030089639088360406
-0.0001865934162225272   3.550511230651643e-05   -0.000208309084304203
-0.0001865934162225272   3.550511230651643e-05   -0.000208309084304203
-0.0001865934162225272   3.550511230651643e-05   -0.000208309084304203
-0.0001865934162225272   3.550511230651643e-05   -0.000208309084304203
-0.0001326906036202781   3.657361170307516e-05   -0.0001256902653592575
-0.0001326906036202781   3.657361170307516e-05   -0.0001256902653592575
-0.0001326906036202781   3.657361170307516e-05   -0.0001256902653592575
-0.0001326906036202781   3.657361170307516e-05   -0.0001256902653592575
-0.00023781427893488578   4.0087254932607425e-05   -0.00029878820494588787
-0.00023781427893488578   4.0087254932607425e-05   -0.00029878820494588787
-0.00023781427893488578   4.0087254932607425e-05   -0.00029878820494588787
-0.00023781427893488578   4.0087254932607425e-05   -0.00029878820494588787
-0.00023137082305169573   4.335696343447416e-05   -0.00012643060999532971
-0.00023137082305169573   4.335696343447416e-05   -0.00012643060999532971
-0.00023137082305169573   4.335696343447416e-05   -0.00012643060999532971
-0.00023137082305169573   4.335696343447416e-05   -0.00012643060999532971
-0.00012758359386416904   4.591195569848307e-05   -0.00030094232066627967
-0.00012758359386416904   4.591195569848307e-05   -0.00030094232066627967
-0.00012758359386416904   4.591195569848307e-05   -0.00030094232066627967
-0.00012758359386416904   4.591195569848307e-05   -0.00030094232066627967
-0.00018222049129598892   3.987549470538081e-05   -0.00020625894835071953
-0.00018222049129598892   3.987549470538081e-05   -0.00020625894835071953
-0.00018222049129598892   3.987549470538081e-05   -0.00020625894835071953
-0.00018222049129598892   3.987549470538081e-05   -0.00020625894835071953
-0.0002523361210398466   4.0918120061940455e-05   -6.834796851812319e-05
-0.0002523361210398466   4.0918120061940455e-05   -6.834796851812319e-05
-0.0002523361210398466   4.0918120061940455e-05   -6.834796851812319e-05
-0.0002523361210398466   4.0918120061940455e-05   -6.834796851812319e-05
-0.00036633588920197916   5.664206382962125e-05   -0.00024891321586107025
-0.00036633588920197916   5.664206382962125e-05   -0.00024891321586107025
-0.00036633588920197916   5.664206382962125e-05   -0.00024891321586107025
-0.00036633588920197916   5.664206382962125e-05   -0.00024891321586107025
-0.0003506014116607303   4.787572269471414e-05   -2.235062542522894e-05
-0.0003506014116607303   4.787572269471414e-05   -2.235062542522894e-05
-0.0003506014116607303   4.787572269471414e-05   -2.235062542522894e-05
-0.0003506014116607303   4.787572269471414e-05   -2.235062542522894e-05
-0.000245434432488919   6.47438240189268e-05   -0.00020774978483944337
-0.000245434432488919   6.47438240189268e-05   -0.00020774978483944337
-0.000245434432488919   6.47438240189268e-05   -0.00020774978483944337
-0.000245434432488919   6.47438240189268e-05   -0.00020774978483944337
-0.00029111533632311865   5.396851276915672e-05   -0.00012514975836591376
-0.00029111533632311865   5.396851276915672e-05   -0.00012514975836591376
-0.00029111533632311865   5.396851276915672e-05   -0.00012514975836591376
-0.00029111533632311865   5.396851276915672e-05   -0.00012514975836591376
-0.00024543443248891924   4.787572269471414e-05   -3.247148621975636e-05
-0.00024543443248891924   4.787572269471414e-05   -3.247148621975636e-05
-0.00024543443248891924   4.787572269471414e-05   -3.247148621975636e-05
-0.00024543443248891924   4.787572269471414e-05   -3.247148621975636e-05
-0.0003506014116607297   6.47438240189268e-05   -0.00019762892404491528
-0.0003506014116607297   6.47438240189268e-05   -0.00019762892404491528
-0.0003506014116607297   6.47438240189268e-05   -0.00019762892404491528
-0.0003506014116607297   6.47438240189268e-05   -0.00019762892404491528
-0.00033765128109204353   5.036528262584994e-05   -3.202190847362979e-06
-0.00033765128109204353   5.036528262584994e-05   -3.202190847362979e-06
-0.00033765128109204353   5.036528262584994e-05   -3.202190847362979e-06
-0.00033765128109204353   5.036528262584994e-05   -3.202190847362979e-06
-0.00023781427893488578   6.686832574183052e-05   -0.00017949902031221497
-0.00023781427893488578   6.686832574183052e-05   -0.00017949902031221497
-0.00023781427893488578   6.686832574183052e-05   -0.00017949902031221497
-0.00023781427893488578   6.686832574183052e-05   -0.00017949902031221497
-0.0002856613698419227   5.717411839127953e-05   -9.393734439015246e-05
-0.0002856613698419227   5.717411839127953e-05   -9.393734439015246e-05
-0.0002856613698419227   5.717411839127953e-05   -9.393734439015246e-05
-0.0002856613698419227   5.717411839127953e-05   -9.393734439015246e-05
-0.00023781427893488578   5.036528262584994e-05   -1.3104016716952369e-05
-0.00023781427893488578   5.036528262584994e-05   -1.3104016716952369e-05
-0.00023781427893488578   5.036528262584994e-05   -1.3104016716952369e-05
-0.00023781427893488578   5.036528262584994e-05   -1.3104016716952369e-05
-0.00033765128109204234   6.686832574182879e-05   -0.0001695971944426257
-0.00033765128109204234   6.686832574182879e-05   -0.0001695971944426257
-0.00033765128109204234   6.686832574182879e-05   -0.0001695971944426257
-0.00033765128109204234   6.686832574182879e-05   -0.0001695971944426257
-0.00032370998897660996   5.3552878313961605e-05   2.1046727573919774e-05
-0.00032370998897660996   5.3552878313961605e-05   2.1046727573919774e-05
-0.00032370998897660996   5.3552878313961605e-05   2.1046727573919774e-05
-0.00032370998897660996   5.3552878313961605e-05   2.1046727573919774e-05
-0.00023137082305169573   6.873332764361674e-05   -0.00014196015189872982
-0.00023137082305169573   6.873332764361674e-05   -0.00014196015189872982
-0.00023137082305169573   6.873332764361674e-05   -0.00014196015189872982
-0.00023137082305169573   6.873332764361674e-05   -0.00014196015189872982
-0.00027258461033568876   5.770269065657509e-05   -6.665212423318347e-05
-0.00027258461033568876   5.770269065657509e-05   -6.665212423318347e-05
-0.00027258461033568876   5.770269065657509e-05   -6.665212423318347e-05
-0.00027258461033568876   5.770269065657509e-05   -6.665212423318347e-05
0.0003155255811847701   -4.405965593140895e-05   6.148758752502585e-05
0.0003155255811847701   -4.405965593140895e-05   6.148758752502585e-05
0.0003155255811847701   -4.405965593140895e-05   6.148758752502585e-05
0.0003155255811847701   -4.405965593140895e-05   6.148758752502585e-05
0.00015229550093024107   -6.540101207508711e-05   -0.00022336735991872712
0.00015229550093024107   -6.540101207508711e-05   -0.00022336735991872712
0.00015229550093024107   -6.540101207508711e-05   -0.00022336735991872712
0.00015229550093024107   -6.540101207508711e-05   -0.00022336735991872712
0.00015862929680578132   -4.095939655797583e-05   2.908995709050531e-05
0.00015862929680578132   -4.095939655797583e-05   2.908995709050531e-05
0.00015862929680578132   -4.095939655797583e-05   2.908995709050531e-05
0.00015862929680578132   -4.095939655797583e-05   2.908995709050531e-05
0.00033013503325980947   -6.385461620157795e-05   -0.0002430158052133826
0.00033013503325980947   -6.385461620157795e-05   -0.0002430158052133826
0.00033013503325980947   -6.385461620157795e-05   -0.0002430158052133826
0.00033013503325980947   -6.385461620157795e-05   -0.0002430158052133826
0.00022943480700528024   -4.827801830125343e-05   -8.452805352936188e-05
0.00022943480700528024   -4.827801830125343e-05   -8.452805352936188e-05
0.00022943480700528024   -4.827801830125343e-05   -8.452805352936188e-05
0.00022943480700528024   -4.827801830125343e-05   -8.452805352936188e-05
0.0003301350332598101   -4.095939655797583e-05   4.282708887666693e-05
0.0003301350332598101   -4.095939655797583e-05   4.282708887666693e-05
0.0003301350332598101   -4.095939655797583e-05   4.282708887666693e-05
0.0003301350332598101   -4.095939655797583e-05   4.282708887666693e-05
0.0001586292968057811   -6.385461620157795e-05   -0.0002567529369995429
0.0001586292968057811   -6.385461620157795e-05   -0.0002567529369995429
0.0001586292968057811   -6.385461620157795e-05   -0.0002567529369995429
0.0001586292968057811   -6.385461620157795e-05   -0.0002567529369995429
0.00016492747210119932   -3.831558794867643e-05   1.3284333588632971e-05
0.00016492747210119932   -3.831558794867643e-05   1.3284333588632971e-05
0.00016492747210119932   -3.831558794867643e-05   1.3284333588632971e-05
0.00016492747210119932   -3.831558794867643e-05   1.3284333588632971e-05
0.00034136345332966343   -6.16441792905386e-05   -0.00026677848032035734
0.00034136345332966343   -6.16441792905386e-05   -0.00026677848032035734
0.00034136345332966343   -6.16441792905386e-05   -0.00026677848032035734
0.00034136345332966343   -6.16441792905386e-05   -0.00026677848032035734
0.00024172310296610299   -4.8122705786683706e-05   -0.0001088241138167364
0.00024172310296610299   -4.8122705786683706e-05   -0.0001088241138167364
0.00024172310296610299   -4.8122705786683706e-05   -0.0001088241138167364
0.00024172310296610299   -4.8122705786683706e-05   -0.0001088241138167364
0.00034136345332966343   -3.831558794867643e-05   2.728148839374958e-05
0.00034136345332966343   -3.831558794867643e-05   2.728148839374958e-05
0.00034136345332966343   -3.831558794867643e-05   2.728148839374958e-05
0.00034136345332966343   -3.831558794867643e-05   2.728148839374958e-05
0.00016492747210119932   -6.164417929054034e-05   -0.0002807756351254761
0.00016492747210119932   -6.164417929054034e-05   -0.0002807756351254761
0.00016492747210119932   -6.164417929054034e-05   -0.0002807756351254761
0.00016492747210119932   -6.164417929054034e-05   -0.0002807756351254761
0.00016922154433217937   -2.9931644913838013e-05   -1.862720813173603e-05
0.00016922154433217937   -2.9931644913838013e-05   -1.862720813173603e-05
0.00016922154433217937   -2.9931644913838013e-05   -1.862720813173603e-05
0.00016922154433217937   -2.9931644913838013e-05   -1.862720813173603e-05
0.00035323139748869286   -5.299916288719654e-05   -0.00031146978594190876
0.00035323139748869286   -5.299916288719654e-05   -0.00031146978594190876
0.00035323139748869286   -5.299916288719654e-05   -0.00031146978594190876
0.00035323139748869286   -5.299916288719654e-05   -0.00031146978594190876
0.00024523243371686967   -4.443623821902276e-05   -0.00013660926778978014
0.00024523243371686967   -4.443623821902276e-05   -0.00013660926778978014
0.00024523243371686967   -4.443623821902276e-05   -0.00013660926778978014
0.00024523243371686967   -4.443623821902276e-05   -0.00013660926778978014
0.0001522955009302413   -2.074048092507927e-05   -7.838810463074372e-05
0.0001522955009302413   -2.074048092507927e-05   -7.838810463074372e-05
0.0001522955009302413   -2.074048092507927e-05   -7.838810463074372e-05
0.0001522955009302413   -2.074048092507927e-05   -7.838810463074372e-05
-8.783649714115137e-06   -4.26451054195056e-05   -0.0003599961304013256
-8.783649714115137e-06   -4.26451054195056e-05   -0.0003599961304013256
-8.783649714115137e-06   -4.26451054195056e-05   -0.0003599961304013256
-8.783649714115137e-06   -4.26451054195056e-05   -0.0003599961304013256
-2.2725783313780074e-06   -1.6467252793165785e-05   -8.637624801058168e-05
-2.2725783313780074e-06   -1.6467252793165785e-05   -8.637624801058168e-05
-2.2725783313780074e-06   -1.6467252793165785e-05   -8.637624801058168e-05
-2.2725783313780074e-06   -1.6467252793165785e-05   -8.637624801058168e-05
0.00015862929680578132   -4.0640088797566296e-05   -0.00034004233830320666
0.00015862929680578132   -4.0640088797566296e-05   -0.00034004233830320666
0.00015862929680578132   -4.0640088797566296e-05   -0.00034004233830320666
0.00015862929680578132   -4.0640088797566296e-05   -0.00034004233830320666
7.520134180077123e-05   -2.578809884604301e-05   -0.00020990694059910397
7.520134180077123e-05   -2.578809884604301e-05   -0.00020990694059910397
7.520134180077123e-05   -2.578809884604301e-05   -0.00020990694059910397
7.520134180077123e-05   -2.578809884604301e-05   -0.00020990694059910397
0.00015862929680578132   -1.6467252793165785e-05   -7.187254640794033e-05
0.00015862929680578132   -1.6467252793165785e-05   -7.187254640794033e-05
0.00015862929680578132   -1.6467252793165785e-05   -7.187254640794033e-05
0.00015862929680578132   -1.6467252793165785e-05   -7.187254640794033e-05
-2.2725783313780074e-06   -4.0640088797566296e-05   -0.0003545460399058476
-2.2725783313780074e-06   -4.0640088797566296e-05   -0.0003545460399058476
-2.2725783313780074e-06   -4.0640088797566296e-05   -0.0003545460399058476
-2.2725783313780074e-06   -4.0640088797566296e-05   -0.0003545460399058476
3.4665563511924753e-06   -1.1240751352928693e-05   -8.834026767851055e-05
3.4665563511924753e-06   -1.1240751352928693e-05   -8.834026767851055e-05
3.4665563511924753e-06   -1.1240751352928693e-05   -8.834026767851055e-05
3.4665563511924753e-06   -1.1240751352928693e-05   -8.834026767851055e-05
0.00016492747210119932   -3.688033929477412e-05   -0.00034205804116341546
0.00016492747210119932   -3.688033929477412e-05   -0.00034205804116341546
0.00016492747210119932   -3.688033929477412e-05   -0.00034205804116341546
0.00016492747210119932   -3.688033929477412e-05   -0.00034205804116341546
7.965627336300893e-05   -2.371139975552647e-05   -0.00020784074032330867
7.965627336300893e-05   -2.371139975552647e-05   -0.00020784074032330867
7.965627336300893e-05   -2.371139975552647e-05   -0.00020784074032330867
7.965627336300893e-05   -2.371139975552647e-05   -0.00020784074032330867
0.00016492747210119932   -1.1240751352928693e-05   -7.295651491340434e-05
0.00016492747210119932   -1.1240751352928693e-05   -7.295651491340434e-05
0.00016492747210119932   -1.1240751352928693e-05   -7.295651491340434e-05
0.00016492747210119932   -1.1240751352928693e-05   -7.295651491340434e-05
3.4665563511925837e-06   -3.688033929477412e-05   -0.0003574417939285236
3.4665563511925837e-06   -3.688033929477412e-05   -0.0003574417939285236
3.4665563511925837e-06   -3.688033929477412e-05   -0.0003574417939285236
3.4665563511925837e-06   -3.688033929477412e-05   -0.0003574417939285236
7.561145594365995e-06   -4.671678206811386e-06   -9.17501903918809e-05
7.561145594365995e-06   -4.671678206811386e-06   -9.17501903918809e-05
7.561145594365995e-06   -4.671678206811386e-06   -9.17501903918809e-05
7.561145594365995e-06   -4.671678206811386e-06   -9.17501903918809e-05
0.00016922154433218002   -3.1533153008295525e-05   -0.000345067303407348
0.00016922154433218002   -3.1533153008295525e-05   -0.000345067303407348
0.00016922154433218002   -3.1533153008295525e-05   -0.000345067303407348
0.00016922154433218002   -3.1533153008295525e-05   -0.000345067303407348
8.495466907056467e-05   -2.0035278297445697e-05   -0.0002115212361311705
8.495466907056467e-05   -2.0035278297445697e-05   -0.0002115212361311705
8.495466907056467e-05   -2.0035278297445697e-05   -0.0002115212361311705
8.495466907056467e-05   -2.0035278297445697e-05   -0.0002115212361311705
-8.783649714115137e-06   3.5636557666265944e-06   -0.00011867131491672886
-8.783649714115137e-06   3.5636557666265944e-06   -0.00011867131491672886
-8.783649714115137e-06   3.5636557666265944e-06   -0.00011867131491672886
-8.783649714115137e-06   3.5636557666265944e-06   -0.00011867131491672886
-0.00016748201940827522   -2.2801105787792833e-05   -0.00039898745467298064
-0.00016748201940827522   -2.2801105787792833e-05   -0.00039898745467298064
-0.00016748201940827522   -2.2801105787792833e-05   -0.00039898745467298064
-0.00016748201940827522   -2.2801105787792833e-05   -0.00039898745467298064
-0.0001596734893414016   8.35527293547092e-06   -0.0001291182379310838
-0.0001596734893414016   8.35527293547092e-06   -0.0001291182379310838
-0.0001596734893414016   8.35527293547092e-06   -0.0001291182379310838
-0.0001596734893414016   8.35527293547092e-06   -0.0001291182379310838
-2.2725783313780074e-06   -2.0450160664315167e-05   -0.0003741698294545831
-2.2725783313780074e-06   -2.0450160664315167e-05   -0.0003741698294545831
-2.2725783313780074e-06   -2.0450160664315167e-05   -0.0003741698294545831
-2.2725783313780074e-06   -2.0450160664315167e-05   -0.0003741698294545831
-8.353417727780806e-05   -4.6751721885524705e-06   -0.00024819882429599023
-8.353417727780806e-05   -4.6751721885524705e-06   -0.00024819882429599023
-8.353417727780806e-05   -4.6751721885524705e-06   -0.00024819882429599023
-8.353417727780806e-05   -4.6751721885524705e-06   -0.00024819882429599023
-2.2725783313780074e-06   8.35527293547092e-06   -0.00011183497777121111
-2.2725783313780074e-06   8.35527293547092e-06   -0.00011183497777121111
-2.2725783313780074e-06   8.35527293547092e-06   -0.00011183497777121111
-2.2725783313780074e-06   8.35527293547092e-06   -0.00011183497777121111
-0.0001596734893414016   -2.0450160664315167e-05   -0.00039145308961445555
-0.0001596734893414016   -2.0450160664315167e-05   -0.00039145308961445555
-0.0001596734893414016   -2.0450160664315167e-05   -0.00039145308961445555
-0.0001596734893414016   -2.0450160664315167e-05   -0.00039145308961445555
-0.00015250913395265886   1.3915554978025102e-05   -0.00012681199039223448
-0.00015250913395265886   1.3915554978025102e-05   -0.00012681199039223448
-0.00015250913395265886   1.3915554978025102e-05   -0.00012681199039223448
-0.00015250913395265886   1.3915554978025102e-05   -0.00012681199039223448
3.4665563511925837e-06   -1.6751634917870628e-05   -0.0003683711602944519
3.4665563511925837e-06   -1.6751634917870628e-05   -0.0003683711602944519
3.4665563511925837e-06   -1.6751634917870628e-05   -0.0003683711602944519
3.4665563511925837e-06   -1.6751634917870628e-05   -0.0003683711602944519
-7.716631306216464e-05   -1.9691606714770937e-06   -0.00024285252915335698
-7.716631306216464e-05   -1.9691606714770937e-06   -0.00024285252915335698
-7.716631306216464e-05   -1.9691606714770937e-06   -0.00024285252915335698
-7.716631306216464e-05   -1.9691606714770937e-06   -0.00024285252915335698
3.4665563511925837e-06   1.3915554978025102e-05   -0.00010841167645469878
3.4665563511925837e-06   1.3915554978025102e-05   -0.00010841167645469878
3.4665563511925837e-06   1.3915554978025102e-05   -0.00010841167645469878
3.4665563511925837e-06   1.3915554978025102e-05   -0.00010841167645469878
-0.00015250913395265919   -1.6751634917868893e-05   -0.0003867714742319915
-0.00015250913395265919   -1.6751634917868893e-05   -0.0003867714742319915
-0.00015250913395265919   -1.6751634917868893e-05   -0.0003867714742319915
-0.00015250913395265919   -1.6751634917868893e-05   -0.0003867714742319915
-0.00014767525994083497   1.966409848623389e-05   -0.00012897620765490309
-0.00014767525994083497   1.966409848623389e-05   -0.00012897620765490309
-0.00014767525994083497   1.966409848623389e-05   -0.00012897620765490309
-0.00014767525994083497   1.966409848623389e-05   -0.00012897620765490309
7.561145594365995e-06   -1.3249815837451315e-05   -0.00036795520161936085
7.561145594365995e-06   -1.3249815837451315e-05   -0.00036795520161936085
7.561145594365995e-06   -1.3249815837451315e-05   -0.00036795520161936085
7.561145594365995e-06   -1.3249815837451315e-05   -0.00036795520161936085
-7.26158695398255e-05   1.07360002363395e-06   -0.00024292089257902912
-7.26158695398255e-05   1.07360002363395e-06   -0.00024292089257902912
-7.26158695398255e-05   1.07360002363395e-06   -0.00024292089257902912
-7.26158695398255e-05   1.07360002363395e-06   -0.00024292089257902912
-0.00016748201940827495   2.8733201150767454e-05   -9.705965637776988e-05
-0.00016748201940827495   2.8733201150767454e-05   -9.705965637776988e-05
-0.00016748201940827495   2.8733201150767454e-05   -9.705965637776988e-05
-0.00016748201940827495   2.8733201150767454e-05   -9.705965637776988e-05
-0.00032833910650233964   4.91156053261492e-06   -0.0003794477859054377
-0.00032833910650233964   4.91156053261492e-06   -0.0003794477859054377
-0.00032833910650233964   4.91156053261492e-06   -0.0003794477859054377
-0.00032833910650233964   4.91156053261492e-06   -0.0003794477859054377
-0.0003172271188633629   3.483242456394503e-05   -0.00010358261362218395
-0.0003172271188633629   3.483242456394503e-05   -0.00010358261362218395
-0.0003172271188633629   3.483242456394503e-05   -0.00010358261362218395
-0.0003172271188633629   3.483242456394503e-05   -0.00010358261362218395
-0.00015967348934140126   9.313170592495368e-06   -0.00035086044377591883
-0.00015967348934140126   9.313170592495368e-06   -0.00035086044377591883
-0.00015967348934140126   9.313170592495368e-06   -0.00035086044377591883
-0.00015967348934140126   9.313170592495368e-06   -0.00035086044377591883
-0.00024063517851982168   2.157093010924163e-05   -0.0002232789508552648
-0.00024063517851982168   2.157093010924163e-05   -0.0002232789508552648
-0.00024063517851982168   2.157093010924163e-05   -0.0002232789508552648
-0.00024063517851982168   2.157093010924163e-05   -0.0002232789508552648
-0.00015967348934140126   3.483242456394503e-05   -8.827106123931484e-05
-0.00015967348934140126   3.483242456394503e-05   -8.827106123931484e-05
-0.00015967348934140126   3.483242456394503e-05   -8.827106123931484e-05
-0.00015967348934140126   3.483242456394503e-05   -8.827106123931484e-05
-0.00031722711886336344   9.313170592495368e-06   -0.00036617199615878934
-0.00031722711886336344   9.313170592495368e-06   -0.00036617199615878934
-0.00031722711886336344   9.313170592495368e-06   -0.00036617199615878934
-0.00031722711886336344   9.313170592495368e-06   -0.00036617199615878934
-0.00030650348949167263   4.008725493260569e-05   -9.451280875772024e-05
-0.00030650348949167263   4.008725493260569e-05   -9.451280875772024e-05
-0.00030650348949167263   4.008725493260569e-05   -9.451280875772024e-05
-0.00030650348949167263   4.008725493260569e-05   -9.451280875772024e-05
-0.00015250913395265919   1.3370825658203661e-05   -0.00033514021042476815
-0.00015250913395265919   1.3370825658203661e-05   -0.00033514021042476815
-0.00015250913395265919   1.3370825658203661e-05   -0.00033514021042476815
-0.00015250913395265919   1.3370825658203661e-05   -0.00033514021042476815
-0.00023061938758446533   2.5399767282739683e-05   -0.00021217381934647821
-0.00023061938758446533   2.5399767282739683e-05   -0.00021217381934647821
-0.00023061938758446533   2.5399767282739683e-05   -0.00021217381934647821
-0.00023061938758446533   2.5399767282739683e-05   -0.00021217381934647821
-0.00015250913395265875   4.008725493260569e-05   -7.848295119307694e-05
-0.00015250913395265875   4.008725493260569e-05   -7.848295119307694e-05
-0.00015250913395265875   4.008725493260569e-05   -7.848295119307694e-05
-0.00015250913395265875   4.008725493260569e-05   -7.848295119307694e-05
-0.0003065034894916732   1.3370825658201926e-05   -0.00035117006798940885
-0.0003065034894916732   1.3370825658201926e-05   -0.00035117006798940885
-0.0003065034894916732   1.3370825658201926e-05   -0.00035117006798940885
-0.0003065034894916732   1.3370825658201926e-05   -0.00035117006798940885
-0.000298342314807623   4.591195569848307e-05   -9.480523959811034e-05
-0.000298342314807623   4.591195569848307e-05   -9.480523959811034e-05
-0.000298342314807623   4.591195569848307e-05   -9.480523959811034e-05
-0.000298342314807623   4.591195569848307e-05   -9.480523959811034e-05
-0.00014767525994083535   1.6815376858188638e-05   -0.00032845905040524814
-0.00014767525994083535   1.6815376858188638e-05   -0.00032845905040524814
-0.00014767525994083535   1.6815376858188638e-05   -0.00032845905040524814
-0.00014767525994083535   1.6815376858188638e-05   -0.00032845905040524814
-0.0002249472792766023   2.8068684134848615e-05   -0.00020642433587829688
-0.0002249472792766023   2.8068684134848615e-05   -0.00020642433587829688
-0.0002249472792766023   2.8068684134848615e-05   -0.00020642433587829688
-0.0002249472792766023   2.8068684134848615e-05   -0.00020642433587829688
-0.00032833910650233964   5.664206382962125e-05   -5.582281454881606e-05
-0.00032833910650233964   5.664206382962125e-05   -5.582281454881606e-05
-0.00032833910650233964   5.664206382962125e-05   -5.582281454881606e-05
-0.00032833910650233964   5.664206382962125e-05   -5.582281454881606e-05
-0.0004962432580180723   5.330470639289264e-05   -0.0003376654815370767
-0.0004962432580180723   5.330470639289264e-05   -0.0003376654815370767
-0.0004962432580180723   5.330470639289264e-05   -0.0003376654815370767
-0.0004962432580180723   5.330470639289264e-05   -0.0003376654815370767
-0.0004744678173788571   6.47438240189268e-05   -2.770766408876496e-06
-0.0004744678173788571   6.47438240189268e-05   -2.770766408876496e-06
-0.0004744678173788571   6.47438240189268e-05   -2.770766408876496e-06
-0.0004744678173788571   6.47438240189268e-05   -2.770766408876496e-06
-0.00031722711886336235   6.77114484506254e-05   -0.0002666191719270527
-0.00031722711886336235   6.77114484506254e-05   -0.0002666191719270527
-0.00031722711886336235   6.77114484506254e-05   -0.0002666191719270527
-0.00031722711886336235   6.77114484506254e-05   -0.0002666191719270527
-0.00038663363741826774   6.387569370108412e-05   -0.0001486401881524859
-0.00038663363741826774   6.387569370108412e-05   -0.0001486401881524859
-0.00038663363741826774   6.387569370108412e-05   -0.0001486401881524859
-0.00038663363741826774   6.387569370108412e-05   -0.0001486401881524859
-0.00031722711886336317   6.474382401892853e-05   -4.551341067892886e-06
-0.00031722711886336317   6.474382401892853e-05   -4.551341067892886e-06
-0.00031722711886336317   6.474382401892853e-05   -4.551341067892886e-06
-0.00031722711886336317   6.474382401892853e-05   -4.551341067892886e-06
-0.0004744678173788571   6.77114484506254e-05   -0.0002648385972680335
-0.0004744678173788571   6.77114484506254e-05   -0.0002648385972680335
-0.0004744678173788571   6.77114484506254e-05   -0.0002648385972680335
-0.0004744678173788571   6.77114484506254e-05   -0.0002648385972680335
-0.0004563853930736931   6.686832574183052e-05   2.7218615063254528e-05
-0.0004563853930736931   6.686832574183052e-05   2.7218615063254528e-05
-0.0004563853930736931   6.686832574183052e-05   2.7218615063254528e-05
-0.0004563853930736931   6.686832574183052e-05   2.7218615063254528e-05
-0.00030650348949167263   7.093872438733266e-05   -0.00022502679676074887
-0.00030650348949167263   7.093872438733266e-05   -0.00022502679676074887
-0.00030650348949167263   7.093872438733266e-05   -0.00022502679676074887
-0.00030650348949167263   7.093872438733266e-05   -0.00022502679676074887
-0.0003782597805126422   6.854082872332148e-05   -0.00010399424099405365
-0.0003782597805126422   6.854082872332148e-05   -0.00010399424099405365
-0.0003782597805126422   6.854082872332148e-05   -0.00010399424099405365
-0.0003782597805126422   6.854082872332148e-05   -0.00010399424099405365
-0.0003065034894916732   6.686832574182879e-05   2.4776375875954285e-05
-0.0003065034894916732   6.686832574182879e-05   2.4776375875954285e-05
-0.0003065034894916732   6.686832574182879e-05   2.4776375875954285e-05
-0.0003065034894916732   6.686832574182879e-05   2.4776375875954285e-05
-0.0004563853930736923   7.093872438733266e-05   -0.00022258455757344538
-0.0004563853930736923   7.093872438733266e-05   -0.00022258455757344538
-0.0004563853930736923   7.093872438733266e-05   -0.00022258455757344538
-0.0004563853930736923   7.093872438733266e-05   -0.00022258455757344538
-0.00043749713516757544   6.873332764361674e-05   6.733435629876876e-05
-0.00043749713516757544   6.873332764361674e-05   6.733435629876876e-05
-0.00043749713516757544   6.873332764361674e-05   6.733435629876876e-05
-0.00043749713516757544   6.873332764361674e-05   6.733435629876876e-05
-0.000298342314807623   7.655069845651126e-05   -0.00016928076678888863
-0.000298342314807623   7.655069845651126e-05   -0.00016928076678888863
-0.000298342314807623   7.655069845651126e-05   -0.00016928076678888863
-0.000298342314807623   7.655069845651126e-05   -0.00016928076678888863
-0.00036007387059344405   7.013680555567614e-05   -6.254650473868967e-05
-0.00036007387059344405   7.013680555567614e-05   -6.254650473868967e-05
-0.00036007387059344405   7.013680555567614e-05   -6.254650473868967e-05
-0.00036007387059344405   7.013680555567614e-05   -6.254650473868967e-05
0.00043464526774908223   -6.540101207508711e-05   0.0001474350053451111
0.00043464526774908223   -6.540101207508711e-05   0.0001474350053451111
0.00043464526774908223   -6.540101207508711e-05   0.0001474350053451111
0.00043464526774908223   -6.540101207508711e-05   0.0001474350053451111
0.00021873620878942453   -8.283654425247922e-05   -0.0002228747455607534
0.00021873620878942453   -8.283654425247922e-05   -0.0002228747455607534
0.00021873620878942453   -8.283654425247922e-05   -0.0002228747455607534
0.00021873620878942453   -8.283654425247922e-05   -0.0002228747455607534
0.0002241662308753897   -6.385461620157969e-05   0.00010554831985887768
0.0002241662308753897   -6.385461620157969e-05   0.00010554831985887768
0.0002241662308753897   -6.385461620157969e-05   0.00010554831985887768
0.0002241662308753897   -6.385461620157969e-05   0.00010554831985887768
0.00044558717085482606   -8.490791435062164e-05   -0.0002508546012174235
0.00044558717085482606   -8.490791435062164e-05   -0.0002508546012174235
0.00044558717085482606   -8.490791435062164e-05   -0.0002508546012174235
0.00044558717085482606   -8.490791435062164e-05   -0.0002508546012174235
0.00031762528922249083   -6.680988512756253e-05   -4.844361603069652e-05
0.00031762528922249083   -6.680988512756253e-05   -4.844361603069652e-05
0.00031762528922249083   -6.680988512756253e-05   -4.844361603069652e-05
0.00031762528922249083   -6.680988512756253e-05   -4.844361603069652e-05
0.00044558717085482606   -6.385461620157969e-05   0.00011818029874830459
0.00044558717085482606   -6.385461620157969e-05   0.00011818029874830459
0.00044558717085482606   -6.385461620157969e-05   0.00011818029874830459
0.00044558717085482606   -6.385461620157969e-05   0.00011818029874830459
0.0002241662308753897   -8.490791435062164e-05   -0.00026348658010685
0.0002241662308753897   -8.490791435062164e-05   -0.00026348658010685
0.0002241662308753897   -8.490791435062164e-05   -0.00026348658010685
0.0002241662308753897   -8.490791435062164e-05   -0.00026348658010685
0.00022875794969942197   -6.164417929054034e-05   8.317320054639608e-05
0.00022875794969942197   -6.164417929054034e-05   8.317320054639608e-05
0.00022875794969942197   -6.164417929054034e-05   8.317320054639608e-05
0.00022875794969942197   -6.164417929054034e-05   8.317320054639608e-05
0.00045241499352809567   -8.415541166409413e-05   -0.0002760817997439272
0.00045241499352809567   -8.415541166409413e-05   -0.0002760817997439272
0.00045241499352809567   -8.415541166409413e-05   -0.0002760817997439272
0.00045241499352809567   -8.415541166409413e-05   -0.0002760817997439272
0.00032889928817550463   -6.89406681875955e-05   -7.935113690884198e-05
0.00032889928817550463   -6.89406681875955e-05   -7.935113690884198e-05
0.00032889928817550463   -6.89406681875955e-05   -7.935113690884198e-05
0.00032889928817550463   -6.89406681875955e-05   -7.935113690884198e-05
0.00045241499352809567   -6.164417929054034e-05   9.667993997052905e-05
0.00045241499352809567   -6.164417929054034e-05   9.667993997052905e-05
0.00045241499352809567   -6.164417929054034e-05   9.667993997052905e-05
0.00045241499352809567   -6.164417929054034e-05   9.667993997052905e-05
0.00022875794969942197   -8.415541166409413e-05   -0.0002895885391680595
0.00022875794969942197   -8.415541166409413e-05   -0.0002895885391680595
0.00022875794969942197   -8.415541166409413e-05   -0.0002895885391680595
0.00022875794969942197   -8.415541166409413e-05   -0.0002895885391680595
0.00023356782961734645   -5.299916288719654e-05   3.9659585653193524e-05
0.00023356782961734645   -5.299916288719654e-05   3.9659585653193524e-05
0.00023356782961734645   -5.299916288719654e-05   3.9659585653193524e-05
0.00023356782961734645   -5.299916288719654e-05   3.9659585653193524e-05
0.00045913702209036044   -7.952234355134563e-05   -0.0003203751600700071
0.00045913702209036044   -7.952234355134563e-05   -0.0003203751600700071
0.00045913702209036044   -7.952234355134563e-05   -0.0003203751600700071
0.00045913702209036044   -7.952234355134563e-05   -0.0003203751600700071
0.00032914441049464415   -6.637474113643446e-05   -0.00011160936885942644
0.00032914441049464415   -6.637474113643446e-05   -0.00011160936885942644
0.00032914441049464415   -6.637474113643446e-05   -0.00011160936885942644
0.00032914441049464415   -6.637474113643446e-05   -0.00011160936885942644
0.00021873620878942453   -4.2645105419503865e-05   1.348769025273297e-05
0.00021873620878942453   -4.2645105419503865e-05   1.348769025273297e-05
0.00021873620878942453   -4.2645105419503865e-05   1.348769025273297e-05
0.00021873620878942453   -4.2645105419503865e-05   1.348769025273297e-05
2.6644884311385875e-05   -8.373913935525584e-05   -0.00033132093757211496
2.6644884311385875e-05   -8.373913935525584e-05   -0.00033132093757211496
2.6644884311385875e-05   -8.373913935525584e-05   -0.00033132093757211496
2.6644884311385875e-05   -8.373913935525584e-05   -0.00033132093757211496
3.298174926412163e-05   -4.064008879756803e-05   -3.362087650757989e-06
3.298174926412163e-05   -4.064008879756803e-05   -3.362087650757989e-06
3.298174926412163e-05   -4.064008879756803e-05   -3.362087650757989e-06
3.298174926412163e-05   -4.064008879756803e-05   -3.362087650757989e-06
0.00022416623087539002   -8.334176580752223e-05   -0.000296381884130232
0.00022416623087539002   -8.334176580752223e-05   -0.000296381884130232
0.00022416623087539002   -8.334176580752223e-05   -0.000296381884130232
0.00022416623087539002   -8.334176580752223e-05   -0.000296381884130232
0.0001261374972817112   -5.6457740514048727e-05   -0.00014913107665018364
0.0001261374972817112   -5.6457740514048727e-05   -0.00014913107665018364
0.0001261374972817112   -5.6457740514048727e-05   -0.00014913107665018364
0.0001261374972817112   -5.6457740514048727e-05   -0.00014913107665018364
0.00022416623087538948   -4.0640088797566296e-05   2.2258918555215224e-05
0.00022416623087538948   -4.0640088797566296e-05   2.2258918555215224e-05
0.00022416623087538948   -4.0640088797566296e-05   2.2258918555215224e-05
0.00022416623087538948   -4.0640088797566296e-05   2.2258918555215224e-05
3.298174926412163e-05   -8.334176580752223e-05   -0.00032200289033620585
3.298174926412163e-05   -8.334176580752223e-05   -0.00032200289033620585
3.298174926412163e-05   -8.334176580752223e-05   -0.00032200289033620585
3.298174926412163e-05   -8.334176580752223e-05   -0.00032200289033620585
3.870284524687721e-05   -3.688033929477412e-05   -5.340875447616689e-06
3.870284524687721e-05   -3.688033929477412e-05   -5.340875447616689e-06
3.870284524687721e-05   -3.688033929477412e-05   -5.340875447616689e-06
3.870284524687721e-05   -3.688033929477412e-05   -5.340875447616689e-06
0.00022875794969942197   -8.226645588823092e-05   -0.00029486771291245073
0.00022875794969942197   -8.226645588823092e-05   -0.00029486771291245073
0.00022875794969942197   -8.226645588823092e-05   -0.00029486771291245073
0.00022875794969942197   -8.226645588823092e-05   -0.00029486771291245073
0.0001297633645392319   -5.711789370991399e-05   -0.0001449658749524533
0.0001297633645392319   -5.711789370991399e-05   -0.0001449658749524533
0.0001297633645392319   -5.711789370991399e-05   -0.0001449658749524533
0.0001297633645392319   -5.711789370991399e-05   -0.0001449658749524533
0.00022875794969942197   -3.688033929477412e-05   2.1890794508457392e-05
0.00022875794969942197   -3.688033929477412e-05   2.1890794508457392e-05
0.00022875794969942197   -3.688033929477412e-05   2.1890794508457392e-05
0.00022875794969942197   -3.688033929477412e-05   2.1890794508457392e-05
3.87028452468771e-05   -8.226645588823092e-05   -0.0003220993828685244
3.87028452468771e-05   -8.226645588823092e-05   -0.0003220993828685244
3.87028452468771e-05   -8.226645588823092e-05   -0.0003220993828685244
3.87028452468771e-05   -8.226645588823092e-05   -0.0003220993828685244
4.723451311149248e-05   -3.1533153008295525e-05   -9.231544992631055e-06
4.723451311149248e-05   -3.1533153008295525e-05   -9.231544992631055e-06
4.723451311149248e-05   -3.1533153008295525e-05   -9.231544992631055e-06
4.723451311149248e-05   -3.1533153008295525e-05   -9.231544992631055e-06
0.00023356782961734624   -8.00900262823076e-05   -0.0002906529485379838
0.00023356782961734624   -8.00900262823076e-05   -0.0002906529485379838
0.00023356782961734624   -8.00900262823076e-05   -0.0002906529485379838
0.00023356782961734624   -8.00900262823076e-05   -0.0002906529485379838
0.0001366068501343358   -5.6282636649331724e-05   -0.00014333574984608547
0.0001366068501343358   -5.6282636649331724e-05   -0.00014333574984608547
0.0001366068501343358   -5.6282636649331724e-05   -0.00014333574984608547
0.0001366068501343358   -5.6282636649331724e-05   -0.00014333574984608547
2.6644884311385875e-05   -2.2801105787794568e-05   -3.4341197447719865e-05
2.6644884311385875e-05   -2.2801105787794568e-05   -3.4341197447719865e-05
2.6644884311385875e-05   -2.2801105787794568e-05   -3.4341197447719865e-05
2.6644884311385875e-05   -2.2801105787794568e-05   -3.4341197447719865e-05
-0.00016348908559267385   -0.00010169300720079891   -0.0003985662881356225
-0.00016348908559267385   -0.00010169300720079891   -0.0003985662881356225
-0.00016348908559267385   -0.00010169300720079891   -0.0003985662881356225
-0.00016348908559267385   -0.00010169300720079891   -0.0003985662881356225
-0.00015362572422332422   -2.0450160664315167e-05   -7.311091775733664e-05
-0.00015362572422332422   -2.0450160664315167e-05   -7.311091775733664e-05
-0.00015362572422332422   -2.0450160664315167e-05   -7.311091775733664e-05
-0.00015362572422332422   -2.0450160664315167e-05   -7.311091775733664e-05
3.298174926412163e-05   -0.00010399189492738686   -0.0003339983330119048
3.298174926412163e-05   -0.00010399189492738686   -0.0003339983330119048
3.298174926412163e-05   -0.00010399189492738686   -0.0003339983330119048
3.298174926412163e-05   -0.00010399189492738686   -0.0003339983330119048
-6.214729836395076e-05   -5.766462679522577e-05   -0.00020324628117774452
-6.214729836395076e-05   -5.766462679522577e-05   -0.00020324628117774452
-6.214729836395076e-05   -5.766462679522577e-05   -0.00020324628117774452
-6.214729836395076e-05   -5.766462679522577e-05   -0.00020324628117774452
3.298174926412163e-05   -2.0450160664315167e-05   -2.298587719949327e-05
3.298174926412163e-05   -2.0450160664315167e-05   -2.298587719949327e-05
3.298174926412163e-05   -2.0450160664315167e-05   -2.298587719949327e-05
3.298174926412163e-05   -2.0450160664315167e-05   -2.298587719949327e-05
-0.00015362572422332444   -0.00010399189492738686   -0.00038412337356974816
-0.00015362572422332444   -0.00010399189492738686   -0.00038412337356974816
-0.00015362572422332444   -0.00010399189492738686   -0.00038412337356974816
-0.00015362572422332444   -0.00010399189492738686   -0.00038412337356974816
-0.00014513486798297542   -1.6751634917870628e-05   -6.835863360991554e-05
-0.00014513486798297542   -1.6751634917870628e-05   -6.835863360991554e-05
-0.00014513486798297542   -1.6751634917870628e-05   -6.835863360991554e-05
-0.00014513486798297542   -1.6751634917870628e-05   -6.835863360991554e-05
3.87028452468771e-05   -0.00010356562124515245   -0.00032266643052996724
3.87028452468771e-05   -0.00010356562124515245   -0.00032266643052996724
3.87028452468771e-05   -0.00010356562124515245   -0.00032266643052996724
3.87028452468771e-05   -0.00010356562124515245   -0.00032266643052996724
-5.513940592648736e-05   -5.901473211349789e-05   -0.00019299321205335255
-5.513940592648736e-05   -5.901473211349789e-05   -0.00019299321205335255
-5.513940592648736e-05   -5.901473211349789e-05   -0.00019299321205335255
-5.513940592648736e-05   -5.901473211349789e-05   -0.00019299321205335255
3.87028452468771e-05   -1.6751634917868893e-05   -1.6270241813545402e-05
3.87028452468771e-05   -1.6751634917868893e-05   -1.6270241813545402e-05
3.87028452468771e-05   -1.6751634917868893e-05   -1.6270241813545402e-05
3.87028452468771e-05   -1.6751634917868893e-05   -1.6270241813545402e-05
-0.00014513486798297586   -0.00010356562124515245   -0.00037475482232633694
-0.00014513486798297586   -0.00010356562124515245   -0.00037475482232633694
-0.00014513486798297586   -0.00010356562124515245   -0.00037475482232633694
-0.00014513486798297586   -0.00010356562124515245   -0.00037475482232633694
-0.0001304904244450088   -1.3249815837451315e-05   -6.805542769244485e-05
-0.0001304904244450088   -1.3249815837451315e-05   -6.805542769244485e-05
-0.0001304904244450088   -1.3249815837451315e-05   -6.805542769244485e-05
-0.0001304904244450088   -1.3249815837451315e-05   -6.805542769244485e-05
4.723451311149248e-05   -0.00010000459811860055   -0.0003122107875845898
4.723451311149248e-05   -0.00010000459811860055   -0.0003122107875845898
4.723451311149248e-05   -0.00010000459811860055   -0.0003122107875845898
4.723451311149248e-05   -0.00010000459811860055   -0.0003122107875845898
-4.6035664959745025e-05   -5.7760948719301486e-05   -0.00018210668043877457
-4.6035664959745025e-05   -5.7760948719301486e-05   -0.00018210668043877457
-4.6035664959745025e-05   -5.7760948719301486e-05   -0.00018210668043877457
-4.6035664959745025e-05   -5.7760948719301486e-05   -0.00018210668043877457
-0.00016348908559267353   4.91156053261492e-06   -4.784368515708959e-05
-0.00016348908559267353   4.91156053261492e-06   -4.784368515708959e-05
-0.00016348908559267353   4.91156053261492e-06   -4.784368515708959e-05
-0.00016348908559267353   4.91156053261492e-06   -4.784368515708959e-05
-0.000375888211481373   -0.00012745420192849383   -0.00048126168578158796
-0.000375888211481373   -0.00012745420192849383   -0.00048126168578158796
-0.000375888211481373   -0.00012745420192849383   -0.00048126168578158796
-0.000375888211481373   -0.00012745420192849383   -0.00048126168578158796
-0.00036416068635627215   9.313170592495368e-06   -0.00012333413644869534
-0.00036416068635627215   9.313170592495368e-06   -0.00012333413644869534
-0.00036416068635627215   9.313170592495368e-06   -0.00012333413644869534
-0.00036416068635627215   9.313170592495368e-06   -0.00012333413644869534
-0.00015362572422332422   -0.00014204660362399438   -0.0003834098754737145
-0.00015362572422332422   -0.00014204660362399438   -0.0003834098754737145
-0.00015362572422332422   -0.00014204660362399438   -0.0003834098754737145
-0.00015362572422332422   -0.00014204660362399438   -0.0003834098754737145
-0.000260453766572424   -6.516056440836193e-05   -0.00025149476175459354
-0.000260453766572424   -6.516056440836193e-05   -0.00025149476175459354
-0.000260453766572424   -6.516056440836193e-05   -0.00025149476175459354
-0.000260453766572424   -6.516056440836193e-05   -0.00025149476175459354
-0.00015362572422332422   9.313170592495368e-06   -3.251827191880392e-05
-0.00015362572422332422   9.313170592495368e-06   -3.251827191880392e-05
-0.00015362572422332422   9.313170592495368e-06   -3.251827191880392e-05
-0.00015362572422332422   9.313170592495368e-06   -3.251827191880392e-05
-0.00036416068635627215   -0.00014204660362399438   -0.000474225740003607
-0.00036416068635627215   -0.00014204660362399438   -0.000474225740003607
-0.00036416068635627215   -0.00014204660362399438   -0.000474225740003607
-0.00036416068635627215   -0.00014204660362399438   -0.000474225740003607
-0.0003529130076451439   1.3370825658201926e-05   -0.00011048993350099186
-0.0003529130076451439   1.3370825658201926e-05   -0.00011048993350099186
-0.0003529130076451439   1.3370825658201926e-05   -0.00011048993350099186
-0.0003529130076451439   1.3370825658201926e-05   -0.00011048993350099186
-0.00014513486798297575   -0.00014290011383896045   -0.0003630242692396412
-0.00014513486798297575   -0.00014290011383896045   -0.0003630242692396412
-0.00014513486798297575   -0.00014290011383896045   -0.0003630242692396412
-0.00014513486798297575   -0.00014290011383896045   -0.0003630242692396412
-0.00024902062711068854   -6.543643881410169e-05   -0.00023635954237503454
-0.00024902062711068854   -6.543643881410169e-05   -0.00023635954237503454
-0.00024902062711068854   -6.543643881410169e-05   -0.00023635954237503454
-0.00024902062711068854   -6.543643881410169e-05   -0.00023635954237503454
-0.00014513486798297553   1.3370825658201926e-05   -1.6727369802693043e-05
-0.00014513486798297553   1.3370825658201926e-05   -1.6727369802693043e-05
-0.00014513486798297553   1.3370825658201926e-05   -1.6727369802693043e-05
-0.00014513486798297553   1.3370825658201926e-05   -1.6727369802693043e-05
-0.0003529130076451445   -0.00014290011383896045   -0.0004567868329379398
-0.0003529130076451445   -0.00014290011383896045   -0.0004567868329379398
-0.0003529130076451445   -0.00014290011383896045   -0.0004567868329379398
-0.0003529130076451445   -0.00014290011383896045   -0.0004567868329379398
-0.00033451693818313224   1.6815376858188638e-05   -9.736557988931221e-05
-0.00033451693818313224   1.6815376858188638e-05   -9.736557988931221e-05
-0.00033451693818313224   1.6815376858188638e-05   -9.736557988931221e-05
-0.00033451693818313224   1.6815376858188638e-05   -9.736557988931221e-05
-0.00013049042444500912   -0.00013077570981712833   -0.00034885511744766045
-0.00013049042444500912   -0.00013077570981712833   -0.00034885511744766045
-0.00013049042444500912   -0.00013077570981712833   -0.00034885511744766045
-0.00013049042444500912   -0.00013077570981712833   -0.00034885511744766045
-0.00023768380764340233   -5.8055672257459334e-05   -0.00021383150131946537
-0.00023768380764340233   -5.8055672257459334e-05   -0.00021383150131946537
-0.00023768380764340233   -5.8055672257459334e-05   -0.00021383150131946537
-0.00023768380764340233   -5.8055672257459334e-05   -0.00021383150131946537
-0.000375888211481373   5.330470639289264e-05   -8.34784238033584e-05
-0.000375888211481373   5.330470639289264e-05   -8.34784238033584e-05
-0.000375888211481373   5.330470639289264e-05   -8.34784238033584e-05
-0.000375888211481373   5.330470639289264e-05   -8.34784238033584e-05
-0.0006486177320812914   0.0   -0.0005700104486389586
-0.0006486177320812914   0.0   -0.0005700104486389586
-0.0006486177320812914   0.0   -0.0005700104486389586
-0.0006486177320812914   0.0   -0.0005700104486389586
-0.0006314113695452272   6.771144845062714e-05   -6.440818128733428e-05
-0.0006314113695452272   6.771144845062714e-05   -6.440818128733428e-05
-0.0006314113695452272   6.771144845062714e-05   -6.440818128733428e-05
-0.0006314113695452272   6.771144845062714e-05   -6.440818128733428e-05
-0.00036416068635627144   0.0   -0.0004691991175318868
-0.00036416068635627144   0.0   -0.0004691991175318868
-0.00036416068635627144   0.0   -0.0004691991175318868
-0.00036416068635627144   0.0   -0.0004691991175318868
-0.00048354823949084945   2.056230445608362e-05   -0.0002825572449812394
-0.00048354823949084945   2.056230445608362e-05   -0.0002825572449812394
-0.00048354823949084945   2.056230445608362e-05   -0.0002825572449812394
-0.00048354823949084945   2.056230445608362e-05   -0.0002825572449812394
-0.0003641606863562718   6.77114484506254e-05   -2.378131221695938e-05
-0.0003641606863562718   6.77114484506254e-05   -2.378131221695938e-05
-0.0003641606863562718   6.77114484506254e-05   -2.378131221695938e-05
-0.0003641606863562718   6.77114484506254e-05   -2.378131221695938e-05
-0.000631411369545226   0.0   -0.0005098259866022602
-0.000631411369545226   0.0   -0.0005098259866022602
-0.000631411369545226   0.0   -0.0005098259866022602
-0.000631411369545226   0.0   -0.0005098259866022602
-0.0006168855575543311   7.093872438733266e-05   -2.6909896904729613e-05
-0.0006168855575543311   7.093872438733266e-05   -2.6909896904729613e-05
-0.0006168855575543311   7.093872438733266e-05   -2.6909896904729613e-05
-0.0006168855575543311   7.093872438733266e-05   -2.6909896904729613e-05
-0.0003529130076451445   0.0   -0.0004243009121209768
-0.0003529130076451445   0.0   -0.0004243009121209768
-0.0003529130076451445   0.0   -0.0004243009121209768
-0.0003529130076451445   0.0   -0.0004243009121209768
-0.0004782972490326779   3.275717439410464e-05   -0.00023498148111154523
-0.0004782972490326779   3.275717439410464e-05   -0.00023498148111154523
-0.0004782972490326779   3.275717439410464e-05   -0.00023498148111154523
-0.0004782972490326779   3.275717439410464e-05   -0.00023498148111154523
-0.0003529130076451445   7.09387243873344e-05   1.56533377276679e-05
-0.0003529130076451445   7.09387243873344e-05   1.56533377276679e-05
-0.0003529130076451445   7.09387243873344e-05   1.56533377276679e-05
-0.0003529130076451445   7.09387243873344e-05   1.56533377276679e-05
-0.00061688555755433   0.0   -0.00046686414675337594
-0.00061688555755433   0.0   -0.00046686414675337594
-0.00061688555755433   0.0   -0.00046686414675337594
-0.00061688555755433   0.0   -0.00046686414675337594
-0.0005879341415054989   7.655069845651126e-05   3.334023195731943e-05
-0.0005879341415054989   7.655069845651126e-05   3.334023195731943e-05
-0.0005879341415054989   7.655069845651126e-05   3.334023195731943e-05
-0.0005879341415054989   7.655069845651126e-05   3.334023195731943e-05
-0.0003345169381831328   0.0   -0.0003430913545060529
-0.0003345169381831328   0.0   -0.0003430913545060529
-0.0003345169381831328   0.0   -0.0003430913545060529
-0.0003345169381831328   0.0   -0.0003430913545060529
-0.0004531335912281075   4.045605842659117e-05   -0.00016967056782038134
-0.0004531335912281075   4.045605842659117e-05   -0.00016967056782038134
-0.0004531335912281075   4.045605842659117e-05   -0.00016967056782038134
-0.0004531335912281075   4.045605842659117e-05   -0.00016967056782038134
0.0004808866257680612   -8.283654425247922e-05   0.0002875315415985513
0.0004808866257680612   -8.283654425247922e-05   0.0002875315415985513
0.0004808866257680612   -8.283654425247922e-05   0.0002875315415985513
0.0004808866257680612   -8.283654425247922e-05   0.0002875315415985513
0.0002498148743921508   -6.358989341997967e-05   -8.604005352846715e-05
0.0002498148743921508   -6.358989341997967e-05   -8.604005352846715e-05
0.0002498148743921508   -6.358989341997967e-05   -8.604005352846715e-05
0.0002498148743921508   -6.358989341997967e-05   -8.604005352846715e-05
0.00024346598574145808   -8.490791435062164e-05   0.0002542262457751066
0.00024346598574145808   -8.490791435062164e-05   0.0002542262457751066
0.00024346598574145808   -8.490791435062164e-05   0.0002542262457751066
0.00024346598574145808   -8.490791435062164e-05   0.0002542262457751066
0.0004756545009569662   -6.996003702567505e-05   -0.0001417233393123745
0.0004756545009569662   -6.996003702567505e-05   -0.0001417233393123745
0.0004756545009569662   -6.996003702567505e-05   -0.0001417233393123745
0.0004756545009569662   -6.996003702567505e-05   -0.0001417233393123745
0.0003476399051551252   -7.124775193321359e-05   7.240694930188332e-05
0.0003476399051551252   -7.124775193321359e-05   7.240694930188332e-05
0.0003476399051551252   -7.124775193321359e-05   7.240694930188332e-05
0.0003476399051551252   -7.124775193321359e-05   7.240694930188332e-05
0.0004756545009569662   -8.490791435062164e-05   0.0002452575193801383
0.0004756545009569662   -8.490791435062164e-05   0.0002452575193801383
0.0004756545009569662   -8.490791435062164e-05   0.0002452575193801383
0.0004756545009569662   -8.490791435062164e-05   0.0002452575193801383
0.00024346598574145808   -6.996003702567505e-05   -0.00013275461291740662
0.00024346598574145808   -6.996003702567505e-05   -0.00013275461291740662
0.00024346598574145808   -6.996003702567505e-05   -0.00013275461291740662
0.00024346598574145808   -6.996003702567505e-05   -0.00013275461291740662
0.00023772862531150276   -8.415541166409413e-05   0.00022839510360364405
0.00023772862531150276   -8.415541166409413e-05   0.00022839510360364405
0.00023772862531150276   -8.415541166409413e-05   0.00022839510360364405
0.00023772862531150276   -8.415541166409413e-05   0.00022839510360364405
0.00046962644931233593   -7.056438628457937e-05   -0.00016625588495878824
0.00046962644931233593   -7.056438628457937e-05   -0.00016625588495878824
0.00046962644931233593   -7.056438628457937e-05   -0.00016625588495878824
0.00046962644931233593   -7.056438628457937e-05   -0.00016625588495878824
0.0003473002391079964   -7.249666497044158e-05   3.8780499259963644e-05
0.0003473002391079964   -7.249666497044158e-05   3.8780499259963644e-05
0.0003473002391079964   -7.249666497044158e-05   3.8780499259963644e-05
0.0003473002391079964   -7.249666497044158e-05   3.8780499259963644e-05
0.0004696264493123366   -8.41554116640976e-05   0.00022024048837593346
0.0004696264493123366   -8.41554116640976e-05   0.00022024048837593346
0.0004696264493123366   -8.41554116640976e-05   0.00022024048837593346
0.0004696264493123366   -8.41554116640976e-05   0.00022024048837593346
0.00023772862531150276   -7.056438628457937e-05   -0.00015810126973107852
0.00023772862531150276   -7.056438628457937e-05   -0.00015810126973107852
0.00023772862531150276   -7.056438628457937e-05   -0.00015810126973107852
0.00023772862531150276   -7.056438628457937e-05   -0.00015810126973107852
0.000230732130554707   -7.952234355134563e-05   0.0001863708837462428
0.000230732130554707   -7.952234355134563e-05   0.0001863708837462428
0.000230732130554707   -7.952234355134563e-05   0.0001863708837462428
0.000230732130554707   -7.952234355134563e-05   0.0001863708837462428
0.0004601836743304607   -6.915386087142511e-05   -0.0002022694454879659
0.0004601836743304607   -6.915386087142511e-05   -0.0002022694454879659
0.0004601836743304607   -6.915386087142511e-05   -0.0002022694454879659
0.0004601836743304607   -6.915386087142511e-05   -0.0002022694454879659
0.00033537621453327463   -6.894389424288647e-05   5.617007530221317e-06
0.00033537621453327463   -6.894389424288647e-05   5.617007530221317e-06
0.00033537621453327463   -6.894389424288647e-05   5.617007530221317e-06
0.00033537621453327463   -6.894389424288647e-05   5.617007530221317e-06
0.0002498148743921508   -8.373913935525584e-05   0.00021528976044814067
0.0002498148743921508   -8.373913935525584e-05   0.00021528976044814067
0.0002498148743921508   -8.373913935525584e-05   0.00021528976044814067
0.0002498148743921508   -8.373913935525584e-05   0.00021528976044814067
5.4100284291449716e-05   -3.9596679407796764e-05   -8.441574708455135e-05
5.4100284291449716e-05   -3.9596679407796764e-05   -8.441574708455135e-05
5.4100284291449716e-05   -3.9596679407796764e-05   -8.441574708455135e-05
5.4100284291449716e-05   -3.9596679407796764e-05   -8.441574708455135e-05
4.40508783478979e-05   -8.334176580752223e-05   0.00024612569088611896
4.40508783478979e-05   -8.334176580752223e-05   0.00024612569088611896
4.40508783478979e-05   -8.334176580752223e-05   0.00024612569088611896
4.40508783478979e-05   -8.334176580752223e-05   0.00024612569088611896
0.00024346598574145808   -4.201718391686621e-05   -0.00011102757057087601
0.00024346598574145808   -4.201718391686621e-05   -0.00011102757057087601
0.00024346598574145808   -4.201718391686621e-05   -0.00011102757057087601
0.00024346598574145808   -4.201718391686621e-05   -0.00011102757057087601
0.00014766481605834778   -5.987700968397569e-05   5.93569410279062e-05
0.00014766481605834778   -5.987700968397569e-05   5.93569410279062e-05
0.00014766481605834778   -5.987700968397569e-05   5.93569410279062e-05
0.00014766481605834778   -5.987700968397569e-05   5.93569410279062e-05
0.0002434659857414583   -8.334176580752223e-05   0.00022133094175172396
0.0002434659857414583   -8.334176580752223e-05   0.00022133094175172396
0.0002434659857414583   -8.334176580752223e-05   0.00022133094175172396
0.0002434659857414583   -8.334176580752223e-05   0.00022133094175172396
4.40508783478979e-05   -4.201718391686621e-05   -8.623282143648166e-05
4.40508783478979e-05   -4.201718391686621e-05   -8.623282143648166e-05
4.40508783478979e-05   -4.201718391686621e-05   -8.623282143648166e-05
4.40508783478979e-05   -4.201718391686621e-05   -8.623282143648166e-05
3.689430797831732e-05   -8.226645588823092e-05   0.00024660522562851804
3.689430797831732e-05   -8.226645588823092e-05   0.00024660522562851804
3.689430797831732e-05   -8.226645588823092e-05   0.00024660522562851804
3.689430797831732e-05   -8.226645588823092e-05   0.00024660522562851804
0.00023772862531150276   -4.311762960612295e-05   -0.00011160793236272295
0.00023772862531150276   -4.311762960612295e-05   -0.00011160793236272295
0.00023772862531150276   -4.311762960612295e-05   -0.00011160793236272295
0.00023772862531150276   -4.311762960612295e-05   -0.00011160793236272295
0.00013907366191734757   -5.866863833238131e-05   6.214761186329508e-05
0.00013907366191734757   -5.866863833238131e-05   6.214761186329508e-05
0.00013907366191734757   -5.866863833238131e-05   6.214761186329508e-05
0.00013907366191734757   -5.866863833238131e-05   6.214761186329508e-05
0.0002377286253115032   -8.226645588823092e-05   0.00022311592985925326
0.0002377286253115032   -8.226645588823092e-05   0.00022311592985925326
0.0002377286253115032   -8.226645588823092e-05   0.00022311592985925326
0.0002377286253115032   -8.226645588823092e-05   0.00022311592985925326
3.689430797831732e-05   -4.311762960612295e-05   -8.811863659345838e-05
3.689430797831732e-05   -4.311762960612295e-05   -8.811863659345838e-05
3.689430797831732e-05   -4.311762960612295e-05   -8.811863659345838e-05
3.689430797831732e-05   -4.311762960612295e-05   -8.811863659345838e-05
2.8929287006586053e-05   -8.00900262823076e-05   0.00025474801593638324
2.8929287006586053e-05   -8.00900262823076e-05   0.00025474801593638324
2.8929287006586053e-05   -8.00900262823076e-05   0.00025474801593638324
2.8929287006586053e-05   -8.00900262823076e-05   0.00025474801593638324
0.00023073213055470668   -4.218833918292336e-05   -0.00010433106890344679
0.00023073213055470668   -4.218833918292336e-05   -0.00010433106890344679
0.00023073213055470668   -4.218833918292336e-05   -0.00010433106890344679
0.00023073213055470668   -4.218833918292336e-05   -0.00010433106890344679
0.00013380046886126855   -5.612792686050458e-05   6.558545319216603e-05
0.00013380046886126855   -5.612792686050458e-05   6.558545319216603e-05
0.00013380046886126855   -5.612792686050458e-05   6.558545319216603e-05
0.00013380046886126855   -5.612792686050458e-05   6.558545319216603e-05
5.4100284291449825e-05   -0.00010169300720079891   0.00022186502670091396
5.4100284291449825e-05   -0.00010169300720079891   0.00022186502670091396
5.4100284291449825e-05   -0.00010169300720079891   0.00022186502670091396
5.4100284291449825e-05   -0.00010169300720079891   0.00022186502670091396
-0.0001338446508994249   -1.7078999759913976e-05   -4.0608127486015805e-05
-0.0001338446508994249   -1.7078999759913976e-05   -4.0608127486015805e-05
-0.0001338446508994249   -1.7078999759913976e-05   -4.0608127486015805e-05
-0.0001338446508994249   -1.7078999759913976e-05   -4.0608127486015805e-05
-0.00014948501183905663   -0.00010399189492738686   0.0002856965216155253
-0.00014948501183905663   -0.00010399189492738686   0.0002856965216155253
-0.00014948501183905663   -0.00010399189492738686   0.0002856965216155253
-0.00014948501183905663   -0.00010399189492738686   0.0002856965216155253
4.405087834789801e-05   -1.804810591887751e-05   -8.842956876783676e-05
4.405087834789801e-05   -1.804810591887751e-05   -8.842956876783676e-05
4.405087834789801e-05   -1.804810591887751e-05   -8.842956876783676e-05
4.405087834789801e-05   -1.804810591887751e-05   -8.842956876783676e-05
-4.4585993973478104e-05   -5.827834363615267e-05   8.34366943981541e-05
-4.4585993973478104e-05   -5.827834363615267e-05   8.34366943981541e-05
-4.4585993973478104e-05   -5.827834363615267e-05   8.34366943981541e-05
-4.4585993973478104e-05   -5.827834363615267e-05   8.34366943981541e-05
4.40508783478979e-05   -0.00010399189492738686   0.00023413024821042003
4.40508783478979e-05   -0.00010399189492738686   0.00023413024821042003
4.40508783478979e-05   -0.00010399189492738686   0.00023413024821042003
4.40508783478979e-05   -0.00010399189492738686   0.00023413024821042003
-0.0001494850118390563   -1.804810591887751e-05   -3.686329536273236e-05
-0.0001494850118390563   -1.804810591887751e-05   -3.686329536273236e-05
-0.0001494850118390563   -1.804810591887751e-05   -3.686329536273236e-05
-0.0001494850118390563   -1.804810591887751e-05   -3.686329536273236e-05
-0.00015902832431507346   -0.00010356562124515245   0.00029664040952273076
-0.00015902832431507346   -0.00010356562124515245   0.00029664040952273076
-0.00015902832431507346   -0.00010356562124515245   0.00029664040952273076
-0.00015902832431507346   -0.00010356562124515245   0.00029664040952273076
3.689430797831732e-05   -1.922856865239561e-05   -8.049954252190928e-05
3.689430797831732e-05   -1.922856865239561e-05   -8.049954252190928e-05
3.689430797831732e-05   -1.922856865239561e-05   -8.049954252190928e-05
3.689430797831732e-05   -1.922856865239561e-05   -8.049954252190928e-05
-5.5166689421851415e-05   -5.8137050219723985e-05   9.628054208543667e-05
-5.5166689421851415e-05   -5.8137050219723985e-05   9.628054208543667e-05
-5.5166689421851415e-05   -5.8137050219723985e-05   9.628054208543667e-05
-5.5166689421851415e-05   -5.8137050219723985e-05   9.628054208543667e-05
3.689430797831732e-05   -0.00010356562124514898   0.0002460381779670739
3.689430797831732e-05   -0.00010356562124514898   0.0002460381779670739
3.689430797831732e-05   -0.00010356562124514898   0.0002460381779670739
3.689430797831732e-05   -0.00010356562124514898   0.0002460381779670739
-0.00015902832431507314   -1.922856865239561e-05   -2.98973109662537e-05
-0.00015902832431507314   -1.922856865239561e-05   -2.98973109662537e-05
-0.00015902832431507314   -1.922856865239561e-05   -2.98973109662537e-05
-0.00015902832431507314   -1.922856865239561e-05   -2.98973109662537e-05
-0.00017027182141369417   -0.00010000459811860055   0.000310837176421469
-0.00017027182141369417   -0.00010000459811860055   0.000310837176421469
-0.00017027182141369417   -0.00010000459811860055   0.000310837176421469
-0.00017027182141369417   -0.00010000459811860055   0.000310837176421469
2.8929287006586053e-05   -1.91498055064597e-05   -6.967754651294924e-05
2.8929287006586053e-05   -1.91498055064597e-05   -6.967754651294924e-05
2.8929287006586053e-05   -1.91498055064597e-05   -6.967754651294924e-05
2.8929287006586053e-05   -1.91498055064597e-05   -6.967754651294924e-05
-6.377424424169165e-05   -5.588181229209538e-05   0.00010686754297222802
-6.377424424169165e-05   -5.588181229209538e-05   0.00010686754297222802
-6.377424424169165e-05   -5.588181229209538e-05   0.00010686754297222802
-6.377424424169165e-05   -5.588181229209538e-05   0.00010686754297222802
-0.0001338446508994251   -0.00012745420192849383   0.00026935749099614437
-0.0001338446508994251   -0.00012745420192849383   0.00026935749099614437
-0.0001338446508994251   -0.00012745420192849383   0.00026935749099614437
-0.0001338446508994251   -0.00012745420192849383   0.00026935749099614437
-0.0003483439696023435   1.7141830020925286e-05   -1.3837543390658041e-06
-0.0003483439696023435   1.7141830020925286e-05   -1.3837543390658041e-06
-0.0003483439696023435   1.7141830020925286e-05   -1.3837543390658041e-06
-0.0003483439696023435   1.7141830020925286e-05   -1.3837543390658041e-06
-0.0003670786125693573   -0.00014204660362399438   0.00038124225793067026
-0.0003670786125693573   -0.00014204660362399438   0.00038124225793067026
-0.0003670786125693573   -0.00014204660362399438   0.00038124225793067026
-0.0003670786125693573   -0.00014204660362399438   0.00038124225793067026
-0.0001494850118390563   1.6007126741192368e-05   -7.624598150560917e-05
-0.0001494850118390563   1.6007126741192368e-05   -7.624598150560917e-05
-0.0001494850118390563   1.6007126741192368e-05   -7.624598150560917e-05
-0.0001494850118390563   1.6007126741192368e-05   -7.624598150560917e-05
-0.00024615843045446695   -5.346643388615124e-05   0.00012656051922981578
-0.00024615843045446695   -5.346643388615124e-05   0.00012656051922981578
-0.00024615843045446695   -5.346643388615124e-05   0.00012656051922981578
-0.00024615843045446695   -5.346643388615124e-05   0.00012656051922981578
-0.00014948501183905663   -0.00014204660362399438   0.0002864100197115596
-0.00014948501183905663   -0.00014204660362399438   0.0002864100197115596
-0.00014948501183905663   -0.00014204660362399438   0.0002864100197115596
-0.00014948501183905663   -0.00014204660362399438   0.0002864100197115596
-0.0003670786125693573   1.60071267411889e-05   1.8586256713502142e-05
-0.0003670786125693573   1.60071267411889e-05   1.8586256713502142e-05
-0.0003670786125693573   1.60071267411889e-05   1.8586256713502142e-05
-0.0003670786125693573   1.60071267411889e-05   1.8586256713502142e-05
-0.00037850955363931296   -0.00014290011383896045   0.00040250663306112995
-0.00037850955363931296   -0.00014290011383896045   0.00040250663306112995
-0.00037850955363931296   -0.00014290011383896045   0.00040250663306112995
-0.00037850955363931296   -0.00014290011383896045   0.00040250663306112995
-0.00015902832431507314   1.3992670247212763e-05   -5.743108626430531e-05
-0.00015902832431507314   1.3992670247212763e-05   -5.743108626430531e-05
-0.00015902832431507314   1.3992670247212763e-05   -5.743108626430531e-05
-0.00015902832431507314   1.3992670247212763e-05   -5.743108626430531e-05
-0.00025837013268024923   -6.135715332609981e-05   0.00015334848848830773
-0.00025837013268024923   -6.135715332609981e-05   0.00015334848848830773
-0.00025837013268024923   -6.135715332609981e-05   0.00015334848848830773
-0.00025837013268024923   -6.135715332609981e-05   0.00015334848848830773
-0.00015902832431507303   -0.00014290011383896045   0.0003083709626094267
-0.00015902832431507303   -0.00014290011383896045   0.0003083709626094267
-0.00015902832431507303   -0.00014290011383896045   0.0003083709626094267
-0.00015902832431507303   -0.00014290011383896045   0.0003083709626094267
-0.0003785095536393123   1.3992670247212763e-05   3.670458418739836e-05
-0.0003785095536393123   1.3992670247212763e-05   3.670458418739836e-05
-0.0003785095536393123   1.3992670247212763e-05   3.670458418739836e-05
-0.0003785095536393123   1.3992670247212763e-05   3.670458418739836e-05
-0.0003908120613796639   -0.00013077570981712833   0.0004117442732601076
-0.0003908120613796639   -0.00013077570981712833   0.0004117442732601076
-0.0003908120613796639   -0.00013077570981712833   0.0004117442732601076
-0.0003908120613796639   -0.00013077570981712833   0.0004117442732601076
-0.00017027182141369352   1.1721885737902421e-05   -4.132135068286077e-05
-0.00017027182141369352   1.1721885737902421e-05   -4.132135068286077e-05
-0.00017027182141369352   1.1721885737902421e-05   -4.132135068286077e-05
-0.00017027182141369352   1.1721885737902421e-05   -4.132135068286077e-05
-0.0002709022844456939   -6.185434295712458e-05   0.00017054182492082844
-0.0002709022844456939   -6.185434295712458e-05   0.00017054182492082844
-0.0002709022844456939   -6.185434295712458e-05   0.00017054182492082844
-0.0002709022844456939   -6.185434295712458e-05   0.00017054182492082844
-0.0003483439696023423   0.0   0.00029934917114416044
-0.0003483439696023423   0.0   0.00029934917114416044
-0.0003483439696023423   0.0   0.00029934917114416044
-0.0003483439696023423   0.0   0.00029934917114416044
-0.0006149380512749331   8.046654149335489e-05   -9.669437341414469e-05
-0.0006149380512749331   8.046654149335489e-05   -9.669437341414469e-05
-0.0006149380512749331   8.046654149335489e-05   -9.669437341414469e-05
-0.0006149380512749331   8.046654149335489e-05   -9.669437341414469e-05
-0.0006408886709681142   0.0   0.00043278554603574243
-0.0006408886709681142   0.0   0.00043278554603574243
-0.0006408886709681142   0.0   0.00043278554603574243
-0.0006408886709681142   0.0   0.00043278554603574243
-0.00036707861256935674   7.752777605558869e-05   -7.008121692887292e-05
-0.00036707861256935674   7.752777605558869e-05   -7.008121692887292e-05
-0.00036707861256935674   7.752777605558869e-05   -7.008121692887292e-05
-0.00036707861256935674   7.752777605558869e-05   -7.008121692887292e-05
-0.00047177535055729664   4.7749840943175914e-05   0.00012228010745180787
-0.00047177535055729664   4.7749840943175914e-05   0.00012228010745180787
-0.00047177535055729664   4.7749840943175914e-05   0.00012228010745180787
-0.00047177535055729664   4.7749840943175914e-05   0.00012228010745180787
-0.0003670786125693564   0.0   0.00038626888040239026
-0.0003670786125693564   0.0   0.00038626888040239026
-0.0003670786125693564   0.0   0.00038626888040239026
-0.0003670786125693564   0.0   0.00038626888040239026
-0.0006408886709681154   7.752777605558869e-05   -2.356455129552161e-05
-0.0006408886709681154   7.752777605558869e-05   -2.356455129552161e-05
-0.0006408886709681154   7.752777605558869e-05   -2.356455129552161e-05
-0.0006408886709681154   7.752777605558869e-05   -2.356455129552161e-05
-0.0006539721949112954   0.0   0.0004802861571977929
-0.0006539721949112954   0.0   0.0004802861571977929
-0.0006539721949112954   0.0   0.0004802861571977929
-0.0006539721949112954   0.0   0.0004802861571977929
-0.0003785095536393123   7.548933886616926e-05   -2.4111848241881303e-05
-0.0003785095536393123   7.548933886616926e-05   -2.4111848241881303e-05
-0.0003785095536393123   7.548933886616926e-05   -2.4111848241881303e-05
-0.0003785095536393123   7.548933886616926e-05   -2.4111848241881303e-05
-0.0004966604641778187   3.983400965586886e-05   0.0001941995335151467
-0.0004966604641778187   3.983400965586886e-05   0.0001941995335151467
-0.0004966604641778187   3.983400965586886e-05   0.0001941995335151467
-0.0004966604641778187   3.983400965586886e-05   0.0001941995335151467
-0.0003785095536393123   0.0   0.0004349925538780913
-0.0003785095536393123   0.0   0.0004349925538780913
-0.0003785095536393123   0.0   0.0004349925538780913
-0.0003785095536393123   0.0   0.0004349925538780913
-0.0006539721949112977   7.548933886617273e-05   2.118175507782004e-05
-0.0006539721949112977   7.548933886617273e-05   2.118175507782004e-05
-0.0006539721949112977   7.548933886617273e-05   2.118175507782004e-05
-0.0006539721949112977   7.548933886617273e-05   2.118175507782004e-05
-0.0006685949783109981   0.0   0.0005436553855646519
-0.0006685949783109981   0.0   0.0005436553855646519
-0.0006685949783109981   0.0   0.0005436553855646519
-0.0006685949783109981   0.0   0.0005436553855646519
-0.0003908120613796639   6.265449559625033e-05   4.309115998800948e-05
-0.0003908120613796639   6.265449559625033e-05   4.309115998800948e-05
-0.0003908120613796639   6.265449559625033e-05   4.309115998800948e-05
-0.0003908120613796639   6.265449559625033e-05   4.309115998800948e-05
-0.0005009846093345315   2.7864424625954898e-05   0.0002475861158282996
-0.0005009846093345315   2.7864424625954898e-05   0.0002475861158282996
-0.0005009846093345315   2.7864424625954898e-05   0.0002475861158282996
-0.0005009846093345315   2.7864424625954898e-05   0.0002475861158282996
0.0004219090070755618   -6.358989341997967e-05   0.0003004636033304021
0.0004219090070755618   -6.358989341997967e-05   0.0003004636033304021
0.0004219090070755618   -6.358989341997967e-05   0.0003004636033304021
0.0004219090070755618   -6.358989341997967e-05   0.0003004636033304021
0.00021360456308252217   -4.776078762624633e-05   -3.721300651509003e-05
0.00021360456308252217   -4.776078762624633e-05   -3.721300651509003e-05
0.00021360456308252217   -4.776078762624633e-05   -3.721300651509003e-05
0.00021360456308252217   -4.776078762624633e-05   -3.721300651509003e-05
0.00020790591082130703   -6.996003702567505e-05   0.0002624717362450634
0.00020790591082130703   -6.996003702567505e-05   0.0002624717362450634
0.00020790591082130703   -6.996003702567505e-05   0.0002624717362450634
0.00020790591082130703   -6.996003702567505e-05   0.0002624717362450634
0.0004117078641868176   -5.418456200438973e-05   -8.666347104355871e-05
0.0004117078641868176   -5.418456200438973e-05   -8.666347104355871e-05
0.0004117078641868176   -5.418456200438973e-05   -8.666347104355871e-05
0.0004117078641868176   -5.418456200438973e-05   -8.666347104355871e-05
0.00029981267642900124   -5.650490301773933e-05   0.00010122071316081345
0.00029981267642900124   -5.650490301773933e-05   0.00010122071316081345
0.00029981267642900124   -5.650490301773933e-05   0.00010122071316081345
0.00029981267642900124   -5.650490301773933e-05   0.00010122071316081345
0.00041170786418681687   -6.996003702567505e-05   0.00025300645123229465
0.00041170786418681687   -6.996003702567505e-05   0.00025300645123229465
0.00041170786418681687   -6.996003702567505e-05   0.00025300645123229465
0.00041170786418681687   -6.996003702567505e-05   0.00025300645123229465
0.00020790591082130725   -5.418456200438973e-05   -7.71981860307868e-05
0.00020790591082130725   -5.418456200438973e-05   -7.71981860307868e-05
0.00020790591082130725   -5.418456200438973e-05   -7.71981860307868e-05
0.00020790591082130725   -5.418456200438973e-05   -7.71981860307868e-05
0.00020056164809462824   -7.056438628457937e-05   0.0002357194809311583
0.00020056164809462824   -7.056438628457937e-05   0.0002357194809311583
0.00020056164809462824   -7.056438628457937e-05   0.0002357194809311583
0.00020056164809462824   -7.056438628457937e-05   0.0002357194809311583
0.0004014033889895692   -5.515227292944222e-05   -0.00010826402190682483
0.0004014033889895692   -5.515227292944222e-05   -0.00010826402190682483
0.0004014033889895692   -5.515227292944222e-05   -0.00010826402190682483
0.0004014033889895692   -5.515227292944222e-05   -0.00010826402190682483
0.0002968887777218219   -5.898474685357008e-05   6.822648122723125e-05
0.0002968887777218219   -5.898474685357008e-05   6.822648122723125e-05
0.0002968887777218219   -5.898474685357008e-05   6.822648122723125e-05
0.0002968887777218219   -5.898474685357008e-05   6.822648122723125e-05
0.0004014033889895692   -7.056438628457937e-05   0.00022647221291807566
0.0004014033889895692   -7.056438628457937e-05   0.00022647221291807566
0.0004014033889895692   -7.056438628457937e-05   0.00022647221291807566
0.0004014033889895692   -7.056438628457937e-05   0.00022647221291807566
0.00020056164809462824   -5.515227292944222e-05   -9.901675389374295e-05
0.00020056164809462824   -5.515227292944222e-05   -9.901675389374295e-05
0.00020056164809462824   -5.515227292944222e-05   -9.901675389374295e-05
0.00020056164809462824   -5.515227292944222e-05   -9.901675389374295e-05
0.00019286088559185473   -6.915386087142164e-05   0.0001960849496764512
0.00019286088559185473   -6.915386087142164e-05   0.0001960849496764512
0.00019286088559185473   -6.915386087142164e-05   0.0001960849496764512
0.00019286088559185473   -6.915386087142164e-05   0.0001960849496764512
0.0003885082723340231   -5.4860653163565226e-05   -0.00013856995285187814
0.0003885082723340231   -5.4860653163565226e-05   -0.00013856995285187814
0.0003885082723340231   -5.4860653163565226e-05   -0.00013856995285187814
0.0003885082723340231   -5.4860653163565226e-05   -0.00013856995285187814
0.0002835522020030054   -5.745980048016408e-05   3.791631942311386e-05
0.0002835522020030054   -5.745980048016408e-05   3.791631942311386e-05
0.0002835522020030054   -5.745980048016408e-05   3.791631942311386e-05
0.0002835522020030054   -5.745980048016408e-05   3.791631942311386e-05
0.0002136045630825225   -3.9596679407796764e-05   0.0002850998972820807
0.0002136045630825225   -3.9596679407796764e-05   0.0002850998972820807
0.0002136045630825225   -3.9596679407796764e-05   0.0002850998972820807
0.0002136045630825225   -3.9596679407796764e-05   0.0002850998972820807
2.3951923171269926e-05   -1.6921391625561444e-05   -1.7382663233998785e-05
2.3951923171269926e-05   -1.6921391625561444e-05   -1.7382663233998785e-05
2.3951923171269926e-05   -1.6921391625561444e-05   -1.7382663233998785e-05
2.3951923171269926e-05   -1.6921391625561444e-05   -1.7382663233998785e-05
1.8297223332818728e-05   -4.201718391686621e-05   0.0002971776002478905
1.8297223332818728e-05   -4.201718391686621e-05   0.0002971776002478905
1.8297223332818728e-05   -4.201718391686621e-05   0.0002971776002478905
1.8297223332818728e-05   -4.201718391686621e-05   0.0002971776002478905
0.00020790591082130725   -2.0385814489706083e-05   -3.181570055588558e-05
0.00020790591082130725   -2.0385814489706083e-05   -3.181570055588558e-05
0.00020790591082130725   -2.0385814489706083e-05   -3.181570055588558e-05
0.00020790591082130725   -2.0385814489706083e-05   -3.181570055588558e-05
0.00011483257424956428   -2.7635737640530067e-05   0.0001276564809541787
0.00011483257424956428   -2.7635737640530067e-05   0.0001276564809541787
0.00011483257424956428   -2.7635737640530067e-05   0.0001276564809541787
0.00011483257424956428   -2.7635737640530067e-05   0.0001276564809541787
0.00020790591082130703   -4.201718391686621e-05   0.00028419877859159337
0.00020790591082130703   -4.201718391686621e-05   0.00028419877859159337
0.00020790591082130703   -4.201718391686621e-05   0.00028419877859159337
0.00020790591082130703   -4.201718391686621e-05   0.00028419877859159337
1.8297223332818728e-05   -2.0385814489706083e-05   -1.8836878899589765e-05
1.8297223332818728e-05   -2.0385814489706083e-05   -1.8836878899589765e-05
1.8297223332818728e-05   -2.0385814489706083e-05   -1.8836878899589765e-05
1.8297223332818728e-05   -2.0385814489706083e-05   -1.8836878899589765e-05
1.1072087928411288e-05   -4.311762960612295e-05   0.0002944785716859962
1.1072087928411288e-05   -4.311762960612295e-05   0.0002944785716859962
1.1072087928411288e-05   -4.311762960612295e-05   0.0002944785716859962
1.1072087928411288e-05   -4.311762960612295e-05   0.0002944785716859962
0.00020056164809462824   -2.267470729532331e-05   -3.3603115310846914e-05
0.00020056164809462824   -2.267470729532331e-05   -3.3603115310846914e-05
0.00020056164809462824   -2.267470729532331e-05   -3.3603115310846914e-05
0.00020056164809462824   -2.267470729532331e-05   -3.3603115310846914e-05
0.0001076729094625065   -2.8956218315182025e-05   0.00012498035568794114
0.0001076729094625065   -2.8956218315182025e-05   0.00012498035568794114
0.0001076729094625065   -2.8956218315182025e-05   0.00012498035568794114
0.0001076729094625065   -2.8956218315182025e-05   0.00012498035568794114
0.0002005616480946278   -4.311762960612295e-05   0.0002822128182995171
0.0002005616480946278   -4.311762960612295e-05   0.0002822128182995171
0.0002005616480946278   -4.311762960612295e-05   0.0002822128182995171
0.0002005616480946278   -4.311762960612295e-05   0.0002822128182995171
1.1072087928411288e-05   -2.267470729532331e-05   -2.1337361924366957e-05
1.1072087928411288e-05   -2.267470729532331e-05   -2.1337361924366957e-05
1.1072087928411288e-05   -2.267470729532331e-05   -2.1337361924366957e-05
1.1072087928411288e-05   -2.267470729532331e-05   -2.1337361924366957e-05
3.089810935014625e-06   -4.218833918292336e-05   0.000298907092758198
3.089810935014625e-06   -4.218833918292336e-05   0.000298907092758198
3.089810935014625e-06   -4.218833918292336e-05   0.000298907092758198
3.089810935014625e-06   -4.218833918292336e-05   0.000298907092758198
0.00019286088559185462   -2.3680245674284617e-05   -2.8482887775051636e-05
0.00019286088559185462   -2.3680245674284617e-05   -2.8482887775051636e-05
0.00019286088559185462   -2.3680245674284617e-05   -2.8482887775051636e-05
0.00019286088559185462   -2.3680245674284617e-05   -2.8482887775051636e-05
0.00010181297910957766   -2.8705671219937667e-05   0.0001262788783561392
0.00010181297910957766   -2.8705671219937667e-05   0.0001262788783561392
0.00010181297910957766   -2.8705671219937667e-05   0.0001262788783561392
0.00010181297910957766   -2.8705671219937667e-05   0.0001262788783561392
2.3951923171269926e-05   -1.7078999759913976e-05   0.000291744285085431
2.3951923171269926e-05   -1.7078999759913976e-05   0.000291744285085431
2.3951923171269926e-05   -1.7078999759913976e-05   0.000291744285085431
2.3951923171269926e-05   -1.7078999759913976e-05   0.000291744285085431
-0.00015972856517329698   1.4888691525976466e-05   4.790752616019162e-06
-0.00015972856517329698   1.4888691525976466e-05   4.790752616019162e-06
-0.00015972856517329698   1.4888691525976466e-05   4.790752616019162e-06
-0.00015972856517329698   1.4888691525976466e-05   4.790752616019162e-06
-0.0001660972668790098   -1.804810591887751e-05   0.00031313863989261906
-0.0001660972668790098   -1.804810591887751e-05   0.00031313863989261906
-0.0001660972668790098   -1.804810591887751e-05   0.00031313863989261906
-0.0001660972668790098   -1.804810591887751e-05   0.00031313863989261906
1.8297223332818728e-05   1.2214872374596147e-05   -1.2343297436512432e-05
1.8297223332818728e-05   1.2214872374596147e-05   -1.2343297436512432e-05
1.8297223332818728e-05   1.2214872374596147e-05   -1.2343297436512432e-05
1.8297223332818728e-05   1.2214872374596147e-05   -1.2343297436512432e-05
-7.076177955158444e-05   -5.985135619716864e-07   0.0001437764055994364
-7.076177955158444e-05   -5.985135619716864e-07   0.0001437764055994364
-7.076177955158444e-05   -5.985135619716864e-07   0.0001437764055994364
-7.076177955158444e-05   -5.985135619716864e-07   0.0001437764055994364
1.8297223332818836e-05   -1.804810591887751e-05   0.0002949808529165345
1.8297223332818836e-05   -1.804810591887751e-05   0.0002949808529165345
1.8297223332818836e-05   -1.804810591887751e-05   0.0002949808529165345
1.8297223332818836e-05   -1.804810591887751e-05   0.0002949808529165345
-0.0001660972668790098   1.2214872374596147e-05   5.814489539571893e-06
-0.0001660972668790098   1.2214872374596147e-05   5.814489539571893e-06
-0.0001660972668790098   1.2214872374596147e-05   5.814489539571893e-06
-0.0001660972668790098   1.2214872374596147e-05   5.814489539571893e-06
-0.00017465057675005303   -1.922856865239561e-05   0.00031947021005104305
-0.00017465057675005303   -1.922856865239561e-05   0.00031947021005104305
-0.00017465057675005303   -1.922856865239561e-05   0.00031947021005104305
-0.00017465057675005303   -1.922856865239561e-05   0.00031947021005104305
1.1072087928411288e-05   9.725671836772337e-06   -7.440108706563116e-06
1.1072087928411288e-05   9.725671836772337e-06   -7.440108706563116e-06
1.1072087928411288e-05   9.725671836772337e-06   -7.440108706563116e-06
1.1072087928411288e-05   9.725671836772337e-06   -7.440108706563116e-06
-7.70480142000988e-05   -1.365713308321831e-06   0.0001460815592613403
-7.70480142000988e-05   -1.365713308321831e-06   0.0001460815592613403
-7.70480142000988e-05   -1.365713308321831e-06   0.0001460815592613403
-7.70480142000988e-05   -1.365713308321831e-06   0.0001460815592613403
1.1072087928411288e-05   -1.922856865239561e-05   0.000302097665757544
1.1072087928411288e-05   -1.922856865239561e-05   0.000302097665757544
1.1072087928411288e-05   -1.922856865239561e-05   0.000302097665757544
1.1072087928411288e-05   -1.922856865239561e-05   0.000302097665757544
-0.0001746505767500525   9.725671836772337e-06   9.932435586933533e-06
-0.0001746505767500525   9.725671836772337e-06   9.932435586933533e-06
-0.0001746505767500525   9.725671836772337e-06   9.932435586933533e-06
-0.0001746505767500525   9.725671836772337e-06   9.932435586933533e-06
-0.00018376389445112274   -1.91498055064597e-05   0.00032706580694418126
-0.00018376389445112274   -1.91498055064597e-05   0.00032706580694418126
-0.00018376389445112274   -1.91498055064597e-05   0.00032706580694418126
-0.00018376389445112274   -1.91498055064597e-05   0.00032706580694418126
3.089810935014625e-06   7.927201252064947e-06   -6.032394211619944e-07
3.089810935014625e-06   7.927201252064947e-06   -6.032394211619944e-07
3.089810935014625e-06   7.927201252064947e-06   -6.032394211619944e-07
3.089810935014625e-06   7.927201252064947e-06   -6.032394211619944e-07
-8.507062884880362e-05   -1.9248316809744592e-06   0.00015224204664503194
-8.507062884880362e-05   -1.9248316809744592e-06   0.00015224204664503194
-8.507062884880362e-05   -1.9248316809744592e-06   0.00015224204664503194
-8.507062884880362e-05   -1.9248316809744592e-06   0.00015224204664503194
-0.00015972856517329655   1.7141830020928756e-05   0.00026339165383426275
-0.00015972856517329655   1.7141830020928756e-05   0.00026339165383426275
-0.00015972856517329655   1.7141830020928756e-05   0.00026339165383426275
-0.00015972856517329655   1.7141830020928756e-05   0.00026339165383426275
-0.0003395009490461125   4.869826806890021e-05   -1.7295123124983804e-05
-0.0003395009490461125   4.869826806890021e-05   -1.7295123124983804e-05
-0.0003395009490461125   4.869826806890021e-05   -1.7295123124983804e-05
-0.0003395009490461125   4.869826806890021e-05   -1.7295123124983804e-05
-0.0003488085264324478   1.60071267411889e-05   0.0002917549015945056
-0.0003488085264324478   1.60071267411889e-05   0.0002917549015945056
-0.0003488085264324478   1.60071267411889e-05   0.0002917549015945056
-0.0003488085264324478   1.60071267411889e-05   0.0002917549015945056
-0.00016609726687900927   4.600537314912792e-05   -3.076281217265415e-05
-0.00016609726687900927   4.600537314912792e-05   -3.076281217265415e-05
-0.00016609726687900927   4.600537314912792e-05   -3.076281217265415e-05
-0.00016609726687900927   4.600537314912792e-05   -3.076281217265415e-05
-0.0002515124855366389   3.255479521950544e-05   0.0001196662323478372
-0.0002515124855366389   3.255479521950544e-05   0.0001196662323478372
-0.0002515124855366389   3.255479521950544e-05   0.0001196662323478372
-0.0002515124855366389   3.255479521950544e-05   0.0001196662323478372
-0.0001660972668790096   1.6007126741192368e-05   0.0002737559537497429
-0.0001660972668790096   1.6007126741192368e-05   0.0002737559537497429
-0.0001660972668790096   1.6007126741192368e-05   0.0002737559537497429
-0.0001660972668790096   1.6007126741192368e-05   0.0002737559537497429
-0.00034880852643244726   4.600537314912792e-05   -1.2763864327890347e-05
-0.00034880852643244726   4.600537314912792e-05   -1.2763864327890347e-05
-0.00034880852643244726   4.600537314912792e-05   -1.2763864327890347e-05
-0.00034880852643244726   4.600537314912792e-05   -1.2763864327890347e-05
-0.00036020402167605985   1.3992670247216232e-05   0.0003096565568030604
-0.00036020402167605985   1.3992670247216232e-05   0.0003096565568030604
-0.00036020402167605985   1.3992670247216232e-05   0.0003096565568030604
-0.00036020402167605985   1.3992670247216232e-05   0.0003096565568030604
-0.0001746505767500525   4.3526206997324124e-05   -1.731930679035572e-05
-0.0001746505767500525   4.3526206997324124e-05   -1.731930679035572e-05
-0.0001746505767500525   4.3526206997324124e-05   -1.731930679035572e-05
-0.0001746505767500525   4.3526206997324124e-05   -1.731930679035572e-05
-0.0002584673085155691   3.190780169983615e-05   0.00012934628933066535
-0.0002584673085155691   3.190780169983615e-05   0.00012934628933066535
-0.0002584673085155691   3.190780169983615e-05   0.00012934628933066535
-0.0002584673085155691   3.190780169983615e-05   0.00012934628933066535
-0.00017465057675005238   1.3992670247212763e-05   0.00029193643475299014
-0.00017465057675005238   1.3992670247212763e-05   0.00029193643475299014
-0.00017465057675005238   1.3992670247212763e-05   0.00029193643475299014
-0.00017465057675005238   1.3992670247212763e-05   0.00029193643475299014
-0.00036020402167605985   4.352620699732759e-05   4.0081525971413096e-07
-0.00036020402167605985   4.352620699732759e-05   4.0081525971413096e-07
-0.00036020402167605985   4.352620699732759e-05   4.0081525971413096e-07
-0.00036020402167605985   4.352620699732759e-05   4.0081525971413096e-07
-0.0003722737593152424   1.1721885737902421e-05   0.0003239998348751813
-0.0003722737593152424   1.1721885737902421e-05   0.0003239998348751813
-0.0003722737593152424   1.1721885737902421e-05   0.0003239998348751813
-0.0003722737593152424   1.1721885737902421e-05   0.0003239998348751813
-0.0001837638944511221   4.020639851822633e-05   -7.273980899879032e-06
-0.0001837638944511221   4.020639851822633e-05   -7.273980899879032e-06
-0.0001837638944511221   4.020639851822633e-05   -7.273980899879032e-06
-0.0001837638944511221   4.020639851822633e-05   -7.273980899879032e-06
-0.0002699737649518384   2.9886769536587032e-05   0.00014260091399030694
-0.0002699737649518384   2.9886769536587032e-05   0.00014260091399030694
-0.0002699737649518384   2.9886769536587032e-05   0.00014260091399030694
-0.0002699737649518384   2.9886769536587032e-05   0.00014260091399030694
-0.0003395009490461125   8.046654149335489e-05   0.0001387349726919493
-0.0003395009490461125   8.046654149335489e-05   0.0001387349726919493
-0.0003395009490461125   8.046654149335489e-05   0.0001387349726919493
-0.0003395009490461125   8.046654149335489e-05   0.0001387349726919493
-0.0005114552372155925   7.919863982361851e-05   -0.00014861624859235922
-0.0005114552372155925   7.919863982361851e-05   -0.00014861624859235922
-0.0005114552372155925   7.919863982361851e-05   -0.00014861624859235922
-0.0005114552372155925   7.919863982361851e-05   -0.00014861624859235922
-0.0005281450045392692   7.752777605558869e-05   0.00020496709187565847
-0.0005281450045392692   7.752777605558869e-05   0.00020496709187565847
-0.0005281450045392692   7.752777605558869e-05   0.00020496709187565847
-0.0005281450045392692   7.752777605558869e-05   0.00020496709187565847
-0.00034880852643244726   8.06605492614694e-05   -9.580670222590843e-05
-0.00034880852643244726   8.06605492614694e-05   -9.580670222590843e-05
-0.00034880852643244726   8.06605492614694e-05   -9.580670222590843e-05
-0.00034880852643244726   8.06605492614694e-05   -9.580670222590843e-05
-0.00041458999542784273   8.07656431918713e-05   1.376602307484251e-05
-0.00041458999542784273   8.07656431918713e-05   1.376602307484251e-05
-0.00041458999542784273   8.07656431918713e-05   1.376602307484251e-05
-0.00041458999542784273   8.07656431918713e-05   1.376602307484251e-05
-0.0003488085264324467   7.752777605558869e-05   0.0002030874279521297
-0.0003488085264324467   7.752777605558869e-05   0.0002030874279521297
-0.0003488085264324467   7.752777605558869e-05   0.0002030874279521297
-0.0003488085264324467   7.752777605558869e-05   0.0002030874279521297
-0.0005281450045392692   8.066054926146767e-05   -9.392703830238096e-05
-0.0005281450045392692   8.066054926146767e-05   -9.392703830238096e-05
-0.0005281450045392692   8.066054926146767e-05   -9.392703830238096e-05
-0.0005281450045392692   8.066054926146767e-05   -9.392703830238096e-05
-0.0005445131274245361   7.548933886616926e-05   0.00025158289165768365
-0.0005445131274245361   7.548933886616926e-05   0.00025158289165768365
-0.0005445131274245361   7.548933886616926e-05   0.00025158289165768365
-0.0005445131274245361   7.548933886616926e-05   0.00025158289165768365
-0.0003602040216760592   8.006061767268022e-05   -5.8341718540350865e-05
-0.0003602040216760592   8.006061767268022e-05   -5.8341718540350865e-05
-0.0003602040216760592   8.006061767268022e-05   -5.8341718540350865e-05
-0.0003602040216760592   8.006061767268022e-05   -5.8341718540350865e-05
-0.0004336221788025968   8.0702976865802e-05   6.363646115467841e-05
-0.0004336221788025968   8.0702976865802e-05   6.363646115467841e-05
-0.0004336221788025968   8.0702976865802e-05   6.363646115467841e-05
-0.0004336221788025968   8.0702976865802e-05   6.363646115467841e-05
-0.0003602040216760592   7.548933886616926e-05   0.0002488401243737788
-0.0003602040216760592   7.548933886616926e-05   0.0002488401243737788
-0.0003602040216760592   7.548933886616926e-05   0.0002488401243737788
-0.0003602040216760592   7.548933886616926e-05   0.0002488401243737788
-0.0005445131274245361   8.006061767267848e-05   -5.5598951256445595e-05
-0.0005445131274245361   8.006061767267848e-05   -5.5598951256445595e-05
-0.0005445131274245361   8.006061767267848e-05   -5.5598951256445595e-05
-0.0005445131274245361   8.006061767267848e-05   -5.5598951256445595e-05
-0.0005638072728439733   6.265449559625033e-05   0.0003295074493506415
-0.0005638072728439733   6.265449559625033e-05   0.0003295074493506415
-0.0005638072728439733   6.265449559625033e-05   0.0003295074493506415
-0.0005638072728439733   6.265449559625033e-05   0.0003295074493506415
-0.0003722737593152411   7.364393082559366e-05   3.691265665145809e-06
-0.0003722737593152411   7.364393082559366e-05   3.691265665145809e-06
-0.0003722737593152411   7.364393082559366e-05   3.691265665145809e-06
-0.0003722737593152411   7.364393082559366e-05   3.691265665145809e-06
-0.0004405981284490685   7.682935801485435e-05   0.00011565395790797111
-0.0004405981284490685   7.682935801485435e-05   0.00011565395790797111
-0.0004405981284490685   7.682935801485435e-05   0.00011565395790797111
-0.0004405981284490685   7.682935801485435e-05   0.00011565395790797111
0.00034101438663774493   -4.776078762624633e-05   0.0002641009912854094
0.00034101438663774493   -4.776078762624633e-05   0.0002641009912854094
0.00034101438663774493   -4.776078762624633e-05   0.0002641009912854094
0.00034101438663774493   -4.776078762624633e-05   0.0002641009912854094
0.00016901390765308103   -3.486244766949011e-05   -1.4827469714977226e-05
0.00016901390765308103   -3.486244766949011e-05   -1.4827469714977226e-05
0.00016901390765308103   -3.486244766949011e-05   -1.4827469714977226e-05
0.00016901390765308103   -3.486244766949011e-05   -1.4827469714977226e-05
0.00016245288901125886   -5.418456200438973e-05   0.00022980476112858562
0.00016245288901125886   -5.418456200438973e-05   0.00022980476112858562
0.00016245288901125886   -5.418456200438973e-05   0.00022980476112858562
0.00016245288901125886   -5.418456200438973e-05   0.00022980476112858562
0.00032893932502710353   -4.049817483446627e-05   -5.588446453310775e-05
0.00032893932502710353   -4.049817483446627e-05   -5.588446453310775e-05
0.00032893932502710353   -4.049817483446627e-05   -5.588446453310775e-05
0.00032893932502710353   -4.049817483446627e-05   -5.588446453310775e-05
0.0002388901006188331   -4.38763743747031e-05   9.622449587148201e-05
0.0002388901006188331   -4.38763743747031e-05   9.622449587148201e-05
0.0002388901006188331   -4.38763743747031e-05   9.622449587148201e-05
0.0002388901006188331   -4.38763743747031e-05   9.622449587148201e-05
0.000328939325027103   -5.41845620043932e-05   0.00022159292882663155
0.000328939325027103   -5.41845620043932e-05   0.00022159292882663155
0.000328939325027103   -5.41845620043932e-05   0.00022159292882663155
0.000328939325027103   -5.41845620043932e-05   0.00022159292882663155
0.00016245288901125952   -4.049817483446627e-05   -4.7672632231153186e-05
0.00016245288901125952   -4.049817483446627e-05   -4.7672632231153186e-05
0.00016245288901125952   -4.049817483446627e-05   -4.7672632231153186e-05
0.00016245288901125952   -4.049817483446627e-05   -4.7672632231153186e-05
0.000155167611906015   -5.515227292943875e-05   0.0002060410689603831
0.000155167611906015   -5.515227292943875e-05   0.0002060410689603831
0.000155167611906015   -5.515227292943875e-05   0.0002060410689603831
0.000155167611906015   -5.515227292943875e-05   0.0002060410689603831
0.00031801596950171453   -4.163920216662502e-05   -7.348070282346957e-05
0.00031801596950171453   -4.163920216662502e-05   -7.348070282346957e-05
0.00031801596950171453   -4.163920216662502e-05   -7.348070282346957e-05
0.00031801596950171453   -4.163920216662502e-05   -7.348070282346957e-05
0.0002342875962829431   -4.605643351207611e-05   6.871692468175182e-05
0.0002342875962829431   -4.605643351207611e-05   6.871692468175182e-05
0.0002342875962829431   -4.605643351207611e-05   6.871692468175182e-05
0.0002342875962829431   -4.605643351207611e-05   6.871692468175182e-05
0.00031801596950171345   -5.515227292943875e-05   0.00019793322650269417
0.00031801596950171345   -5.515227292943875e-05   0.00019793322650269417
0.00031801596950171345   -5.515227292943875e-05   0.00019793322650269417
0.00031801596950171345   -5.515227292943875e-05   0.00019793322650269417
0.00015516761190601528   -4.163920216662502e-05   -6.53728603657814e-05
0.00015516761190601528   -4.163920216662502e-05   -6.53728603657814e-05
0.00015516761190601528   -4.163920216662502e-05   -6.53728603657814e-05
0.00015516761190601528   -4.163920216662502e-05   -6.53728603657814e-05
0.00014816554968350625   -5.4860653163565226e-05   0.00017297604229657773
0.00014816554968350625   -5.4860653163565226e-05   0.00017297604229657773
0.00014816554968350625   -5.4860653163565226e-05   0.00017297604229657773
0.00014816554968350625   -5.4860653163565226e-05   0.00017297604229657773
0.000305654725529099   -4.214544286127754e-05   -9.713504362744677e-05
0.000305654725529099   -4.214544286127754e-05   -9.713504362744677e-05
0.000305654725529099   -4.214544286127754e-05   -9.713504362744677e-05
0.000305654725529099   -4.214544286127754e-05   -9.713504362744677e-05
0.00022210800138128966   -4.529645485347976e-05   4.400010381422684e-05
0.00022210800138128966   -4.529645485347976e-05   4.400010381422684e-05
0.00022210800138128966   -4.529645485347976e-05   4.400010381422684e-05
0.00022210800138128966   -4.529645485347976e-05   4.400010381422684e-05
0.00016901390765308103   -1.6921391625561444e-05   0.0002780651658712118
0.00016901390765308103   -1.6921391625561444e-05   0.0002780651658712118
0.00016901390765308103   -1.6921391625561444e-05   0.0002780651658712118
0.00016901390765308103   -1.6921391625561444e-05   0.0002780651658712118
7.5744183595058846e-06   -6.650330164857665e-06   1.5161987258342433e-05
7.5744183595058846e-06   -6.650330164857665e-06   1.5161987258342433e-05
7.5744183595058846e-06   -6.650330164857665e-06   1.5161987258342433e-05
7.5744183595058846e-06   -6.650330164857665e-06   1.5161987258342433e-05
1.2815947312765997e-06   -2.0385814489702614e-05   0.0002810240204495114
1.2815947312765997e-06   -2.0385814489702614e-05   0.0002810240204495114
1.2815947312765997e-06   -2.0385814489702614e-05   0.0002810240204495114
1.2815947312765997e-06   -2.0385814489702614e-05   0.0002810240204495114
0.00016245288901125952   -1.0657858079660132e-05   6.5684228035149455e-06
0.00016245288901125952   -1.0657858079660132e-05   6.5684228035149455e-06
0.00016245288901125952   -1.0657858079660132e-05   6.5684228035149455e-06
0.00016245288901125952   -1.0657858079660132e-05   6.5684228035149455e-06
8.405140844545446e-05   -1.3142494390371365e-05   0.00013872833886628135
8.405140844545446e-05   -1.3142494390371365e-05   0.00013872833886628135
8.405140844545446e-05   -1.3142494390371365e-05   0.00013872833886628135
8.405140844545446e-05   -1.3142494390371365e-05   0.00013872833886628135
0.00016245288901125935   -2.0385814489706083e-05   0.0002751872466034838
0.00016245288901125935   -2.0385814489706083e-05   0.0002751872466034838
0.00016245288901125935   -2.0385814489706083e-05   0.0002751872466034838
0.00016245288901125935   -2.0385814489706083e-05   0.0002751872466034838
1.2815947312764912e-06   -1.0657858079660132e-05   1.2405196649542191e-05
1.2815947312764912e-06   -1.0657858079660132e-05   1.2405196649542191e-05
1.2815947312764912e-06   -1.0657858079660132e-05   1.2405196649542191e-05
1.2815947312764912e-06   -1.0657858079660132e-05   1.2405196649542191e-05
-5.258982699641885e-06   -2.267470729532331e-05   0.0002768700778758241
-5.258982699641885e-06   -2.267470729532331e-05   0.0002768700778758241
-5.258982699641885e-06   -2.267470729532331e-05   0.0002768700778758241
-5.258982699641885e-06   -2.267470729532331e-05   0.0002768700778758241
0.00015516761190601528   -1.36490900744142e-05   4.0770498671852595e-06
0.00015516761190601528   -1.36490900744142e-05   4.0770498671852595e-06
0.00015516761190601528   -1.36490900744142e-05   4.0770498671852595e-06
0.00015516761190601528   -1.36490900744142e-05   4.0770498671852595e-06
7.68404269045917e-05   -1.5248661912183742e-05   0.00013558210130555637
7.68404269045917e-05   -1.5248661912183742e-05   0.00013558210130555637
7.68404269045917e-05   -1.5248661912183742e-05   0.00013558210130555637
7.68404269045917e-05   -1.5248661912183742e-05   0.00013558210130555637
0.000155167611906015   -2.267470729532331e-05   0.00027145470754328
0.000155167611906015   -2.267470729532331e-05   0.00027145470754328
0.000155167611906015   -2.267470729532331e-05   0.00027145470754328
0.000155167611906015   -2.267470729532331e-05   0.00027145470754328
-5.258982699641885e-06   -1.36490900744142e-05   9.492420199730747e-06
-5.258982699641885e-06   -1.36490900744142e-05   9.492420199730747e-06
-5.258982699641885e-06   -1.36490900744142e-05   9.492420199730747e-06
-5.258982699641885e-06   -1.36490900744142e-05   9.492420199730747e-06
-1.2068025072832977e-05   -2.3680245674284617e-05   0.0002790798115441858
-1.2068025072832977e-05   -2.3680245674284617e-05   0.0002790798115441858
-1.2068025072832977e-05   -2.3680245674284617e-05   0.0002790798115441858
-1.2068025072832977e-05   -2.3680245674284617e-05   0.0002790798115441858
0.00014816554968350663   -1.602586434846197e-05   7.4312248214596435e-06
0.00014816554968350663   -1.602586434846197e-05   7.4312248214596435e-06
0.00014816554968350663   -1.602586434846197e-05   7.4312248214596435e-06
0.00014816554968350663   -1.602586434846197e-05   7.4312248214596435e-06
7.139628576603545e-05   -1.639681301027901e-05   0.00013560256721433807
7.139628576603545e-05   -1.639681301027901e-05   0.00013560256721433807
7.139628576603545e-05   -1.639681301027901e-05   0.00013560256721433807
7.139628576603545e-05   -1.639681301027901e-05   0.00013560256721433807
7.5744183595058846e-06   1.4888691525976466e-05   0.00028722060382611533
7.5744183595058846e-06   1.4888691525976466e-05   0.00028722060382611533
7.5744183595058846e-06   1.4888691525976466e-05   0.00028722060382611533
7.5744183595058846e-06   1.4888691525976466e-05   0.00028722060382611533
-0.0001491111515177872   2.1725972671219826e-05   3.0180356051106444e-05
-0.0001491111515177872   2.1725972671219826e-05   3.0180356051106444e-05
-0.0001491111515177872   2.1725972671219826e-05   3.0180356051106444e-05
-0.0001491111515177872   2.1725972671219826e-05   3.0180356051106444e-05
-0.00015568291690782948   1.2214872374596147e-05   0.0002912135477194516
-0.00015568291690782948   1.2214872374596147e-05   0.0002912135477194516
-0.00015568291690782948   1.2214872374596147e-05   0.0002912135477194516
-0.00015568291690782948   1.2214872374596147e-05   0.0002912135477194516
1.2815947312764912e-06   1.8374782052696728e-05   2.591008251408137e-05
1.2815947312764912e-06   1.8374782052696728e-05   2.591008251408137e-05
1.2815947312764912e-06   1.8374782052696728e-05   2.591008251408137e-05
1.2815947312764912e-06   1.8374782052696728e-05   2.591008251408137e-05
-7.410035790550727e-05   1.700731472624624e-05   0.00015236715063792405
-7.410035790550727e-05   1.700731472624624e-05   0.00015236715063792405
-7.410035790550727e-05   1.700731472624624e-05   0.00015236715063792405
-7.410035790550727e-05   1.700731472624624e-05   0.00015236715063792405
1.2815947312765997e-06   1.2214872374596147e-05   0.00028751760191259024
1.2815947312765997e-06   1.2214872374596147e-05   0.00028751760191259024
1.2815947312765997e-06   1.2214872374596147e-05   0.00028751760191259024
1.2815947312765997e-06   1.2214872374596147e-05   0.00028751760191259024
-0.00015568291690782948   1.8374782052698463e-05   2.9606028320940808e-05
-0.00015568291690782948   1.8374782052698463e-05   2.9606028320940808e-05
-0.00015568291690782948   1.8374782052698463e-05   2.9606028320940808e-05
-0.00015568291690782948   1.8374782052698463e-05   2.9606028320940808e-05
-0.00016262686845650433   9.725671836768868e-06   0.0002940039494044328
-0.00016262686845650433   9.725671836768868e-06   0.0002940039494044328
-0.00016262686845650433   9.725671836768868e-06   0.0002940039494044328
-0.00016262686845650433   9.725671836768868e-06   0.0002940039494044328
-5.258982699641885e-06   1.5120035688109129e-05   2.8487521498861022e-05
-5.258982699641885e-06   1.5120035688109129e-05   2.8487521498861022e-05
-5.258982699641885e-06   1.5120035688109129e-05   2.8487521498861022e-05
-5.258982699641885e-06   1.5120035688109129e-05   2.8487521498861022e-05
-8.020806158741352e-05   1.5085074806662352e-05   0.00015342362950734574
-8.020806158741352e-05   1.5085074806662352e-05   0.00015342362950734574
-8.020806158741352e-05   1.5085074806662352e-05   0.00015342362950734574
-8.020806158741352e-05   1.5085074806662352e-05   0.00015342362950734574
-5.258982699641885e-06   9.725671836768868e-06   0.000290767331093629
-5.258982699641885e-06   9.725671836768868e-06   0.000290767331093629
-5.258982699641885e-06   9.725671836768868e-06   0.000290767331093629
-5.258982699641885e-06   9.725671836768868e-06   0.000290767331093629
-0.00016262686845650433   1.5120035688109129e-05   3.172413980966158e-05
-0.00016262686845650433   1.5120035688109129e-05   3.172413980966158e-05
-0.00016262686845650433   1.5120035688109129e-05   3.172413980966158e-05
-0.00016262686845650433   1.5120035688109129e-05   3.172413980966158e-05
-0.00016979491625400303   7.927201252064947e-06   0.00029843141712697883
-0.00016979491625400303   7.927201252064947e-06   0.00029843141712697883
-0.00016979491625400303   7.927201252064947e-06   0.00029843141712697883
-0.00016979491625400303   7.927201252064947e-06   0.00029843141712697883
-1.2068025072832977e-05   1.2221890142209701e-05   3.297645182427514e-05
-1.2068025072832977e-05   1.2221890142209701e-05   3.297645182427514e-05
-1.2068025072832977e-05   1.2221890142209701e-05   3.297645182427514e-05
-1.2068025072832977e-05   1.2221890142209701e-05   3.297645182427514e-05
-8.681719541810725e-05   1.3241635853561418e-05   0.0001569465549729255
-8.681719541810725e-05   1.3241635853561418e-05   0.0001569465549729255
-8.681719541810725e-05   1.3241635853561418e-05   0.0001569465549729255
-8.681719541810725e-05   1.3241635853561418e-05   0.0001569465549729255
-0.00014911115151778785   4.869826806890021e-05   0.00025030323394347777
-0.00014911115151778785   4.869826806890021e-05   0.00025030323394347777
-0.00014911115151778785   4.869826806890021e-05   0.00025030323394347777
-0.00014911115151778785   4.869826806890021e-05   0.00025030323394347777
-0.0003006939933517252   4.931070223893573e-05   -1.9673752777301864e-06
-0.0003006939933517252   4.931070223893573e-05   -1.9673752777301864e-06
-0.0003006939933517252   4.931070223893573e-05   -1.9673752777301864e-06
-0.0003006939933517252   4.931070223893573e-05   -1.9673752777301864e-06
-0.0003083255128606833   4.600537314913139e-05   0.00025469054782071947
-0.0003083255128606833   4.600537314913139e-05   0.00025469054782071947
-0.0003083255128606833   4.600537314913139e-05   0.00025469054782071947
-0.0003083255128606833   4.600537314913139e-05   0.00025469054782071947
-0.0001556829169078299   4.609587617161563e-05   2.3191941913745448e-07
-0.0001556829169078299   4.609587617161563e-05   2.3191941913745448e-07
-0.0001556829169078299   4.609587617161563e-05   2.3191941913745448e-07
-0.0001556829169078299   4.609587617161563e-05   2.3191941913745448e-07
-0.00022743170976331274   4.743396432359444e-05   0.00011901038795375388
-0.00022743170976331274   4.743396432359444e-05   0.00011901038795375388
-0.00022743170976331274   4.743396432359444e-05   0.00011901038795375388
-0.00022743170976331274   4.743396432359444e-05   0.00011901038795375388
-0.0001556829169078299   4.600537314913139e-05   0.0002546362460072258
-0.0001556829169078299   4.600537314913139e-05   0.0002546362460072258
-0.0001556829169078299   4.600537314913139e-05   0.0002546362460072258
-0.0001556829169078299   4.600537314913139e-05   0.0002546362460072258
-0.00030832551286068266   4.609587617161563e-05   2.8622123262808663e-07
-0.00030832551286068266   4.609587617161563e-05   2.8622123262808663e-07
-0.00030832551286068266   4.609587617161563e-05   2.8622123262808663e-07
-0.00030832551286068266   4.609587617161563e-05   2.8622123262808663e-07
-0.0003167917453189191   4.3526206997324124e-05   0.0002665233670755846
-0.0003167917453189191   4.3526206997324124e-05   0.0002665233670755846
-0.0003167917453189191   4.3526206997324124e-05   0.0002665233670755846
-0.0003167917453189191   4.3526206997324124e-05   0.0002665233670755846
-0.00016262686845650433   4.3144807078062536e-05   9.810745589783777e-06
-0.00016262686845650433   4.3144807078062536e-05   9.810745589783777e-06
-0.00016262686845650433   4.3144807078062536e-05   9.810745589783777e-06
-0.00016262686845650433   4.3144807078062536e-05   9.810745589783777e-06
-0.0002329750880376932   4.560993797552218e-05   0.0001255786996866232
-0.0002329750880376932   4.560993797552218e-05   0.0001255786996866232
-0.0002329750880376932   4.560993797552218e-05   0.0001255786996866232
-0.0002329750880376932   4.560993797552218e-05   0.0001255786996866232
-0.0001626268684565041   4.3526206997324124e-05   0.00026675220702714227
-0.0001626268684565041   4.3526206997324124e-05   0.00026675220702714227
-0.0001626268684565041   4.3526206997324124e-05   0.00026675220702714227
-0.0001626268684565041   4.3526206997324124e-05   0.00026675220702714227
-0.00031679174531891864   4.3144807078062536e-05   9.581905638228298e-06
-0.00031679174531891864   4.3144807078062536e-05   9.581905638228298e-06
-0.00031679174531891864   4.3144807078062536e-05   9.581905638228298e-06
-0.00031679174531891864   4.3144807078062536e-05   9.581905638228298e-06
-0.00032486527104369045   4.020639851822633e-05   0.00027512203362038343
-0.00032486527104369045   4.020639851822633e-05   0.00027512203362038343
-0.00032486527104369045   4.020639851822633e-05   0.00027512203362038343
-0.00032486527104369045   4.020639851822633e-05   0.00027512203362038343
-0.00016979491625400368   3.9552335230284494e-05   1.706388027700352e-05
-0.00016979491625400368   3.9552335230284494e-05   1.706388027700352e-05
-0.00016979491625400368   3.9552335230284494e-05   1.706388027700352e-05
-0.00016979491625400368   3.9552335230284494e-05   1.706388027700352e-05
-0.00024173587663834436   4.3257288497279556e-05   0.0001347425089573825
-0.00024173587663834436   4.3257288497279556e-05   0.0001347425089573825
-0.00024173587663834436   4.3257288497279556e-05   0.0001347425089573825
-0.00024173587663834436   4.3257288497279556e-05   0.0001347425089573825
-0.00030069399335172454   7.919863982362024e-05   0.00012011030997996497
-0.00030069399335172454   7.919863982362024e-05   0.00012011030997996497
-0.00030069399335172454   7.919863982362024e-05   0.00012011030997996497
-0.00030069399335172454   7.919863982362024e-05   0.00012011030997996497
-0.00044443112303027793   7.08506092092654e-05   -0.0001244603911862369
-0.00044443112303027793   7.08506092092654e-05   -0.0001244603911862369
-0.00044443112303027793   7.08506092092654e-05   -0.0001244603911862369
-0.00044443112303027793   7.08506092092654e-05   -0.0001244603911862369
-0.00045644552361740116   8.066054926146767e-05   0.00016618455398614146
-0.00045644552361740116   8.066054926146767e-05   0.00016618455398614146
-0.00045644552361740116   8.066054926146767e-05   0.00016618455398614146
-0.00045644552361740116   8.066054926146767e-05   0.00016618455398614146
-0.0003083255128606833   7.1555289367203e-05   -7.521897467183082e-05
-0.0003083255128606833   7.1555289367203e-05   -7.521897467183082e-05
-0.0003083255128606833   7.1555289367203e-05   -7.521897467183082e-05
-0.0003083255128606833   7.1555289367203e-05   -7.521897467183082e-05
-0.0003630278720883856   7.515289122497423e-05   1.379306292634188e-05
-0.0003630278720883856   7.515289122497423e-05   1.379306292634188e-05
-0.0003630278720883856   7.515289122497423e-05   1.379306292634188e-05
-0.0003630278720883856   7.515289122497423e-05   1.379306292634188e-05
-0.00030832551286068266   8.06605492614694e-05   0.00017164770992269922
-0.00030832551286068266   8.06605492614694e-05   0.00017164770992269922
-0.00030832551286068266   8.06605492614694e-05   0.00017164770992269922
-0.00030832551286068266   8.06605492614694e-05   0.00017164770992269922
-0.0004564455236174031   7.1555289367203e-05   -8.068213060839421e-05
-0.0004564455236174031   7.1555289367203e-05   -8.068213060839421e-05
-0.0004564455236174031   7.1555289367203e-05   -8.068213060839421e-05
-0.0004564455236174031   7.1555289367203e-05   -8.068213060839421e-05
-0.00046818901512027107   8.006061767268022e-05   0.0002021972319482257
-0.00046818901512027107   8.006061767268022e-05   0.0002021972319482257
-0.00046818901512027107   8.006061767268022e-05   0.0002021972319482257
-0.00046818901512027107   8.006061767268022e-05   0.0002021972319482257
-0.0003167917453189191   7.075461546052035e-05   -4.454794972673587e-05
-0.0003167917453189191   7.075461546052035e-05   -4.454794972673587e-05
-0.0003167917453189191   7.075461546052035e-05   -4.454794972673587e-05
-0.0003167917453189191   7.075461546052035e-05   -4.454794972673587e-05
-0.00037770492968540925   7.650647875204544e-05   5.352290624250494e-05
-0.00037770492968540925   7.650647875204544e-05   5.352290624250494e-05
-0.00037770492968540925   7.650647875204544e-05   5.352290624250494e-05
-0.00037770492968540925   7.650647875204544e-05   5.352290624250494e-05
-0.0003167917453189191   8.006061767268022e-05   0.00020778083327552092
-0.0003167917453189191   8.006061767268022e-05   0.00020778083327552092
-0.0003167917453189191   8.006061767268022e-05   0.00020778083327552092
-0.0003167917453189191   8.006061767268022e-05   0.00020778083327552092
-0.0004681890151202726   7.075461546052035e-05   -5.01315510540324e-05
-0.0004681890151202726   7.075461546052035e-05   -5.01315510540324e-05
-0.0004681890151202726   7.075461546052035e-05   -5.01315510540324e-05
-0.0004681890151202726   7.075461546052035e-05   -5.01315510540324e-05
-0.00048191612348427726   7.364393082559366e-05   0.0002639695285495472
-0.00048191612348427726   7.364393082559366e-05   0.0002639695285495472
-0.00048191612348427726   7.364393082559366e-05   0.0002639695285495472
-0.00048191612348427726   7.364393082559366e-05   0.0002639695285495472
-0.00032486527104369045   6.526552421282084e-05   7.245151782899091e-06
-0.00032486527104369045   6.526552421282084e-05   7.245151782899091e-06
-0.00032486527104369045   6.526552421282084e-05   7.245151782899091e-06
-0.00032486527104369045   6.526552421282084e-05   7.245151782899091e-06
-0.0003815586194807774   7.424475664188565e-05   9.634652638727641e-05
-0.0003815586194807774   7.424475664188565e-05   9.634652638727641e-05
-0.0003815586194807774   7.424475664188565e-05   9.634652638727641e-05
-0.0003815586194807774   7.424475664188565e-05   9.634652638727641e-05
0.00025775438828512336   -3.486244766949011e-05   0.00021969608924502816
0.00025775438828512336   -3.486244766949011e-05   0.00021969608924502816
0.00025775438828512336   -3.486244766949011e-05   0.00021969608924502816
0.00025775438828512336   -3.486244766949011e-05   0.00021969608924502816
0.0001214453128526068   -2.2901046364844774e-05   -3.088623597140988e-07
0.0001214453128526068   -2.2901046364844774e-05   -3.088623597140988e-07
0.0001214453128526068   -2.2901046364844774e-05   -3.088623597140988e-07
0.0001214453128526068   -2.2901046364844774e-05   -3.088623597140988e-07
0.00011559501484453242   -4.0498174834468006e-05   0.0001931581806883624
0.00011559501484453242   -4.0498174834468006e-05   0.0001931581806883624
0.00011559501484453242   -4.0498174834468006e-05   0.0001931581806883624
0.00011559501484453242   -4.0498174834468006e-05   0.0001931581806883624
0.0002464431902868061   -2.7846706492595102e-05   -3.251299272054905e-05
0.0002464431902868061   -2.7846706492595102e-05   -3.251299272054905e-05
0.0002464431902868061   -2.7846706492595102e-05   -3.251299272054905e-05
0.0002464431902868061   -2.7846706492595102e-05   -3.251299272054905e-05
0.0001765881858435692   -3.177713582348113e-05   8.627027228337716e-05
0.0001765881858435692   -3.177713582348113e-05   8.627027228337716e-05
0.0001765881858435692   -3.177713582348113e-05   8.627027228337716e-05
0.0001765881858435692   -3.177713582348113e-05   8.627027228337716e-05
0.0002464431902868061   -4.0498174834468006e-05   0.00018556729968323936
0.0002464431902868061   -4.0498174834468006e-05   0.00018556729968323936
0.0002464431902868061   -4.0498174834468006e-05   0.00018556729968323936
0.0002464431902868061   -4.0498174834468006e-05   0.00018556729968323936
0.00011559501484453258   -2.7846706492595102e-05   -2.4922111715425244e-05
0.00011559501484453258   -2.7846706492595102e-05   -2.4922111715425244e-05
0.00011559501484453258   -2.7846706492595102e-05   -2.4922111715425244e-05
0.00011559501484453258   -2.7846706492595102e-05   -2.4922111715425244e-05
0.00010914547641663447   -4.163920216662502e-05   0.00017449160861870983
0.00010914547641663447   -4.163920216662502e-05   0.00017449160861870983
0.00010914547641663447   -4.163920216662502e-05   0.00017449160861870983
0.00010914547641663447   -4.163920216662502e-05   0.00017449160861870983
0.00023653997836449252   -2.9175556376119863e-05   -4.53107487686904e-05
0.00023653997836449252   -2.9175556376119863e-05   -4.53107487686904e-05
0.00023653997836449252   -2.9175556376119863e-05   -4.53107487686904e-05
0.00023653997836449252   -2.9175556376119863e-05   -4.53107487686904e-05
0.0001718475003781766   -3.377945057225079e-05   6.52723843928516e-05
0.0001718475003781766   -3.377945057225079e-05   6.52723843928516e-05
0.0001718475003781766   -3.377945057225079e-05   6.52723843928516e-05
0.0001718475003781766   -3.377945057225079e-05   6.52723843928516e-05
0.00023653997836449214   -4.163920216662502e-05   0.00016701342114440638
0.00023653997836449214   -4.163920216662502e-05   0.00016701342114440638
0.00023653997836449214   -4.163920216662502e-05   0.00016701342114440638
0.00023653997836449214   -4.163920216662502e-05   0.00016701342114440638
0.00010914547641663466   -2.9175556376119863e-05   -3.7832561294389236e-05
0.00010914547641663466   -2.9175556376119863e-05   -3.7832561294389236e-05
0.00010914547641663466   -2.9175556376119863e-05   -3.7832561294389236e-05
0.00010914547641663466   -2.9175556376119863e-05   -3.7832561294389236e-05
0.00010319457466767028   -4.214544286127754e-05   0.00014928199850925555
0.00010319457466767028   -4.214544286127754e-05   0.00014928199850925555
0.00010319457466767028   -4.214544286127754e-05   0.00014928199850925555
0.00010319457466767028   -4.214544286127754e-05   0.00014928199850925555
0.00022548957280725594   -3.0452802988649788e-05   -6.15585823136311e-05
0.00022548957280725594   -3.0452802988649788e-05   -6.15585823136311e-05
0.00022548957280725594   -3.0452802988649788e-05   -6.15585823136311e-05
0.00022548957280725594   -3.0452802988649788e-05   -6.15585823136311e-05
0.00016156410917981412   -3.3604154331384056e-05   4.687466787108442e-05
0.00016156410917981412   -3.3604154331384056e-05   4.687466787108442e-05
0.00016156410917981412   -3.3604154331384056e-05   4.687466787108442e-05
0.00016156410917981412   -3.3604154331384056e-05   4.687466787108442e-05
0.0001214453128526064   -6.650330164857665e-06   0.00025069975012471414
0.0001214453128526064   -6.650330164857665e-06   0.00025069975012471414
0.0001214453128526064   -6.650330164857665e-06   0.00025069975012471414
0.0001214453128526064   -6.650330164857665e-06   0.00025069975012471414
-7.63110329233391e-06   -4.4216630756127584e-08   3.9536058003609466e-05
-7.63110329233391e-06   -4.4216630756127584e-08   3.9536058003609466e-05
-7.63110329233391e-06   -4.4216630756127584e-08   3.9536058003609466e-05
-7.63110329233391e-06   -4.4216630756127584e-08   3.9536058003609466e-05
-1.3126856359551979e-05   -1.0657858079660132e-05   0.0002511782598218996
-1.3126856359551979e-05   -1.0657858079660132e-05   0.0002511782598218996
-1.3126856359551979e-05   -1.0657858079660132e-05   0.0002511782598218996
-1.3126856359551979e-05   -1.0657858079660132e-05   0.0002511782598218996
0.00011559501484453258   -4.359484581549153e-06   3.2862783716224335e-05
0.00011559501484453258   -4.359484581549153e-06   3.2862783716224335e-05
0.00011559501484453258   -4.359484581549153e-06   3.2862783716224335e-05
0.00011559501484453258   -4.359484581549153e-06   3.2862783716224335e-05
5.319698300659924e-05   -5.5824325970281474e-06   0.00013759327225539876
5.319698300659924e-05   -5.5824325970281474e-06   0.00013759327225539876
5.319698300659924e-05   -5.5824325970281474e-06   0.00013759327225539876
5.319698300659924e-05   -5.5824325970281474e-06   0.00013759327225539876
0.00011559501484453231   -1.0657858079660132e-05   0.00024739923572303195
0.00011559501484453231   -1.0657858079660132e-05   0.00024739923572303195
0.00011559501484453231   -1.0657858079660132e-05   0.00024739923572303195
0.00011559501484453231   -1.0657858079660132e-05   0.00024739923572303195
-1.3126856359551979e-05   -4.359484581549153e-06   3.6641807815090445e-05
-1.3126856359551979e-05   -4.359484581549153e-06   3.6641807815090445e-05
-1.3126856359551979e-05   -4.359484581549153e-06   3.6641807815090445e-05
-1.3126856359551979e-05   -4.359484581549153e-06   3.6641807815090445e-05
-1.873776138414324e-05   -1.36490900744142e-05   0.0002474666279624182
-1.873776138414324e-05   -1.36490900744142e-05   0.0002474666279624182
-1.873776138414324e-05   -1.36490900744142e-05   0.0002474666279624182
-1.873776138414324e-05   -1.36490900744142e-05   0.0002474666279624182
0.00010914547641663466   -7.773908223176335e-06   3.08027891837107e-05
0.00010914547641663466   -7.773908223176335e-06   3.08027891837107e-05
0.00010914547641663466   -7.773908223176335e-06   3.08027891837107e-05
0.00010914547641663466   -7.773908223176335e-06   3.08027891837107e-05
4.704445031614049e-05   -8.252379394058096e-06   0.0001345915820537394
4.704445031614049e-05   -8.252379394058096e-06   0.0001345915820537394
4.704445031614049e-05   -8.252379394058096e-06   0.0001345915820537394
4.704445031614049e-05   -8.252379394058096e-06   0.0001345915820537394
0.00010914547641663447   -1.36490900744142e-05   0.00024394151885167616
0.00010914547641663447   -1.36490900744142e-05   0.00024394151885167616
0.00010914547641663447   -1.36490900744142e-05   0.00024394151885167616
0.00010914547641663447   -1.36490900744142e-05   0.00024394151885167616
-1.873776138414324e-05   -7.773908223176335e-06   3.432789829445424e-05
-1.873776138414324e-05   -7.773908223176335e-06   3.432789829445424e-05
-1.873776138414324e-05   -7.773908223176335e-06   3.432789829445424e-05
-1.873776138414324e-05   -7.773908223176335e-06   3.432789829445424e-05
-2.437801869852117e-05   -1.602586434846197e-05   0.0002492633653248446
-2.437801869852117e-05   -1.602586434846197e-05   0.0002492633653248446
-2.437801869852117e-05   -1.602586434846197e-05   0.0002492633653248446
-2.437801869852117e-05   -1.602586434846197e-05   0.0002492633653248446
0.00010319457466767041   -1.0952156768370691e-05   3.359815183313637e-05
0.00010319457466767041   -1.0952156768370691e-05   3.359815183313637e-05
0.00010319457466767041   -1.0952156768370691e-05   3.359815183313637e-05
0.00010319457466767041   -1.0952156768370691e-05   3.359815183313637e-05
4.232673113315975e-05   -1.02442781340778e-05   0.00013461983054341485
4.232673113315975e-05   -1.02442781340778e-05   0.00013461983054341485
4.232673113315975e-05   -1.02442781340778e-05   0.00013461983054341485
4.232673113315975e-05   -1.02442781340778e-05   0.00013461983054341485
-7.63110329233391e-06   2.1725972671219826e-05   0.00026557941835079514
-7.63110329233391e-06   2.1725972671219826e-05   0.00026557941835079514
-7.63110329233391e-06   2.1725972671219826e-05   0.00026557941835079514
-7.63110329233391e-06   2.1725972671219826e-05   0.00026557941835079514
-0.00013400120681248307   2.233359150730259e-05   5.532715045219582e-05
-0.00013400120681248307   2.233359150730259e-05   5.532715045219582e-05
-0.00013400120681248307   2.233359150730259e-05   5.532715045219582e-05
-0.00013400120681248307   2.233359150730259e-05   5.532715045219582e-05
-0.00013952217880883362   1.8374782052698463e-05   0.000264774691276436
-0.00013952217880883362   1.8374782052698463e-05   0.000264774691276436
-0.00013952217880883362   1.8374782052698463e-05   0.000264774691276436
-0.00013952217880883362   1.8374782052698463e-05   0.000264774691276436
-1.3126856359551979e-05   1.852735803602526e-05   5.40242749376349e-05
-1.3126856359551979e-05   1.852735803602526e-05   5.40242749376349e-05
-1.3126856359551979e-05   1.852735803602526e-05   5.40242749376349e-05
-1.3126856359551979e-05   1.852735803602526e-05   5.40242749376349e-05
-7.376222056283547e-05   1.9895270111803393e-05   0.00015426246803097515
-7.376222056283547e-05   1.9895270111803393e-05   0.00015426246803097515
-7.376222056283547e-05   1.9895270111803393e-05   0.00015426246803097515
-7.376222056283547e-05   1.9895270111803393e-05   0.00015426246803097515
-1.3126856359551979e-05   1.8374782052698463e-05   0.00026468314568643854
-1.3126856359551979e-05   1.8374782052698463e-05   0.00026468314568643854
-1.3126856359551979e-05   1.8374782052698463e-05   0.00026468314568643854
-1.3126856359551979e-05   1.8374782052698463e-05   0.00026468314568643854
-0.00013952217880883362   1.8527358036026995e-05   5.4115820527632363e-05
-0.00013952217880883362   1.8527358036026995e-05   5.4115820527632363e-05
-0.00013952217880883362   1.8527358036026995e-05   5.4115820527632363e-05
-0.00013952217880883362   1.8527358036026995e-05   5.4115820527632363e-05
-0.0001451833942598998   1.5120035688109129e-05   0.0002662582225213851
-0.0001451833942598998   1.5120035688109129e-05   0.0002662582225213851
-0.0001451833942598998   1.5120035688109129e-05   0.0002662582225213851
-0.0001451833942598998   1.5120035688109129e-05   0.0002662582225213851
-1.873776138414335e-05   1.4780857787839718e-05   5.571900780194992e-05
-1.873776138414335e-05   1.4780857787839718e-05   5.571900780194992e-05
-1.873776138414335e-05   1.4780857787839718e-05   5.571900780194992e-05
-1.873776138414335e-05   1.4780857787839718e-05   5.571900780194992e-05
-7.889223709340372e-05   1.7329727854191804e-05   0.00015444714527757908
-7.889223709340372e-05   1.7329727854191804e-05   0.00015444714527757908
-7.889223709340372e-05   1.7329727854191804e-05   0.00015444714527757908
-7.889223709340372e-05   1.7329727854191804e-05   0.00015444714527757908
-1.873776138414335e-05   1.5120035688107394e-05   0.00026646172926154434
-1.873776138414335e-05   1.5120035688107394e-05   0.00026646172926154434
-1.873776138414335e-05   1.5120035688107394e-05   0.00026646172926154434
-1.873776138414335e-05   1.5120035688107394e-05   0.00026646172926154434
-0.0001451833942598998   1.4780857787839718e-05   5.551550106179092e-05
-0.0001451833942598998   1.4780857787839718e-05   5.551550106179092e-05
-0.0001451833942598998   1.4780857787839718e-05   5.551550106179092e-05
-0.0001451833942598998   1.4780857787839718e-05   5.551550106179092e-05
-0.00015084452731239993   1.2221890142209701e-05   0.0002696176034591522
-0.00015084452731239993   1.2221890142209701e-05   0.0002696176034591522
-0.00015084452731239993   1.2221890142209701e-05   0.0002696176034591522
-0.00015084452731239993   1.2221890142209701e-05   0.0002696176034591522
-2.4378018698521277e-05   1.122462335385356e-05   5.943844917570161e-05
-2.4378018698521277e-05   1.122462335385356e-05   5.943844917570161e-05
-2.4378018698521277e-05   1.122462335385356e-05   5.943844917570161e-05
-2.4378018698521277e-05   1.122462335385356e-05   5.943844917570161e-05
-8.426089300171046e-05   1.4827937672724431e-05   0.00015708125108970035
-8.426089300171046e-05   1.4827937672724431e-05   0.00015708125108970035
-8.426089300171046e-05   1.4827937672724431e-05   0.00015708125108970035
-8.426089300171046e-05   1.4827937672724431e-05   0.00015708125108970035
-0.00013400120681248263   4.931070223893573e-05   0.00023342879782158564
-0.00013400120681248263   4.931070223893573e-05   0.00023342879782158564
-0.00013400120681248263   4.931070223893573e-05   0.00023342879782158564
-0.00013400120681248263   4.931070223893573e-05   0.00023342879782158564
-0.0002574564268417207   4.384782817647842e-05   2.4392373335381523e-05
-0.0002574564268417207   4.384782817647842e-05   2.4392373335381523e-05
-0.0002574564268417207   4.384782817647842e-05   2.4392373335381523e-05
-0.0002574564268417207   4.384782817647842e-05   2.4392373335381523e-05
-0.00026339340694554085   4.609587617161563e-05   0.00023185706597856487
-0.00026339340694554085   4.609587617161563e-05   0.00023185706597856487
-0.00026339340694554085   4.609587617161563e-05   0.00023185706597856487
-0.00026339340694554085   4.609587617161563e-05   0.00023185706597856487
-0.00013952217880883384   4.0190015511509455e-05   2.8948535480119875e-05
-0.00013952217880883384   4.0190015511509455e-05   2.8948535480119875e-05
-0.00013952217880883384   4.0190015511509455e-05   2.8948535480119875e-05
-0.00013952217880883384   4.0190015511509455e-05   2.8948535480119875e-05
-0.00019794056151254725   4.429144220702633e-05   0.00012385165063566418
-0.00019794056151254725   4.429144220702633e-05   0.00012385165063566418
-0.00019794056151254725   4.429144220702633e-05   0.00012385165063566418
-0.00019794056151254725   4.429144220702633e-05   0.00012385165063566418
-0.00013952217880883362   4.609587617161563e-05   0.00023540058237463135
-0.00013952217880883362   4.609587617161563e-05   0.00023540058237463135
-0.00013952217880883362   4.609587617161563e-05   0.00023540058237463135
-0.00013952217880883362   4.609587617161563e-05   0.00023540058237463135
-0.00026339340694554085   4.0190015511509455e-05   2.5405019084053827e-05
-0.00026339340694554085   4.0190015511509455e-05   2.5405019084053827e-05
-0.00026339340694554085   4.0190015511509455e-05   2.5405019084053827e-05
-0.00026339340694554085   4.0190015511509455e-05   2.5405019084053827e-05
-0.0002699350755813489   4.3144807078062536e-05   0.00024053413053551354
-0.0002699350755813489   4.3144807078062536e-05   0.00024053413053551354
-0.0002699350755813489   4.3144807078062536e-05   0.00024053413053551354
-0.0002699350755813489   4.3144807078062536e-05   0.00024053413053551354
-0.00014518339425990002   3.679364413474058e-05   3.642535943242705e-05
-0.00014518339425990002   3.679364413474058e-05   3.642535943242705e-05
-0.00014518339425990002   3.679364413474058e-05   3.642535943242705e-05
-0.00014518339425990002   3.679364413474058e-05   3.642535943242705e-05
-0.00020222752457419032   4.1950791145302715e-05   0.00012840462174991234
-0.00020222752457419032   4.1950791145302715e-05   0.00012840462174991234
-0.00020222752457419032   4.1950791145302715e-05   0.00012840462174991234
-0.00020222752457419032   4.1950791145302715e-05   0.00012840462174991234
-0.00014518339425990002   4.3144807078062536e-05   0.00024434482830150775
-0.00014518339425990002   4.3144807078062536e-05   0.00024434482830150775
-0.00014518339425990002   4.3144807078062536e-05   0.00024434482830150775
-0.00014518339425990002   4.3144807078062536e-05   0.00024434482830150775
-0.0002699350755813489   3.679364413474058e-05   3.2614661666432836e-05
-0.0002699350755813489   3.679364413474058e-05   3.2614661666432836e-05
-0.0002699350755813489   3.679364413474058e-05   3.2614661666432836e-05
-0.0002699350755813489   3.679364413474058e-05   3.2614661666432836e-05
-0.0002759235721556553   3.9552335230284494e-05   0.0002471064512751288
-0.0002759235721556553   3.9552335230284494e-05   0.0002471064512751288
-0.0002759235721556553   3.9552335230284494e-05   0.0002471064512751288
-0.0002759235721556553   3.9552335230284494e-05   0.0002471064512751288
-0.00015084452731240015   3.284938972584507e-05   4.266314383903234e-05
-0.00015084452731240015   3.284938972584507e-05   4.266314383903234e-05
-0.00015084452731240015   3.284938972584507e-05   4.266314383903234e-05
-0.00015084452731240015   3.284938972584507e-05   4.266314383903234e-05
-0.0002089960290596602   3.932366210965266e-05   0.00013569774998752754
-0.0002089960290596602   3.932366210965266e-05   0.00013569774998752754
-0.0002089960290596602   3.932366210965266e-05   0.00013569774998752754
-0.0002089960290596602   3.932366210965266e-05   0.00013569774998752754
-0.0002574564268417207   7.08506092092654e-05   0.00011266687584421571
-0.0002574564268417207   7.08506092092654e-05   0.00011266687584421571
-0.0002574564268417207   7.08506092092654e-05   0.00011266687584421571
-0.0002574564268417207   7.08506092092654e-05   0.00011266687584421571
-0.0003744041198510974   6.0273853788197704e-05   -8.859199909071972e-05
-0.0003744041198510974   6.0273853788197704e-05   -8.859199909071972e-05
-0.0003744041198510974   6.0273853788197704e-05   -8.859199909071972e-05
-0.0003744041198510974   6.0273853788197704e-05   -8.859199909071972e-05
-0.00038505979532870967   7.155528936720126e-05   0.0001493746883239836
-0.00038505979532870967   7.155528936720126e-05   0.0001493746883239836
-0.00038505979532870967   7.155528936720126e-05   0.0001493746883239836
-0.00038505979532870967   7.155528936720126e-05   0.0001493746883239836
-0.00026339340694554085   5.992665311700153e-05   -4.6425443897846544e-05
-0.00026339340694554085   5.992665311700153e-05   -4.6425443897846544e-05
-0.00026339340694554085   5.992665311700153e-05   -4.6425443897846544e-05
-0.00026339340694554085   5.992665311700153e-05   -4.6425443897846544e-05
-0.0003079076652281207   6.470822119611017e-05   2.4896045725656714e-05
-0.0003079076652281207   6.470822119611017e-05   2.4896045725656714e-05
-0.0003079076652281207   6.470822119611017e-05   2.4896045725656714e-05
-0.0003079076652281207   6.470822119611017e-05   2.4896045725656714e-05
-0.0002633934069455404   7.155528936720126e-05   0.0001563518700741038
-0.0002633934069455404   7.155528936720126e-05   0.0001563518700741038
-0.0002633934069455404   7.155528936720126e-05   0.0001563518700741038
-0.0002633934069455404   7.155528936720126e-05   0.0001563518700741038
-0.0003850597953287101   5.992665311700153e-05   -5.3402625647964996e-05
-0.0003850597953287101   5.992665311700153e-05   -5.3402625647964996e-05
-0.0003850597953287101   5.992665311700153e-05   -5.3402625647964996e-05
-0.0003850597953287101   5.992665311700153e-05   -5.3402625647964996e-05
-0.0003946135558615441   7.075461546052035e-05   0.00017916564181185216
-0.0003946135558615441   7.075461546052035e-05   0.00017916564181185216
-0.0003946135558615441   7.075461546052035e-05   0.00017916564181185216
-0.0003946135558615441   7.075461546052035e-05   0.00017916564181185216
-0.0002699350755813489   5.869022652935617e-05   -2.1393191963109664e-05
-0.0002699350755813489   5.869022652935617e-05   -2.1393191963109664e-05
-0.0002699350755813489   5.869022652935617e-05   -2.1393191963109664e-05
-0.0002699350755813489   5.869022652935617e-05   -2.1393191963109664e-05
-0.0003200897766207913   6.540613779879717e-05   5.8168429674309956e-05
-0.0003200897766207913   6.540613779879717e-05   5.8168429674309956e-05
-0.0003200897766207913   6.540613779879717e-05   5.8168429674309956e-05
-0.0003200897766207913   6.540613779879717e-05   5.8168429674309956e-05
-0.0002699350755813489   7.075461546052035e-05   0.0001864042751705524
-0.0002699350755813489   7.075461546052035e-05   0.0001864042751705524
-0.0002699350755813489   7.075461546052035e-05   0.0001864042751705524
-0.0002699350755813489   7.075461546052035e-05   0.0001864042751705524
-0.00039461355586154455   5.869022652935617e-05   -2.863182532180774e-05
-0.00039461355586154455   5.869022652935617e-05   -2.863182532180774e-05
-0.00039461355586154455   5.869022652935617e-05   -2.863182532180774e-05
-0.00039461355586154455   5.869022652935617e-05   -2.863182532180774e-05
-0.0004056039309143899   6.526552421282084e-05   0.00023048448141306868
-0.0004056039309143899   6.526552421282084e-05   0.00023048448141306868
-0.0004056039309143899   6.526552421282084e-05   0.00023048448141306868
-0.0004056039309143899   6.526552421282084e-05   0.00023048448141306868
-0.0002759235721556553   5.3272725311619834e-05   2.1546229489230462e-05
-0.0002759235721556553   5.3272725311619834e-05   2.1546229489230462e-05
-0.0002759235721556553   5.3272725311619834e-05   2.1546229489230462e-05
-0.0002759235721556553   5.3272725311619834e-05   2.1546229489230462e-05
-0.000322800979646666   6.316434281320935e-05   9.374027147330015e-05
-0.000322800979646666   6.316434281320935e-05   9.374027147330015e-05
-0.000322800979646666   6.316434281320935e-05   9.374027147330015e-05
-0.000322800979646666   6.316434281320935e-05   9.374027147330015e-05
0.00017651579199221343   -2.2901046364844774e-05   0.0001781185334344326
0.00017651579199221343   -2.2901046364844774e-05   0.0001781185334344326
0.00017651579199221343   -2.2901046364844774e-05   0.0001781185334344326
0.00017651579199221343   -2.2901046364844774e-05   0.0001781185334344326
7.317615285420295e-05   -1.1103992588371026e-05   1.2964033803632494e-05
7.317615285420295e-05   -1.1103992588371026e-05   1.2964033803632494e-05
7.317615285420295e-05   -1.1103992588371026e-05   1.2964033803632494e-05
7.317615285420295e-05   -1.1103992588371026e-05   1.2964033803632494e-05
6.848450965548665e-05   -2.7846706492595102e-05   0.00016026845479517708
6.848450965548665e-05   -2.7846706492595102e-05   0.00016026845479517708
6.848450965548665e-05   -2.7846706492595102e-05   0.00016026845479517708
6.848450965548665e-05   -2.7846706492595102e-05   0.00016026845479517708
0.0001665467686965571   -1.551041631854197e-05   -1.057041771103948e-05
0.0001665467686965571   -1.551041631854197e-05   -1.057041771103948e-05
0.0001665467686965571   -1.551041631854197e-05   -1.057041771103948e-05
0.0001665467686965571   -1.551041631854197e-05   -1.057041771103948e-05
0.00011514408509771289   -1.9815426055488916e-05   7.768372746254018e-05
0.00011514408509771289   -1.9815426055488916e-05   7.768372746254018e-05
0.00011514408509771289   -1.9815426055488916e-05   7.768372746254018e-05
0.00011514408509771289   -1.9815426055488916e-05   7.768372746254018e-05
0.00016654676869655736   -2.7846706492595102e-05   0.00015286668069074572
0.00016654676869655736   -2.7846706492595102e-05   0.00015286668069074572
0.00016654676869655736   -2.7846706492595102e-05   0.00015286668069074572
0.00016654676869655736   -2.7846706492595102e-05   0.00015286668069074572
6.848450965548641e-05   -1.551041631854197e-05   -3.1686436066059517e-06
6.848450965548641e-05   -1.551041631854197e-05   -3.1686436066059517e-06
6.848450965548641e-05   -1.551041631854197e-05   -3.1686436066059517e-06
6.848450965548641e-05   -1.551041631854197e-05   -3.1686436066059517e-06
6.322394822237199e-05   -2.9175556376121597e-05   0.00014699601423663264
6.322394822237199e-05   -2.9175556376121597e-05   0.00014699601423663264
6.322394822237199e-05   -2.9175556376121597e-05   0.00014699601423663264
6.322394822237199e-05   -2.9175556376121597e-05   0.00014699601423663264
0.00015799810833929886   -1.7036686096557827e-05   -1.824424145931581e-05
0.00015799810833929886   -1.7036686096557827e-05   -1.824424145931581e-05
0.00015799810833929886   -1.7036686096557827e-05   -1.824424145931581e-05
0.00015799810833929886   -1.7036686096557827e-05   -1.824424145931581e-05
0.00011066536223312897   -2.1681141739624335e-05   6.343034210347831e-05
0.00011066536223312897   -2.1681141739624335e-05   6.343034210347831e-05
0.00011066536223312897   -2.1681141739624335e-05   6.343034210347831e-05
0.00011066536223312897   -2.1681141739624335e-05   6.343034210347831e-05
0.00015799810833929913   -2.9175556376121597e-05   0.00013971269206889455
0.00015799810833929913   -2.9175556376121597e-05   0.00013971269206889455
0.00015799810833929913   -2.9175556376121597e-05   0.00013971269206889455
0.00015799810833929913   -2.9175556376121597e-05   0.00013971269206889455
6.322394822237188e-05   -1.7036686096557827e-05   -1.096091929157772e-05
6.322394822237188e-05   -1.7036686096557827e-05   -1.096091929157772e-05
6.322394822237188e-05   -1.7036686096557827e-05   -1.096091929157772e-05
6.322394822237188e-05   -1.7036686096557827e-05   -1.096091929157772e-05
5.851213732760316e-05   -3.0452802988649788e-05   0.00012983082115173954
5.851213732760316e-05   -3.0452802988649788e-05   0.00012983082115173954
5.851213732760316e-05   -3.0452802988649788e-05   0.00012983082115173954
5.851213732760316e-05   -3.0452802988649788e-05   0.00012983082115173954
0.00014831753140136656   -1.908438326399947e-05   -2.6665887472654003e-05
0.00014831753140136656   -1.908438326399947e-05   -2.6665887472654003e-05
0.00014831753140136656   -1.908438326399947e-05   -2.6665887472654003e-05
0.00014831753140136656   -1.908438326399947e-05   -2.6665887472654003e-05
0.00010250170740132019   -2.2067362579650945e-05   5.148360678347867e-05
0.00010250170740132019   -2.2067362579650945e-05   5.148360678347867e-05
0.00010250170740132019   -2.2067362579650945e-05   5.148360678347867e-05
0.00010250170740132019   -2.2067362579650945e-05   5.148360678347867e-05
7.317615285420319e-05   -4.421663075439286e-08   0.00022107801794317775
7.317615285420319e-05   -4.421663075439286e-08   0.00022107801794317775
7.317615285420319e-05   -4.421663075439286e-08   0.00022107801794317775
7.317615285420319e-05   -4.421663075439286e-08   0.00022107801794317775
-2.3878535111922943e-05   5.9191745309279675e-06   6.289823936331002e-05
-2.3878535111922943e-05   5.9191745309279675e-06   6.289823936331002e-05
-2.3878535111922943e-05   5.9191745309279675e-06   6.289823936331002e-05
-2.3878535111922943e-05   5.9191745309279675e-06   6.289823936331002e-05
-2.818563990658737e-05   -4.359484581549153e-06   0.00022153406329516838
-2.818563990658737e-05   -4.359484581549153e-06   0.00022153406329516838
-2.818563990658737e-05   -4.359484581549153e-06   0.00022153406329516838
-2.818563990658737e-05   -4.359484581549153e-06   0.00022153406329516838
6.848450965548641e-05   1.441703865687552e-06   5.693643429003904e-05
6.848450965548641e-05   1.441703865687552e-06   5.693643429003904e-05
6.848450965548641e-05   1.441703865687552e-06   5.693643429003904e-05
6.848450965548641e-05   1.441703865687552e-06   5.693643429003904e-05
2.171028370430779e-05   3.586671024589927e-07   0.00013554329959994328
2.171028370430779e-05   3.586671024589927e-07   0.00013554329959994328
2.171028370430779e-05   3.586671024589927e-07   0.00013554329959994328
2.171028370430779e-05   3.586671024589927e-07   0.00013554329959994328
6.848450965548657e-05   -4.359484581549153e-06   0.00021805335022682774
6.848450965548657e-05   -4.359484581549153e-06   0.00021805335022682774
6.848450965548657e-05   -4.359484581549153e-06   0.00021805335022682774
6.848450965548657e-05   -4.359484581549153e-06   0.00021805335022682774
-2.818563990658737e-05   1.4417038656858172e-06   6.041714735837995e-05
-2.818563990658737e-05   1.4417038656858172e-06   6.041714735837995e-05
-2.818563990658737e-05   1.4417038656858172e-06   6.041714735837995e-05
-2.818563990658737e-05   1.4417038656858172e-06   6.041714735837995e-05
-3.2587345481759566e-05   -7.773908223176335e-06   0.0002189550558216631
-3.2587345481759566e-05   -7.773908223176335e-06   0.0002189550558216631
-3.2587345481759566e-05   -7.773908223176335e-06   0.0002189550558216631
-3.2587345481759566e-05   -7.773908223176335e-06   0.0002189550558216631
6.322394822237188e-05   -2.234423044956968e-06   5.5945875207847175e-05
6.322394822237188e-05   -2.234423044956968e-06   5.5945875207847175e-05
6.322394822237188e-05   -2.234423044956968e-06   5.5945875207847175e-05
6.322394822237188e-05   -2.234423044956968e-06   5.5945875207847175e-05
1.6983722374462775e-05   -2.635109205546479e-06   0.00013325332998405598
1.6983722374462775e-05   -2.635109205546479e-06   0.00013325332998405598
1.6983722374462775e-05   -2.635109205546479e-06   0.00013325332998405598
1.6983722374462775e-05   -2.635109205546479e-06   0.00013325332998405598
6.32239482223721e-05   -7.773908223176335e-06   0.00021563136471473236
6.32239482223721e-05   -7.773908223176335e-06   0.00021563136471473236
6.32239482223721e-05   -7.773908223176335e-06   0.00021563136471473236
6.32239482223721e-05   -7.773908223176335e-06   0.00021563136471473236
-3.2587345481759674e-05   -2.234423044956968e-06   5.926956631477874e-05
-3.2587345481759674e-05   -2.234423044956968e-06   5.926956631477874e-05
-3.2587345481759674e-05   -2.234423044956968e-06   5.926956631477874e-05
-3.2587345481759674e-05   -2.234423044956968e-06   5.926956631477874e-05
-3.695055163691638e-05   -1.0952156768370691e-05   0.0002210196099864236
-3.695055163691638e-05   -1.0952156768370691e-05   0.0002210196099864236
-3.695055163691638e-05   -1.0952156768370691e-05   0.0002210196099864236
-3.695055163691638e-05   -1.0952156768370691e-05   0.0002210196099864236
5.8512137327602914e-05   -5.872759082547335e-06   5.886748976739677e-05
5.8512137327602914e-05   -5.872759082547335e-06   5.886748976739677e-05
5.8512137327602914e-05   -5.872759082547335e-06   5.886748976739677e-05
5.8512137327602914e-05   -5.872759082547335e-06   5.886748976739677e-05
1.3235022784124025e-05   -5.145951689908973e-06   0.00013389326290427956
1.3235022784124025e-05   -5.145951689908973e-06   0.00013389326290427956
1.3235022784124025e-05   -5.145951689908973e-06   0.00013389326290427956
1.3235022784124025e-05   -5.145951689908973e-06   0.00013389326290427956
-2.3878535111922835e-05   2.233359150730259e-05   0.00024008257378712455
-2.3878535111922835e-05   2.233359150730259e-05   0.00024008257378712455
-2.3878535111922835e-05   2.233359150730259e-05   0.00024008257378712455
-2.3878535111922835e-05   2.233359150730259e-05   0.00024008257378712455
-0.00011936552949355118   2.193606170937737e-05   8.069906527232145e-05
-0.00011936552949355118   2.193606170937737e-05   8.069906527232145e-05
-0.00011936552949355118   2.193606170937737e-05   8.069906527232145e-05
-0.00011936552949355118   2.193606170937737e-05   8.069906527232145e-05
-0.00012361048126504964   1.852735803602526e-05   0.00023851229579009182
-0.00012361048126504964   1.852735803602526e-05   0.00023851229579009182
-0.00012361048126504964   1.852735803602526e-05   0.00023851229579009182
-0.00012361048126504964   1.852735803602526e-05   0.00023851229579009182
-2.818563990658726e-05   1.7853633656656626e-05   7.987512815360955e-05
-2.818563990658726e-05   1.7853633656656626e-05   7.987512815360955e-05
-2.818563990658726e-05   1.7853633656656626e-05   7.987512815360955e-05
-2.818563990658726e-05   1.7853633656656626e-05   7.987512815360955e-05
-7.39426971653044e-05   1.9672434709750927e-05   0.00015504560961962098
-7.39426971653044e-05   1.9672434709750927e-05   0.00015504560961962098
-7.39426971653044e-05   1.9672434709750927e-05   0.00015504560961962098
-7.39426971653044e-05   1.9672434709750927e-05   0.00015504560961962098
-2.818563990658737e-05   1.8527358036026995e-05   0.00023891653041771457
-2.818563990658737e-05   1.8527358036026995e-05   0.00023891653041771457
-2.818563990658737e-05   1.8527358036026995e-05   0.00023891653041771457
-2.818563990658737e-05   1.8527358036026995e-05   0.00023891653041771457
-0.00012361048126504964   1.785363365665836e-05   7.94708935259892e-05
-0.00012361048126504964   1.785363365665836e-05   7.94708935259892e-05
-0.00012361048126504964   1.785363365665836e-05   7.94708935259892e-05
-0.00012361048126504964   1.785363365665836e-05   7.94708935259892e-05
-0.00012795930534387125   1.4780857787839718e-05   0.00023976821024282967
-0.00012795930534387125   1.4780857787839718e-05   0.00023976821024282967
-0.00012795930534387125   1.4780857787839718e-05   0.00023976821024282967
-0.00012795930534387125   1.4780857787839718e-05   0.00023976821024282967
-3.258734548175946e-05   1.3817599310623e-05   8.139289889230825e-05
-3.258734548175946e-05   1.3817599310623e-05   8.139289889230825e-05
-3.258734548175946e-05   1.3817599310623e-05   8.139289889230825e-05
-3.258734548175946e-05   1.3817599310623e-05   8.139289889230825e-05
-7.783473962214439e-05   1.6703471646523776e-05   0.00015507369905808067
-7.783473962214439e-05   1.6703471646523776e-05   0.00015507369905808067
-7.783473962214439e-05   1.6703471646523776e-05   0.00015507369905808067
-7.783473962214439e-05   1.6703471646523776e-05   0.00015507369905808067
-3.2587345481759566e-05   1.4780857787839718e-05   0.00024034616532916074
-3.2587345481759566e-05   1.4780857787839718e-05   0.00024034616532916074
-3.2587345481759566e-05   1.4780857787839718e-05   0.00024034616532916074
-3.2587345481759566e-05   1.4780857787839718e-05   0.00024034616532916074
-0.00012795930534387125   1.3817599310621265e-05   8.081494380597805e-05
-0.00012795930534387125   1.3817599310621265e-05   8.081494380597805e-05
-0.00012795930534387125   1.3817599310621265e-05   8.081494380597805e-05
-0.00012795930534387125   1.3817599310621265e-05   8.081494380597805e-05
-0.000132259278010587   1.122462335385356e-05   0.00024303890572531343
-0.000132259278010587   1.122462335385356e-05   0.00024303890572531343
-0.000132259278010587   1.122462335385356e-05   0.00024303890572531343
-0.000132259278010587   1.122462335385356e-05   0.00024303890572531343
-3.695055163691616e-05   9.92999492781775e-06   8.496780549148452e-05
-3.695055163691616e-05   9.92999492781775e-06   8.496780549148452e-05
-3.695055163691616e-05   9.92999492781775e-06   8.496780549148452e-05
-3.695055163691616e-05   9.92999492781775e-06   8.496780549148452e-05
-8.190349826867299e-05   1.3802764574582724e-05   0.00015756572142301781
-8.190349826867299e-05   1.3802764574582724e-05   0.00015756572142301781
-8.190349826867299e-05   1.3802764574582724e-05   0.00015756572142301781
-8.190349826867299e-05   1.3802764574582724e-05   0.00015756572142301781
-0.00011936552949355118   4.384782817647842e-05   0.000212187003229029
-0.00011936552949355118   4.384782817647842e-05   0.000212187003229029
-0.00011936552949355118   4.384782817647842e-05   0.000212187003229029
-0.00011936552949355118   4.384782817647842e-05   0.000212187003229029
-0.0002131552112604601   3.750727766424315e-05   5.206653664350559e-05
-0.0002131552112604601   3.750727766424315e-05   5.206653664350559e-05
-0.0002131552112604601   3.750727766424315e-05   5.206653664350559e-05
-0.0002131552112604601   3.750727766424315e-05   5.206653664350559e-05
-0.00021770344436685134   4.0190015511509455e-05   0.00020933667670847665
-0.00021770344436685134   4.0190015511509455e-05   0.00020933667670847665
-0.00021770344436685134   4.0190015511509455e-05   0.00020933667670847665
-0.00021770344436685134   4.0190015511509455e-05   0.00020933667670847665
-0.00012361048126504942   3.3509458788001656e-05   5.652340557291049e-05
-0.00012361048126504942   3.3509458788001656e-05   5.652340557291049e-05
-0.00012361048126504942   3.3509458788001656e-05   5.652340557291049e-05
-0.00012361048126504942   3.3509458788001656e-05   5.652340557291049e-05
-0.00016798574561747125   3.811936831928965e-05   0.0001277162337748462
-0.00016798574561747125   3.811936831928965e-05   0.0001277162337748462
-0.00016798574561747125   3.811936831928965e-05   0.0001277162337748462
-0.00016798574561747125   3.811936831928965e-05   0.0001277162337748462
-0.00012361048126504964   4.019001551150772e-05   0.00021334501074257977
-0.00012361048126504964   4.019001551150772e-05   0.00021334501074257977
-0.00012361048126504964   4.019001551150772e-05   0.00021334501074257977
-0.00012361048126504964   4.019001551150772e-05   0.00021334501074257977
-0.00021770344436685112   3.3509458788001656e-05   5.251507153880737e-05
-0.00021770344436685112   3.3509458788001656e-05   5.251507153880737e-05
-0.00021770344436685112   3.3509458788001656e-05   5.251507153880737e-05
-0.00021770344436685112   3.3509458788001656e-05   5.251507153880737e-05
-0.00022282699324259014   3.679364413474058e-05   0.0002164942877902129
-0.00022282699324259014   3.679364413474058e-05   0.0002164942877902129
-0.00022282699324259014   3.679364413474058e-05   0.0002164942877902129
-0.00022282699324259014   3.679364413474058e-05   0.0002164942877902129
-0.00012795930534387082   2.98206760959846e-05   6.256525544893641e-05
-0.00012795930534387082   2.98206760959846e-05   6.256525544893641e-05
-0.00012795930534387082   2.98206760959846e-05   6.256525544893641e-05
-0.00012795930534387082   2.98206760959846e-05   6.256525544893641e-05
-0.00017115786122528977   3.5391571728021765e-05   0.00013122031120541694
-0.00017115786122528977   3.5391571728021765e-05   0.00013122031120541694
-0.00017115786122528977   3.5391571728021765e-05   0.00013122031120541694
-0.00017115786122528977   3.5391571728021765e-05   0.00013122031120541694
-0.00012795930534387104   3.679364413474058e-05   0.0002206780686134658
-0.00012795930534387104   3.679364413474058e-05   0.0002206780686134658
-0.00012795930534387104   3.679364413474058e-05   0.0002206780686134658
-0.00012795930534387104   3.679364413474058e-05   0.0002206780686134658
-0.0002228269932425895   2.9820676095986334e-05   5.838147462568395e-05
-0.0002228269932425895   2.9820676095986334e-05   5.838147462568395e-05
-0.0002228269932425895   2.9820676095986334e-05   5.838147462568395e-05
-0.0002228269932425895   2.9820676095986334e-05   5.838147462568395e-05
-0.0002273900188401361   3.284938972584507e-05   0.00022257673077924305
-0.0002273900188401361   3.284938972584507e-05   0.00022257673077924305
-0.0002273900188401361   3.284938972584507e-05   0.00022257673077924305
-0.0002273900188401361   3.284938972584507e-05   0.00022257673077924305
-0.00013225927801058658   2.5707340255151992e-05   6.831072574574413e-05
-0.00013225927801058658   2.5707340255151992e-05   6.831072574574413e-05
-0.00013225927801058658   2.5707340255151992e-05   6.831072574574413e-05
-0.00013225927801058658   2.5707340255151992e-05   6.831072574574413e-05
-0.00017628088970478913   3.2532145437292465e-05   0.00013758519546013632
-0.00017628088970478913   3.2532145437292465e-05   0.00013758519546013632
-0.00017628088970478913   3.2532145437292465e-05   0.00013758519546013632
-0.00017628088970478913   3.2532145437292465e-05   0.00013758519546013632
-0.0002131552112604601   6.0273853788197704e-05   0.00010174435374822686
-0.0002131552112604601   6.0273853788197704e-05   0.00010174435374822686
-0.0002131552112604601   6.0273853788197704e-05   0.00010174435374822686
-0.0002131552112604601   6.0273853788197704e-05   0.00010174435374822686
-0.0003008196514011573   4.904609814299424e-05   -5.1099699873390775e-05
-0.0003008196514011573   4.904609814299424e-05   -5.1099699873390775e-05
-0.0003008196514011573   4.904609814299424e-05   -5.1099699873390775e-05
-0.0003008196514011573   4.904609814299424e-05   -5.1099699873390775e-05
-0.0003103092543159016   5.992665311700153e-05   0.000130192336582775
-0.0003103092543159016   5.992665311700153e-05   0.000130192336582775
-0.0003103092543159016   5.992665311700153e-05   0.000130192336582775
-0.0003103092543159016   5.992665311700153e-05   0.000130192336582775
-0.00021770344436685047   4.7736857877338223e-05   -1.6836802855176112e-05
-0.00021770344436685047   4.7736857877338223e-05   -1.6836802855176112e-05
-0.00021770344436685047   4.7736857877338223e-05   -1.6836802855176112e-05
-0.00021770344436685047   4.7736857877338223e-05   -1.6836802855176112e-05
-0.00025074113461798306   5.3276077564180443e-05   3.4902482417943984e-05
-0.00025074113461798306   5.3276077564180443e-05   3.4902482417943984e-05
-0.00025074113461798306   5.3276077564180443e-05   3.4902482417943984e-05
-0.00025074113461798306   5.3276077564180443e-05   3.4902482417943984e-05
-0.00021770344436685134   5.9926653117003265e-05   0.00013750621372657628
-0.00021770344436685134   5.9926653117003265e-05   0.00013750621372657628
-0.00021770344436685134   5.9926653117003265e-05   0.00013750621372657628
-0.00021770344436685134   5.9926653117003265e-05   0.00013750621372657628
-0.00031030925431590247   4.7736857877338223e-05   -2.4150679998974356e-05
-0.00031030925431590247   4.7736857877338223e-05   -2.4150679998974356e-05
-0.00031030925431590247   4.7736857877338223e-05   -2.4150679998974356e-05
-0.00031030925431590247   4.7736857877338223e-05   -2.4150679998974356e-05
-0.0003186021626541101   5.869022652935617e-05   0.00015497752696500347
-0.0003186021626541101   5.869022652935617e-05   0.00015497752696500347
-0.0003186021626541101   5.869022652935617e-05   0.00015497752696500347
-0.0003186021626541101   5.869022652935617e-05   0.00015497752696500347
-0.00022282699324258927   4.617538120324331e-05   2.861151808137511e-06
-0.00022282699324258927   4.617538120324331e-05   2.861151808137511e-06
-0.00022282699324258927   4.617538120324331e-05   2.861151808137511e-06
-0.00022282699324258927   4.617538120324331e-05   2.861151808137511e-06
-0.00026074514467624293   5.32910374267722e-05   6.178867713011902e-05
-0.00026074514467624293   5.32910374267722e-05   6.178867713011902e-05
-0.00026074514467624293   5.32910374267722e-05   6.178867713011902e-05
-0.00026074514467624293   5.32910374267722e-05   6.178867713011902e-05
-0.00022282699324259014   5.869022652935617e-05   0.00016248643416067084
-0.00022282699324259014   5.869022652935617e-05   0.00016248643416067084
-0.00022282699324259014   5.869022652935617e-05   0.00016248643416067084
-0.00022282699324259014   5.869022652935617e-05   0.00016248643416067084
-0.0003186021626541101   4.617538120324331e-05   -4.647755387530723e-06
-0.0003186021626541101   4.617538120324331e-05   -4.647755387530723e-06
-0.0003186021626541101   4.617538120324331e-05   -4.647755387530723e-06
-0.0003186021626541101   4.617538120324331e-05   -4.647755387530723e-06
-0.0003282336044964618   5.32727253116181e-05   0.00019809738858974496
-0.0003282336044964618   5.32727253116181e-05   0.00019809738858974496
-0.0003282336044964618   5.32727253116181e-05   0.00019809738858974496
-0.0003282336044964618   5.32727253116181e-05   0.00019809738858974496
-0.00022739001884013502   4.096573340768919e-05   3.7408940971557676e-05
-0.00022739001884013502   4.096573340768919e-05   3.7408940971557676e-05
-0.00022739001884013502   4.096573340768919e-05   3.7408940971557676e-05
-0.00022739001884013502   4.096573340768919e-05   3.7408940971557676e-05
-0.0002630627145075922   5.1025092494898575e-05   9.082781829832572e-05
-0.0002630627145075922   5.1025092494898575e-05   9.082781829832572e-05
-0.0002630627145075922   5.1025092494898575e-05   9.082781829832572e-05
-0.0002630627145075922   5.1025092494898575e-05   9.082781829832572e-05
9.686064843403969e-05   -1.1103992588371026e-05   0.00013948522769255834
9.686064843403969e-05   -1.1103992588371026e-05   0.00013948522769255834
9.686064843403969e-05   -1.1103992588371026e-05   0.00013948522769255834
9.686064843403969e-05   -1.1103992588371026e-05   0.00013948522769255834
2.4874182874558222e-05   5.198093736592801e-07   2.6482066270640432e-05
2.4874182874558222e-05   5.198093736592801e-07   2.6482066270640432e-05
2.4874182874558222e-05   5.198093736592801e-07   2.6482066270640432e-05
2.4874182874558222e-05   5.198093736592801e-07   2.6482066270640432e-05
2.1383628245437886e-05   -1.5510416318540235e-05   0.00013020655119884688
2.1383628245437886e-05   -1.5510416318540235e-05   0.00013020655119884688
2.1383628245437886e-05   -1.5510416318540235e-05   0.00013020655119884688
2.1383628245437886e-05   -1.5510416318540235e-05   0.00013020655119884688
8.824608188326573e-05   -3.4173905367126944e-06   1.1513313000038319e-05
8.824608188326573e-05   -3.4173905367126944e-06   1.1513313000038319e-05
8.824608188326573e-05   -3.4173905367126944e-06   1.1513313000038319e-05
8.824608188326573e-05   -3.4173905367126944e-06   1.1513313000038319e-05
5.4404762662071506e-05   -7.935613538017847e-06   7.062644550281667e-05
5.4404762662071506e-05   -7.935613538017847e-06   7.062644550281667e-05
5.4404762662071506e-05   -7.935613538017847e-06   7.062644550281667e-05
5.4404762662071506e-05   -7.935613538017847e-06   7.062644550281667e-05
8.824608188326584e-05   -1.5510416318540235e-05   0.00012295073572974984
8.824608188326584e-05   -1.5510416318540235e-05   0.00012295073572974984
8.824608188326584e-05   -1.5510416318540235e-05   0.00012295073572974984
8.824608188326584e-05   -1.5510416318540235e-05   0.00012295073572974984
2.1383628245437832e-05   -3.4173905367126944e-06   1.876912846913558e-05
2.1383628245437832e-05   -3.4173905367126944e-06   1.876912846913558e-05
2.1383628245437832e-05   -3.4173905367126944e-06   1.876912846913558e-05
2.1383628245437832e-05   -3.4173905367126944e-06   1.876912846913558e-05
1.7324245051846286e-05   -1.7036686096557827e-05   0.00012230902745918003
1.7324245051846286e-05   -1.7036686096557827e-05   0.00012230902745918003
1.7324245051846286e-05   -1.7036686096557827e-05   0.00012230902745918003
1.7324245051846286e-05   -1.7036686096557827e-05   0.00012230902745918003
8.09621237207568e-05   -5.128331421857049e-06   9.100883539510276e-06
8.09621237207568e-05   -5.128331421857049e-06   9.100883539510276e-06
8.09621237207568e-05   -5.128331421857049e-06   9.100883539510276e-06
8.09621237207568e-05   -5.128331421857049e-06   9.100883539510276e-06
5.02092167032922e-05   -9.652900421179209e-06   6.307046996821151e-05
5.02092167032922e-05   -9.652900421179209e-06   6.307046996821151e-05
5.02092167032922e-05   -9.652900421179209e-06   6.307046996821151e-05
5.02092167032922e-05   -9.652900421179209e-06   6.307046996821151e-05
8.096212372075702e-05   -1.7036686096556092e-05   0.00011516401465436026
8.096212372075702e-05   -1.7036686096556092e-05   0.00011516401465436026
8.096212372075702e-05   -1.7036686096556092e-05   0.00011516401465436026
8.096212372075702e-05   -1.7036686096556092e-05   0.00011516401465436026
1.7324245051846232e-05   -5.128331421857049e-06   1.6245896344331025e-05
1.7324245051846232e-05   -5.128331421857049e-06   1.6245896344331025e-05
1.7324245051846232e-05   -5.128331421857049e-06   1.6245896344331025e-05
1.7324245051846232e-05   -5.128331421857049e-06   1.6245896344331025e-05
1.3811607382050085e-05   -1.9084383264001206e-05   0.00011326396258970126
1.3811607382050085e-05   -1.9084383264001206e-05   0.00011326396258970126
1.3811607382050085e-05   -1.9084383264001206e-05   0.00011326396258970126
1.3811607382050085e-05   -1.9084383264001206e-05   0.00011326396258970126
7.244681876963943e-05   -8.003589676619516e-06   8.890134124626232e-06
7.244681876963943e-05   -8.003589676619516e-06   8.890134124626232e-06
7.244681876963943e-05   -8.003589676619516e-06   8.890134124626232e-06
7.244681876963943e-05   -8.003589676619516e-06   8.890134124626232e-06
4.411783314085436e-05   -1.0563265815964618e-05   5.7640915856209906e-05
4.411783314085436e-05   -1.0563265815964618e-05   5.7640915856209906e-05
4.411783314085436e-05   -1.0563265815964618e-05   5.7640915856209906e-05
4.411783314085436e-05   -1.0563265815964618e-05   5.7640915856209906e-05
2.4874182874558276e-05   5.919174530926233e-06   0.0001928156797324429
2.4874182874558276e-05   5.919174530926233e-06   0.0001928156797324429
2.4874182874558276e-05   5.919174530926233e-06   0.0001928156797324429
2.4874182874558276e-05   5.919174530926233e-06   0.0001928156797324429
-4.0785033594153064e-05   1.1155019179531767e-05   8.652515907375379e-05
-4.0785033594153064e-05   1.1155019179531767e-05   8.652515907375379e-05
-4.0785033594153064e-05   1.1155019179531767e-05   8.652515907375379e-05
-4.0785033594153064e-05   1.1155019179531767e-05   8.652515907375379e-05
-4.384668327363521e-05   1.4417038656858172e-06   0.00019345949970619742
-4.384668327363521e-05   1.4417038656858172e-06   0.00019345949970619742
-4.384668327363521e-05   1.4417038656858172e-06   0.00019345949970619742
-4.384668327363521e-05   1.4417038656858172e-06   0.00019345949970619742
2.1383628245437832e-05   6.688154883529099e-06   8.159444323037156e-05
2.1383628245437832e-05   6.688154883529099e-06   8.159444323037156e-05
2.1383628245437832e-05   6.688154883529099e-06   8.159444323037156e-05
2.1383628245437832e-05   6.688154883529099e-06   8.159444323037156e-05
-1.007895376701252e-05   5.863354641649429e-06   0.000134526960062922
-1.007895376701252e-05   5.863354641649429e-06   0.000134526960062922
-1.007895376701252e-05   5.863354641649429e-06   0.000134526960062922
-1.007895376701252e-05   5.863354641649429e-06   0.000134526960062922
2.138362824543786e-05   1.4417038656858172e-06   0.00019031162909549214
2.138362824543786e-05   1.4417038656858172e-06   0.00019031162909549214
2.138362824543786e-05   1.4417038656858172e-06   0.00019031162909549214
2.138362824543786e-05   1.4417038656858172e-06   0.00019031162909549214
-4.384668327363521e-05   6.688154883529099e-06   8.474231384107862e-05
-4.384668327363521e-05   6.688154883529099e-06   8.474231384107862e-05
-4.384668327363521e-05   6.688154883529099e-06   8.474231384107862e-05
-4.384668327363521e-05   6.688154883529099e-06   8.474231384107862e-05
-4.699575519401277e-05   -2.234423044956968e-06   0.00019229007276230607
-4.699575519401277e-05   -2.234423044956968e-06   0.00019229007276230607
-4.699575519401277e-05   -2.234423044956968e-06   0.00019229007276230607
-4.699575519401277e-05   -2.234423044956968e-06   0.00019229007276230607
1.7324245051846232e-05   2.889328294543303e-06   8.20158215488415e-05
1.7324245051846232e-05   2.889328294543303e-06   8.20158215488415e-05
1.7324245051846232e-05   2.889328294543303e-06   8.20158215488415e-05
1.7324245051846232e-05   2.889328294543303e-06   8.20158215488415e-05
-1.3341495257716978e-05   2.7396539755714794e-06   0.0001332151933228342
-1.3341495257716978e-05   2.7396539755714794e-06   0.0001332151933228342
-1.3341495257716978e-05   2.7396539755714794e-06   0.0001332151933228342
-1.3341495257716978e-05   2.7396539755714794e-06   0.0001332151933228342
1.7324245051846286e-05   -2.234423044956968e-06   0.00018921582195860574
1.7324245051846286e-05   -2.234423044956968e-06   0.00018921582195860574
1.7324245051846286e-05   -2.234423044956968e-06   0.00018921582195860574
1.7324245051846286e-05   -2.234423044956968e-06   0.00018921582195860574
-4.699575519401288e-05   2.8893282945450377e-06   8.50900723525427e-05
-4.699575519401288e-05   2.8893282945450377e-06   8.50900723525427e-05
-4.699575519401288e-05   2.8893282945450377e-06   8.50900723525427e-05
-4.699575519401288e-05   2.8893282945450377e-06   8.50900723525427e-05
-5.0095582286610856e-05   -5.8727590825456005e-06   0.00019489461179940468
-5.0095582286610856e-05   -5.8727590825456005e-06   0.00019489461179940468
-5.0095582286610856e-05   -5.8727590825456005e-06   0.00019489461179940468
-5.0095582286610856e-05   -5.8727590825456005e-06   0.00019489461179940468
1.3811607382050058e-05   -1.0088860751458067e-06   8.546430521386519e-05
1.3811607382050058e-05   -1.0088860751458067e-06   8.546430521386519e-05
1.3811607382050058e-05   -1.0088860751458067e-06   8.546430521386519e-05
1.3811607382050058e-05   -1.0088860751458067e-06   8.546430521386519e-05
-1.6113041756180138e-05   -7.85630330877446e-08   0.00013478052661901514
-1.6113041756180138e-05   -7.85630330877446e-08   0.00013478052661901514
-1.6113041756180138e-05   -7.85630330877446e-08   0.00013478052661901514
-1.6113041756180138e-05   -7.85630330877446e-08   0.00013478052661901514
-4.0785033594153064e-05   2.193606170937737e-05   0.00021399653030937296
-4.0785033594153064e-05   2.193606170937737e-05   0.00021399653030937296
-4.0785033594153064e-05   2.193606170937737e-05   0.00021399653030937296
-4.0785033594153064e-05   2.193606170937737e-05   0.00021399653030937296
-0.00010538337779166071   2.0636606887421485e-05   0.00010555295042035447
-0.00010538337779166071   2.0636606887421485e-05   0.00010555295042035447
-0.00010538337779166071   2.0636606887421485e-05   0.00010555295042035447
-0.00010538337779166071   2.0636606887421485e-05   0.00010555295042035447
-0.00010831677608277835   1.785363365665836e-05   0.00021210831345840932
-0.00010831677608277835   1.785363365665836e-05   0.00021210831345840932
-0.00010831677608277835   1.785363365665836e-05   0.00021210831345840932
-0.00010831677608277835   1.785363365665836e-05   0.00021210831345840932
-4.38466832736351e-05   1.650502191829356e-05   0.00010546732581952537
-4.38466832736351e-05   1.650502191829356e-05   0.00010546732581952537
-4.38466832736351e-05   1.650502191829356e-05   0.00010546732581952537
-4.38466832736351e-05   1.650502191829356e-05   0.00010546732581952537
-7.471801730370061e-05   1.8785534932876102e-05   0.00015555124139422392
-7.471801730370061e-05   1.8785534932876102e-05   0.00015555124139422392
-7.471801730370061e-05   1.8785534932876102e-05   0.00015555124139422392
-7.471801730370061e-05   1.8785534932876102e-05   0.00015555124139422392
-4.384668327363521e-05   1.7853633656656626e-05   0.0002129174805014294
-4.384668327363521e-05   1.7853633656656626e-05   0.0002129174805014294
-4.384668327363521e-05   1.7853633656656626e-05   0.0002129174805014294
-4.384668327363521e-05   1.7853633656656626e-05   0.0002129174805014294
-0.00010831677608277791   1.650502191829356e-05   0.00010465815877650636
-0.00010831677608277791   1.650502191829356e-05   0.00010465815877650636
-0.00010831677608277791   1.650502191829356e-05   0.00010465815877650636
-0.00010831677608277791   1.650502191829356e-05   0.00010465815877650636
-0.00011134798564801061   1.3817599310623e-05   0.00021355936309993412
-0.00011134798564801061   1.3817599310623e-05   0.00021355936309993412
-0.00011134798564801061   1.3817599310623e-05   0.00021355936309993412
-0.00011134798564801061   1.3817599310623e-05   0.00021355936309993412
-4.6995755194012665e-05   1.2394195577450709e-05   0.00010715968791650816
-4.6995755194012665e-05   1.2394195577450709e-05   0.00010715968791650816
-4.6995755194012665e-05   1.2394195577450709e-05   0.00010715968791650816
-4.6995755194012665e-05   1.2394195577450709e-05   0.00010715968791650816
-7.733316070956259e-05   1.563670267333908e-05   0.0001557765261848917
-7.733316070956259e-05   1.563670267333908e-05   0.0001557765261848917
-7.733316070956259e-05   1.563670267333908e-05   0.0001557765261848917
-7.733316070956259e-05   1.563670267333908e-05   0.0001557765261848917
-4.699575519401288e-05   1.3817599310623e-05   0.00021441340533983732
-4.699575519401288e-05   1.3817599310623e-05   0.00021441340533983732
-4.699575519401288e-05   1.3817599310623e-05   0.00021441340533983732
-4.699575519401288e-05   1.3817599310623e-05   0.00021441340533983732
-0.0001113479856480104   1.2394195577452444e-05   0.00010630564567660518
-0.0001113479856480104   1.2394195577452444e-05   0.00010630564567660518
-0.0001113479856480104   1.2394195577452444e-05   0.00010630564567660518
-0.0001113479856480104   1.2394195577452444e-05   0.00010630564567660518
-0.00011433296626494108   9.92999492781775e-06   0.00021706195281592615
-0.00011433296626494108   9.92999492781775e-06   0.00021706195281592615
-0.00011433296626494108   9.92999492781775e-06   0.00021706195281592615
-0.00011433296626494108   9.92999492781775e-06   0.00021706195281592615
-5.0095582286610856e-05   8.454434767699026e-06   0.00011088498228144857
-5.0095582286610856e-05   8.454434767699026e-06   0.00011088498228144857
-5.0095582286610856e-05   8.454434767699026e-06   0.00011088498228144857
-5.0095582286610856e-05   8.454434767699026e-06   0.00011088498228144857
-8.011293050775616e-05   1.2549169400074417e-05   0.0001584570552039346
-8.011293050775616e-05   1.2549169400074417e-05   0.0001584570552039346
-8.011293050775616e-05   1.2549169400074417e-05   0.0001584570552039346
-8.011293050775616e-05   1.2549169400074417e-05   0.0001584570552039346
-0.00010538337779166071   3.750727766424315e-05   0.00018838865909472612
-0.00010538337779166071   3.750727766424315e-05   0.00018838865909472612
-0.00010538337779166071   3.750727766424315e-05   0.00018838865909472612
-0.00010538337779166071   3.750727766424315e-05   0.00018838865909472612
-0.00016873323261149594   3.0560791221805744e-05   7.86376758628699e-05
-0.00016873323261149594   3.0560791221805744e-05   7.86376758628699e-05
-0.00016873323261149594   3.0560791221805744e-05   7.86376758628699e-05
-0.00016873323261149594   3.0560791221805744e-05   7.86376758628699e-05
-0.00017192588510993485   3.3509458788001656e-05   0.00018488790185745667
-0.00017192588510993485   3.3509458788001656e-05   0.00018488790185745667
-0.00017192588510993485   3.3509458788001656e-05   0.00018488790185745667
-0.00017192588510993485   3.3509458788001656e-05   0.00018488790185745667
-0.0001083167760827777   2.638791937487929e-05   8.314564379340549e-05
-0.0001083167760827777   2.638791937487929e-05   8.314564379340549e-05
-0.0001083167760827777   2.638791937487929e-05   8.314564379340549e-05
-0.0001083167760827777   2.638791937487929e-05   8.314564379340549e-05
-0.00013825753080551394   3.14880131803974e-05   0.00012998684538132778
-0.00013825753080551394   3.14880131803974e-05   0.00012998684538132778
-0.00013825753080551394   3.14880131803974e-05   0.00012998684538132778
-0.00013825753080551394   3.14880131803974e-05   0.00012998684538132778
-0.00010831677608277835   3.350945878800339e-05   0.00018916082550533148
-0.00010831677608277835   3.350945878800339e-05   0.00018916082550533148
-0.00010831677608277835   3.350945878800339e-05   0.00018916082550533148
-0.00010831677608277835   3.350945878800339e-05   0.00018916082550533148
-0.00017192588510993442   2.638791937487929e-05   7.887272014553111e-05
-0.00017192588510993442   2.638791937487929e-05   7.887272014553111e-05
-0.00017192588510993442   2.638791937487929e-05   7.887272014553111e-05
-0.00017192588510993442   2.638791937487929e-05   7.887272014553111e-05
-0.00017571251605503916   2.98206760959846e-05   0.00019097913336721568
-0.00017571251605503916   2.98206760959846e-05   0.00019097913336721568
-0.00017571251605503916   2.98206760959846e-05   0.00019097913336721568
-0.00017571251605503916   2.98206760959846e-05   0.00019097913336721568
-0.00011134798564801018   2.2603107136524858e-05   8.803545739784462e-05
-0.00011134798564801018   2.2603107136524858e-05   8.803545739784462e-05
-0.00011134798564801018   2.2603107136524858e-05   8.803545739784462e-05
-0.00011134798564801018   2.2603107136524858e-05   8.803545739784462e-05
-0.00014034113243883734   2.853167502114319e-05   0.00013280022798511796
-0.00014034113243883734   2.853167502114319e-05   0.00013280022798511796
-0.00014034113243883734   2.853167502114319e-05   0.00013280022798511796
-0.00014034113243883734   2.853167502114319e-05   0.00013280022798511796
-0.00011134798564801061   2.98206760959846e-05   0.00019530967474289118
-0.00011134798564801061   2.98206760959846e-05   0.00019530967474289118
-0.00011134798564801061   2.98206760959846e-05   0.00019530967474289118
-0.00011134798564801061   2.98206760959846e-05   0.00019530967474289118
-0.00017571251605503872   2.2603107136524858e-05   8.370491602216826e-05
-0.00017571251605503872   2.2603107136524858e-05   8.370491602216826e-05
-0.00017571251605503872   2.2603107136524858e-05   8.370491602216826e-05
-0.00017571251605503872   2.2603107136524858e-05   8.370491602216826e-05
-0.0001789690202509235   2.5707340255151992e-05   0.00019689802653973833
-0.0001789690202509235   2.5707340255151992e-05   0.00019689802653973833
-0.0001789690202509235   2.5707340255151992e-05   0.00019689802653973833
-0.0001789690202509235   2.5707340255151992e-05   0.00019689802653973833
-0.00011433296626494065   1.856796761169968e-05   9.345489348250736e-05
-0.00011433296626494065   1.856796761169968e-05   9.345489348250736e-05
-0.00011433296626494065   1.856796761169968e-05   9.345489348250736e-05
-0.00011433296626494065   1.856796761169968e-05   9.345489348250736e-05
-0.00014389625702766783   2.5581396001284062e-05   0.00013851898771997462
-0.00014389625702766783   2.5581396001284062e-05   0.00013851898771997462
-0.00014389625702766783   2.5581396001284062e-05   0.00013851898771997462
-0.00014389625702766783   2.5581396001284062e-05   0.00013851898771997462
-0.00016873323261149637   4.904609814299424e-05   8.779118409948938e-05
-0.00016873323261149637   4.904609814299424e-05   8.779118409948938e-05
-0.00016873323261149637   4.904609814299424e-05   8.779118409948938e-05
-0.00016873323261149637   4.904609814299424e-05   8.779118409948938e-05
-0.00022557570995128612   3.745081276681356e-05   -1.3903449359203499e-05
-0.00022557570995128612   3.745081276681356e-05   -1.3903449359203499e-05
-0.00022557570995128612   3.745081276681356e-05   -1.3903449359203499e-05
-0.00022557570995128612   3.745081276681356e-05   -1.3903449359203499e-05
-0.00023374776834061755   4.7736857877338223e-05   0.00010807192074007918
-0.00023374776834061755   4.7736857877338223e-05   0.00010807192074007918
-0.00023374776834061755   4.7736857877338223e-05   0.00010807192074007918
-0.00023374776834061755   4.7736857877338223e-05   0.00010807192074007918
-0.00017192588510993442   3.5296680005013e-05   1.2499555412337666e-05
-0.00017192588510993442   3.5296680005013e-05   1.2499555412337666e-05
-0.00017192588510993442   3.5296680005013e-05   1.2499555412337666e-05
-0.00017192588510993442   3.5296680005013e-05   1.2499555412337666e-05
-0.0001927200872100358   4.162427724949819e-05   4.336000056582266e-05
-0.0001927200872100358   4.162427724949819e-05   4.336000056582266e-05
-0.0001927200872100358   4.162427724949819e-05   4.336000056582266e-05
-0.0001927200872100358   4.162427724949819e-05   4.336000056582266e-05
-0.00017192588510993485   4.7736857877338223e-05   0.00011553602746347449
-0.00017192588510993485   4.7736857877338223e-05   0.00011553602746347449
-0.00017192588510993485   4.7736857877338223e-05   0.00011553602746347449
-0.00017192588510993485   4.7736857877338223e-05   0.00011553602746347449
-0.00023374776834061755   3.5296680005013e-05   5.035448688943227e-06
-0.00023374776834061755   3.5296680005013e-05   5.035448688943227e-06
-0.00023374776834061755   3.5296680005013e-05   5.035448688943227e-06
-0.00023374776834061755   3.5296680005013e-05   5.035448688943227e-06
-0.000240796573980343   4.617538120324331e-05   0.00012786282514093243
-0.000240796573980343   4.617538120324331e-05   0.00012786282514093243
-0.000240796573980343   4.617538120324331e-05   0.00012786282514093243
-0.000240796573980343   4.617538120324331e-05   0.00012786282514093243
-0.00017571251605503872   3.3515405522016595e-05   2.6985380674162535e-05
-0.00017571251605503872   3.3515405522016595e-05   2.6985380674162535e-05
-0.00017571251605503872   3.3515405522016595e-05   2.6985380674162535e-05
-0.00017571251605503872   3.3515405522016595e-05   2.6985380674162535e-05
-0.00020053825044213588   4.105350898538952e-05   6.383874257463729e-05
-0.00020053825044213588   4.105350898538952e-05   6.383874257463729e-05
-0.00020053825044213588   4.105350898538952e-05   6.383874257463729e-05
-0.00020053825044213588   4.105350898538952e-05   6.383874257463729e-05
-0.00017571251605503916   4.617538120324331e-05   0.0001354588105496688
-0.00017571251605503916   4.617538120324331e-05   0.0001354588105496688
-0.00017571251605503916   4.617538120324331e-05   0.0001354588105496688
-0.00017571251605503916   4.617538120324331e-05   0.0001354588105496688
-0.000240796573980343   3.3515405522016595e-05   1.9389395265427024e-05
-0.000240796573980343   3.3515405522016595e-05   1.9389395265427024e-05
-0.000240796573980343   3.3515405522016595e-05   1.9389395265427024e-05
-0.000240796573980343   3.3515405522016595e-05   1.9389395265427024e-05
-0.0002492470558836707   4.096573340768746e-05   0.00016292246677698796
-0.0002492470558836707   4.096573340768746e-05   0.00016292246677698796
-0.0002492470558836707   4.096573340768746e-05   0.00016292246677698796
-0.0002492470558836707   4.096573340768746e-05   0.00016292246677698796
-0.00017896902025092308   2.8700725622726395e-05   5.315141206005576e-05
-0.00017896902025092308   2.8700725622726395e-05   5.315141206005576e-05
-0.00017896902025092308   2.8700725622726395e-05   5.315141206005576e-05
-0.00017896902025092308   2.8700725622726395e-05   5.315141206005576e-05
-0.00020254640972982392   3.886422571842789e-05   8.63489611341384e-05
-0.00020254640972982392   3.886422571842789e-05   8.63489611341384e-05
-0.00020254640972982392   3.886422571842789e-05   8.63489611341384e-05
-0.00020254640972982392   3.886422571842789e-05   8.63489611341384e-05
1.760304570783708e-05   5.198093736592801e-07   0.00010345748460931399
1.760304570783708e-05   5.198093736592801e-07   0.00010345748460931399
1.760304570783708e-05   5.198093736592801e-07   0.00010345748460931399
1.760304570783708e-05   5.198093736592801e-07   0.00010345748460931399
-2.3048076032065667e-05   1.1634640332242041e-05   4.237451361795933e-05
-2.3048076032065667e-05   1.1634640332242041e-05   4.237451361795933e-05
-2.3048076032065667e-05   1.1634640332242041e-05   4.237451361795933e-05
-2.3048076032065667e-05   1.1634640332242041e-05   4.237451361795933e-05
-2.54925288826284e-05   -3.4173905367126944e-06   0.00010227559946552733
-2.54925288826284e-05   -3.4173905367126944e-06   0.00010227559946552733
-2.54925288826284e-05   -3.4173905367126944e-06   0.00010227559946552733
-2.54925288826284e-05   -3.4173905367126944e-06   0.00010227559946552733
1.0140911643964916e-05   7.963620157413857e-06   3.6057925504729424e-05
1.0140911643964916e-05   7.963620157413857e-06   3.6057925504729424e-05
1.0140911643964916e-05   7.963620157413857e-06   3.6057925504729424e-05
1.0140911643964916e-05   7.963620157413857e-06   3.6057925504729424e-05
-6.100111304236213e-06   3.5534432343206634e-06   6.577240323892155e-05
-6.100111304236213e-06   3.5534432343206634e-06   6.577240323892155e-05
-6.100111304236213e-06   3.5534432343206634e-06   6.577240323892155e-05
-6.100111304236213e-06   3.5534432343206634e-06   6.577240323892155e-05
1.0140911643964916e-05   -3.4173905367126944e-06   9.544699304905174e-05
1.0140911643964916e-05   -3.4173905367126944e-06   9.544699304905174e-05
1.0140911643964916e-05   -3.4173905367126944e-06   9.544699304905174e-05
1.0140911643964916e-05   -3.4173905367126944e-06   9.544699304905174e-05
-2.54925288826284e-05   7.963620157413857e-06   4.288653192120479e-05
-2.54925288826284e-05   7.963620157413857e-06   4.288653192120479e-05
-2.54925288826284e-05   7.963620157413857e-06   4.288653192120479e-05
-2.54925288826284e-05   7.963620157413857e-06   4.288653192120479e-05
-2.850756800143651e-05   -5.128331421857049e-06   9.97475386463947e-05
-2.850756800143651e-05   -5.128331421857049e-06   9.97475386463947e-05
-2.850756800143651e-05   -5.128331421857049e-06   9.97475386463947e-05
-2.850756800143651e-05   -5.128331421857049e-06   9.97475386463947e-05
3.677817491565109e-06   5.923795152079289e-06   3.9473953547029036e-05
3.677817491565109e-06   5.923795152079289e-06   3.9473953547029036e-05
3.677817491565109e-06   5.923795152079289e-06   3.9473953547029036e-05
3.677817491565109e-06   5.923795152079289e-06   3.9473953547029036e-05
-1.0146987458541022e-05   1.9877583512916547e-06   6.487691721101141e-05
-1.0146987458541022e-05   1.9877583512916547e-06   6.487691721101141e-05
-1.0146987458541022e-05   1.9877583512916547e-06   6.487691721101141e-05
-1.0146987458541022e-05   1.9877583512916547e-06   6.487691721101141e-05
3.6778174915652172e-06   -5.128331421857049e-06   9.3116262702031e-05
3.6778174915652172e-06   -5.128331421857049e-06   9.3116262702031e-05
3.6778174915652172e-06   -5.128331421857049e-06   9.3116262702031e-05
3.6778174915652172e-06   -5.128331421857049e-06   9.3116262702031e-05
-2.8507568001436456e-05   5.923795152079289e-06   4.610522949139058e-05
-2.8507568001436456e-05   5.923795152079289e-06   4.610522949139058e-05
-2.8507568001436456e-05   5.923795152079289e-06   4.610522949139058e-05
-2.8507568001436456e-05   5.923795152079289e-06   4.610522949139058e-05
-3.1019565228730623e-05   -8.003589676619516e-06   9.906596915250799e-05
-3.1019565228730623e-05   -8.003589676619516e-06   9.906596915250799e-05
-3.1019565228730623e-05   -8.003589676619516e-06   9.906596915250799e-05
-3.1019565228730623e-05   -8.003589676619516e-06   9.906596915250799e-05
-4.420988381706329e-06   1.5789565706164632e-06   4.898547999245906e-05
-4.420988381706329e-06   1.5789565706164632e-06   4.898547999245906e-05
-4.420988381706329e-06   1.5789565706164632e-06   4.898547999245906e-05
-4.420988381706329e-06   1.5789565706164632e-06   4.898547999245906e-05
-1.4438572638471282e-05   5.246247425146761e-07   6.63140528505945e-05
-1.4438572638471282e-05   5.246247425146761e-07   6.63140528505945e-05
-1.4438572638471282e-05   5.246247425146761e-07   6.63140528505945e-05
-1.4438572638471282e-05   5.246247425146761e-07   6.63140528505945e-05
-2.3048076032065667e-05   1.1155019179531767e-05   0.00016702796919841525
-2.3048076032065667e-05   1.1155019179531767e-05   0.00016702796919841525
-2.3048076032065667e-05   1.1155019179531767e-05   0.00016702796919841525
-2.3048076032065667e-05   1.1155019179531767e-05   0.00016702796919841525
-5.7111310311173014e-05   1.3311604934302529e-05   0.00011154986351943202
-5.7111310311173014e-05   1.3311604934302529e-05   0.00011154986351943202
-5.7111310311173014e-05   1.3311604934302529e-05   0.00011154986351943202
-5.7111310311173014e-05   1.3311604934302529e-05   0.00011154986351943202
-5.894505770990502e-05   6.688154883529099e-06   0.00016660905937835018
-5.894505770990502e-05   6.688154883529099e-06   0.00016660905937835018
-5.894505770990502e-05   6.688154883529099e-06   0.00016660905937835018
-5.894505770990502e-05   6.688154883529099e-06   0.00016660905937835018
-2.54925288826284e-05   9.201730136174091e-06   0.00010934669951463677
-2.54925288826284e-05   9.201730136174091e-06   0.00010934669951463677
-2.54925288826284e-05   9.201730136174091e-06   0.00010934669951463677
-2.54925288826284e-05   9.201730136174091e-06   0.00010934669951463677
-4.137481796364017e-05   9.623192994408919e-06   0.0001355643036013832
-4.137481796364017e-05   9.623192994408919e-06   0.0001355643036013832
-4.137481796364017e-05   9.623192994408919e-06   0.0001355643036013832
-4.137481796364017e-05   9.623192994408919e-06   0.0001355643036013832
-2.5492528882628426e-05   6.688154883529099e-06   0.0001651009142267625
-2.5492528882628426e-05   6.688154883529099e-06   0.0001651009142267625
-2.5492528882628426e-05   6.688154883529099e-06   0.0001651009142267625
-2.5492528882628426e-05   6.688154883529099e-06   0.0001651009142267625
-5.8945057709904806e-05   9.201730136174091e-06   0.00011085484466622376
-5.8945057709904806e-05   9.201730136174091e-06   0.00011085484466622376
-5.8945057709904806e-05   9.201730136174091e-06   0.00011085484466622376
-5.8945057709904806e-05   9.201730136174091e-06   0.00011085484466622376
-6.083506604426649e-05   2.889328294543303e-06   0.00016701827351582946
-6.083506604426649e-05   2.889328294543303e-06   0.00016701827351582946
-6.083506604426649e-05   2.889328294543303e-06   0.00016701827351582946
-6.083506604426649e-05   2.889328294543303e-06   0.00016701827351582946
-2.8507568001436456e-05   5.390677736083482e-06   0.00011163830044618817
-2.8507568001436456e-05   5.390677736083482e-06   0.00011163830044618817
-2.8507568001436456e-05   5.390677736083482e-06   0.00011163830044618817
-2.8507568001436456e-05   5.390677736083482e-06   0.00011163830044618817
-4.3244073610269947e-05   6.6095302933191075e-06   0.00013546783159323786
-4.3244073610269947e-05   6.6095302933191075e-06   0.00013546783159323786
-4.3244073610269947e-05   6.6095302933191075e-06   0.00013546783159323786
-4.3244073610269947e-05   6.6095302933191075e-06   0.00013546783159323786
-2.850756800143651e-05   2.889328294543303e-06   0.0001655174638509043
-2.850756800143651e-05   2.889328294543303e-06   0.0001655174638509043
-2.850756800143651e-05   2.889328294543303e-06   0.0001655174638509043
-2.850756800143651e-05   2.889328294543303e-06   0.0001655174638509043
-6.083506604426649e-05   5.390677736083482e-06   0.00011313911011111245
-6.083506604426649e-05   5.390677736083482e-06   0.00011313911011111245
-6.083506604426649e-05   5.390677736083482e-06   0.00011313911011111245
-6.083506604426649e-05   5.390677736083482e-06   0.00011313911011111245
-6.268537106764573e-05   -1.0088860751458067e-06   0.00017034310874597999
-6.268537106764573e-05   -1.0088860751458067e-06   0.00017034310874597999
-6.268537106764573e-05   -1.0088860751458067e-06   0.00017034310874597999
-6.268537106764573e-05   -1.0088860751458067e-06   0.00017034310874597999
-3.1019565228730596e-05   1.2435216859571843e-06   0.00011621532102445975
-3.1019565228730596e-05   1.2435216859571843e-06   0.00011621532102445975
-3.1019565228730596e-05   1.2435216859571843e-06   0.00011621532102445975
-3.1019565228730596e-05   1.2435216859571843e-06   0.00011621532102445975
-4.5117437384739845e-05   3.6309469950354667e-06   0.00013827931943236082
-4.5117437384739845e-05   3.6309469950354667e-06   0.00013827931943236082
-4.5117437384739845e-05   3.6309469950354667e-06   0.00013827931943236082
-4.5117437384739845e-05   3.6309469950354667e-06   0.00013827931943236082
-5.71113103111728e-05   2.0636606887421485e-05   0.00018812938489105088
-5.71113103111728e-05   2.0636606887421485e-05   0.00018812938489105088
-5.71113103111728e-05   2.0636606887421485e-05   0.00018812938489105088
-5.71113103111728e-05   2.0636606887421485e-05   0.00018812938489105088
-9.115420496092039e-05   1.584918125771377e-05   0.00012851877176364582
-9.115420496092039e-05   1.584918125771377e-05   0.00012851877176364582
-9.115420496092039e-05   1.584918125771377e-05   0.00012851877176364582
-9.115420496092039e-05   1.584918125771377e-05   0.00012851877176364582
-9.269975338382377e-05   1.650502191829356e-05   0.00018464719341474475
-9.269975338382377e-05   1.650502191829356e-05   0.00018464719341474475
-9.269975338382377e-05   1.650502191829356e-05   0.00018464719341474475
-9.269975338382377e-05   1.650502191829356e-05   0.00018464719341474475
-5.8945057709904806e-05   1.2026892014870873e-05   0.00013107624523360007
-5.8945057709904806e-05   1.2026892014870873e-05   0.00013107624523360007
-5.8945057709904806e-05   1.2026892014870873e-05   0.00013107624523360007
-5.8945057709904806e-05   1.2026892014870873e-05   0.00013107624523360007
-7.500851861855104e-05   1.5955062536637116e-05   0.0001554917777682836
-7.500851861855104e-05   1.5955062536637116e-05   0.0001554917777682836
-7.500851861855104e-05   1.5955062536637116e-05   0.0001554917777682836
-7.500851861855104e-05   1.5955062536637116e-05   0.0001554917777682836
-5.8945057709904806e-05   1.650502191829356e-05   0.000187334071356798
-5.8945057709904806e-05   1.650502191829356e-05   0.000187334071356798
-5.8945057709904806e-05   1.650502191829356e-05   0.000187334071356798
-5.8945057709904806e-05   1.650502191829356e-05   0.000187334071356798
-9.269975338382377e-05   1.2026892014870873e-05   0.0001283893672915466
-9.269975338382377e-05   1.2026892014870873e-05   0.0001283893672915466
-9.269975338382377e-05   1.2026892014870873e-05   0.0001283893672915466
-9.269975338382377e-05   1.2026892014870873e-05   0.0001283893672915466
-9.435840659672342e-05   1.2394195577450709e-05   0.0001865357863667103
-9.435840659672342e-05   1.2394195577450709e-05   0.0001865357863667103
-9.435840659672342e-05   1.2394195577450709e-05   0.0001865357863667103
-9.435840659672342e-05   1.2394195577450709e-05   0.0001865357863667103
-6.083506604426649e-05   8.140691055644363e-06   0.0001332156548257005
-6.083506604426649e-05   8.140691055644363e-06   0.0001332156548257005
-6.083506604426649e-05   8.140691055644363e-06   0.0001332156548257005
-6.083506604426649e-05   8.140691055644363e-06   0.0001332156548257005
-7.632862722448136e-05   1.2886857564930673e-05   0.00015619055688715234
-7.632862722448136e-05   1.2886857564930673e-05   0.00015619055688715234
-7.632862722448136e-05   1.2886857564930673e-05   0.00015619055688715234
-7.632862722448136e-05   1.2886857564930673e-05   0.00015619055688715234
-6.083506604426649e-05   1.2394195577450709e-05   0.00018908788907979427
-6.083506604426649e-05   1.2394195577450709e-05   0.00018908788907979427
-6.083506604426649e-05   1.2394195577450709e-05   0.00018908788907979427
-6.083506604426649e-05   1.2394195577450709e-05   0.00018908788907979427
-9.43584065967232e-05   8.140691055644363e-06   0.00013066355211261522
-9.43584065967232e-05   8.140691055644363e-06   0.00013066355211261522
-9.43584065967232e-05   8.140691055644363e-06   0.00013066355211261522
-9.43584065967232e-05   8.140691055644363e-06   0.00013066355211261522
-9.598265764553795e-05   8.454434767699026e-06   0.00019044265165665385
-9.598265764553795e-05   8.454434767699026e-06   0.00019044265165665385
-9.598265764553795e-05   8.454434767699026e-06   0.00019044265165665385
-9.598265764553795e-05   8.454434767699026e-06   0.00019044265165665385
-6.268537106764551e-05   4.449750846916879e-06   0.00013734998437930478
-6.268537106764551e-05   4.449750846916879e-06   0.00013734998437930478
-6.268537106764551e-05   4.449750846916879e-06   0.00013734998437930478
-6.268537106764551e-05   4.449750846916879e-06   0.00013734998437930478
-7.780000838534759e-05   9.862024376751724e-06   0.00015929368245757311
-7.780000838534759e-05   9.862024376751724e-06   0.00015929368245757311
-7.780000838534759e-05   9.862024376751724e-06   0.00015929368245757311
-7.780000838534759e-05   9.862024376751724e-06   0.00015929368245757311
-9.115420496092082e-05   3.056079122180401e-05   0.00016250954682120542
-9.115420496092082e-05   3.056079122180401e-05   0.00016250954682120542
-9.115420496092082e-05   3.056079122180401e-05   0.00016250954682120542
-9.115420496092082e-05   3.056079122180401e-05   0.00016250954682120542
-0.00012459110166320635   2.1352591647643727e-05   0.00010125646590623252
-0.00012459110166320635   2.1352591647643727e-05   0.00010125646590623252
-0.00012459110166320635   2.1352591647643727e-05   0.00010125646590623252
-0.00012459110166320635   2.1352591647643727e-05   0.00010125646590623252
-0.00012628711628712283   2.6387919374881025e-05   0.00015769966063116161
-0.00012628711628712283   2.6387919374881025e-05   0.00015769966063116161
-0.00012628711628712283   2.6387919374881025e-05   0.00015769966063116161
-0.00012628711628712283   2.6387919374881025e-05   0.00015769966063116161
-9.269975338382377e-05   1.7329556374076106e-05   0.00010715574025947812
-9.269975338382377e-05   1.7329556374076106e-05   0.00010715574025947812
-9.269975338382377e-05   1.7329556374076106e-05   0.00010715574025947812
-9.269975338382377e-05   1.7329556374076106e-05   0.00010715574025947812
-0.00010845318708239851   2.3723134746576544e-05   0.00012957531606693634
-0.00010845318708239851   2.3723134746576544e-05   0.00012957531606693634
-0.00010845318708239851   2.3723134746576544e-05   0.00012957531606693634
-0.00010845318708239851   2.3723134746576544e-05   0.00012957531606693634
-9.269975338382377e-05   2.638791937487929e-05   0.000163134678431643
-9.269975338382377e-05   2.638791937487929e-05   0.000163134678431643
-9.269975338382377e-05   2.638791937487929e-05   0.000163134678431643
-9.269975338382377e-05   2.638791937487929e-05   0.000163134678431643
-0.0001262871162871224   1.7329556374076106e-05   0.00010172072245899586
-0.0001262871162871224   1.7329556374076106e-05   0.00010172072245899586
-0.0001262871162871224   1.7329556374076106e-05   0.00010172072245899586
-0.0001262871162871224   1.7329556374076106e-05   0.00010172072245899586
-0.00012864406227649583   2.2603107136523123e-05   0.0001629582390144874
-0.00012864406227649583   2.2603107136523123e-05   0.0001629582390144874
-0.00012864406227649583   2.2603107136523123e-05   0.0001629582390144874
-0.00012864406227649583   2.2603107136523123e-05   0.0001629582390144874
-9.435840659672342e-05   1.3757508680751693e-05   0.00011112283862166296
-9.435840659672342e-05   1.3757508680751693e-05   0.00011112283862166296
-9.435840659672342e-05   1.3757508680751693e-05   0.00011112283862166296
-9.435840659672342e-05   1.3757508680751693e-05   0.00011112283862166296
-0.00010937610489002473   2.074902779658494e-05   0.00013195742430766565
-0.00010937610489002473   2.074902779658494e-05   0.00013195742430766565
-0.00010937610489002473   2.074902779658494e-05   0.00013195742430766565
-0.00010937610489002473   2.074902779658494e-05   0.00013195742430766565
-9.435840659672342e-05   2.2603107136524858e-05   0.00016826559808794713
-9.435840659672342e-05   2.2603107136524858e-05   0.00016826559808794713
-9.435840659672342e-05   2.2603107136524858e-05   0.00016826559808794713
-9.435840659672342e-05   2.2603107136524858e-05   0.00016826559808794713
-0.0001286440622764954   1.3757508680751693e-05   0.00010581547954819975
-0.0001286440622764954   1.3757508680751693e-05   0.00010581547954819975
-0.0001286440622764954   1.3757508680751693e-05   0.00010581547954819975
-0.0001286440622764954   1.3757508680751693e-05   0.00010581547954819975
-0.00013053661385773255   1.856796761169968e-05   0.00016883278094977257
-0.00013053661385773255   1.856796761169968e-05   0.00016883278094977257
-0.00013053661385773255   1.856796761169968e-05   0.00016883278094977257
-0.00013053661385773255   1.856796761169968e-05   0.00016883278094977257
-9.598265764553774e-05   1.0126104271682493e-05   0.00011630797193345902
-9.598265764553774e-05   1.0126104271682493e-05   0.00011630797193345902
-9.598265764553774e-05   1.0126104271682493e-05   0.00011630797193345902
-9.598265764553774e-05   1.0126104271682493e-05   0.00011630797193345902
-0.0001113210260949058   1.792906716918327e-05   0.0001371901416105754
-0.0001113210260949058   1.792906716918327e-05   0.0001371901416105754
-0.0001113210260949058   1.792906716918327e-05   0.0001371901416105754
-0.0001113210260949058   1.792906716918327e-05   0.0001371901416105754
-0.00012459110166320635   3.745081276681182e-05   7.14006730803433e-05
-0.00012459110166320635   3.745081276681182e-05   7.14006730803433e-05
-0.00012459110166320635   3.745081276681182e-05   7.14006730803433e-05
-0.00012459110166320635   3.745081276681182e-05   7.14006730803433e-05
-0.00015049758613030302   2.509908622617789e-05   2.081216304413401e-05
-0.00015049758613030302   2.509908622617789e-05   2.081216304413401e-05
-0.00015049758613030302   2.509908622617789e-05   2.081216304413401e-05
-0.00015049758613030302   2.509908622617789e-05   2.081216304413401e-05
-0.00015697727758354294   3.5296680005013e-05   8.360055376878048e-05
-0.00015697727758354294   3.5296680005013e-05   8.360055376878048e-05
-0.00015697727758354294   3.5296680005013e-05   8.360055376878048e-05
-0.00015697727758354294   3.5296680005013e-05   8.360055376878048e-05
-0.00012628711628712283   2.242010978970293e-05   4.017622707059958e-05
-0.00012628711628712283   2.242010978970293e-05   4.017622707059958e-05
-0.00012628711628712283   2.242010978970293e-05   4.017622707059958e-05
-0.00012628711628712283   2.242010978970293e-05   4.017622707059958e-05
-0.0001347534793028004   2.9788340513571543e-05   4.9865893662407595e-05
-0.0001347534793028004   2.9788340513571543e-05   4.9865893662407595e-05
-0.0001347534793028004   2.9788340513571543e-05   4.9865893662407595e-05
-0.0001347534793028004   2.9788340513571543e-05   4.9865893662407595e-05
-0.0001262871162871224   3.5296680005013e-05   9.132649589796513e-05
-0.0001262871162871224   3.5296680005013e-05   9.132649589796513e-05
-0.0001262871162871224   3.5296680005013e-05   9.132649589796513e-05
-0.0001262871162871224   3.5296680005013e-05   9.132649589796513e-05
-0.00015697727758354338   2.242010978970293e-05   3.2450284941414054e-05
-0.00015697727758354338   2.242010978970293e-05   3.2450284941414054e-05
-0.00015697727758354338   2.242010978970293e-05   3.2450284941414054e-05
-0.00015697727758354338   2.242010978970293e-05   3.2450284941414054e-05
-0.00016255029533120916   3.3515405522016595e-05   9.848160245297909e-05
-0.00016255029533120916   3.3515405522016595e-05   9.848160245297909e-05
-0.00016255029533120916   3.3515405522016595e-05   9.848160245297909e-05
-0.00016255029533120916   3.3515405522016595e-05   9.848160245297909e-05
-0.0001286440622764954   2.058690349951431e-05   4.972831524195729e-05
-0.0001286440622764954   2.058690349951431e-05   4.972831524195729e-05
-0.0001286440622764954   2.058690349951431e-05   4.972831524195729e-05
-0.0001286440622764954   2.058690349951431e-05   4.972831524195729e-05
-0.00014022681405347352   2.872448779354768e-05   6.415035096050351e-05
-0.00014022681405347352   2.872448779354768e-05   6.415035096050351e-05
-0.00014022681405347352   2.872448779354768e-05   6.415035096050351e-05
-0.00014022681405347352   2.872448779354768e-05   6.415035096050351e-05
-0.0001286440622764954   3.3515405522016595e-05   0.00010623870366647907
-0.0001286440622764954   3.3515405522016595e-05   0.00010623870366647907
-0.0001286440622764954   3.3515405522016595e-05   0.00010623870366647907
-0.0001286440622764954   3.3515405522016595e-05   0.00010623870366647907
-0.00016255029533121003   2.058690349951431e-05   4.197121402845644e-05
-0.00016255029533121003   2.058690349951431e-05   4.197121402845644e-05
-0.00016255029533121003   2.058690349951431e-05   4.197121402845644e-05
-0.00016255029533121003   2.058690349951431e-05   4.197121402845644e-05
-0.00016966854809403065   2.8700725622726395e-05   0.00012543852781330377
-0.00016966854809403065   2.8700725622726395e-05   0.00012543852781330377
-0.00016966854809403065   2.8700725622726395e-05   0.00012543852781330377
-0.00016966854809403065   2.8700725622726395e-05   0.00012543852781330377
-0.00013053661385773211   1.6410066789243095e-05   6.759303271956351e-05
-0.00013053661385773211   1.6410066789243095e-05   6.759303271956351e-05
-0.00013053661385773211   1.6410066789243095e-05   6.759303271956351e-05
-0.00013053661385773211   1.6410066789243095e-05   6.759303271956351e-05
-0.00014181991779945412   2.6729065178587863e-05   8.020714025549353e-05
-0.00014181991779945412   2.6729065178587863e-05   8.020714025549353e-05
-0.00014181991779945412   2.6729065178587863e-05   8.020714025549353e-05
-0.00014181991779945412   2.6729065178587863e-05   8.020714025549353e-05
-6.476983967978144e-05   1.1634640332242041e-05   7.320376367894819e-05
-6.476983967978144e-05   1.1634640332242041e-05   7.320376367894819e-05
-6.476983967978144e-05   1.1634640332242041e-05   7.320376367894819e-05
-6.476983967978144e-05   1.1634640332242041e-05   7.320376367894819e-05
-6.945268429041032e-05   2.1724249101445943e-05   7.145278792275488e-05
-6.945268429041032e-05   2.1724249101445943e-05   7.145278792275488e-05
-6.945268429041032e-05   2.1724249101445943e-05   7.145278792275488e-05
-6.945268429041032e-05   2.1724249101445943e-05   7.145278792275488e-05
-7.116953573517903e-05   7.963620157413857e-06   7.901451852701611e-05
-7.116953573517903e-05   7.963620157413857e-06   7.901451852701611e-05
-7.116953573517903e-05   7.963620157413857e-06   7.901451852701611e-05
-7.116953573517903e-05   7.963620157413857e-06   7.901451852701611e-05
-7.213148098588959e-05   1.7022495956604995e-05   7.518243513201953e-05
-7.213148098588959e-05   1.7022495956604995e-05   7.518243513201953e-05
-7.213148098588959e-05   1.7022495956604995e-05   7.518243513201953e-05
-7.213148098588959e-05   1.7022495956604995e-05   7.518243513201953e-05
-6.761621681766607e-05   1.365956236873498e-05   6.967475500436874e-05
-6.761621681766607e-05   1.365956236873498e-05   6.967475500436874e-05
-6.761621681766607e-05   1.365956236873498e-05   6.967475500436874e-05
-6.761621681766607e-05   1.365956236873498e-05   6.967475500436874e-05
-7.21314809858897e-05   7.963620157413857e-06   7.357919304750056e-05
-7.21314809858897e-05   7.963620157413857e-06   7.357919304750056e-05
-7.21314809858897e-05   7.963620157413857e-06   7.357919304750056e-05
-7.21314809858897e-05   7.963620157413857e-06   7.357919304750056e-05
-7.116953573517903e-05   1.7022495956604995e-05   8.061776061153367e-05
-7.116953573517903e-05   1.7022495956604995e-05   8.061776061153367e-05
-7.116953573517903e-05   1.7022495956604995e-05   8.061776061153367e-05
-7.116953573517903e-05   1.7022495956604995e-05   8.061776061153367e-05
-7.34005033391119e-05   5.923795152079289e-06   8.173213259262237e-05
-7.34005033391119e-05   5.923795152079289e-06   8.173213259262237e-05
-7.34005033391119e-05   5.923795152079289e-06   8.173213259262237e-05
-7.34005033391119e-05   5.923795152079289e-06   8.173213259262237e-05
-7.927534689157164e-05   1.3752433085539341e-05   8.682635575331138e-05
-7.927534689157164e-05   1.3752433085539341e-05   8.682635575331138e-05
-7.927534689157164e-05   1.3752433085539341e-05   8.682635575331138e-05
-7.927534689157164e-05   1.3752433085539341e-05   8.682635575331138e-05
-7.200562392551027e-05   1.1625689950700221e-05   7.598619669077624e-05
-7.200562392551027e-05   1.1625689950700221e-05   7.598619669077624e-05
-7.200562392551027e-05   1.1625689950700221e-05   7.598619669077624e-05
-7.200562392551027e-05   1.1625689950700221e-05   7.598619669077624e-05
-7.927534689157185e-05   5.9237951520801566e-06   7.703494983254434e-05
-7.927534689157185e-05   5.9237951520801566e-06   7.703494983254434e-05
-7.927534689157185e-05   5.9237951520801566e-06   7.703494983254434e-05
-7.927534689157185e-05   5.9237951520801566e-06   7.703494983254434e-05
-7.34005033391119e-05   1.3752433085539341e-05   9.15235385133867e-05
-7.34005033391119e-05   1.3752433085539341e-05   9.15235385133867e-05
-7.34005033391119e-05   1.3752433085539341e-05   9.15235385133867e-05
-7.34005033391119e-05   1.3752433085539341e-05   9.15235385133867e-05
-7.479527768169275e-05   1.5789565706164632e-06   9.021127317689667e-05
-7.479527768169275e-05   1.5789565706164632e-06   9.021127317689667e-05
-7.479527768169275e-05   1.5789565706164632e-06   9.021127317689667e-05
-7.479527768169275e-05   1.5789565706164632e-06   9.021127317689667e-05
-8.687147609830247e-05   5.698488885382859e-06   0.0001078665511490527
-8.687147609830247e-05   5.698488885382859e-06   0.0001078665511490527
-8.687147609830247e-05   5.698488885382859e-06   0.0001078665511490527
-8.687147609830247e-05   5.698488885382859e-06   0.0001078665511490527
-7.50096067335321e-05   9.104685445246799e-06   8.605305093851425e-05
-7.50096067335321e-05   9.104685445246799e-06   8.605305093851425e-05
-7.50096067335321e-05   9.104685445246799e-06   8.605305093851425e-05
-7.50096067335321e-05   9.104685445246799e-06   8.605305093851425e-05
-6.945268429041018e-05   1.3311604934301662e-05   0.00014713892738908024
-6.945268429041018e-05   1.3311604934301662e-05   0.00014713892738908024
-6.945268429041018e-05   1.3311604934301662e-05   0.00014713892738908024
-6.945268429041018e-05   1.3311604934301662e-05   0.00014713892738908024
-6.95561804002256e-05   5.610327946939213e-06   0.00014234566768030373
-6.95561804002256e-05   5.610327946939213e-06   0.00014234566768030373
-6.95561804002256e-05   5.610327946939213e-06   0.00014234566768030373
-6.95561804002256e-05   5.610327946939213e-06   0.00014234566768030373
-7.004962200883157e-05   9.201730136174091e-06   0.0001415897228354843
-7.004962200883157e-05   9.201730136174091e-06   0.0001415897228354843
-7.004962200883157e-05   9.201730136174091e-06   0.0001415897228354843
-7.004962200883157e-05   9.201730136174091e-06   0.0001415897228354843
-7.116953573517903e-05   2.7267913279014136e-06   0.00014734120899769355
-7.116953573517903e-05   2.7267913279014136e-06   0.00014734120899769355
-7.116953573517903e-05   2.7267913279014136e-06   0.00014734120899769355
-7.116953573517903e-05   2.7267913279014136e-06   0.00014734120899769355
-6.982405151636051e-05   6.83482587040575e-06   0.00014263391457415965
-6.982405151636051e-05   6.83482587040575e-06   0.00014263391457415965
-6.982405151636051e-05   6.83482587040575e-06   0.00014263391457415965
-6.982405151636051e-05   6.83482587040575e-06   0.00014263391457415965
-7.116953573517895e-05   9.201730136174091e-06   0.00014547468612044565
-7.116953573517895e-05   9.201730136174091e-06   0.00014547468612044565
-7.116953573517895e-05   9.201730136174091e-06   0.00014547468612044565
-7.116953573517895e-05   9.201730136174091e-06   0.00014547468612044565
-7.004962200883146e-05   2.7267913279014136e-06   0.00014345624571272982
-7.004962200883146e-05   2.7267913279014136e-06   0.00014345624571272982
-7.004962200883146e-05   2.7267913279014136e-06   0.00014345624571272982
-7.004962200883146e-05   2.7267913279014136e-06   0.00014345624571272982
-7.06682826484865e-05   5.390677736083482e-06   0.00014364063484322183
-7.06682826484865e-05   5.390677736083482e-06   0.00014364063484322183
-7.06682826484865e-05   5.390677736083482e-06   0.00014364063484322183
-7.06682826484865e-05   5.390677736083482e-06   0.00014364063484322183
-7.34005033391119e-05   -6.502701042450029e-07   0.00015181890469846026
-7.34005033391119e-05   -6.502701042450029e-07   0.00015181890469846026
-7.34005033391119e-05   -6.502701042450029e-07   0.00015181890469846026
-7.34005033391119e-05   -6.502701042450029e-07   0.00015181890469846026
-7.043666994643198e-05   4.428274412323491e-06   0.00014383205566738486
-7.043666994643198e-05   4.428274412323491e-06   0.00014383205566738486
-7.043666994643198e-05   4.428274412323491e-06   0.00014383205566738486
-7.043666994643198e-05   4.428274412323491e-06   0.00014383205566738486
-7.34005033391119e-05   5.390677736083482e-06   0.0001472652035474165
-7.34005033391119e-05   5.390677736083482e-06   0.0001472652035474165
-7.34005033391119e-05   5.390677736083482e-06   0.0001472652035474165
-7.34005033391119e-05   5.390677736083482e-06   0.0001472652035474165
-7.066828264848629e-05   -6.502701042441356e-07   0.0001481943359942636
-7.066828264848629e-05   -6.502701042441356e-07   0.0001481943359942636
-7.066828264848629e-05   -6.502701042441356e-07   0.0001481943359942636
-7.066828264848629e-05   -6.502701042441356e-07   0.0001481943359942636
-7.10971891559498e-05   1.2435216859571843e-06   0.0001478803374417052
-7.10971891559498e-05   1.2435216859571843e-06   0.0001478803374417052
-7.10971891559498e-05   1.2435216859571843e-06   0.0001478803374417052
-7.10971891559498e-05   1.2435216859571843e-06   0.0001478803374417052
-7.479527768169272e-05   -5.108560012127145e-06   0.00015785506733679292
-7.479527768169272e-05   -5.108560012127145e-06   0.00015785506733679292
-7.479527768169272e-05   -5.108560012127145e-06   0.00015785506733679292
-7.479527768169272e-05   -5.108560012127145e-06   0.00015785506733679292
-7.14389679957722e-05   1.5800494791466321e-06   0.0001482480521654908
-7.14389679957722e-05   1.5800494791466321e-06   0.0001482480521654908
-7.14389679957722e-05   1.5800494791466321e-06   0.0001482480521654908
-7.14389679957722e-05   1.5800494791466321e-06   0.0001482480521654908
-6.955618040022581e-05   1.584918125771377e-05   0.00016235952481870233
-6.955618040022581e-05   1.584918125771377e-05   0.00016235952481870233
-6.955618040022581e-05   1.584918125771377e-05   0.00016235952481870233
-6.955618040022581e-05   1.584918125771377e-05   0.00016235952481870233
-7.422557832457402e-05   1.5427237278400202e-06   0.00014599332042686372
-7.422557832457402e-05   1.5427237278400202e-06   0.00014599332042686372
-7.422557832457402e-05   1.5427237278400202e-06   0.00014599332042686372
-7.422557832457402e-05   1.5427237278400202e-06   0.00014599332042686372
-7.435401629949474e-05   1.2026892014870873e-05   0.00015404677173187342
-7.435401629949474e-05   1.2026892014870873e-05   0.00015404677173187342
-7.435401629949474e-05   1.2026892014870873e-05   0.00015404677173187342
-7.435401629949474e-05   1.2026892014870873e-05   0.00015404677173187342
-7.004962200883146e-05   -9.13694103440478e-07   0.00015463713291842215
-7.004962200883146e-05   -9.13694103440478e-07   0.00015463713291842215
-7.004962200883146e-05   -9.13694103440478e-07   0.00015463713291842215
-7.004962200883146e-05   -9.13694103440478e-07   0.00015463713291842215
-7.19139856329985e-05   6.896540405986612e-06   0.00015305826491971136
-7.19139856329985e-05   6.896540405986612e-06   0.00015305826491971136
-7.19139856329985e-05   6.896540405986612e-06   0.00015305826491971136
-7.19139856329985e-05   6.896540405986612e-06   0.00015305826491971136
-7.004962200883157e-05   1.202689201487174e-05   0.0001618111234028604
-7.004962200883157e-05   1.202689201487174e-05   0.0001618111234028604
-7.004962200883157e-05   1.202689201487174e-05   0.0001618111234028604
-7.004962200883157e-05   1.202689201487174e-05   0.0001618111234028604
-7.435401629949474e-05   -9.136941034396107e-07   0.00014687278124743517
-7.435401629949474e-05   -9.136941034396107e-07   0.00014687278124743517
-7.435401629949474e-05   -9.136941034396107e-07   0.00014687278124743517
-7.435401629949474e-05   -9.136941034396107e-07   0.00014687278124743517
-7.463056913867673e-05   8.140691055644363e-06   0.00015651872120488186
-7.463056913867673e-05   8.140691055644363e-06   0.00015651872120488186
-7.463056913867673e-05   8.140691055644363e-06   0.00015651872120488186
-7.463056913867673e-05   8.140691055644363e-06   0.00015651872120488186
-7.06682826484864e-05   -3.856739532571464e-06   0.00015711336874082472
-7.06682826484864e-05   -3.856739532571464e-06   0.00015711336874082472
-7.06682826484864e-05   -3.856739532571464e-06   0.00015711336874082472
-7.06682826484864e-05   -3.856739532571464e-06   0.00015711336874082472
-7.190131308419033e-05   4.454616121481181e-06   0.00015418160607456226
-7.190131308419033e-05   4.454616121481181e-06   0.00015418160607456226
-7.190131308419033e-05   4.454616121481181e-06   0.00015418160607456226
-7.190131308419033e-05   4.454616121481181e-06   0.00015418160607456226
-7.06682826484865e-05   8.140691055644363e-06   0.00016371717955780771
-7.06682826484865e-05   8.140691055644363e-06   0.00016371717955780771
-7.06682826484865e-05   8.140691055644363e-06   0.00016371717955780771
-7.06682826484865e-05   8.140691055644363e-06   0.00016371717955780771
-7.463056913867652e-05   -3.856739532571464e-06   0.00014991491038789562
-7.463056913867652e-05   -3.856739532571464e-06   0.00014991491038789562
-7.463056913867652e-05   -3.856739532571464e-06   0.00014991491038789562
-7.463056913867652e-05   -3.856739532571464e-06   0.00014991491038789562
-7.4786001667186e-05   4.449750846916879e-06   0.0001608987147989644
-7.4786001667186e-05   4.449750846916879e-06   0.0001608987147989644
-7.4786001667186e-05   4.449750846916879e-06   0.0001608987147989644
-7.4786001667186e-05   4.449750846916879e-06   0.0001608987147989644
-7.10971891559498e-05   -6.824984721289645e-06   0.00016151553528782588
-7.10971891559498e-05   -6.824984721289645e-06   0.00016151553528782588
-7.10971891559498e-05   -6.824984721289645e-06   0.00016151553528782588
-7.10971891559498e-05   -6.824984721289645e-06   0.00016151553528782588
-7.200526171099932e-05   1.941276855469201e-06   0.00015776923260018248
-7.200526171099932e-05   1.941276855469201e-06   0.00015776923260018248
-7.200526171099932e-05   1.941276855469201e-06   0.00015776923260018248
-7.200526171099932e-05   1.941276855469201e-06   0.00015776923260018248
-7.422557832457402e-05   2.1352591647643727e-05   0.00013203826418786094
-7.422557832457402e-05   2.1352591647643727e-05   0.00013203826418786094
-7.422557832457402e-05   2.1352591647643727e-05   0.00013203826418786094
-7.422557832457402e-05   2.1352591647643727e-05   0.00013203826418786094
-8.127062268583479e-05   6.976273821754017e-06   0.00011167073289022542
-8.127062268583479e-05   6.976273821754017e-06   0.00011167073289022542
-8.127062268583479e-05   6.976273821754017e-06   0.00011167073289022542
-8.127062268583479e-05   6.976273821754017e-06   0.00011167073289022542
-8.13481220890669e-05   1.7329556374076106e-05   0.0001246636501140144
-8.13481220890669e-05   1.7329556374076106e-05   0.0001246636501140144
-8.13481220890669e-05   1.7329556374076106e-05   0.0001246636501140144
-8.13481220890669e-05   1.7329556374076106e-05   0.0001246636501140144
-7.435401629949474e-05   3.747065397757647e-06   0.00012115630171718539
-7.435401629949474e-05   3.747065397757647e-06   0.00012115630171718539
-7.435401629949474e-05   3.747065397757647e-06   0.00012115630171718539
-7.435401629949474e-05   3.747065397757647e-06   0.00012115630171718539
-7.759460976570392e-05   1.2661561057331419e-05   0.00012120859343179007
-7.759460976570392e-05   1.2661561057331419e-05   0.00012120859343179007
-7.759460976570392e-05   1.2661561057331419e-05   0.00012120859343179007
-7.759460976570392e-05   1.2661561057331419e-05   0.00012120859343179007
-7.435401629949474e-05   1.7329556374076106e-05   0.00013281314469980408
-7.435401629949474e-05   1.7329556374076106e-05   0.00013281314469980408
-7.435401629949474e-05   1.7329556374076106e-05   0.00013281314469980408
-7.435401629949474e-05   1.7329556374076106e-05   0.00013281314469980408
-8.13481220890669e-05   3.7470653977585144e-06   0.00011300680713139484
-8.13481220890669e-05   3.7470653977585144e-06   0.00011300680713139484
-8.13481220890669e-05   3.7470653977585144e-06   0.00011300680713139484
-8.13481220890669e-05   3.7470653977585144e-06   0.00011300680713139484
-8.218480388252295e-05   1.3757508680751693e-05   0.00012931507506301187
-8.218480388252295e-05   1.3757508680751693e-05   0.00012931507506301187
-8.218480388252295e-05   1.3757508680751693e-05   0.00012931507506301187
-8.218480388252295e-05   1.3757508680751693e-05   0.00012931507506301187
-7.463056913867673e-05   9.859542625572162e-07   0.00012438761647418388
-7.463056913867673e-05   9.859542625572162e-07   0.00012438761647418388
-7.463056913867673e-05   9.859542625572162e-07   0.00012438761647418388
-7.463056913867673e-05   9.859542625572162e-07   0.00012438761647418388
-7.732275353911024e-05   9.9988729636959e-06   0.00012346683925421823
-7.732275353911024e-05   9.9988729636959e-06   0.00012346683925421823
-7.732275353911024e-05   9.9988729636959e-06   0.00012346683925421823
-7.732275353911024e-05   9.9988729636959e-06   0.00012346683925421823
-7.463056913867652e-05   1.3757508680750825e-05   0.00013697800771392526
-7.463056913867652e-05   1.3757508680750825e-05   0.00013697800771392526
-7.463056913867652e-05   1.3757508680750825e-05   0.00013697800771392526
-7.463056913867652e-05   1.3757508680750825e-05   0.00013697800771392526
-8.218480388252295e-05   9.859542625580836e-07   0.00011672468382326702
-8.218480388252295e-05   9.859542625580836e-07   0.00011672468382326702
-8.218480388252295e-05   9.859542625580836e-07   0.00011672468382326702
-8.218480388252295e-05   9.859542625580836e-07   0.00011672468382326702
-8.266829145405765e-05   1.0126104271682493e-05   0.00013510696860076325
-8.266829145405765e-05   1.0126104271682493e-05   0.00013510696860076325
-8.266829145405765e-05   1.0126104271682493e-05   0.00013510696860076325
-8.266829145405765e-05   1.0126104271682493e-05   0.00013510696860076325
-7.4786001667186e-05   -1.7948025696941372e-06   0.00012912236306080122
-7.4786001667186e-05   -1.7948025696941372e-06   0.00012912236306080122
-7.4786001667186e-05   -1.7948025696941372e-06   0.00012912236306080122
-7.4786001667186e-05   -1.7948025696941372e-06   0.00012912236306080122
-7.76570964302561e-05   7.626124253824404e-06   0.00012825496490513752
-7.76570964302561e-05   7.626124253824404e-06   0.00012825496490513752
-7.76570964302561e-05   7.626124253824404e-06   0.00012825496490513752
-7.76570964302561e-05   7.626124253824404e-06   0.00012825496490513752
-8.127062268583436e-05   2.509908622617789e-05   5.037920655460992e-05
-8.127062268583436e-05   2.509908622617789e-05   5.037920655460992e-05
-8.127062268583436e-05   2.509908622617789e-05   5.037920655460992e-05
-8.127062268583436e-05   2.509908622617789e-05   5.037920655460992e-05
-7.94760944489892e-05   1.1404885286262281e-05   4.515356638540389e-05
-7.94760944489892e-05   1.1404885286262281e-05   4.515356638540389e-05
-7.94760944489892e-05   1.1404885286262281e-05   4.515356638540389e-05
-7.94760944489892e-05   1.1404885286262281e-05   4.515356638540389e-05
-8.355902020998427e-05   2.242010978970293e-05   5.5145924725670536e-05
-8.355902020998427e-05   2.242010978970293e-05   5.5145924725670536e-05
-8.355902020998427e-05   2.242010978970293e-05   5.5145924725670536e-05
-8.355902020998427e-05   2.242010978970293e-05   5.5145924725670536e-05
-8.13481220890669e-05   9.13139312312683e-06   5.9434324524089595e-05
-8.13481220890669e-05   9.13139312312683e-06   5.9434324524089595e-05
-8.13481220890669e-05   9.13139312312683e-06   5.9434324524089595e-05
-8.13481220890669e-05   9.13139312312683e-06   5.9434324524089595e-05
-7.877594954199701e-05   1.7623885634068283e-05   5.00518747724079e-05
-7.877594954199701e-05   1.7623885634068283e-05   5.00518747724079e-05
-7.877594954199701e-05   1.7623885634068283e-05   5.00518747724079e-05
-7.877594954199701e-05   1.7623885634068283e-05   5.00518747724079e-05
-8.13481220890669e-05   2.242010978970293e-05   6.31191547256155e-05
-8.13481220890669e-05   2.242010978970293e-05   6.31191547256155e-05
-8.13481220890669e-05   2.242010978970293e-05   6.31191547256155e-05
-8.13481220890669e-05   2.242010978970293e-05   6.31191547256155e-05
-8.35590202099847e-05   9.13139312312683e-06   5.146109452414333e-05
-8.35590202099847e-05   9.13139312312683e-06   5.146109452414333e-05
-8.35590202099847e-05   9.13139312312683e-06   5.146109452414333e-05
-8.35590202099847e-05   9.13139312312683e-06   5.146109452414333e-05
-8.715019045770411e-05   2.058690349951431e-05   6.54608717808973e-05
-8.715019045770411e-05   2.058690349951431e-05   6.54608717808973e-05
-8.715019045770411e-05   2.058690349951431e-05   6.54608717808973e-05
-8.715019045770411e-05   2.058690349951431e-05   6.54608717808973e-05
-8.218480388252295e-05   7.64183853972731e-06   6.495226646479734e-05
-8.218480388252295e-05   7.64183853972731e-06   6.495226646479734e-05
-8.218480388252295e-05   7.64183853972731e-06   6.495226646479734e-05
-8.218480388252295e-05   7.64183853972731e-06   6.495226646479734e-05
-8.166530039683964e-05   1.6277560089155915e-05   5.8904994392331746e-05
-8.166530039683964e-05   1.6277560089155915e-05   5.8904994392331746e-05
-8.166530039683964e-05   1.6277560089155915e-05   5.8904994392331746e-05
-8.166530039683964e-05   1.6277560089155915e-05   5.8904994392331746e-05
-8.218480388252252e-05   2.058690349951431e-05   7.322791075676637e-05
-8.218480388252252e-05   2.058690349951431e-05   7.322791075676637e-05
-8.218480388252252e-05   2.058690349951431e-05   7.322791075676637e-05
-8.218480388252252e-05   2.058690349951431e-05   7.322791075676637e-05
-8.715019045770411e-05   7.64183853972731e-06   5.718522748892653e-05
-8.715019045770411e-05   7.64183853972731e-06   5.718522748892653e-05
-8.715019045770411e-05   7.64183853972731e-06   5.718522748892653e-05
-8.715019045770411e-05   7.64183853972731e-06   5.718522748892653e-05
-9.253725136945364e-05   1.6410066789243095e-05   8.441934057846177e-05
-9.253725136945364e-05   1.6410066789243095e-05   8.441934057846177e-05
-9.253725136945364e-05   1.6410066789243095e-05   8.441934057846177e-05
-9.253725136945364e-05   1.6410066789243095e-05   8.441934057846177e-05
-8.266829145405765e-05   4.680388768552035e-06   7.500888086521464e-05
-8.266829145405765e-05   4.680388768552035e-06   7.500888086521464e-05
-8.266829145405765e-05   4.680388768552035e-06   7.500888086521464e-05
-8.266829145405765e-05   4.680388768552035e-06   7.500888086521464e-05
-8.263749083097134e-05   1.4703741120737288e-05   6.894353508208641e-05
-8.263749083097134e-05   1.4703741120737288e-05   6.894353508208641e-05
-8.263749083097134e-05   1.4703741120737288e-05   6.894353508208641e-05
-8.263749083097134e-05   1.4703741120737288e-05   6.894353508208641e-05
-0.0001641875043237098   2.1724249101445076e-05   6.072435494113926e-05
-0.0001641875043237098   2.1724249101445076e-05   6.072435494113926e-05
-0.0001641875043237098   2.1724249101445076e-05   6.072435494113926e-05
-0.0001641875043237098   2.1724249101445076e-05   6.072435494113926e-05
-0.00011018353853853454   3.0162468655160497e-05   0.00015579389631532664
-0.00011018353853853454   3.0162468655160497e-05   0.00015579389631532664
-0.00011018353853853454   3.0162468655160497e-05   0.00015579389631532664
-0.00011018353853853454   3.0162468655160497e-05   0.00015579389631532664
-0.00011008462631687324   1.7022495956604995e-05   6.960388083556866e-05
-0.00011008462631687324   1.7022495956604995e-05   6.960388083556866e-05
-0.00011008462631687324   1.7022495956604995e-05   6.960388083556866e-05
-0.00011008462631687324   1.7022495956604995e-05   6.960388083556866e-05
-0.00018048172377788406   1.2552040253000028e-05   0.00018961465002608358
-0.00018048172377788406   1.2552040253000028e-05   0.00018961465002608358
-0.00018048172377788406   1.2552040253000028e-05   0.00018961465002608358
-0.00018048172377788406   1.2552040253000028e-05   0.00018961465002608358
-0.00013396019949980792   1.7951127939707864e-05   0.00010883932361726583
-0.00013396019949980792   1.7951127939707864e-05   0.00010883932361726583
-0.00013396019949980792   1.7951127939707864e-05   0.00010883932361726583
-0.00013396019949980792   1.7951127939707864e-05   0.00010883932361726583
-0.00018048172377788433   1.7022495956604128e-05   7.228615425773112e-05
-0.00018048172377788433   1.7022495956604128e-05   7.228615425773112e-05
-0.00018048172377788433   1.7022495956604128e-05   7.228615425773112e-05
-0.00018048172377788433   1.7022495956604128e-05   7.228615425773112e-05
-0.00011008462631687324   1.2552040253000028e-05   0.00018693237660392134
-0.00011008462631687324   1.2552040253000028e-05   0.00018693237660392134
-0.00011008462631687324   1.2552040253000028e-05   0.00018693237660392134
-0.00011008462631687324   1.2552040253000028e-05   0.00018693237660392134
-0.00011146892432527846   1.3752433085539341e-05   7.81487956402619e-05
-0.00011146892432527846   1.3752433085539341e-05   7.81487956402619e-05
-0.00011146892432527846   1.3752433085539341e-05   7.81487956402619e-05
-0.00011146892432527846   1.3752433085539341e-05   7.81487956402619e-05
-0.00018101047142489018   9.125306875627792e-06   0.00019682764986556067
-0.00018101047142489018   9.125306875627792e-06   0.00019682764986556067
-0.00018101047142489018   9.125306875627792e-06   0.00019682764986556067
-0.00018101047142489018   9.125306875627792e-06   0.00019682764986556067
-0.00014275850666371618   1.1337395151328478e-05   0.00013174712229818182
-0.00014275850666371618   1.1337395151328478e-05   0.00013174712229818182
-0.00014275850666371618   1.1337395151328478e-05   0.00013174712229818182
-0.00014275850666371618   1.1337395151328478e-05   0.00013174712229818182
-0.0001810104714248905   1.3752433085539341e-05   8.092507136620844e-05
-0.0001810104714248905   1.3752433085539341e-05   8.092507136620844e-05
-0.0001810104714248905   1.3752433085539341e-05   8.092507136620844e-05
-0.0001810104714248905   1.3752433085539341e-05   8.092507136620844e-05
-0.00011146892432527825   9.125306875627792e-06   0.00019405137413961403
-0.00011146892432527825   9.125306875627792e-06   0.00019405137413961403
-0.00011146892432527825   9.125306875627792e-06   0.00019405137413961403
-0.00011146892432527825   9.125306875627792e-06   0.00019405137413961403
-0.0001101633585720389   5.698488885382859e-06   9.311745179936678e-05
-0.0001101633585720389   5.698488885382859e-06   9.311745179936678e-05
-0.0001101633585720389   5.698488885382859e-06   9.311745179936678e-05
-0.0001101633585720389   5.698488885382859e-06   9.311745179936678e-05
-0.00018278587596896027   -5.3774411364038675e-06   0.00022080053880730699
-0.00018278587596896027   -5.3774411364038675e-06   0.00022080053880730699
-0.00018278587596896027   -5.3774411364038675e-06   0.00022080053880730699
-0.00018278587596896027   -5.3774411364038675e-06   0.00022080053880730699
-0.00014046053201328962   5.645825276494581e-06   0.0001436443390334496
-0.00014046053201328962   5.645825276494581e-06   0.0001436443390334496
-0.00014046053201328962   5.645825276494581e-06   0.0001436443390334496
-0.00014046053201328962   5.645825276494581e-06   0.0001436443390334496
-0.00011018353853853473   5.610327946939213e-06   0.00014130093262333405
-0.00011018353853853473   5.610327946939213e-06   0.00014130093262333405
-0.00011018353853853473   5.610327946939213e-06   0.00014130093262333405
-0.00011018353853853473   5.610327946939213e-06   0.00014130093262333405
-6.728939721977042e-05   -3.298902284136268e-05   0.00018963155768162668
-6.728939721977042e-05   -3.298902284136268e-05   0.00018963155768162668
-6.728939721977042e-05   -3.298902284136268e-05   0.00018963155768162668
-6.728939721977042e-05   -3.298902284136268e-05   0.00018963155768162668
-6.735102783010888e-05   2.7267913279014136e-06   0.00011854335209476093
-6.735102783010888e-05   2.7267913279014136e-06   0.00011854335209476093
-6.735102783010888e-05   2.7267913279014136e-06   0.00011854335209476093
-6.735102783010888e-05   2.7267913279014136e-06   0.00011854335209476093
-0.00011008462631687324   -2.6913170550378444e-05   0.00020754999336633744
-0.00011008462631687324   -2.6913170550378444e-05   0.00020754999336633744
-0.00011008462631687324   -2.6913170550378444e-05   0.00020754999336633744
-0.00011008462631687324   -2.6913170550378444e-05   0.00020754999336633744
-8.822847663297984e-05   -1.6292775667893847e-05   0.00016475084029702485
-8.822847663297984e-05   -1.6292775667893847e-05   0.00016475084029702485
-8.822847663297984e-05   -1.6292775667893847e-05   0.00016475084029702485
-8.822847663297984e-05   -1.6292775667893847e-05   0.00016475084029702485
-0.00011008462631687335   2.7267913279014136e-06   0.00013632732922172746
-0.00011008462631687335   2.7267913279014136e-06   0.00013632732922172746
-0.00011008462631687335   2.7267913279014136e-06   0.00013632732922172746
-0.00011008462631687335   2.7267913279014136e-06   0.00013632732922172746
-6.735102783010866e-05   -2.6913170550378444e-05   0.00018976601623936918
-6.735102783010866e-05   -2.6913170550378444e-05   0.00018976601623936918
-6.735102783010866e-05   -2.6913170550378444e-05   0.00018976601623936918
-6.735102783010866e-05   -2.6913170550378444e-05   0.00018976601623936918
-6.750932309451609e-05   -6.502701042450029e-07   0.00012230029286858582
-6.750932309451609e-05   -6.502701042450029e-07   0.00012230029286858582
-6.750932309451609e-05   -6.502701042450029e-07   0.00012230029286858582
-6.750932309451609e-05   -6.502701042450029e-07   0.00012230029286858582
-0.00011146892432527825   -2.755671836549402e-05   0.0002117101638766046
-0.00011146892432527825   -2.755671836549402e-05   0.0002117101638766046
-0.00011146892432527825   -2.755671836549402e-05   0.0002117101638766046
-0.00011146892432527825   -2.755671836549402e-05   0.0002117101638766046
-8.750858197815507e-05   -1.4229805036737077e-05   0.00016378011196747748
-8.750858197815507e-05   -1.4229805036737077e-05   0.00016378011196747748
-8.750858197815507e-05   -1.4229805036737077e-05   0.00016378011196747748
-8.750858197815507e-05   -1.4229805036737077e-05   0.00016378011196747748
-0.00011146892432527846   -6.502701042450029e-07   0.00013844416182533497
-0.00011146892432527846   -6.502701042450029e-07   0.00013844416182533497
-0.00011146892432527846   -6.502701042450029e-07   0.00013844416182533497
-0.00011146892432527846   -6.502701042450029e-07   0.00013844416182533497
-6.750932309451609e-05   -2.755671836549402e-05   0.0001955662949198548
-6.750932309451609e-05   -2.755671836549402e-05   0.0001955662949198548
-6.750932309451609e-05   -2.755671836549402e-05   0.0001955662949198548
-6.750932309451609e-05   -2.755671836549402e-05   0.0001955662949198548
-6.672287173501552e-05   -5.108560012127145e-06   0.00012695951571170842
-6.672287173501552e-05   -5.108560012127145e-06   0.00012695951571170842
-6.672287173501552e-05   -5.108560012127145e-06   0.00012695951571170842
-6.672287173501552e-05   -5.108560012127145e-06   0.00012695951571170842
-0.00011016335857203858   -2.7899781489693336e-05   0.00021303505999328593
-0.00011016335857203858   -2.7899781489693336e-05   0.00021303505999328593
-0.00011016335857203858   -2.7899781489693336e-05   0.00021303505999328593
-0.00011016335857203858   -2.7899781489693336e-05   0.00021303505999328593
-8.780308586082945e-05   -1.6041098400979264e-05   0.00016865272895470892
-8.780308586082945e-05   -1.6041098400979264e-05   0.00016865272895470892
-8.780308586082945e-05   -1.6041098400979264e-05   0.00016865272895470892
-8.780308586082945e-05   -1.6041098400979264e-05   0.00016865272895470892
-6.728939721977042e-05   1.5427237278391528e-06   0.00013037284941483677
-6.728939721977042e-05   1.5427237278391528e-06   0.00013037284941483677
-6.728939721977042e-05   1.5427237278391528e-06   0.00013037284941483677
-6.728939721977042e-05   1.5427237278391528e-06   0.00013037284941483677
-4.914502752918662e-05   -2.5759992736685156e-05   0.00014423183568709557
-4.914502752918662e-05   -2.5759992736685156e-05   0.00014423183568709557
-4.914502752918662e-05   -2.5759992736685156e-05   0.00014423183568709557
-4.914502752918662e-05   -2.5759992736685156e-05   0.00014423183568709557
-4.862245878887832e-05   -9.13694103440478e-07   0.0001150931399817659
-4.862245878887832e-05   -9.13694103440478e-07   0.0001150931399817659
-4.862245878887832e-05   -9.13694103440478e-07   0.0001150931399817659
-4.862245878887832e-05   -9.13694103440478e-07   0.0001150931399817659
-6.735102783010866e-05   -2.5298859634584857e-05   0.00016093852103583753
-6.735102783010866e-05   -2.5298859634584857e-05   0.00016093852103583753
-6.735102783010866e-05   -2.5298859634584857e-05   0.00016093852103583753
-6.735102783010866e-05   -2.5298859634584857e-05   0.00016093852103583753
-5.773231347062013e-05   -1.3039727864536284e-05   0.00013755185137466182
-5.773231347062013e-05   -1.3039727864536284e-05   0.00013755185137466182
-5.773231347062013e-05   -1.3039727864536284e-05   0.00013755185137466182
-5.773231347062013e-05   -1.3039727864536284e-05   0.00013755185137466182
-6.735102783010866e-05   -9.13694103440478e-07   0.00012972423930045218
-6.735102783010866e-05   -9.13694103440478e-07   0.00012972423930045218
-6.735102783010866e-05   -9.13694103440478e-07   0.00012972423930045218
-6.735102783010866e-05   -9.13694103440478e-07   0.00012972423930045218
-4.862245878887832e-05   -2.5298859634584857e-05   0.0001463074217171506
-4.862245878887832e-05   -2.5298859634584857e-05   0.0001463074217171506
-4.862245878887832e-05   -2.5298859634584857e-05   0.0001463074217171506
-4.862245878887832e-05   -2.5298859634584857e-05   0.0001463074217171506
-4.8146080692330635e-05   -3.856739532571464e-06   0.00011787907139810313
-4.8146080692330635e-05   -3.856739532571464e-06   0.00011787907139810313
-4.8146080692330635e-05   -3.856739532571464e-06   0.00011787907139810313
-4.8146080692330635e-05   -3.856739532571464e-06   0.00011787907139810313
-6.750932309451609e-05   -2.6090496560977547e-05   0.0001634913962854554
-6.750932309451609e-05   -2.6090496560977547e-05   0.0001634913962854554
-6.750932309451609e-05   -2.6090496560977547e-05   0.0001634913962854554
-6.750932309451609e-05   -2.6090496560977547e-05   0.0001634913962854554
-5.7138717871419516e-05   -1.3950180041633932e-05   0.00013892286433535165
-5.7138717871419516e-05   -1.3950180041633932e-05   0.00013892286433535165
-5.7138717871419516e-05   -1.3950180041633932e-05   0.00013892286433535165
-5.7138717871419516e-05   -1.3950180041633932e-05   0.00013892286433535165
-6.750932309451609e-05   -3.856739532571464e-06   0.00013121932561514652
-6.750932309451609e-05   -3.856739532571464e-06   0.00013121932561514652
-6.750932309451609e-05   -3.856739532571464e-06   0.00013121932561514652
-6.750932309451609e-05   -3.856739532571464e-06   0.00013121932561514652
-4.8146080692330635e-05   -2.6090496560977547e-05   0.00015015114206841222
-4.8146080692330635e-05   -2.6090496560977547e-05   0.00015015114206841222
-4.8146080692330635e-05   -2.6090496560977547e-05   0.00015015114206841222
-4.8146080692330635e-05   -2.6090496560977547e-05   0.00015015114206841222
-4.708486794659369e-05   -6.824984721288778e-06   0.00012218025684913956
-4.708486794659369e-05   -6.824984721288778e-06   0.00012218025684913956
-4.708486794659369e-05   -6.824984721288778e-06   0.00012218025684913956
-4.708486794659369e-05   -6.824984721288778e-06   0.00012218025684913956
-6.67228717350153e-05   -2.7243277775377932e-05   0.0001671612389956272
-6.67228717350153e-05   -2.7243277775377932e-05   0.0001671612389956272
-6.67228717350153e-05   -2.7243277775377932e-05   0.0001671612389956272
-6.67228717350153e-05   -2.7243277775377932e-05   0.0001671612389956272
-5.643847808424094e-05   -1.5258467866142728e-05   0.00014282969696546247
-5.643847808424094e-05   -1.5258467866142728e-05   0.00014282969696546247
-5.643847808424094e-05   -1.5258467866142728e-05   0.00014282969696546247
-5.643847808424094e-05   -1.5258467866142728e-05   0.00014282969696546247
-4.914502752918662e-05   6.9762738217548845e-06   8.829442269501749e-05
-4.914502752918662e-05   6.9762738217548845e-06   8.829442269501749e-05
-4.914502752918662e-05   6.9762738217548845e-06   8.829442269501749e-05
-4.914502752918662e-05   6.9762738217548845e-06   8.829442269501749e-05
-4.055168501581035e-05   -1.053392222307055e-05   9.211054259041624e-05
-4.055168501581035e-05   -1.053392222307055e-05   9.211054259041624e-05
-4.055168501581035e-05   -1.053392222307055e-05   9.211054259041624e-05
-4.055168501581035e-05   -1.053392222307055e-05   9.211054259041624e-05
-3.958459256316136e-05   3.747065397757647e-06   7.97094723971074e-05
-3.958459256316136e-05   3.747065397757647e-06   7.97094723971074e-05
-3.958459256316136e-05   3.747065397757647e-06   7.97094723971074e-05
-3.958459256316136e-05   3.747065397757647e-06   7.97094723971074e-05
-4.862245878887832e-05   -1.2364914692922918e-05   0.00010443977082771113
-4.862245878887832e-05   -1.2364914692922918e-05   0.00010443977082771113
-4.862245878887832e-05   -1.2364914692922918e-05   0.00010443977082771113
-4.862245878887832e-05   -1.2364914692922918e-05   0.00010443977082771113
-4.4147100319213354e-05   -2.3972048800585677e-06   9.100021415721924e-05
-4.4147100319213354e-05   -2.3972048800585677e-06   9.100021415721924e-05
-4.4147100319213354e-05   -2.3972048800585677e-06   9.100021415721924e-05
-4.4147100319213354e-05   -2.3972048800585677e-06   9.100021415721924e-05
-4.862245878887832e-05   3.747065397757647e-06   8.937666045151548e-05
-4.862245878887832e-05   3.747065397757647e-06   8.937666045151548e-05
-4.862245878887832e-05   3.747065397757647e-06   8.937666045151548e-05
-4.862245878887832e-05   3.747065397757647e-06   8.937666045151548e-05
-3.958459256316136e-05   -1.2364914692922918e-05   9.477258277330283e-05
-3.958459256316136e-05   -1.2364914692922918e-05   9.477258277330283e-05
-3.958459256316136e-05   -1.2364914692922918e-05   9.477258277330283e-05
-3.958459256316136e-05   -1.2364914692922918e-05   9.477258277330283e-05
-3.909326489742867e-05   9.859542625572162e-07   8.35046902342984e-05
-3.909326489742867e-05   9.859542625572162e-07   8.35046902342984e-05
-3.909326489742867e-05   9.859542625572162e-07   8.35046902342984e-05
-3.909326489742867e-05   9.859542625572162e-07   8.35046902342984e-05
-4.8146080692330635e-05   -1.37591911542655e-05   0.00010743980380922662
-4.8146080692330635e-05   -1.37591911542655e-05   0.00010743980380922662
-4.8146080692330635e-05   -1.37591911542655e-05   0.00010743980380922662
-4.8146080692330635e-05   -1.37591911542655e-05   0.00010743980380922662
-4.319126976839191e-05   -4.378443336309698e-06   9.35533369118848e-05
-4.319126976839191e-05   -4.378443336309698e-06   9.35533369118848e-05
-4.319126976839191e-05   -4.378443336309698e-06   9.35533369118848e-05
-4.319126976839191e-05   -4.378443336309698e-06   9.35533369118848e-05
-4.814608069233042e-05   9.859542625572162e-07   9.23517774843903e-05
-4.814608069233042e-05   9.859542625572162e-07   9.23517774843903e-05
-4.814608069233042e-05   9.859542625572162e-07   9.23517774843903e-05
-4.814608069233042e-05   9.859542625572162e-07   9.23517774843903e-05
-3.909326489742867e-05   -1.37591911542655e-05   9.859271655913299e-05
-3.909326489742867e-05   -1.37591911542655e-05   9.859271655913299e-05
-3.909326489742867e-05   -1.37591911542655e-05   9.859271655913299e-05
-3.909326489742867e-05   -1.37591911542655e-05   9.859271655913299e-05
-3.834267165699545e-05   -1.7948025696950046e-06   8.827101257771839e-05
-3.834267165699545e-05   -1.7948025696950046e-06   8.827101257771839e-05
-3.834267165699545e-05   -1.7948025696950046e-06   8.827101257771839e-05
-3.834267165699545e-05   -1.7948025696950046e-06   8.827101257771839e-05
-4.708486794659369e-05   -1.559632487855905e-05   0.00011112225311236696
-4.708486794659369e-05   -1.559632487855905e-05   0.00011112225311236696
-4.708486794659369e-05   -1.559632487855905e-05   0.00011112225311236696
-4.708486794659369e-05   -1.559632487855905e-05   0.00011112225311236696
-4.241606983006467e-05   -6.105912533011133e-06   9.76466755108255e-05
-4.241606983006467e-05   -6.105912533011133e-06   9.76466755108255e-05
-4.241606983006467e-05   -6.105912533011133e-06   9.76466755108255e-05
-4.241606983006467e-05   -6.105912533011133e-06   9.76466755108255e-05
-4.055168501581035e-05   1.1404885286262281e-05   1.94876591272505e-05
-4.055168501581035e-05   1.1404885286262281e-05   1.94876591272505e-05
-4.055168501581035e-05   1.1404885286262281e-05   1.94876591272505e-05
-4.055168501581035e-05   1.1404885286262281e-05   1.94876591272505e-05
-2.279835154684511e-05   -1.2377685832316333e-06   4.14909559204959e-05
-2.279835154684511e-05   -1.2377685832316333e-06   4.14909559204959e-05
-2.279835154684511e-05   -1.2377685832316333e-06   4.14909559204959e-05
-2.279835154684511e-05   -1.2377685832316333e-06   4.14909559204959e-05
-2.4017836308770375e-05   9.13139312312683e-06   1.9637523064567654e-05
-2.4017836308770375e-05   9.13139312312683e-06   1.9637523064567654e-05
-2.4017836308770375e-05   9.13139312312683e-06   1.9637523064567654e-05
-2.4017836308770375e-05   9.13139312312683e-06   1.9637523064567654e-05
-3.958459256316136e-05   -1.7010514189300975e-06   5.208158354712191e-05
-3.958459256316136e-05   -1.7010514189300975e-06   5.208158354712191e-05
-3.958459256316136e-05   -1.7010514189300975e-06   5.208158354712191e-05
-3.958459256316136e-05   -1.7010514189300975e-06   5.208158354712191e-05
-3.064860193525954e-05   5.848140466264192e-06   3.265875070283808e-05
-3.064860193525954e-05   5.848140466264192e-06   3.265875070283808e-05
-3.064860193525954e-05   5.848140466264192e-06   3.265875070283808e-05
-3.064860193525954e-05   5.848140466264192e-06   3.265875070283808e-05
-3.958459256316136e-05   9.13139312312683e-06   2.6136989789800422e-05
-3.958459256316136e-05   9.13139312312683e-06   2.6136989789800422e-05
-3.958459256316136e-05   9.13139312312683e-06   2.6136989789800422e-05
-3.958459256316136e-05   9.13139312312683e-06   2.6136989789800422e-05
-2.4017836308770375e-05   -1.7010514189305312e-06   4.558211682188741e-05
-2.4017836308770375e-05   -1.7010514189305312e-06   4.558211682188741e-05
-2.4017836308770375e-05   -1.7010514189305312e-06   4.558211682188741e-05
-2.4017836308770375e-05   -1.7010514189305312e-06   4.558211682188741e-05
-2.5006356916038117e-05   7.64183853972731e-06   2.5745317109885854e-05
-2.5006356916038117e-05   7.64183853972731e-06   2.5745317109885854e-05
-2.5006356916038117e-05   7.64183853972731e-06   2.5745317109885854e-05
-2.5006356916038117e-05   7.64183853972731e-06   2.5745317109885854e-05
-3.909326489742867e-05   -2.3364210701773414e-06   5.5210452844812845e-05
-3.909326489742867e-05   -2.3364210701773414e-06   5.5210452844812845e-05
-3.909326489742867e-05   -2.3364210701773414e-06   5.5210452844812845e-05
-3.909326489742867e-05   -2.3364210701773414e-06   5.5210452844812845e-05
-3.108886309018577e-05   4.708522905347463e-06   3.764281678075767e-05
-3.108886309018577e-05   4.708522905347463e-06   3.764281678075767e-05
-3.108886309018577e-05   4.708522905347463e-06   3.764281678075767e-05
-3.108886309018577e-05   4.708522905347463e-06   3.764281678075767e-05
-3.909326489742867e-05   7.64183853972731e-06   3.1732272875829165e-05
-3.909326489742867e-05   7.64183853972731e-06   3.1732272875829165e-05
-3.909326489742867e-05   7.64183853972731e-06   3.1732272875829165e-05
-3.909326489742867e-05   7.64183853972731e-06   3.1732272875829165e-05
-2.5006356916038117e-05   -2.3364210701773414e-06   4.92234970788704e-05
-2.5006356916038117e-05   -2.3364210701773414e-06   4.92234970788704e-05
-2.5006356916038117e-05   -2.3364210701773414e-06   4.92234970788704e-05
-2.5006356916038117e-05   -2.3364210701773414e-06   4.92234970788704e-05
-2.760357108049904e-05   4.680388768552035e-06   3.66540861070257e-05
-2.760357108049904e-05   4.680388768552035e-06   3.66540861070257e-05
-2.760357108049904e-05   4.680388768552035e-06   3.66540861070257e-05
-2.760357108049904e-05   4.680388768552035e-06   3.66540861070257e-05
-3.834267165699545e-05   -3.0795918646697035e-06   5.920857544778387e-05
-3.834267165699545e-05   -3.0795918646697035e-06   5.920857544778387e-05
-3.834267165699545e-05   -3.0795918646697035e-06   5.920857544778387e-05
-3.834267165699545e-05   -3.0795918646697035e-06   5.920857544778387e-05
-3.1076667864054315e-05   3.952207666498356e-06   4.287948940751539e-05
-3.1076667864054315e-05   3.952207666498356e-06   4.287948940751539e-05
-3.1076667864054315e-05   3.952207666498356e-06   4.287948940751539e-05
-3.1076667864054315e-05   3.952207666498356e-06   4.287948940751539e-05
-0.00038089858706416205   3.0162468655160063e-05   0.0001588217854946374
-0.00038089858706416205   3.0162468655160063e-05   0.0001588217854946374
-0.00038089858706416205   3.0162468655160063e-05   0.0001588217854946374
-0.00038089858706416205   3.0162468655160063e-05   0.0001588217854946374
-9.005247588692809e-05   -0.00018072752519614237   0.0005170313078125795
-9.005247588692809e-05   -0.00018072752519614237   0.0005170313078125795
-9.005247588692809e-05   -0.00018072752519614237   0.0005170313078125795
-9.005247588692809e-05   -0.00018072752519614237   0.0005170313078125795
-0.00010535154420788785   1.2552040253000028e-05   8.762523349636344e-05
-0.00010535154420788785   1.2552040253000028e-05   8.762523349636344e-05
-0.00010535154420788785   1.2552040253000028e-05   8.762523349636344e-05
-0.00010535154420788785   1.2552040253000028e-05   8.762523349636344e-05
-0.00034738697324041413   -0.0001396547680920029   0.0005823417002242413
-0.00034738697324041413   -0.0001396547680920029   0.0005823417002242413
-0.00034738697324041413   -0.0001396547680920029   0.0005823417002242413
-0.00034738697324041413   -0.0001396547680920029   0.0005823417002242413
-0.000231752633977623   -6.956329348448641e-05   0.00034756291668841316
-0.000231752633977623   -6.956329348448641e-05   0.00034756291668841316
-0.000231752633977623   -6.956329348448641e-05   0.00034756291668841316
-0.000231752633977623   -6.956329348448641e-05   0.00034756291668841316
-0.0003473869732404135   1.2552040253000028e-05   0.00017894931850336504
-0.0003473869732404135   1.2552040253000028e-05   0.00017894931850336504
-0.0003473869732404135   1.2552040253000028e-05   0.00017894931850336504
-0.0003473869732404135   1.2552040253000028e-05   0.00017894931850336504
-0.00010535154420788806   -0.0001396547680920029   0.0004910176152172398
-0.00010535154420788806   -0.0001396547680920029   0.0004910176152172398
-0.00010535154420788806   -0.0001396547680920029   0.0004910176152172398
-0.00010535154420788806   -0.0001396547680920029   0.0004910176152172398
-0.00010756026996361286   9.125306875627792e-06   9.625858267408953e-05
-0.00010756026996361286   9.125306875627792e-06   9.625858267408953e-05
-0.00010756026996361286   9.125306875627792e-06   9.625858267408953e-05
-0.00010756026996361286   9.125306875627792e-06   9.625858267408953e-05
-0.0003277309847384991   -0.00011975484479568727   0.0005405378649683549
-0.0003277309847384991   -0.00011975484479568727   0.0005405378649683549
-0.0003277309847384991   -0.00011975484479568727   0.0005405378649683549
-0.0003277309847384991   -0.00011975484479568727   0.0005405378649683549
-0.00022468457939484737   -6.581761242443183e-05   0.0003364315166395156
-0.00022468457939484737   -6.581761242443183e-05   0.0003364315166395156
-0.00022468457939484737   -6.581761242443183e-05   0.0003364315166395156
-0.00022468457939484737   -6.581761242443183e-05   0.0003364315166395156
-0.0003277309847384985   9.125306875627792e-06   0.00017358667367687827
-0.0003277309847384985   9.125306875627792e-06   0.00017358667367687827
-0.0003277309847384985   9.125306875627792e-06   0.00017358667367687827
-0.0003277309847384985   9.125306875627792e-06   0.00017358667367687827
-0.00010756026996361302   -0.00011975484479568727   0.0004632097739655657
-0.00010756026996361302   -0.00011975484479568727   0.0004632097739655657
-0.00010756026996361302   -0.00011975484479568727   0.0004632097739655657
-0.00010756026996361302   -0.00011975484479568727   0.0004632097739655657
-0.00011746630616882959   -5.3774411364038675e-06   0.00012070034411744228
-0.00011746630616882959   -5.3774411364038675e-06   0.00012070034411744228
-0.00011746630616882959   -5.3774411364038675e-06   0.00012070034411744228
-0.00011746630616882959   -5.3774411364038675e-06   0.00012070034411744228
-0.00030259323193169676   -9.339765137256743e-05   0.0004820573465305851
-0.00030259323193169676   -9.339765137256743e-05   0.0004820573465305851
-0.00030259323193169676   -9.339765137256743e-05   0.0004820573465305851
-0.00030259323193169676   -9.339765137256743e-05   0.0004820573465305851
-0.00021593177731983417   -6.07170865794455e-05   0.0003180132499682746
-0.00021593177731983417   -6.07170865794455e-05   0.0003180132499682746
-0.00021593177731983417   -6.07170865794455e-05   0.0003180132499682746
-0.00021593177731983417   -6.07170865794455e-05   0.0003180132499682746
-9.005247588692793e-05   -3.298902284136268e-05   8.928506102313678e-05
-9.005247588692793e-05   -3.298902284136268e-05   8.928506102313678e-05
-9.005247588692793e-05   -3.298902284136268e-05   8.928506102313678e-05
-9.005247588692793e-05   -3.298902284136268e-05   8.928506102313678e-05
-3.151739996326238e-05   -5.4533550354524785e-05   0.00017391680438801592
-3.151739996326238e-05   -5.4533550354524785e-05   0.00017391680438801592
-3.151739996326238e-05   -5.4533550354524785e-05   0.00017391680438801592
-3.151739996326238e-05   -5.4533550354524785e-05   0.00017391680438801592
-3.500412801942334e-05   -2.6913170550378878e-05   8.063547929754947e-05
-3.500412801942334e-05   -2.6913170550378878e-05   8.063547929754947e-05
-3.500412801942334e-05   -2.6913170550378878e-05   8.063547929754947e-05
-3.500412801942334e-05   -2.6913170550378878e-05   8.063547929754947e-05
-0.00010535154420788806   -7.292545548576228e-05   0.0002254885439062198
-0.00010535154420788806   -7.292545548576228e-05   0.0002254885439062198
-0.00010535154420788806   -7.292545548576228e-05   0.0002254885439062198
-0.00010535154420788806   -7.292545548576228e-05   0.0002254885439062198
-6.206976681783353e-05   -3.843279017647777e-05   0.0001326566490705578
-6.206976681783353e-05   -3.843279017647777e-05   0.0001326566490705578
-6.206976681783353e-05   -3.843279017647777e-05   0.0001326566490705578
-6.206976681783353e-05   -3.843279017647777e-05   0.0001326566490705578
-0.0001053515442078878   -2.6913170550378878e-05   0.00010824285025877868
-0.0001053515442078878   -2.6913170550378878e-05   0.00010824285025877868
-0.0001053515442078878   -2.6913170550378878e-05   0.00010824285025877868
-0.0001053515442078878   -2.6913170550378878e-05   0.00010824285025877868
-3.500412801942356e-05   -7.292545548576228e-05   0.0001978811729449896
-3.500412801942356e-05   -7.292545548576228e-05   0.0001978811729449896
-3.500412801942356e-05   -7.292545548576228e-05   0.0001978811729449896
-3.500412801942356e-05   -7.292545548576228e-05   0.0001978811729449896
-3.7975717240747685e-05   -2.7556718365494455e-05   9.064135825344192e-05
-3.7975717240747685e-05   -2.7556718365494455e-05   9.064135825344192e-05
-3.7975717240747685e-05   -2.7556718365494455e-05   9.064135825344192e-05
-3.7975717240747685e-05   -2.7556718365494455e-05   9.064135825344192e-05
-0.00010756026996361302   -6.635007529489093e-05   0.00022989162694918796
-0.00010756026996361302   -6.635007529489093e-05   0.00022989162694918796
-0.00010756026996361302   -6.635007529489093e-05   0.00022989162694918796
-0.00010756026996361302   -6.635007529489093e-05   0.00022989162694918796
-6.976223662477917e-05   -4.7184504738878976e-05   0.0001553955623841924
-6.976223662477917e-05   -4.7184504738878976e-05   0.0001553955623841924
-6.976223662477917e-05   -4.7184504738878976e-05   0.0001553955623841924
-6.976223662477917e-05   -4.7184504738878976e-05   0.0001553955623841924
-0.00010756026996361286   -2.7556718365494455e-05   0.00011391737241108011
-0.00010756026996361286   -2.7556718365494455e-05   0.00011391737241108011
-0.00010756026996361286   -2.7556718365494455e-05   0.00011391737241108011
-0.00010756026996361286   -2.7556718365494455e-05   0.00011391737241108011
-3.7975717240747685e-05   -6.635007529489093e-05   0.0002066156127915501
-3.7975717240747685e-05   -6.635007529489093e-05   0.0002066156127915501
-3.7975717240747685e-05   -6.635007529489093e-05   0.0002066156127915501
-3.7975717240747685e-05   -6.635007529489093e-05   0.0002066156127915501
-4.277538298933631e-05   -2.7899781489693336e-05   9.897662708070938e-05
-4.277538298933631e-05   -2.7899781489693336e-05   9.897662708070938e-05
-4.277538298933631e-05   -2.7899781489693336e-05   9.897662708070938e-05
-4.277538298933631e-05   -2.7899781489693336e-05   9.897662708070938e-05
-0.0001174663061688297   -6.223944188266702e-05   0.00024406529528231478
-0.0001174663061688297   -6.223944188266702e-05   0.00024406529528231478
-0.0001174663061688297   -6.223944188266702e-05   0.00024406529528231478
-0.0001174663061688297   -6.223944188266702e-05   0.00024406529528231478
-7.413457150402648e-05   -4.3049023737480596e-05   0.00016033148662053152
-7.413457150402648e-05   -4.3049023737480596e-05   0.00016033148662053152
-7.413457150402648e-05   -4.3049023737480596e-05   0.00016033148662053152
-7.413457150402648e-05   -4.3049023737480596e-05   0.00016033148662053152
-3.151739996326238e-05   -2.5759992736685156e-05   4.734025239942286e-05
-3.151739996326238e-05   -2.5759992736685156e-05   4.734025239942286e-05
-3.151739996326238e-05   -2.5759992736685156e-05   4.734025239942286e-05
-3.151739996326238e-05   -2.5759992736685156e-05   4.734025239942286e-05
-1.749253263309803e-05   -1.4392169976641791e-05   7.753572493905615e-05
-1.749253263309803e-05   -1.4392169976641791e-05   7.753572493905615e-05
-1.749253263309803e-05   -1.4392169976641791e-05   7.753572493905615e-05
-1.749253263309803e-05   -1.4392169976641791e-05   7.753572493905615e-05
-1.6708131778739223e-05   -2.5298859634584423e-05   5.551783531959186e-05
-1.6708131778739223e-05   -2.5298859634584423e-05   5.551783531959186e-05
-1.6708131778739223e-05   -2.5298859634584423e-05   5.551783531959186e-05
-1.6708131778739223e-05   -2.5298859634584423e-05   5.551783531959186e-05
-3.500412801942356e-05   -1.9115774258627504e-05   8.230131116182429e-05
-3.500412801942356e-05   -1.9115774258627504e-05   8.230131116182429e-05
-3.500412801942356e-05   -1.9115774258627504e-05   8.230131116182429e-05
-3.500412801942356e-05   -1.9115774258627504e-05   8.230131116182429e-05
-2.359705166197297e-05   -2.0147313221682622e-05   6.3908440610572e-05
-2.359705166197297e-05   -2.0147313221682622e-05   6.3908440610572e-05
-2.359705166197297e-05   -2.0147313221682622e-05   6.3908440610572e-05
-2.359705166197297e-05   -2.0147313221682622e-05   6.3908440610572e-05
-3.500412801942334e-05   -2.5298859634584857e-05   5.18079840940175e-05
-3.500412801942334e-05   -2.5298859634584857e-05   5.18079840940175e-05
-3.500412801942334e-05   -2.5298859634584857e-05   5.18079840940175e-05
-3.500412801942334e-05   -2.5298859634584857e-05   5.18079840940175e-05
-1.6708131778739223e-05   -1.9115774258627504e-05   8.601116238739865e-05
-1.6708131778739223e-05   -1.9115774258627504e-05   8.601116238739865e-05
-1.6708131778739223e-05   -1.9115774258627504e-05   8.601116238739865e-05
-1.6708131778739223e-05   -1.9115774258627504e-05   8.601116238739865e-05
-1.663064352373897e-05   -2.6090496560977547e-05   5.929037398382485e-05
-1.663064352373897e-05   -2.6090496560977547e-05   5.929037398382485e-05
-1.663064352373897e-05   -2.6090496560977547e-05   5.929037398382485e-05
-1.663064352373897e-05   -2.6090496560977547e-05   5.929037398382485e-05
-3.7975717240747685e-05   -2.4883972619673127e-05   9.414158248072279e-05
-3.7975717240747685e-05   -2.4883972619673127e-05   9.414158248072279e-05
-3.7975717240747685e-05   -2.4883972619673127e-05   9.414158248072279e-05
-3.7975717240747685e-05   -2.4883972619673127e-05   9.414158248072279e-05
-2.489021270130347e-05   -2.2034833940379845e-05   7.062292504073997e-05
-2.489021270130347e-05   -2.2034833940379845e-05   7.062292504073997e-05
-2.489021270130347e-05   -2.2034833940379845e-05   7.062292504073997e-05
-2.489021270130347e-05   -2.2034833940379845e-05   7.062292504073997e-05
-3.7975717240747685e-05   -2.6090496560977547e-05   5.856645961904239e-05
-3.7975717240747685e-05   -2.6090496560977547e-05   5.856645961904239e-05
-3.7975717240747685e-05   -2.6090496560977547e-05   5.856645961904239e-05
-3.7975717240747685e-05   -2.6090496560977547e-05   5.856645961904239e-05
-1.663064352373897e-05   -2.4883972619673127e-05   9.486549684550546e-05
-1.663064352373897e-05   -2.4883972619673127e-05   9.486549684550546e-05
-1.663064352373897e-05   -2.4883972619673127e-05   9.486549684550546e-05
-1.663064352373897e-05   -2.4883972619673127e-05   9.486549684550546e-05
-1.669273970674595e-05   -2.7243277775378365e-05   6.489441597761587e-05
-1.669273970674595e-05   -2.7243277775378365e-05   6.489441597761587e-05
-1.669273970674595e-05   -2.7243277775378365e-05   6.489441597761587e-05
-1.669273970674595e-05   -2.7243277775378365e-05   6.489441597761587e-05
-4.277538298933631e-05   -3.0381816095335494e-05   0.00011024861110723976
-4.277538298933631e-05   -3.0381816095335494e-05   0.00011024861110723976
-4.277538298933631e-05   -3.0381816095335494e-05   0.00011024861110723976
-4.277538298933631e-05   -3.0381816095335494e-05   0.00011024861110723976
-2.6338230344314685e-05   -2.416025167334499e-05   7.912041804567643e-05
-2.6338230344314685e-05   -2.416025167334499e-05   7.912041804567643e-05
-2.6338230344314685e-05   -2.416025167334499e-05   7.912041804567643e-05
-2.6338230344314685e-05   -2.416025167334499e-05   7.912041804567643e-05
-1.749253263309803e-05   -1.053392222307055e-05   1.2545770585664596e-05
-1.749253263309803e-05   -1.053392222307055e-05   1.2545770585664596e-05
-1.749253263309803e-05   -1.053392222307055e-05   1.2545770585664596e-05
-1.749253263309803e-05   -1.053392222307055e-05   1.2545770585664596e-05
-1.2788547475993048e-05   3.439704155690725e-06   2.876992167476309e-05
-1.2788547475993048e-05   3.439704155690725e-06   2.876992167476309e-05
-1.2788547475993048e-05   3.439704155690725e-06   2.876992167476309e-05
-1.2788547475993048e-05   3.439704155690725e-06   2.876992167476309e-05
-1.0261424075468876e-05   -1.2364914692922918e-05   2.2161963457154044e-05
-1.0261424075468876e-05   -1.2364914692922918e-05   2.2161963457154044e-05
-1.0261424075468876e-05   -1.2364914692922918e-05   2.2161963457154044e-05
-1.0261424075468876e-05   -1.2364914692922918e-05   2.2161963457154044e-05
-1.6708131778739223e-05   1.8213836854126465e-06   2.4394697268935363e-05
-1.6708131778739223e-05   1.8213836854126465e-06   2.4394697268935363e-05
-1.6708131778739223e-05   1.8213836854126465e-06   2.4394697268935363e-05
-1.6708131778739223e-05   1.8213836854126465e-06   2.4394697268935363e-05
-1.3437006771152256e-05   -4.658067684898317e-06   2.2830493078476212e-05
-1.3437006771152256e-05   -4.658067684898317e-06   2.2830493078476212e-05
-1.3437006771152256e-05   -4.658067684898317e-06   2.2830493078476212e-05
-1.3437006771152256e-05   -4.658067684898317e-06   2.2830493078476212e-05
-1.6708131778739223e-05   -1.2364914692922918e-05   1.3650184430153041e-05
-1.6708131778739223e-05   -1.2364914692922918e-05   1.3650184430153041e-05
-1.6708131778739223e-05   -1.2364914692922918e-05   1.3650184430153041e-05
-1.6708131778739223e-05   -1.2364914692922918e-05   1.3650184430153041e-05
-1.0261424075468876e-05   1.8213836854126465e-06   3.29064762959368e-05
-1.0261424075468876e-05   1.8213836854126465e-06   3.29064762959368e-05
-1.0261424075468876e-05   1.8213836854126465e-06   3.29064762959368e-05
-1.0261424075468876e-05   1.8213836854126465e-06   3.29064762959368e-05
-8.837765942907444e-06   -1.37591911542655e-05   2.4336716459662233e-05
-8.837765942907444e-06   -1.37591911542655e-05   2.4336716459662233e-05
-8.837765942907444e-06   -1.37591911542655e-05   2.4336716459662233e-05
-8.837765942907444e-06   -1.37591911542655e-05   2.4336716459662233e-05
-1.663064352373897e-05   -8.297232625619172e-07   2.956716502602527e-05
-1.663064352373897e-05   -8.297232625619172e-07   2.956716502602527e-05
-1.663064352373897e-05   -8.297232625619172e-07   2.956716502602527e-05
-1.663064352373897e-05   -8.297232625619172e-07   2.956716502602527e-05
-1.2098882001469139e-05   -6.029017508319724e-06   2.5133805703030435e-05
-1.2098882001469139e-05   -6.029017508319724e-06   2.5133805703030435e-05
-1.2098882001469139e-05   -6.029017508319724e-06   2.5133805703030435e-05
-1.2098882001469139e-05   -6.029017508319724e-06   2.5133805703030435e-05
-1.663064352373897e-05   -1.37591911542655e-05   1.6579035724639032e-05
-1.663064352373897e-05   -1.37591911542655e-05   1.6579035724639032e-05
-1.663064352373897e-05   -1.37591911542655e-05   1.6579035724639032e-05
-1.663064352373897e-05   -1.37591911542655e-05   1.6579035724639032e-05
-8.837765942907444e-06   -8.297232625619172e-07   3.7324845761047606e-05
-8.837765942907444e-06   -8.297232625619172e-07   3.7324845761047606e-05
-8.837765942907444e-06   -8.297232625619172e-07   3.7324845761047606e-05
-8.837765942907444e-06   -8.297232625619172e-07   3.7324845761047606e-05
-6.6487127818267745e-06   -1.5596324878558616e-05   2.6634995629186073e-05
-6.6487127818267745e-06   -1.5596324878558616e-05   2.6634995629186073e-05
-6.6487127818267745e-06   -1.5596324878558616e-05   2.6634995629186073e-05
-6.6487127818267745e-06   -1.5596324878558616e-05   2.6634995629186073e-05
-1.669273970674595e-05   -6.382008707931221e-06   3.7846450801673134e-05
-1.669273970674595e-05   -6.382008707931221e-06   3.7846450801673134e-05
-1.669273970674595e-05   -6.382008707931221e-06   3.7846450801673134e-05
-1.669273970674595e-05   -6.382008707931221e-06   3.7846450801673134e-05
-1.0966681560836146e-05   -8.16722640691785e-06   2.9374151177883993e-05
-1.0966681560836146e-05   -8.16722640691785e-06   2.9374151177883993e-05
-1.0966681560836146e-05   -8.16722640691785e-06   2.9374151177883993e-05
-1.0966681560836146e-05   -8.16722640691785e-06   2.9374151177883993e-05
-1.2788547475993048e-05   -1.2377685832316333e-06   -2.2104047935302866e-05
-1.2788547475993048e-05   -1.2377685832316333e-06   -2.2104047935302866e-05
-1.2788547475993048e-05   -1.2377685832316333e-06   -2.2104047935302866e-05
-1.2788547475993048e-05   -1.2377685832316333e-06   -2.2104047935302866e-05
-2.1659366810406096e-06   1.9167631955019403e-06   -2.506977543142129e-06
-2.1659366810406096e-06   1.9167631955019403e-06   -2.506977543142129e-06
-2.1659366810406096e-06   1.9167631955019403e-06   -2.506977543142129e-06
-2.1659366810406096e-06   1.9167631955019403e-06   -2.506977543142129e-06
3.2347766427097413e-07   -1.7010514189305312e-06   -1.7498470766293475e-05
3.2347766427097413e-07   -1.7010514189305312e-06   -1.7498470766293475e-05
3.2347766427097413e-07   -1.7010514189305312e-06   -1.7498470766293475e-05
3.2347766427097413e-07   -1.7010514189305312e-06   -1.7498470766293475e-05
-1.0261424075468876e-05   3.3498902522909784e-06   -2.887532869461258e-06
-1.0261424075468876e-05   3.3498902522909784e-06   -2.887532869461258e-06
-1.0261424075468876e-05   3.3498902522909784e-06   -2.887532869461258e-06
-1.0261424075468876e-05   3.3498902522909784e-06   -2.887532869461258e-06
-5.689664786117125e-06   8.605984182473436e-07   -9.0135565846243e-06
-5.689664786117125e-06   8.605984182473436e-07   -9.0135565846243e-06
-5.689664786117125e-06   8.605984182473436e-07   -9.0135565846243e-06
-5.689664786117125e-06   8.605984182473436e-07   -9.0135565846243e-06
-1.0261424075468876e-05   -1.7010514189305312e-06   -2.052903576902883e-05
-1.0261424075468876e-05   -1.7010514189305312e-06   -2.052903576902883e-05
-1.0261424075468876e-05   -1.7010514189305312e-06   -2.052903576902883e-05
-1.0261424075468876e-05   -1.7010514189305312e-06   -2.052903576902883e-05
3.234776642714078e-07   3.3498902522909784e-06   1.4303213327192948e-07
3.234776642714078e-07   3.3498902522909784e-06   1.4303213327192948e-07
3.234776642714078e-07   3.3498902522909784e-06   1.4303213327192948e-07
3.234776642714078e-07   3.3498902522909784e-06   1.4303213327192948e-07
1.6661471281698842e-06   -2.3364210701773414e-06   -1.586744343788811e-05
1.6661471281698842e-06   -2.3364210701773414e-06   -1.586744343788811e-05
1.6661471281698842e-06   -2.3364210701773414e-06   -1.586744343788811e-05
1.6661471281698842e-06   -2.3364210701773414e-06   -1.586744343788811e-05
-8.837765942907444e-06   2.9604186244376986e-06   -1.539025469530185e-06
-8.837765942907444e-06   2.9604186244376986e-06   -1.539025469530185e-06
-8.837765942907444e-06   2.9604186244376986e-06   -1.539025469530185e-06
-8.837765942907444e-06   2.9604186244376986e-06   -1.539025469530185e-06
-3.830950960735744e-06   5.695698288602728e-07   -8.449207829133026e-06
-3.830950960735744e-06   5.695698288602728e-07   -8.449207829133026e-06
-3.830950960735744e-06   5.695698288602728e-07   -8.449207829133026e-06
-3.830950960735744e-06   5.695698288602728e-07   -8.449207829133026e-06
-8.837765942907444e-06   -2.3364210701773414e-06   -1.9045547254658126e-05
-8.837765942907444e-06   -2.3364210701773414e-06   -1.9045547254658126e-05
-8.837765942907444e-06   -2.3364210701773414e-06   -1.9045547254658126e-05
-8.837765942907444e-06   -2.3364210701773414e-06   -1.9045547254658126e-05
1.6661471281698842e-06   2.9604186244376986e-06   1.6390783472378795e-06
1.6661471281698842e-06   2.9604186244376986e-06   1.6390783472378795e-06
1.6661471281698842e-06   2.9604186244376986e-06   1.6390783472378795e-06
1.6661471281698842e-06   2.9604186244376986e-06   1.6390783472378795e-06
3.3624188831332842e-06   -3.07959186466927e-06   -1.352098208197601e-05
3.3624188831332842e-06   -3.07959186466927e-06   -1.352098208197601e-05
3.3624188831332842e-06   -3.07959186466927e-06   -1.352098208197601e-05
3.3624188831332842e-06   -3.07959186466927e-06   -1.352098208197601e-05
-6.6487127818267745e-06   2.715052415500546e-06   -3.1254920847961776e-07
-6.6487127818267745e-06   2.715052415500546e-06   -3.1254920847961776e-07
-6.6487127818267745e-06   2.715052415500546e-06   -3.1254920847961776e-07
-6.6487127818267745e-06   2.715052415500546e-06   -3.1254920847961776e-07
-2.1398271074246113e-06   2.3511333630422265e-07   -6.339395218298363e-06
-2.1398271074246113e-06   2.3511333630422265e-07   -6.339395218298363e-06
-2.1398271074246113e-06   2.3511333630422265e-07   -6.339395218298363e-06
-2.1398271074246113e-06   2.3511333630422265e-07   -6.339395218298363e-06
              </DataArray>   
             <DataArray type="Float64" NumberOfComponents="3" Name="Stress" format="ascii">   
-19.69534947807326   -4.923837369518315   -4.923837369518315
-19.69534947807326   -4.923837369518315   -4.923837369518315
-19.69534947807326   -4.923837369518315   -4.923837369518315
-19.69534947807326   -4.923837369518315   -4.923837369518315
-11.39993503540074   -0.3560862839971035   -0.22656628570370652
-11.39993503540074   -0.3560862839971035   -0.22656628570370652
-11.39993503540074   -0.3560862839971035   -0.22656628570370652
-11.39993503540074   -0.3560862839971035   -0.22656628570370652
-12.292379616891008   -3.073094904222752   -3.073094904222752
-12.292379616891008   -3.073094904222752   -3.073094904222752
-12.292379616891008   -3.073094904222752   -3.073094904222752
-12.292379616891008   -3.073094904222752   -3.073094904222752
-18.984156525426663   -1.554998214204712   -0.5934189574850675
-18.984156525426663   -1.554998214204712   -0.5934189574850675
-18.984156525426663   -1.554998214204712   -0.5934189574850675
-18.984156525426663   -1.554998214204712   -0.5934189574850675
-14.890409346155982   -2.438817181398622   -0.04083908571182013
-14.890409346155982   -2.438817181398622   -0.04083908571182013
-14.890409346155982   -2.438817181398622   -0.04083908571182013
-14.890409346155982   -2.438817181398622   -0.04083908571182013
-20.616081212320818   -5.1540203030802045   -5.1540203030802045
-20.616081212320818   -5.1540203030802045   -5.1540203030802045
-20.616081212320818   -5.1540203030802045   -5.1540203030802045
-20.616081212320818   -5.1540203030802045   -5.1540203030802045
-11.047056877367272   0.13932523728235102   -0.05890134810916969
-11.047056877367272   0.13932523728235102   -0.05890134810916969
-11.047056877367272   0.13932523728235102   -0.05890134810916969
-11.047056877367272   0.13932523728235102   -0.05890134810916969
-12.330514194581323   -3.0826285486453306   -3.0826285486453306
-12.330514194581323   -3.0826285486453306   -3.0826285486453306
-12.330514194581323   -3.0826285486453306   -3.0826285486453306
-12.330514194581323   -3.0826285486453306   -3.0826285486453306
-19.62607245423704   -1.5710028319687632   -0.8700358632254397
-19.62607245423704   -1.5710028319687632   -0.8700358632254397
-19.62607245423704   -1.5710028319687632   -0.8700358632254397
-19.62607245423704   -1.5710028319687632   -0.8700358632254397
-15.449508274018381   -2.2974356369091202   -0.8202660676530968
-15.449508274018381   -2.2974356369091202   -0.8202660676530968
-15.449508274018381   -2.2974356369091202   -0.8202660676530968
-15.449508274018381   -2.2974356369091202   -0.8202660676530968
-21.26429412799804   -5.31607353199951   -5.31607353199951
-21.26429412799804   -5.31607353199951   -5.31607353199951
-21.26429412799804   -5.31607353199951   -5.31607353199951
-21.26429412799804   -5.31607353199951   -5.31607353199951
-11.01818281973628   0.3365518524694915   0.059847924465059155
-11.01818281973628   0.3365518524694915   0.059847924465059155
-11.01818281973628   0.3365518524694915   0.059847924465059155
-11.01818281973628   0.3365518524694915   0.059847924465059155
-12.327942286804397   -3.0819855717010993   -3.0819855717010993
-12.327942286804397   -3.0819855717010993   -3.0819855717010993
-12.327942286804397   -3.0819855717010993   -3.0819855717010993
-12.327942286804397   -3.0819855717010993   -3.0819855717010993
-20.771673247882525   -1.380450669170782   -0.5201473695812701
-20.771673247882525   -1.380450669170782   -0.5201473695812701
-20.771673247882525   -1.380450669170782   -0.5201473695812701
-20.771673247882525   -1.380450669170782   -0.5201473695812701
-15.865688297315668   -2.262743391911333   -1.4831661613616525
-15.865688297315668   -2.262743391911333   -1.4831661613616525
-15.865688297315668   -2.262743391911333   -1.4831661613616525
-15.865688297315668   -2.262743391911333   -1.4831661613616525
-12.53711613495622   -3.134279033739055   -3.134279033739055
-12.53711613495622   -3.134279033739055   -3.134279033739055
-12.53711613495622   -3.134279033739055   -3.134279033739055
-12.53711613495622   -3.134279033739055   -3.134279033739055
-5.2262403584633255   -0.34439698981639344   -0.11223426642494011
-5.2262403584633255   -0.34439698981639344   -0.11223426642494011
-5.2262403584633255   -0.34439698981639344   -0.11223426642494011
-5.2262403584633255   -0.34439698981639344   -0.11223426642494011
-5.490810766490283   -1.3727026916225709   -1.3727026916225709
-5.490810766490283   -1.3727026916225709   -1.3727026916225709
-5.490810766490283   -1.3727026916225709   -1.3727026916225709
-5.490810766490283   -1.3727026916225709   -1.3727026916225709
-11.416666490648764   -1.3407740477336592   -0.42685012950061924
-11.416666490648764   -1.3407740477336592   -0.42685012950061924
-11.416666490648764   -1.3407740477336592   -0.42685012950061924
-11.416666490648764   -1.3407740477336592   -0.42685012950061924
-8.418002922986059   -1.59353854076767   0.06635945409193716
-8.418002922986059   -1.59353854076767   0.06635945409193716
-8.418002922986059   -1.59353854076767   0.06635945409193716
-8.418002922986059   -1.59353854076767   0.06635945409193716
-12.292379616890996   -3.073094904222749   -3.073094904222749
-12.292379616890996   -3.073094904222749   -3.073094904222749
-12.292379616890996   -3.073094904222749   -3.073094904222749
-12.292379616890996   -3.073094904222749   -3.073094904222749
-4.93394683414389   0.04076897097067067   -0.0018546924838431234
-4.93394683414389   0.04076897097067067   -0.0018546924838431234
-4.93394683414389   0.04076897097067067   -0.0018546924838431234
-4.93394683414389   0.04076897097067067   -0.0018546924838431234
-5.371674668091491   -1.3429186670228728   -1.3429186670228728
-5.371674668091491   -1.3429186670228728   -1.3429186670228728
-5.371674668091491   -1.3429186670228728   -1.3429186670228728
-5.371674668091491   -1.3429186670228728   -1.3429186670228728
-11.391316914799008   -1.0947102461059148   -0.37456045227317014
-11.391316914799008   -1.0947102461059148   -0.37456045227317014
-11.391316914799008   -1.0947102461059148   -0.37456045227317014
-11.391316914799008   -1.0947102461059148   -0.37456045227317014
-8.30418475312435   -1.342253226347079   -0.4345483980641325
-8.30418475312435   -1.342253226347079   -0.4345483980641325
-8.30418475312435   -1.342253226347079   -0.4345483980641325
-8.30418475312435   -1.342253226347079   -0.4345483980641325
-12.330514194581323   -3.0826285486453306   -3.0826285486453306
-12.330514194581323   -3.0826285486453306   -3.0826285486453306
-12.330514194581323   -3.0826285486453306   -3.0826285486453306
-12.330514194581323   -3.0826285486453306   -3.0826285486453306
-4.741292391550956   0.3361846322747628   0.12988941638216678
-4.741292391550956   0.3361846322747628   0.12988941638216678
-4.741292391550956   0.3361846322747628   0.12988941638216678
-4.741292391550956   0.3361846322747628   0.12988941638216678
-5.263764795035044   -1.315941198758761   -1.315941198758761
-5.263764795035044   -1.315941198758761   -1.315941198758761
-5.263764795035044   -1.315941198758761   -1.315941198758761
-5.263764795035044   -1.315941198758761   -1.315941198758761
-11.31132979677373   -0.8456807098438961   -0.23522798340511325
-11.31132979677373   -0.8456807098438961   -0.23522798340511325
-11.31132979677373   -0.8456807098438961   -0.23522798340511325
-11.31132979677373   -0.8456807098438961   -0.23522798340511325
-8.348915689487859   -1.1887831457498903   -0.9686675750525969
-8.348915689487859   -1.1887831457498903   -0.9686675750525969
-8.348915689487859   -1.1887831457498903   -0.9686675750525969
-8.348915689487859   -1.1887831457498903   -0.9686675750525969
-5.705460119127854   -1.4263650297819634   -1.4263650297819634
-5.705460119127854   -1.4263650297819634   -1.4263650297819634
-5.705460119127854   -1.4263650297819634   -1.4263650297819634
-5.705460119127854   -1.4263650297819634   -1.4263650297819634
0.6873591926778053   0.046706519462566085   0.005480925973144892
0.6873591926778053   0.046706519462566085   0.005480925973144892
0.6873591926778053   0.046706519462566085   0.005480925973144892
0.6873591926778053   0.046706519462566085   0.005480925973144892
0.8875379921503622   0.22188449803759056   0.22188449803759056
0.8875379921503622   0.22188449803759056   0.22188449803759056
0.8875379921503622   0.22188449803759056   0.22188449803759056
0.8875379921503622   0.22188449803759056   0.22188449803759056
-5.161983634411245   -0.8923051659989195   -0.20896455685102752
-5.161983634411245   -0.8923051659989195   -0.20896455685102752
-5.161983634411245   -0.8923051659989195   -0.20896455685102752
-5.161983634411245   -0.8923051659989195   -0.20896455685102752
-2.2045980409792056   -0.559474392064908   0.37680897286820664
-2.2045980409792056   -0.559474392064908   0.37680897286820664
-2.2045980409792056   -0.559474392064908   0.37680897286820664
-2.2045980409792056   -0.559474392064908   0.37680897286820664
-5.490810766490283   -1.3727026916225709   -1.3727026916225709
-5.490810766490283   -1.3727026916225709   -1.3727026916225709
-5.490810766490283   -1.3727026916225709   -1.3727026916225709
-5.490810766490283   -1.3727026916225709   -1.3727026916225709
0.9028510030785251   0.38876790251036475   0.13156614820562385
0.9028510030785251   0.38876790251036475   0.13156614820562385
0.9028510030785251   0.38876790251036475   0.13156614820562385
0.9028510030785251   0.38876790251036475   0.13156614820562385
0.9939480715463274   0.24848701788658184   0.24848701788658184
0.9939480715463274   0.24848701788658184   0.24848701788658184
0.9939480715463274   0.24848701788658184   0.24848701788658184
0.9939480715463274   0.24848701788658184   0.24848701788658184
-4.982910553374851   -0.6018462749486789   -0.14017048551390845
-4.982910553374851   -0.6018462749486789   -0.14017048551390845
-4.982910553374851   -0.6018462749486789   -0.14017048551390845
-4.982910553374851   -0.6018462749486789   -0.14017048551390845
-2.118372521482394   -0.3462875674142054   -0.12763397637386775
-2.118372521482394   -0.3462875674142054   -0.12763397637386775
-2.118372521482394   -0.3462875674142054   -0.12763397637386775
-2.118372521482394   -0.3462875674142054   -0.12763397637386775
-5.371674668091491   -1.3429186670228728   -1.3429186670228728
-5.371674668091491   -1.3429186670228728   -1.3429186670228728
-5.371674668091491   -1.3429186670228728   -1.3429186670228728
-5.371674668091491   -1.3429186670228728   -1.3429186670228728
1.0755002940524068   0.682347517750221   0.2223876305533329
1.0755002940524068   0.682347517750221   0.2223876305533329
1.0755002940524068   0.682347517750221   0.2223876305533329
1.0755002940524068   0.682347517750221   0.2223876305533329
1.1382745296878531   0.2845686324219633   0.2845686324219633
1.1382745296878531   0.2845686324219633   0.2845686324219633
1.1382745296878531   0.2845686324219633   0.2845686324219633
1.1382745296878531   0.2845686324219633   0.2845686324219633
-4.787966676621521   -0.25517453196919637   0.002282726519261785
-4.787966676621521   -0.25517453196919637   0.002282726519261785
-4.787966676621521   -0.25517453196919637   0.002282726519261785
-4.787966676621521   -0.25517453196919637   0.002282726519261785
-2.058700441991808   -0.1407737046491419   -0.6275781939017345
-2.058700441991808   -0.1407737046491419   -0.6275781939017345
-2.058700441991808   -0.1407737046491419   -0.6275781939017345
-2.058700441991808   -0.1407737046491419   -0.6275781939017345
0.7521352262118494   0.18803380655296234   0.18803380655296234
0.7521352262118494   0.18803380655296234   0.18803380655296234
0.7521352262118494   0.18803380655296234   0.18803380655296234
0.7521352262118494   0.18803380655296234   0.18803380655296234
7.157921978831809   0.6563089342276267   0.21867005160762354
7.157921978831809   0.6563089342276267   0.21867005160762354
7.157921978831809   0.6563089342276267   0.21867005160762354
7.157921978831809   0.6563089342276267   0.21867005160762354
7.768128424615763   1.9420321061539407   1.9420321061539407
7.768128424615763   1.9420321061539407   1.9420321061539407
7.768128424615763   1.9420321061539407   1.9420321061539407
7.768128424615763   1.9420321061539407   1.9420321061539407
0.6765277907082912   -0.5043794606849309   -0.10690255045025734
0.6765277907082912   -0.5043794606849309   -0.10690255045025734
0.6765277907082912   -0.5043794606849309   -0.10690255045025734
0.6765277907082912   -0.5043794606849309   -0.10690255045025734
4.084335541184751   0.5082882715600905   0.7427962200015349
4.084335541184751   0.5082882715600905   0.7427962200015349
4.084335541184751   0.5082882715600905   0.7427962200015349
4.084335541184751   0.5082882715600905   0.7427962200015349
0.8875379921503653   0.22188449803759133   0.22188449803759133
0.8875379921503653   0.22188449803759133   0.22188449803759133
0.8875379921503653   0.22188449803759133   0.22188449803759133
0.8875379921503653   0.22188449803759133   0.22188449803759133
7.238530631853566   0.8971805561112957   0.3388946923856003
7.238530631853566   0.8971805561112957   0.3388946923856003
7.238530631853566   0.8971805561112957   0.3388946923856003
7.238530631853566   0.8971805561112957   0.3388946923856003
7.731002266563487   1.9327505666408717   1.9327505666408717
7.731002266563487   1.9327505666408717   1.9327505666408717
7.731002266563487   1.9327505666408717   1.9327505666408717
7.731002266563487   1.9327505666408717   1.9327505666408717
0.8502923025803151   -0.22050469721734522   -0.0008001118395601498
0.8502923025803151   -0.22050469721734522   -0.0008001118395601498
0.8502923025803151   -0.22050469721734522   -0.0008001118395601498
0.8502923025803151   -0.22050469721734522   -0.0008001118395601498
4.050265607530224   0.6656212841354714   0.19399117140948371
4.050265607530224   0.6656212841354714   0.19399117140948371
4.050265607530224   0.6656212841354714   0.19399117140948371
4.050265607530224   0.6656212841354714   0.19399117140948371
0.9939480715463282   0.24848701788658206   0.24848701788658206
0.9939480715463282   0.24848701788658206   0.24848701788658206
0.9939480715463282   0.24848701788658206   0.24848701788658206
0.9939480715463282   0.24848701788658206   0.24848701788658206
7.271798760895542   1.1482111148350127   0.42127249010700357
7.271798760895542   1.1482111148350127   0.42127249010700357
7.271798760895542   1.1482111148350127   0.42127249010700357
7.271798760895542   1.1482111148350127   0.42127249010700357
7.877023038281436   1.969255759570359   1.969255759570359
7.877023038281436   1.969255759570359   1.969255759570359
7.877023038281436   1.969255759570359   1.969255759570359
7.877023038281436   1.969255759570359   1.969255759570359
1.079073139312681   0.15541468076059362   0.11771563220746223
1.079073139312681   0.15541468076059362   0.11771563220746223
1.079073139312681   0.15541468076059362   0.11771563220746223
1.079073139312681   0.15541468076059362   0.11771563220746223
4.109361495568373   0.9020185955023912   -0.31489611477298074
4.109361495568373   0.9020185955023912   -0.31489611477298074
4.109361495568373   0.9020185955023912   -0.31489611477298074
4.109361495568373   0.9020185955023912   -0.31489611477298074
7.758806868516399   1.9397017171290998   1.9397017171290998
7.758806868516399   1.9397017171290998   1.9397017171290998
7.758806868516399   1.9397017171290998   1.9397017171290998
7.758806868516399   1.9397017171290998   1.9397017171290998
16.07144503241537   1.223833102968293   0.4150996458719479
16.07144503241537   1.223833102968293   0.4150996458719479
16.07144503241537   1.223833102968293   0.4150996458719479
16.07144503241537   1.223833102968293   0.4150996458719479
16.422894090877943   4.105723522719486   4.105723522719486
16.422894090877943   4.105723522719486   4.105723522719486
16.422894090877943   4.105723522719486   4.105723522719486
16.422894090877943   4.105723522719486   4.105723522719486
6.9041002869167825   -0.39393366880509095   -0.04214280738192683
6.9041002869167825   -0.39393366880509095   -0.04214280738192683
6.9041002869167825   -0.39393366880509095   -0.04214280738192683
6.9041002869167825   -0.39393366880509095   -0.04214280738192683
11.465191401717954   1.621390269359185   1.295739580593311
11.465191401717954   1.621390269359185   1.295739580593311
11.465191401717954   1.621390269359185   1.295739580593311
11.465191401717954   1.621390269359185   1.295739580593311
7.768128424615756   1.942032106153939   1.942032106153939
7.768128424615756   1.942032106153939   1.942032106153939
7.768128424615756   1.942032106153939   1.942032106153939
7.768128424615756   1.942032106153939   1.942032106153939
15.217506618904988   1.4283984134865284   0.7561112720879359
15.217506618904988   1.4283984134865284   0.7561112720879359
15.217506618904988   1.4283984134865284   0.7561112720879359
15.217506618904988   1.4283984134865284   0.7561112720879359
15.92770484840689   3.9819262121017225   3.9819262121017225
15.92770484840689   3.9819262121017225   3.9819262121017225
15.92770484840689   3.9819262121017225   3.9819262121017225
15.92770484840689   3.9819262121017225   3.9819262121017225
6.924606239177214   -0.21929392189807762   0.05281491824845358
6.924606239177214   -0.21929392189807762   0.05281491824845358
6.924606239177214   -0.21929392189807762   0.05281491824845358
6.924606239177214   -0.21929392189807762   0.05281491824845358
11.120835956152714   1.667009400456052   0.6215455160065813
11.120835956152714   1.667009400456052   0.6215455160065813
11.120835956152714   1.667009400456052   0.6215455160065813
11.120835956152714   1.667009400456052   0.6215455160065813
7.731002266563487   1.9327505666408717   1.9327505666408717
7.731002266563487   1.9327505666408717   1.9327505666408717
7.731002266563487   1.9327505666408717   1.9327505666408717
7.731002266563487   1.9327505666408717   1.9327505666408717
14.723407647420457   1.4319805499626588   0.5103858693088633
14.723407647420457   1.4319805499626588   0.5103858693088633
14.723407647420457   1.4319805499626588   0.5103858693088633
14.723407647420457   1.4319805499626588   0.5103858693088633
15.193202752602888   3.798300688150722   3.798300688150722
15.193202752602888   3.798300688150722   3.798300688150722
15.193202752602888   3.798300688150722   3.798300688150722
15.193202752602888   3.798300688150722   3.798300688150722
7.176946854155338   0.22122559393189034   0.21690500457833678
7.176946854155338   0.22122559393189034   0.21690500457833678
7.176946854155338   0.22122559393189034   0.21690500457833678
7.176946854155338   0.22122559393189034   0.21690500457833678
10.644688351339664   1.8060737175844641   -0.16209325401054425
10.644688351339664   1.8060737175844641   -0.16209325401054425
10.644688351339664   1.8060737175844641   -0.16209325401054425
10.644688351339664   1.8060737175844641   -0.16209325401054425
-15.599589195354651   -1.1164635714303066   0.17120143708420876
-15.599589195354651   -1.1164635714303066   0.17120143708420876
-15.599589195354651   -1.1164635714303066   0.17120143708420876
-15.599589195354651   -1.1164635714303066   0.17120143708420876
-9.925032068173588   -0.22478497448173163   -0.06264066150011288
-9.925032068173588   -0.22478497448173163   -0.06264066150011288
-9.925032068173588   -0.22478497448173163   -0.06264066150011288
-9.925032068173588   -0.22478497448173163   -0.06264066150011288
-9.995836141807622   0.4025456291447629   0.2059798756432869
-9.995836141807622   0.4025456291447629   0.2059798756432869
-9.995836141807622   0.4025456291447629   0.2059798756432869
-9.995836141807622   0.4025456291447629   0.2059798756432869
-15.833639802040096   -1.0778341677555705   -0.18553899467974388
-15.833639802040096   -1.0778341677555705   -0.18553899467974388
-15.833639802040096   -1.0778341677555705   -0.18553899467974388
-15.833639802040096   -1.0778341677555705   -0.18553899467974388
-12.332872999979225   -0.41985019403304813   -0.04662334544003255
-12.332872999979225   -0.41985019403304813   -0.04662334544003255
-12.332872999979225   -0.41985019403304813   -0.04662334544003255
-12.332872999979225   -0.41985019403304813   -0.04662334544003255
-15.720545722727444   -0.7693106794518889   0.07140791357984844
-15.720545722727444   -0.7693106794518889   0.07140791357984844
-15.720545722727444   -0.7693106794518889   0.07140791357984844
-15.720545722727444   -0.7693106794518889   0.07140791357984844
-10.12575607061385   0.07719629134754413   -0.11827043059044917
-10.12575607061385   0.07719629134754413   -0.11827043059044917
-10.12575607061385   0.07719629134754413   -0.11827043059044917
-10.12575607061385   0.07719629134754413   -0.11827043059044917
-10.010021784165662   0.5732735409432661   0.23529533126333035
-10.010021784165662   0.5732735409432661   0.23529533126333035
-10.010021784165662   0.5732735409432661   0.23529533126333035
-10.010021784165662   0.5732735409432661   0.23529533126333035
-15.932809948622216   -0.9502257925448547   -0.24515963289010634
-15.932809948622216   -0.9502257925448547   -0.24515963289010634
-15.932809948622216   -0.9502257925448547   -0.24515963289010634
-15.932809948622216   -0.9502257925448547   -0.24515963289010634
-12.682047837333272   -0.28199068628679536   -0.11917294044995697
-12.682047837333272   -0.28199068628679536   -0.11917294044995697
-12.682047837333272   -0.28199068628679536   -0.11917294044995697
-12.682047837333272   -0.28199068628679536   -0.11917294044995697
-15.649009780218794   -0.46405003433635494   0.687665450918356
-15.649009780218794   -0.46405003433635494   0.687665450918356
-15.649009780218794   -0.46405003433635494   0.687665450918356
-15.649009780218794   -0.46405003433635494   0.687665450918356
-10.175054632713161   0.20586510259068103   -0.22246047312148354
-10.175054632713161   0.20586510259068103   -0.22246047312148354
-10.175054632713161   0.20586510259068103   -0.22246047312148354
-10.175054632713161   0.20586510259068103   -0.22246047312148354
-9.830499241940167   0.9977379790000129   0.42962186533037905
-9.830499241940167   0.9977379790000129   0.42962186533037905
-9.830499241940167   0.9977379790000129   0.42962186533037905
-9.830499241940167   0.9977379790000129   0.42962186533037905
-15.4972528800749   -0.7686921527663331   -0.40210293399634367
-15.4972528800749   -0.7686921527663331   -0.40210293399634367
-15.4972528800749   -0.7686921527663331   -0.40210293399634367
-15.4972528800749   -0.7686921527663331   -0.40210293399634367
-12.200589209724072   0.11167244527551112   0.26963258712498694
-12.200589209724072   0.11167244527551112   0.26963258712498694
-12.200589209724072   0.11167244527551112   0.26963258712498694
-12.200589209724072   0.11167244527551112   0.26963258712498694
-10.172847736269933   -1.3471436728212003   -0.1793603036423677
-10.172847736269933   -1.3471436728212003   -0.1793603036423677
-10.172847736269933   -1.3471436728212003   -0.1793603036423677
-10.172847736269933   -1.3471436728212003   -0.1793603036423677
-4.681042847099   -0.10131116481264102   0.050341920994765976
-4.681042847099   -0.10131116481264102   0.050341920994765976
-4.681042847099   -0.10131116481264102   0.050341920994765976
-4.681042847099   -0.10131116481264102   0.050341920994765976
-4.752026510961945   0.09148078574119611   0.06978405818685396
-4.752026510961945   0.09148078574119611   0.06978405818685396
-4.752026510961945   0.09148078574119611   0.06978405818685396
-4.752026510961945   0.09148078574119611   0.06978405818685396
-10.37587083820459   -0.9864971304890156   -0.30515084670777004
-10.37587083820459   -0.9864971304890156   -0.30515084670777004
-10.37587083820459   -0.9864971304890156   -0.30515084670777004
-10.37587083820459   -0.9864971304890156   -0.30515084670777004
-7.495034310533777   -0.6072252657273771   -0.17068411291732022
-7.495034310533777   -0.6072252657273771   -0.17068411291732022
-7.495034310533777   -0.6072252657273771   -0.17068411291732022
-7.495034310533777   -0.6072252657273771   -0.17068411291732022
-10.366552976349134   -1.0786608771312665   -0.16639779078827044
-10.366552976349134   -1.0786608771312665   -0.16639779078827044
-10.366552976349134   -1.0786608771312665   -0.16639779078827044
-10.366552976349134   -1.0786608771312665   -0.16639779078827044
-4.742805075438061   0.20218382976279403   0.005188191784719187
-4.742805075438061   0.20218382976279403   0.005188191784719187
-4.742805075438061   0.20218382976279403   0.005188191784719187
-4.742805075438061   0.20218382976279403   0.005188191784719187
-4.736179075778302   0.330352526199877   0.09561557023511402
-4.736179075778302   0.330352526199877   0.09561557023511402
-4.736179075778302   0.330352526199877   0.09561557023511402
-4.736179075778302   0.330352526199877   0.09561557023511402
-10.382525284065531   -0.7240709131187077   -0.3298777141740418
-10.382525284065531   -0.7240709131187077   -0.3298777141740418
-10.382525284065531   -0.7240709131187077   -0.3298777141740418
-10.382525284065531   -0.7240709131187077   -0.3298777141740418
-7.482580383876806   -0.33841546404208245   -0.08106063196605406
-7.482580383876806   -0.33841546404208245   -0.08106063196605406
-7.482580383876806   -0.33841546404208245   -0.08106063196605406
-7.482580383876806   -0.33841546404208245   -0.08106063196605406
-10.342306358111388   -0.8171390365151421   -0.035714961006896084
-10.342306358111388   -0.8171390365151421   -0.035714961006896084
-10.342306358111388   -0.8171390365151421   -0.035714961006896084
-10.342306358111388   -0.8171390365151421   -0.035714961006896084
-4.742001062748432   0.4578175885803426   -0.060959426995917554
-4.742001062748432   0.4578175885803426   -0.060959426995917554
-4.742001062748432   0.4578175885803426   -0.060959426995917554
-4.742001062748432   0.4578175885803426   -0.060959426995917554
-4.658825142865273   0.5705156307830084   0.19324906582095108
-4.658825142865273   0.5705156307830084   0.19324906582095108
-4.658825142865273   0.5705156307830084   0.19324906582095108
-4.658825142865273   0.5705156307830084   0.19324906582095108
-10.273656164263656   -0.42089247278114716   -0.36753229450595143
-10.273656164263656   -0.42089247278114716   -0.36753229450595143
-10.273656164263656   -0.42089247278114716   -0.36753229450595143
-10.273656164263656   -0.42089247278114716   -0.36753229450595143
-7.45356603122162   -0.08408024795751401   0.03752377195314699
-7.45356603122162   -0.08408024795751401   0.03752377195314699
-7.45356603122162   -0.08408024795751401   0.03752377195314699
-7.45356603122162   -0.08408024795751401   0.03752377195314699
-4.937045637327302   -1.1212227256041418   -0.2097604693552868
-4.937045637327302   -1.1212227256041418   -0.2097604693552868
-4.937045637327302   -1.1212227256041418   -0.2097604693552868
-4.937045637327302   -1.1212227256041418   -0.2097604693552868
0.522873971225584   0.11897009889178631   0.19234663751699269
0.522873971225584   0.11897009889178631   0.19234663751699269
0.522873971225584   0.11897009889178631   0.19234663751699269
0.522873971225584   0.11897009889178631   0.19234663751699269
0.49750817206300263   0.28439582318507256   0.015048582594685646
0.49750817206300263   0.28439582318507256   0.015048582594685646
0.49750817206300263   0.28439582318507256   0.015048582594685646
0.49750817206300263   0.28439582318507256   0.015048582594685646
-4.959762899567429   -0.7435643688024833   -0.13385273029688505
-4.959762899567429   -0.7435643688024833   -0.13385273029688505
-4.959762899567429   -0.7435643688024833   -0.13385273029688505
-4.959762899567429   -0.7435643688024833   -0.13385273029688505
-2.240531124164196   -0.37097802850522965   -0.07029850367196341
-2.240531124164196   -0.37097802850522965   -0.07029850367196341
-2.240531124164196   -0.37097802850522965   -0.07029850367196341
-2.240531124164196   -0.37097802850522965   -0.07029850367196341
-4.994014601829412   -0.8555446418285045   -0.19313096858078435
-4.994014601829412   -0.8555446418285045   -0.19313096858078435
-4.994014601829412   -0.8555446418285045   -0.19313096858078435
-4.994014601829412   -0.8555446418285045   -0.19313096858078435
0.5509547466138669   0.41557096849997377   0.15110631003410593
0.5509547466138669   0.41557096849997377   0.15110631003410593
0.5509547466138669   0.41557096849997377   0.15110631003410593
0.5509547466138669   0.41557096849997377   0.15110631003410593
0.5342679230842013   0.5475444872779692   0.08960484916028001
0.5342679230842013   0.5475444872779692   0.08960484916028001
0.5342679230842013   0.5475444872779692   0.08960484916028001
0.5342679230842013   0.5475444872779692   0.08960484916028001
-4.94575283676116   -0.4550521517056929   -0.16684855677360083
-4.94575283676116   -0.4550521517056929   -0.16684855677360083
-4.94575283676116   -0.4550521517056929   -0.16684855677360083
-4.94575283676116   -0.4550521517056929   -0.16684855677360083
-2.2073146564645243   -0.09118945448145821   0.026853274792711185
-2.2073146564645243   -0.09118945448145821   0.026853274792711185
-2.2073146564645243   -0.09118945448145821   0.026853274792711185
-2.2073146564645243   -0.09118945448145821   0.026853274792711185
-4.958836077554091   -0.5887172209754462   -0.09859969146850514
-4.958836077554091   -0.5887172209754462   -0.09859969146850514
-4.958836077554091   -0.5887172209754462   -0.09859969146850514
-4.958836077554091   -0.5887172209754462   -0.09859969146850514
0.5679854617930701   0.7018438544636592   0.10389317551893056
0.5679854617930701   0.7018438544636592   0.10389317551893056
0.5679854617930701   0.7018438544636592   0.10389317551893056
0.5679854617930701   0.7018438544636592   0.10389317551893056
0.5446917191182061   0.8404707127897777   0.1478505545744041
0.5446917191182061   0.8404707127897777   0.1478505545744041
0.5446917191182061   0.8404707127897777   0.1478505545744041
0.5446917191182061   0.8404707127897777   0.1478505545744041
-4.882870612981023   -0.1464714993468944   -0.20999115462788306
-4.882870612981023   -0.1464714993468944   -0.20999115462788306
-4.882870612981023   -0.1464714993468944   -0.20999115462788306
-4.882870612981023   -0.1464714993468944   -0.20999115462788306
-2.1538615115051387   0.2014122238776092   0.13320597570508685
-2.1538615115051387   0.2014122238776092   0.13320597570508685
-2.1538615115051387   0.2014122238776092   0.13320597570508685
-2.1538615115051387   0.2014122238776092   0.13320597570508685
0.24502800207225747   -0.8213220777644801   -0.25659103159337393
0.24502800207225747   -0.8213220777644801   -0.25659103159337393
0.24502800207225747   -0.8213220777644801   -0.25659103159337393
0.24502800207225747   -0.8213220777644801   -0.25659103159337393
5.900909469458141   0.4084730550843547   0.35234376717093696
5.900909469458141   0.4084730550843547   0.35234376717093696
5.900909469458141   0.4084730550843547   0.35234376717093696
5.900909469458141   0.4084730550843547   0.35234376717093696
5.892198568734378   0.5489457516238161   -0.055947266932624806
5.892198568734378   0.5489457516238161   -0.055947266932624806
5.892198568734378   0.5489457516238161   -0.055947266932624806
5.892198568734378   0.5489457516238161   -0.055947266932624806
0.34550602394399765   -0.4947044692479898   0.03413813443272326
0.34550602394399765   -0.4947044692479898   0.03413813443272326
0.34550602394399765   -0.4947044692479898   0.03413813443272326
0.34550602394399765   -0.4947044692479898   0.03413813443272326
3.057882731474436   -0.06953969975103769   0.007112339911363397
3.057882731474436   -0.06953969975103769   0.007112339911363397
3.057882731474436   -0.06953969975103769   0.007112339911363397
3.057882731474436   -0.06953969975103769   0.007112339911363397
0.2792819505498646   -0.6006545491531228   -0.19103215263280576
0.2792819505498646   -0.6006545491531228   -0.19103215263280576
0.2792819505498646   -0.6006545491531228   -0.19103215263280576
0.2792819505498646   -0.6006545491531228   -0.19103215263280576
5.992802789761269   0.6892759791616989   0.3067436106638951
5.992802789761269   0.6892759791616989   0.3067436106638951
5.992802789761269   0.6892759791616989   0.3067436106638951
5.992802789761269   0.6892759791616989   0.3067436106638951
5.9365704683449625   0.809087779162313   0.06088410429408449
5.9365704683449625   0.809087779162313   0.06088410429408449
5.9365704683449625   0.809087779162313   0.06088410429408449
5.9365704683449625   0.809087779162313   0.06088410429408449
0.35575628521339364   -0.23696773080817413   -0.018441122107615227
0.35575628521339364   -0.23696773080817413   -0.018441122107615227
0.35575628521339364   -0.23696773080817413   -0.018441122107615227
0.35575628521339364   -0.23696773080817413   -0.018441122107615227
3.096645660497371   0.1791993741153538   0.12649700622817492
3.096645660497371   0.1791993741153538   0.12649700622817492
3.096645660497371   0.1791993741153538   0.12649700622817492
3.096645660497371   0.1791993741153538   0.12649700622817492
0.30771309889264326   -0.35665456040906285   -0.13897022411047658
0.30771309889264326   -0.35665456040906285   -0.13897022411047658
0.30771309889264326   -0.35665456040906285   -0.13897022411047658
0.30771309889264326   -0.35665456040906285   -0.13897022411047658
6.009473124169828   0.9536340782672997   0.28085108431331973
6.009473124169828   0.9536340782672997   0.28085108431331973
6.009473124169828   0.9536340782672997   0.28085108431331973
6.009473124169828   0.9536340782672997   0.28085108431331973
5.8395777993275795   1.1093851055076664   0.12706309592794351
5.8395777993275795   1.1093851055076664   0.12706309592794351
5.8395777993275795   1.1093851055076664   0.12706309592794351
5.8395777993275795   1.1093851055076664   0.12706309592794351
0.35086951629068225   0.08259086475070129   -0.0633806115241386
0.35086951629068225   0.08259086475070129   -0.0633806115241386
0.35086951629068225   0.08259086475070129   -0.0633806115241386
0.35086951629068225   0.08259086475070129   -0.0633806115241386
3.1404306531255295   0.46363695662503707   0.2368885663631119
3.1404306531255295   0.46363695662503707   0.2368885663631119
3.1404306531255295   0.46363695662503707   0.2368885663631119
3.1404306531255295   0.46363695662503707   0.2368885663631119
5.4381479045374705   -1.0803703768760728   -0.47262062547198236
5.4381479045374705   -1.0803703768760728   -0.47262062547198236
5.4381479045374705   -1.0803703768760728   -0.47262062547198236
5.4381479045374705   -1.0803703768760728   -0.47262062547198236
11.187918488519951   0.7388648641681861   0.3412938035403658
11.187918488519951   0.7388648641681861   0.3412938035403658
11.187918488519951   0.7388648641681861   0.3412938035403658
11.187918488519951   0.7388648641681861   0.3412938035403658
11.31222194393768   0.35397594332502336   -0.7107164037522506
11.31222194393768   0.35397594332502336   -0.7107164037522506
11.31222194393768   0.35397594332502336   -0.7107164037522506
11.31222194393768   0.35397594332502336   -0.7107164037522506
5.789348751659554   -0.2246563443978189   0.2034057437147847
5.789348751659554   -0.2246563443978189   0.2034057437147847
5.789348751659554   -0.2246563443978189   0.2034057437147847
5.789348751659554   -0.2246563443978189   0.2034057437147847
8.01311922404694   -0.13777716883798208   -0.19880906013621635
8.01311922404694   -0.13777716883798208   -0.19880906013621635
8.01311922404694   -0.13777716883798208   -0.19880906013621635
8.01311922404694   -0.13777716883798208   -0.19880906013621635
5.588839660351431   -0.711097036738739   -0.31269902048483045
5.588839660351431   -0.711097036738739   -0.31269902048483045
5.588839660351431   -0.711097036738739   -0.31269902048483045
5.588839660351431   -0.711097036738739   -0.31269902048483045
11.615010990157085   0.9426965905772446   0.2145081800925699
11.615010990157085   0.9426965905772446   0.2145081800925699
11.615010990157085   0.9426965905772446   0.2145081800925699
11.615010990157085   0.9426965905772446   0.2145081800925699
11.433553626062528   0.6402716354101299   -0.1583046820958401
11.433553626062528   0.6402716354101299   -0.1583046820958401
11.433553626062528   0.6402716354101299   -0.1583046820958401
11.433553626062528   0.6402716354101299   -0.1583046820958401
5.764073029927113   -0.09638147624806259   0.1038661676151087
5.764073029927113   -0.09638147624806259   0.1038661676151087
5.764073029927113   -0.09638147624806259   0.1038661676151087
5.764073029927113   -0.09638147624806259   0.1038661676151087
8.42893692466126   0.2103458022203526   0.13808299303865906
8.42893692466126   0.2103458022203526   0.13808299303865906
8.42893692466126   0.2103458022203526   0.13808299303865906
8.42893692466126   0.2103458022203526   0.13808299303865906
5.60355464672013   -0.5442405574772864   -0.25086666719053696
5.60355464672013   -0.5442405574772864   -0.25086666719053696
5.60355464672013   -0.5442405574772864   -0.25086666719053696
5.60355464672013   -0.5442405574772864   -0.25086666719053696
11.580294918486578   1.0743536258564288   0.14131978957810176
11.580294918486578   1.0743536258564288   0.14131978957810176
11.580294918486578   1.0743536258564288   0.14131978957810176
11.580294918486578   1.0743536258564288   0.14131978957810176
11.410698854922606   0.9759214513885708   -0.24336770890552767
11.410698854922606   0.9759214513885708   -0.24336770890552767
11.410698854922606   0.9759214513885708   -0.24336770890552767
11.410698854922606   0.9759214513885708   -0.24336770890552767
5.6437014180438805   0.2000803063186205   0.05698598869839433
5.6437014180438805   0.2000803063186205   0.05698598869839433
5.6437014180438805   0.2000803063186205   0.05698598869839433
5.6437014180438805   0.2000803063186205   0.05698598869839433
8.210821468300049   0.36731776692687235   0.10105553129845429
8.210821468300049   0.36731776692687235   0.10105553129845429
8.210821468300049   0.36731776692687235   0.10105553129845429
8.210821468300049   0.36731776692687235   0.10105553129845429
-12.287675663421384   -0.559313987408588   0.6273578691134012
-12.287675663421384   -0.559313987408588   0.6273578691134012
-12.287675663421384   -0.559313987408588   0.6273578691134012
-12.287675663421384   -0.559313987408588   0.6273578691134012
-8.152405484723689   -0.306369701902087   -0.1632436084239567
-8.152405484723689   -0.306369701902087   -0.1632436084239567
-8.152405484723689   -0.306369701902087   -0.1632436084239567
-8.152405484723689   -0.306369701902087   -0.1632436084239567
-7.861311626692505   0.6591159901962369   0.5268836197317006
-7.861311626692505   0.6591159901962369   0.5268836197317006
-7.861311626692505   0.6591159901962369   0.5268836197317006
-7.861311626692505   0.6591159901962369   0.5268836197317006
-12.345279966296001   -0.8801789545519485   -0.2561104961080166
-12.345279966296001   -0.8801789545519485   -0.2561104961080166
-12.345279966296001   -0.8801789545519485   -0.2561104961080166
-12.345279966296001   -0.8801789545519485   -0.2561104961080166
-9.748508816464547   -0.1508002300081226   -0.015642697116102
-9.748508816464547   -0.1508002300081226   -0.015642697116102
-9.748508816464547   -0.1508002300081226   -0.015642697116102
-9.748508816464547   -0.1508002300081226   -0.015642697116102
-12.004066443812315   -0.13404672068530932   0.70382488244378
-12.004066443812315   -0.13404672068530932   0.70382488244378
-12.004066443812315   -0.13404672068530932   0.70382488244378
-12.004066443812315   -0.13404672068530932   0.70382488244378
-8.148732046197912   -0.0332231406921224   -0.21787934690697586
-8.148732046197912   -0.0332231406921224   -0.21787934690697586
-8.148732046197912   -0.0332231406921224   -0.21787934690697586
-8.148732046197912   -0.0332231406921224   -0.21787934690697586
-7.830271774731992   0.8170741696609298   0.48880200424859044
-7.830271774731992   0.8170741696609298   0.48880200424859044
-7.830271774731992   0.8170741696609298   0.48880200424859044
-7.830271774731992   0.8170741696609298   0.48880200424859044
-12.156419067155076   -0.7371098965033211   -0.35102867737533694
-12.156419067155076   -0.7371098965033211   -0.35102867737533694
-12.156419067155076   -0.7371098965033211   -0.35102867737533694
-12.156419067155076   -0.7371098965033211   -0.35102867737533694
-9.771194881277994   0.034817400582898284   0.11377120140031516
-9.771194881277994   0.034817400582898284   0.11377120140031516
-9.771194881277994   0.034817400582898284   0.11377120140031516
-9.771194881277994   0.034817400582898284   0.11377120140031516
-11.838530892552185   0.014935337561944095   0.4863669615738545
-11.838530892552185   0.014935337561944095   0.4863669615738545
-11.838530892552185   0.014935337561944095   0.4863669615738545
-11.838530892552185   0.014935337561944095   0.4863669615738545
-8.130417622057552   0.08277126287300574   -0.27762432559122596
-8.130417622057552   0.08277126287300574   -0.27762432559122596
-8.130417622057552   0.08277126287300574   -0.27762432559122596
-8.130417622057552   0.08277126287300574   -0.27762432559122596
-7.838772740015358   0.9209885823175326   0.3878206013634443
-7.838772740015358   0.9209885823175326   0.3878206013634443
-7.838772740015358   0.9209885823175326   0.3878206013634443
-7.838772740015358   0.9209885823175326   0.3878206013634443
-11.91063613644493   -0.5856893674256418   -0.4479616280956972
-11.91063613644493   -0.5856893674256418   -0.4479616280956972
-11.91063613644493   -0.5856893674256418   -0.4479616280956972
-11.91063613644493   -0.5856893674256418   -0.4479616280956972
-9.49200168028093   0.20075116544805915   0.2347327836719788
-9.49200168028093   0.20075116544805915   0.2347327836719788
-9.49200168028093   0.20075116544805915   0.2347327836719788
-9.49200168028093   0.20075116544805915   0.2347327836719788
-8.178272089776321   -0.7755122205540839   0.17656588496487302
-8.178272089776321   -0.7755122205540839   0.17656588496487302
-8.178272089776321   -0.7755122205540839   0.17656588496487302
-8.178272089776321   -0.7755122205540839   0.17656588496487302
-4.122594858994068   -0.14717505219117666   0.008264640269696116
-4.122594858994068   -0.14717505219117666   0.008264640269696116
-4.122594858994068   -0.14717505219117666   0.008264640269696116
-4.122594858994068   -0.14717505219117666   0.008264640269696116
-4.007012794905833   0.4056111254077873   0.28653238947748816
-4.007012794905833   0.4056111254077873   0.28653238947748816
-4.007012794905833   0.4056111254077873   0.28653238947748816
-4.007012794905833   0.4056111254077873   0.28653238947748816
-8.308710892626115   -0.7648049750967931   -0.2861917446433865
-8.308710892626115   -0.7648049750967931   -0.2861917446433865
-8.308710892626115   -0.7648049750967931   -0.2861917446433865
-8.308710892626115   -0.7648049750967931   -0.2861917446433865
-6.132024585313101   -0.30088210243150226   -0.12314345150808165
-6.132024585313101   -0.30088210243150226   -0.12314345150808165
-6.132024585313101   -0.30088210243150226   -0.12314345150808165
-6.132024585313101   -0.30088210243150226   -0.12314345150808165
-8.153582628598913   -0.4467336659559604   0.1713782663518283
-8.153582628598913   -0.4467336659559604   0.1713782663518283
-8.153582628598913   -0.4467336659559604   0.1713782663518283
-8.153582628598913   -0.4467336659559604   0.1713782663518283
-4.130617048118041   0.1190638270819615   -0.044941578257688075
-4.130617048118041   0.1190638270819615   -0.044941578257688075
-4.130617048118041   0.1190638270819615   -0.044941578257688075
-4.130617048118041   0.1190638270819615   -0.044941578257688075
-3.9951678501890826   0.668991552778939   0.24807718143774388
-3.9951678501890826   0.668991552778939   0.24807718143774388
-3.9951678501890826   0.668991552778939   0.24807718143774388
-3.9951678501890826   0.668991552778939   0.24807718143774388
-8.262764392931265   -0.5187881074763561   -0.33779880961049025
-8.262764392931265   -0.5187881074763561   -0.33779880961049025
-8.262764392931265   -0.5187881074763561   -0.33779880961049025
-8.262764392931265   -0.5187881074763561   -0.33779880961049025
-6.066008720118563   -0.03408489192599329   0.0001623830989449515
-6.066008720118563   -0.03408489192599329   0.0001623830989449515
-6.066008720118563   -0.03408489192599329   0.0001623830989449515
-6.066008720118563   -0.03408489192599329   0.0001623830989449515
-8.104444699617602   -0.17956411958168328   0.11457566906315236
-8.104444699617602   -0.17956411958168328   0.11457566906315236
-8.104444699617602   -0.17956411958168328   0.11457566906315236
-8.104444699617602   -0.17956411958168328   0.11457566906315236
-4.127811499964728   0.3554436084223038   -0.10159312308378848
-4.127811499964728   0.3554436084223038   -0.10159312308378848
-4.127811499964728   0.3554436084223038   -0.10159312308378848
-4.127811499964728   0.3554436084223038   -0.10159312308378848
-3.9948079380571166   0.9455903827152212   0.1860337567693212
-3.9948079380571166   0.9455903827152212   0.1860337567693212
-3.9948079380571166   0.9455903827152212   0.1860337567693212
-3.9948079380571166   0.9455903827152212   0.1860337567693212
-8.223966809033412   -0.2535606215402726   -0.36360053986905355
-8.223966809033412   -0.2535606215402726   -0.36360053986905355
-8.223966809033412   -0.2535606215402726   -0.36360053986905355
-8.223966809033412   -0.2535606215402726   -0.36360053986905355
-6.070968282908373   0.2102646768817389   0.09425726267097445
-6.070968282908373   0.2102646768817389   0.09425726267097445
-6.070968282908373   0.2102646768817389   0.09425726267097445
-6.070968282908373   0.2102646768817389   0.09425726267097445
-4.2768090016440805   -0.8845267068498849   -0.025454418321698785
-4.2768090016440805   -0.8845267068498849   -0.025454418321698785
-4.2768090016440805   -0.8845267068498849   -0.025454418321698785
-4.2768090016440805   -0.8845267068498849   -0.025454418321698785
-0.13065351809813   0.04622367739901574   0.18271793234626912
-0.13065351809813   0.04622367739901574   0.18271793234626912
-0.13065351809813   0.04622367739901574   0.18271793234626912
-0.13065351809813   0.04622367739901574   0.18271793234626912
-0.14710389755527403   0.2631764442248095   0.08719233282742571
-0.14710389755527403   0.2631764442248095   0.08719233282742571
-0.14710389755527403   0.2631764442248095   0.08719233282742571
-0.14710389755527403   0.2631764442248095   0.08719233282742571
-4.2805133749520685   -0.5678961107185254   -0.10746327462737365
-4.2805133749520685   -0.5678961107185254   -0.10746327462737365
-4.2805133749520685   -0.5678961107185254   -0.10746327462737365
-4.2805133749520685   -0.5678961107185254   -0.10746327462737365
-2.2154893766018335   -0.2765713693567359   -0.06869249057924709
-2.2154893766018335   -0.2765713693567359   -0.06869249057924709
-2.2154893766018335   -0.2765713693567359   -0.06869249057924709
-2.2154893766018335   -0.2765713693567359   -0.06869249057924709
-4.27591522040039   -0.5920816745226662   -0.06028693806483855
-4.27591522040039   -0.5920816745226662   -0.06028693806483855
-4.27591522040039   -0.5920816745226662   -0.06028693806483855
-4.27591522040039   -0.5920816745226662   -0.06028693806483855
-0.1281836386453069   0.3108804214905968   0.13408965011147614
-0.1281836386453069   0.3108804214905968   0.13408965011147614
-0.1281836386453069   0.3108804214905968   0.13408965011147614
-0.1281836386453069   0.3108804214905968   0.13408965011147614
-0.12845174612176596   0.5502082722232328   0.04215247223163421
-0.12845174612176596   0.5502082722232328   0.04215247223163421
-0.12845174612176596   0.5502082722232328   0.04215247223163421
-0.12845174612176596   0.5502082722232328   0.04215247223163421
-4.2706140098312035   -0.3028402733143063   -0.15732179067957408
-4.2706140098312035   -0.3028402733143063   -0.15732179067957408
-4.2706140098312035   -0.3028402733143063   -0.15732179067957408
-4.2706140098312035   -0.3028402733143063   -0.15732179067957408
-2.1947822996457043   -0.011033972221245192   0.03088954847004037
-2.1947822996457043   -0.011033972221245192   0.03088954847004037
-2.1947822996457043   -0.011033972221245192   0.03088954847004037
-2.1947822996457043   -0.011033972221245192   0.03088954847004037
-4.264161387025209   -0.30911995033047035   -0.11877899963343846
-4.264161387025209   -0.30911995033047035   -0.11877899963343846
-4.264161387025209   -0.30911995033047035   -0.11877899963343846
-4.264161387025209   -0.30911995033047035   -0.11877899963343846
-0.11547719950734889   0.5759151186598187   0.08131835886713538
-0.11547719950734889   0.5759151186598187   0.08131835886713538
-0.11547719950734889   0.5759151186598187   0.08131835886713538
-0.11547719950734889   0.5759151186598187   0.08131835886713538
-0.12516062454020296   0.8458830903528698   -0.005928194569881945
-0.12516062454020296   0.8458830903528698   -0.005928194569881945
-0.12516062454020296   0.8458830903528698   -0.005928194569881945
-0.12516062454020296   0.8458830903528698   -0.005928194569881945
-4.269300591258424   -0.03321621957918097   -0.20762290694282454
-4.269300591258424   -0.03321621957918097   -0.20762290694282454
-4.269300591258424   -0.03321621957918097   -0.20762290694282454
-4.269300591258424   -0.03321621957918097   -0.20762290694282454
-2.1788930383633236   0.25475033417795767   0.12219316696309224
-2.1788930383633236   0.25475033417795767   0.12219316696309224
-2.1788930383633236   0.25475033417795767   0.12219316696309224
-2.1788930383633236   0.25475033417795767   0.12219316696309224
-0.41221309137130213   -0.9669928848665301   -0.21186337175404477
-0.41221309137130213   -0.9669928848665301   -0.21186337175404477
-0.41221309137130213   -0.9669928848665301   -0.21186337175404477
-0.41221309137130213   -0.9669928848665301   -0.21186337175404477
3.8478190663211493   0.27289286141944824   0.34723475111040214
3.8478190663211493   0.27289286141944824   0.34723475111040214
3.8478190663211493   0.27289286141944824   0.34723475111040214
3.8478190663211493   0.27289286141944824   0.34723475111040214
3.722228275743633   0.1466613934454427   -0.13575480389974992
3.722228275743633   0.1466613934454427   -0.13575480389974992
3.722228275743633   0.1466613934454427   -0.13575480389974992
3.722228275743633   0.1466613934454427   -0.13575480389974992
-0.27347450500552645   -0.3553277164033453   0.07384345620432067
-0.27347450500552645   -0.3553277164033453   0.07384345620432067
-0.27347450500552645   -0.3553277164033453   0.07384345620432067
-0.27347450500552645   -0.3553277164033453   0.07384345620432067
1.6968161610230907   -0.22234832697827445   -0.038511189801049533
1.6968161610230907   -0.22234832697827445   -0.038511189801049533
1.6968161610230907   -0.22234832697827445   -0.038511189801049533
1.6968161610230907   -0.22234832697827445   -0.038511189801049533
-0.4115396516041339   -0.7060860249021443   -0.26572396828991784
-0.4115396516041339   -0.7060860249021443   -0.26572396828991784
-0.4115396516041339   -0.7060860249021443   -0.26572396828991784
-0.4115396516041339   -0.7060860249021443   -0.26572396828991784
3.887034492760539   0.5241607723625397   0.3107769022676804
3.887034492760539   0.5241607723625397   0.3107769022676804
3.887034492760539   0.5241607723625397   0.3107769022676804
3.887034492760539   0.5241607723625397   0.3107769022676804
3.7808873348944614   0.4135914253345846   -0.19077639107488933
3.7808873348944614   0.4135914253345846   -0.19077639107488933
3.7808873348944614   0.4135914253345846   -0.19077639107488933
3.7808873348944614   0.4135914253345846   -0.19077639107488933
-0.2663605782325008   -0.11788466166226798   0.020701245563464393
-0.2663605782325008   -0.11788466166226798   0.020701245563464393
-0.2663605782325008   -0.11788466166226798   0.020701245563464393
-0.2663605782325008   -0.11788466166226798   0.020701245563464393
1.710456127698456   0.017628293296754416   0.06034605434196569
1.710456127698456   0.017628293296754416   0.06034605434196569
1.710456127698456   0.017628293296754416   0.06034605434196569
1.710456127698456   0.017628293296754416   0.06034605434196569
-0.4006108420035285   -0.4485332323506872   -0.31990150260325845
-0.4006108420035285   -0.4485332323506872   -0.31990150260325845
-0.4006108420035285   -0.4485332323506872   -0.31990150260325845
-0.4006108420035285   -0.4485332323506872   -0.31990150260325845
3.944271266239917   0.7733736635974313   0.2663610273895427
3.944271266239917   0.7733736635974313   0.2663610273895427
3.944271266239917   0.7733736635974313   0.2663610273895427
3.944271266239917   0.7733736635974313   0.2663610273895427
3.8166147366055916   0.7486734889040836   -0.1987127110721678
3.8166147366055916   0.7486734889040836   -0.1987127110721678
3.8166147366055916   0.7486734889040836   -0.1987127110721678
3.8166147366055916   0.7486734889040836   -0.1987127110721678
-0.26762185349137013   0.1599519555739888   -0.032303204546834836
-0.26762185349137013   0.1599519555739888   -0.032303204546834836
-0.26762185349137013   0.1599519555739888   -0.032303204546834836
-0.26762185349137013   0.1599519555739888   -0.032303204546834836
1.7680782675544602   0.28561695668878323   0.17790881662554128
1.7680782675544602   0.28561695668878323   0.17790881662554128
1.7680782675544602   0.28561695668878323   0.17790881662554128
1.7680782675544602   0.28561695668878323   0.17790881662554128
3.449628845355346   -0.9593471030271881   -0.41147638927193053
3.449628845355346   -0.9593471030271881   -0.41147638927193053
3.449628845355346   -0.9593471030271881   -0.41147638927193053
3.449628845355346   -0.9593471030271881   -0.41147638927193053
7.571779924143512   0.5623741349805347   0.3845387446611651
7.571779924143512   0.5623741349805347   0.3845387446611651
7.571779924143512   0.5623741349805347   0.3845387446611651
7.571779924143512   0.5623741349805347   0.3845387446611651
7.512407666760341   -0.03025205921839147   -0.5476317454888655
7.512407666760341   -0.03025205921839147   -0.5476317454888655
7.512407666760341   -0.03025205921839147   -0.5476317454888655
7.512407666760341   -0.03025205921839147   -0.5476317454888655
3.755094380642583   -0.08239510637527936   0.2576322204157433
3.755094380642583   -0.08239510637527936   0.2576322204157433
3.755094380642583   -0.08239510637527936   0.2576322204157433
3.755094380642583   -0.08239510637527936   0.2576322204157433
5.30182947165849   -0.18581667197155816   -0.17294918080128796
5.30182947165849   -0.18581667197155816   -0.17294918080128796
5.30182947165849   -0.18581667197155816   -0.17294918080128796
5.30182947165849   -0.18581667197155816   -0.17294918080128796
3.4520301235401547   -0.8340150442158218   -0.506069127255832
3.4520301235401547   -0.8340150442158218   -0.506069127255832
3.4520301235401547   -0.8340150442158218   -0.506069127255832
3.4520301235401547   -0.8340150442158218   -0.506069127255832
7.837281678532527   0.7431776332919121   0.3033086208617577
7.837281678532527   0.7431776332919121   0.3033086208617577
7.837281678532527   0.7431776332919121   0.3033086208617577
7.837281678532527   0.7431776332919121   0.3033086208617577
7.693739161686809   0.12200147483069612   -0.7338852087507926
7.693739161686809   0.12200147483069612   -0.7338852087507926
7.693739161686809   0.12200147483069612   -0.7338852087507926
7.693739161686809   0.12200147483069612   -0.7338852087507926
3.7813766420867174   0.03370699380051967   0.1915545764205121
3.7813766420867174   0.03370699380051967   0.1915545764205121
3.7813766420867174   0.03370699380051967   0.1915545764205121
3.7813766420867174   0.03370699380051967   0.1915545764205121
5.539301306277717   -0.02146435179363282   -0.05332679143628538
5.539301306277717   -0.02146435179363282   -0.05332679143628538
5.539301306277717   -0.02146435179363282   -0.05332679143628538
5.539301306277717   -0.02146435179363282   -0.05332679143628538
3.4898771222887386   -0.6820342475437815   -0.5502017812251114
3.4898771222887386   -0.6820342475437815   -0.5502017812251114
3.4898771222887386   -0.6820342475437815   -0.5502017812251114
3.4898771222887386   -0.6820342475437815   -0.5502017812251114
8.03337089201605   0.885874926706264   0.20039999101990136
8.03337089201605   0.885874926706264   0.20039999101990136
8.03337089201605   0.885874926706264   0.20039999101990136
8.03337089201605   0.885874926706264   0.20039999101990136
7.981824856732168   0.5183945903414453   -0.6895660298757706
7.981824856732168   0.5183945903414453   -0.6895660298757706
7.981824856732168   0.5183945903414453   -0.6895660298757706
7.981824856732168   0.5183945903414453   -0.6895660298757706
3.7927620679525176   0.29109414962835867   0.13960328493825144
3.7927620679525176   0.29109414962835867   0.13960328493825144
3.7927620679525176   0.29109414962835867   0.13960328493825144
3.7927620679525176   0.29109414962835867   0.13960328493825144
5.577715684691967   0.16684979251652887   0.07865689206487902
5.577715684691967   0.16684979251652887   0.07865689206487902
5.577715684691967   0.16684979251652887   0.07865689206487902
5.577715684691967   0.16684979251652887   0.07865689206487902
-8.805329273138138   -0.29033609501395485   0.5698482144311546
-8.805329273138138   -0.29033609501395485   0.5698482144311546
-8.805329273138138   -0.29033609501395485   0.5698482144311546
-8.805329273138138   -0.29033609501395485   0.5698482144311546
-6.150129261543129   -0.40807687957763705   -0.21587564932326708
-6.150129261543129   -0.40807687957763705   -0.21587564932326708
-6.150129261543129   -0.40807687957763705   -0.21587564932326708
-6.150129261543129   -0.40807687957763705   -0.21587564932326708
-5.790462157333923   0.5792609436968261   0.48627118617377885
-5.790462157333923   0.5792609436968261   0.48627118617377885
-5.790462157333923   0.5792609436968261   0.48627118617377885
-5.790462157333923   0.5792609436968261   0.48627118617377885
-8.806137978738619   -0.724239229226534   -0.3156368703273802
-8.806137978738619   -0.724239229226534   -0.3156368703273802
-8.806137978738619   -0.724239229226534   -0.3156368703273802
-8.806137978738619   -0.724239229226534   -0.3156368703273802
-7.084758056007688   -0.11353438006699879   -0.013416291005194092
-7.084758056007688   -0.11353438006699879   -0.013416291005194092
-7.084758056007688   -0.11353438006699879   -0.013416291005194092
-7.084758056007688   -0.11353438006699879   -0.013416291005194092
-8.479131883896153   0.05275303006775722   0.5424013445906634
-8.479131883896153   0.05275303006775722   0.5424013445906634
-8.479131883896153   0.05275303006775722   0.5424013445906634
-8.479131883896153   0.05275303006775722   0.5424013445906634
-6.090914542115229   -0.17117760553629813   -0.2655521884995917
-6.090914542115229   -0.17117760553629813   -0.2655521884995917
-6.090914542115229   -0.17117760553629813   -0.2655521884995917
-6.090914542115229   -0.17117760553629813   -0.2655521884995917
-5.736028619815071   0.69941158514724   0.4111882835374646
-5.736028619815071   0.69941158514724   0.4111882835374646
-5.736028619815071   0.69941158514724   0.4111882835374646
-5.736028619815071   0.69941158514724   0.4111882835374646
-8.599111607189293   -0.5903677918992687   -0.39935749527646475
-8.599111607189293   -0.5903677918992687   -0.39935749527646475
-8.599111607189293   -0.5903677918992687   -0.39935749527646475
-8.599111607189293   -0.5903677918992687   -0.39935749527646475
-7.0362389787040795   0.0450818038165266   0.07580743934233775
-7.0362389787040795   0.0450818038165266   0.07580743934233775
-7.0362389787040795   0.0450818038165266   0.07580743934233775
-7.0362389787040795   0.0450818038165266   0.07580743934233775
-8.274717520537616   0.19657098125980843   0.4356741648228498
-8.274717520537616   0.19657098125980843   0.4356741648228498
-8.274717520537616   0.19657098125980843   0.4356741648228498
-8.274717520537616   0.19657098125980843   0.4356741648228498
-6.0363696828824125   -0.06347416442748899   -0.3276312822244483
-6.0363696828824125   -0.06347416442748899   -0.3276312822244483
-6.0363696828824125   -0.06347416442748899   -0.3276312822244483
-6.0363696828824125   -0.06347416442748899   -0.3276312822244483
-5.70584187083187   0.8156345059708028   0.353863473273467
-5.70584187083187   0.8156345059708028   0.353863473273467
-5.70584187083187   0.8156345059708028   0.353863473273467
-5.70584187083187   0.8156345059708028   0.353863473273467
-8.321428138021796   -0.413727703983495   -0.4783518490958698
-8.321428138021796   -0.413727703983495   -0.4783518490958698
-8.321428138021796   -0.413727703983495   -0.4783518490958698
-8.321428138021796   -0.413727703983495   -0.4783518490958698
-6.772920022933675   0.1933579980185114   0.20142191178864643
-6.772920022933675   0.1933579980185114   0.20142191178864643
-6.772920022933675   0.1933579980185114   0.20142191178864643
-6.772920022933675   0.1933579980185114   0.20142191178864643
-6.082542389610236   -0.49835093351304083   0.21233276427654305
-6.082542389610236   -0.49835093351304083   0.21233276427654305
-6.082542389610236   -0.49835093351304083   0.21233276427654305
-6.082542389610236   -0.49835093351304083   0.21233276427654305
-3.5172873955497437   -0.26449415293445   -0.034800725510183955
-3.5172873955497437   -0.26449415293445   -0.034800725510183955
-3.5172873955497437   -0.26449415293445   -0.034800725510183955
-3.5172873955497437   -0.26449415293445   -0.034800725510183955
-3.3388108713607973   0.33885902888735986   0.2622282540120605
-3.3388108713607973   0.33885902888735986   0.2622282540120605
-3.3388108713607973   0.33885902888735986   0.2622282540120605
-3.3388108713607973   0.33885902888735986   0.2622282540120605
-6.173524755457708   -0.5923679071313853   -0.2574129536169326
-6.173524755457708   -0.5923679071313853   -0.2574129536169326
-6.173524755457708   -0.5923679071313853   -0.2574129536169326
-6.173524755457708   -0.5923679071313853   -0.2574129536169326
-4.758523993083985   -0.23270312981312202   -0.09621256694146404
-4.758523993083985   -0.23270312981312202   -0.09621256694146404
-4.758523993083985   -0.23270312981312202   -0.09621256694146404
-4.758523993083985   -0.23270312981312202   -0.09621256694146404
-6.01155196955667   -0.21343185650238294   0.1735149252592202
-6.01155196955667   -0.21343185650238294   0.1735149252592202
-6.01155196955667   -0.21343185650238294   0.1735149252592202
-6.01155196955667   -0.21343185650238294   0.1735149252592202
-3.480023470704441   -0.01931683518425409   -0.08565887863454344
-3.480023470704441   -0.01931683518425409   -0.08565887863454344
-3.480023470704441   -0.01931683518425409   -0.08565887863454344
-3.480023470704441   -0.01931683518425409   -0.08565887863454344
-3.2963064251657093   0.5850883376897191   0.2151254484543298
-3.2963064251657093   0.5850883376897191   0.2151254484543298
-3.2963064251657093   0.5850883376897191   0.2151254484543298
-3.2963064251657093   0.5850883376897191   0.2151254484543298
-6.090727169607271   -0.35967807282129005   -0.30321480745500146
-6.090727169607271   -0.35967807282129005   -0.30321480745500146
-6.090727169607271   -0.35967807282129005   -0.30321480745500146
-6.090727169607271   -0.35967807282129005   -0.30321480745500146
-4.667219678865164   0.009698821280138548   0.007897021924248404
-4.667219678865164   0.009698821280138548   0.007897021924248404
-4.667219678865164   0.009698821280138548   0.007897021924248404
-4.667219678865164   0.009698821280138548   0.007897021924248404
-5.916490248591771   0.049737356894901996   0.15855436790630661
-5.916490248591771   0.049737356894901996   0.15855436790630661
-5.916490248591771   0.049737356894901996   0.15855436790630661
-5.916490248591771   0.049737356894901996   0.15855436790630661
-3.444761570716413   0.2014546834383515   -0.14351662504777518
-3.444761570716413   0.2014546834383515   -0.14351662504777518
-3.444761570716413   0.2014546834383515   -0.14351662504777518
-3.444761570716413   0.2014546834383515   -0.14351662504777518
-3.2552508977966257   0.8471549206395517   0.1712612597932815
-3.2552508977966257   0.8471549206395517   0.1712612597932815
-3.2552508977966257   0.8471549206395517   0.1712612597932815
-3.2552508977966257   0.8471549206395517   0.1712612597932815
-6.028635599811111   -0.10923419410601665   -0.3352364715458937
-6.028635599811111   -0.10923419410601665   -0.3352364715458937
-6.028635599811111   -0.10923419410601665   -0.3352364715458937
-6.028635599811111   -0.10923419410601665   -0.3352364715458937
-4.632000975414499   0.2373888891292939   0.10688597202085193
-4.632000975414499   0.2373888891292939   0.10688597202085193
-4.632000975414499   0.2373888891292939   0.10688597202085193
-4.632000975414499   0.2373888891292939   0.10688597202085193
-3.5921345173297525   -0.6811018386545872   0.007571351309877088
-3.5921345173297525   -0.6811018386545872   0.007571351309877088
-3.5921345173297525   -0.6811018386545872   0.007571351309877088
-3.5921345173297525   -0.6811018386545872   0.007571351309877088
-0.9125525601759215   -0.07724309186809213   0.1466766955947141
-0.9125525601759215   -0.07724309186809213   0.1466766955947141
-0.9125525601759215   -0.07724309186809213   0.1466766955947141
-0.9125525601759215   -0.07724309186809213   0.1466766955947141
-0.8897089656718273   0.14176025784723273   0.05001415892117611
-0.8897089656718273   0.14176025784723273   0.05001415892117611
-0.8897089656718273   0.14176025784723273   0.05001415892117611
-0.8897089656718273   0.14176025784723273   0.05001415892117611
-3.5526875713826938   -0.39942857260017256   -0.06886764460991847
-3.5526875713826938   -0.39942857260017256   -0.06886764460991847
-3.5526875713826938   -0.39942857260017256   -0.06886764460991847
-3.5526875713826938   -0.39942857260017256   -0.06886764460991847
-2.240536835226942   -0.24321819102589515   -0.06826063464501879
-2.240536835226942   -0.24321819102589515   -0.06826063464501879
-2.240536835226942   -0.24321819102589515   -0.06826063464501879
-2.240536835226942   -0.24321819102589515   -0.06826063464501879
-3.5469569518377253   -0.4063506625560266   -0.033292456929222614
-3.5469569518377253   -0.4063506625560266   -0.033292456929222614
-3.5469569518377253   -0.4063506625560266   -0.033292456929222614
-3.5469569518377253   -0.4063506625560266   -0.033292456929222614
-0.8746290275762972   0.1694929054435853   0.09768120180247412
-0.8746290275762972   0.1694929054435853   0.09768120180247412
-0.8746290275762972   0.1694929054435853   0.09768120180247412
-0.8746290275762972   0.1694929054435853   0.09768120180247412
-0.8384093504013153   0.41774864729169725   0.013418152920494558
-0.8384093504013153   0.41774864729169725   0.013418152920494558
-0.8384093504013153   0.41774864729169725   0.013418152920494558
-0.8384093504013153   0.41774864729169725   0.013418152920494558
-3.510156501830517   -0.1510120661309028   -0.11802453104908839
-3.510156501830517   -0.1510120661309028   -0.11802453104908839
-3.510156501830517   -0.1510120661309028   -0.11802453104908839
-3.510156501830517   -0.1510120661309028   -0.11802453104908839
-2.1857596981567378   0.004958849943532406   0.02978920471580486
-2.1857596981567378   0.004958849943532406   0.02978920471580486
-2.1857596981567378   0.004958849943532406   0.02978920471580486
-2.1857596981567378   0.004958849943532406   0.02978920471580486
-3.4971581632126445   -0.13124477222732778   -0.07280013186330117
-3.4971581632126445   -0.13124477222732778   -0.07280013186330117
-3.4971581632126445   -0.13124477222732778   -0.07280013186330117
-3.4971581632126445   -0.13124477222732778   -0.07280013186330117
-0.8321951627523746   0.4171938796549366   0.04504385880196621
-0.8321951627523746   0.4171938796549366   0.04504385880196621
-0.8321951627523746   0.4171938796549366   0.04504385880196621
-0.8321951627523746   0.4171938796549366   0.04504385880196621
-0.7924408221456369   0.697738372659837   -0.029709714860521652
-0.7924408221456369   0.697738372659837   -0.029709714860521652
-0.7924408221456369   0.697738372659837   -0.029709714860521652
-0.7924408221456369   0.697738372659837   -0.029709714860521652
-3.472738700725968   0.10031679460288057   -0.1693396288167804
-3.472738700725968   0.10031679460288057   -0.1693396288167804
-3.472738700725968   0.10031679460288057   -0.1693396288167804
-3.472738700725968   0.10031679460288057   -0.1693396288167804
-2.135737001375548   0.2543223771245516   0.12424899678851478
-2.135737001375548   0.2543223771245516   0.12424899678851478
-2.135737001375548   0.2543223771245516   0.12424899678851478
-2.135737001375548   0.2543223771245516   0.12424899678851478
-1.1311864236849256   -0.83091860797293   -0.19281710584547612
-1.1311864236849256   -0.83091860797293   -0.19281710584547612
-1.1311864236849256   -0.83091860797293   -0.19281710584547612
-1.1311864236849256   -0.83091860797293   -0.19281710584547612
1.6598480189925122   0.1329317485971177   0.3181978851365578
1.6598480189925122   0.1329317485971177   0.3181978851365578
1.6598480189925122   0.1329317485971177   0.3181978851365578
1.6598480189925122   0.1329317485971177   0.3181978851365578
1.5466593775802746   -0.04123414886602206   -0.17582258869486378
1.5466593775802746   -0.04123414886602206   -0.17582258869486378
1.5466593775802746   -0.04123414886602206   -0.17582258869486378
1.5466593775802746   -0.04123414886602206   -0.17582258869486378
-0.9433625097312295   -0.19371385632156068   0.11722055279295879
-0.9433625097312295   -0.19371385632156068   0.11722055279295879
-0.9433625097312295   -0.19371385632156068   0.11722055279295879
-0.9433625097312295   -0.19371385632156068   0.11722055279295879
0.27243794493539936   -0.22678861482664017   -0.04850086569553637
0.27243794493539936   -0.22678861482664017   -0.04850086569553637
0.27243794493539936   -0.22678861482664017   -0.04850086569553637
0.27243794493539936   -0.22678861482664017   -0.04850086569553637
-1.0916962803340895   -0.5811443283487521   -0.23701782819415018
-1.0916962803340895   -0.5811443283487521   -0.23701782819415018
-1.0916962803340895   -0.5811443283487521   -0.23701782819415018
-1.0916962803340895   -0.5811443283487521   -0.23701782819415018
1.7197696040312036   0.37097277900923586   0.27752161568450856
1.7197696040312036   0.37097277900923586   0.27752161568450856
1.7197696040312036   0.37097277900923586   0.27752161568450856
1.7197696040312036   0.37097277900923586   0.27752161568450856
1.641926045001353   0.21980940158383022   -0.1991150614398986
1.641926045001353   0.21980940158383022   -0.1991150614398986
1.641926045001353   0.21980940158383022   -0.1991150614398986
1.641926045001353   0.21980940158383022   -0.1991150614398986
-0.9063262478933772   0.028449280084623968   0.06313303266726586
-0.9063262478933772   0.028449280084623968   0.06313303266726586
-0.9063262478933772   0.028449280084623968   0.06313303266726586
-0.9063262478933772   0.028449280084623968   0.06313303266726586
0.32299831386796957   -0.0019849465915113412   0.051169562264521594
0.32299831386796957   -0.0019849465915113412   0.051169562264521594
0.32299831386796957   -0.0019849465915113412   0.051169562264521594
0.32299831386796957   -0.0019849465915113412   0.051169562264521594
-1.0494702394074549   -0.3362286433113766   -0.28790900150712484
-1.0494702394074549   -0.3362286433113766   -0.28790900150712484
-1.0494702394074549   -0.3362286433113766   -0.28790900150712484
-1.0494702394074549   -0.3362286433113766   -0.28790900150712484
1.8065500633322533   0.6059673517966245   0.23784708000176089
1.8065500633322533   0.6059673517966245   0.23784708000176089
1.8065500633322533   0.6059673517966245   0.23784708000176089
1.8065500633322533   0.6059673517966245   0.23784708000176089
1.718568007739365   0.5176663513786254   -0.2299210867543258
1.718568007739365   0.5176663513786254   -0.2299210867543258
1.718568007739365   0.5176663513786254   -0.2299210867543258
1.718568007739365   0.5176663513786254   -0.2299210867543258
-0.8667251630883265   0.2849232252350583   0.011683727850800157
-0.8667251630883265   0.2849232252350583   0.011683727850800157
-0.8667251630883265   0.2849232252350583   0.011683727850800157
-0.8667251630883265   0.2849232252350583   0.011683727850800157
0.4014842930727558   0.24301608762431293   0.15453101321891644
0.4014842930727558   0.24301608762431293   0.15453101321891644
0.4014842930727558   0.24301608762431293   0.15453101321891644
0.4014842930727558   0.24301608762431293   0.15453101321891644
1.3257475377124983   -0.8396788714759833   -0.3796939011904113
1.3257475377124983   -0.8396788714759833   -0.3796939011904113
1.3257475377124983   -0.8396788714759833   -0.3796939011904113
1.3257475377124983   -0.8396788714759833   -0.3796939011904113
3.9534208411441005   0.3884503225564617   0.4106914021121852
3.9534208411441005   0.3884503225564617   0.4106914021121852
3.9534208411441005   0.3884503225564617   0.4106914021121852
3.9534208411441005   0.3884503225564617   0.4106914021121852
3.9148926943060873   -0.20190061811063864   -0.4996936519245576
3.9148926943060873   -0.20190061811063864   -0.4996936519245576
3.9148926943060873   -0.20190061811063864   -0.4996936519245576
3.9148926943060873   -0.20190061811063864   -0.4996936519245576
1.6649430562125764   0.0681092606162304   0.30625239498439316
1.6649430562125764   0.0681092606162304   0.30625239498439316
1.6649430562125764   0.0681092606162304   0.30625239498439316
1.6649430562125764   0.0681092606162304   0.30625239498439316
2.573390947846949   -0.17229537290988106   -0.1346364351937882
2.573390947846949   -0.17229537290988106   -0.1346364351937882
2.573390947846949   -0.17229537290988106   -0.1346364351937882
2.573390947846949   -0.17229537290988106   -0.1346364351937882
1.362188978618313   -0.7003203144478505   -0.4390884179228428
1.362188978618313   -0.7003203144478505   -0.4390884179228428
1.362188978618313   -0.7003203144478505   -0.4390884179228428
1.362188978618313   -0.7003203144478505   -0.4390884179228428
4.242909094466486   0.5917912795195889   0.34669645124727577
4.242909094466486   0.5917912795195889   0.34669645124727577
4.242909094466486   0.5917912795195889   0.34669645124727577
4.242909094466486   0.5917912795195889   0.34669645124727577
4.125405449271716   -0.05556103164202131   -0.5988143579771911
4.125405449271716   -0.05556103164202131   -0.5988143579771911
4.125405449271716   -0.05556103164202131   -0.5988143579771911
4.125405449271716   -0.05556103164202131   -0.5988143579771911
1.7205491678916767   0.1752724849506217   0.23853746964488032
1.7205491678916767   0.1752724849506217   0.23853746964488032
1.7205491678916767   0.1752724849506217   0.23853746964488032
1.7205491678916767   0.1752724849506217   0.23853746964488032
2.786888260239273   -0.02496408105586012   -0.016998533725450127
2.786888260239273   -0.02496408105586012   -0.016998533725450127
2.786888260239273   -0.02496408105586012   -0.016998533725450127
2.786888260239273   -0.02496408105586012   -0.016998533725450127
1.4203059720587272   -0.57858271700253   -0.5088233075666844
1.4203059720587272   -0.57858271700253   -0.5088233075666844
1.4203059720587272   -0.57858271700253   -0.5088233075666844
1.4203059720587272   -0.57858271700253   -0.5088233075666844
4.451930297540206   0.7245758227466761   0.2536730289766238
4.451930297540206   0.7245758227466761   0.2536730289766238
4.451930297540206   0.7245758227466761   0.2536730289766238
4.451930297540206   0.7245758227466761   0.2536730289766238
4.448170640814421   0.2661377065632716   -0.6405875032490258
4.448170640814421   0.2661377065632716   -0.6405875032490258
4.448170640814421   0.2661377065632716   -0.6405875032490258
4.448170640814421   0.2661377065632716   -0.6405875032490258
1.7774849255352423   0.3929077262671979   0.1894221273364734
1.7774849255352423   0.3929077262671979   0.1894221273364734
1.7774849255352423   0.3929077262671979   0.1894221273364734
1.7774849255352423   0.3929077262671979   0.1894221273364734
2.8920065792386187   0.13780251467481786   0.08388542360456952
2.8920065792386187   0.13780251467481786   0.08388542360456952
2.8920065792386187   0.13780251467481786   0.08388542360456952
2.8920065792386187   0.13780251467481786   0.08388542360456952
-5.298420634702318   -0.09209284945810792   0.5123358744335685
-5.298420634702318   -0.09209284945810792   0.5123358744335685
-5.298420634702318   -0.09209284945810792   0.5123358744335685
-5.298420634702318   -0.09209284945810792   0.5123358744335685
-4.11872271996667   -0.5204108814060224   -0.25456742497937934
-4.11872271996667   -0.5204108814060224   -0.25456742497937934
-4.11872271996667   -0.5204108814060224   -0.25456742497937934
-4.11872271996667   -0.5204108814060224   -0.25456742497937934
-3.7287463573817807   0.4420518027033289   0.4384266679652174
-3.7287463573817807   0.4420518027033289   0.4384266679652174
-3.7287463573817807   0.4420518027033289   0.4384266679652174
-3.7287463573817807   0.4420518027033289   0.4384266679652174
-5.275340537239574   -0.5741165068833229   -0.346056011781678
-5.275340537239574   -0.5741165068833229   -0.346056011781678
-5.275340537239574   -0.5741165068833229   -0.346056011781678
-5.275340537239574   -0.5741165068833229   -0.346056011781678
-4.428386649590382   -0.1226080568851805   -0.06296114054515073
-4.428386649590382   -0.1226080568851805   -0.06296114054515073
-4.428386649590382   -0.1226080568851805   -0.06296114054515073
-4.428386649590382   -0.1226080568851805   -0.06296114054515073
-4.951825002471779   0.2076931426059001   0.4897120125680721
-4.951825002471779   0.2076931426059001   0.4897120125680721
-4.951825002471779   0.2076931426059001   0.4897120125680721
-4.951825002471779   0.2076931426059001   0.4897120125680721
-4.029913542431591   -0.3174094970679253   -0.30794795751254916
-4.029913542431591   -0.3174094970679253   -0.30794795751254916
-4.029913542431591   -0.3174094970679253   -0.30794795751254916
-4.029913542431591   -0.3174094970679253   -0.30794795751254916
-3.6354794113009627   0.5564418938414568   0.37105873753883095
-3.6354794113009627   0.5564418938414568   0.37105873753883095
-3.6354794113009627   0.5564418938414568   0.37105873753883095
-3.6354794113009627   0.5564418938414568   0.37105873753883095
-5.033984854945923   -0.44452526663061687   -0.4327482463028475
-5.033984854945923   -0.44452526663061687   -0.4327482463028475
-5.033984854945923   -0.44452526663061687   -0.4327482463028475
-5.033984854945923   -0.44452526663061687   -0.4327482463028475
-4.302239267328738   0.027289098593686667   0.032474796495358865
-4.302239267328738   0.027289098593686667   0.032474796495358865
-4.302239267328738   0.027289098593686667   0.032474796495358865
-4.302239267328738   0.027289098593686667   0.032474796495358865
-4.710032017093848   0.3465148003670797   0.39597587595983125
-4.710032017093848   0.3465148003670797   0.39597587595983125
-4.710032017093848   0.3465148003670797   0.39597587595983125
-4.710032017093848   0.3465148003670797   0.39597587595983125
-3.938229409278508   -0.213395333281705   -0.3728540252257033
-3.938229409278508   -0.213395333281705   -0.3728540252257033
-3.938229409278508   -0.213395333281705   -0.3728540252257033
-3.938229409278508   -0.213395333281705   -0.3728540252257033
-3.559701827473664   0.6982993253061138   0.3200569868040434
-3.559701827473664   0.6982993253061138   0.3200569868040434
-3.559701827473664   0.6982993253061138   0.3200569868040434
-3.559701827473664   0.6982993253061138   0.3200569868040434
-4.709621635283517   -0.2371758121579719   -0.5009560677834511
-4.709621635283517   -0.2371758121579719   -0.5009560677834511
-4.709621635283517   -0.2371758121579719   -0.5009560677834511
-4.709621635283517   -0.2371758121579719   -0.5009560677834511
-4.047065465367545   0.1747432516143862   0.15116549926591383
-4.047065465367545   0.1747432516143862   0.15116549926591383
-4.047065465367545   0.1747432516143862   0.15116549926591383
-4.047065465367545   0.1747432516143862   0.15116549926591383
-3.9758942179388708   -0.3011854429662669   0.2403496467198585
-3.9758942179388708   -0.3011854429662669   0.2403496467198585
-3.9758942179388708   -0.3011854429662669   0.2403496467198585
-3.9758942179388708   -0.3011854429662669   0.2403496467198585
-2.9063093603688235   -0.394741647527476   -0.07544999091049315
-2.9063093603688235   -0.394741647527476   -0.07544999091049315
-2.9063093603688235   -0.394741647527476   -0.07544999091049315
-2.9063093603688235   -0.394741647527476   -0.07544999091049315
-2.6882981856269463   0.20097831976081426   0.22409161101342545
-2.6882981856269463   0.20097831976081426   0.22409161101342545
-2.6882981856269463   0.20097831976081426   0.22409161101342545
-2.6882981856269463   0.20097831976081426   0.22409161101342545
-4.033341685980313   -0.4242409420192904   -0.21825723030475833
-4.033341685980313   -0.4242409420192904   -0.21825723030475833
-4.033341685980313   -0.4242409420192904   -0.21825723030475833
-4.033341685980313   -0.4242409420192904   -0.21825723030475833
-3.3912568727464785   -0.2118875554973062   -0.09058697131344326
-3.3912568727464785   -0.2118875554973062   -0.09058697131344326
-3.3912568727464785   -0.2118875554973062   -0.09058697131344326
-3.3912568727464785   -0.2118875554973062   -0.09058697131344326
-3.871856202874356   -0.039638131041834   0.20456737424747265
-3.871856202874356   -0.039638131041834   0.20456737424747265
-3.871856202874356   -0.039638131041834   0.20456737424747265
-3.871856202874356   -0.039638131041834   0.20456737424747265
-2.8317545238930477   -0.1655953463767627   -0.12661641417950686
-2.8317545238930477   -0.1655953463767627   -0.12661641417950686
-2.8317545238930477   -0.1655953463767627   -0.12661641417950686
-2.8317545238930477   -0.1655953463767627   -0.12661641417950686
-2.607789888754669   0.4334193602069871   0.17933507683365923
-2.607789888754669   0.4334193602069871   0.17933507683365923
-2.607789888754669   0.4334193602069871   0.17933507683365923
-2.607789888754669   0.4334193602069871   0.17933507683365923
-3.9132993058695016   -0.20037969222983   -0.26121914923251216
-3.9132993058695016   -0.20037969222983   -0.26121914923251216
-3.9132993058695016   -0.20037969222983   -0.26121914923251216
-3.9132993058695016   -0.20037969222983   -0.26121914923251216
-3.27522317600233   0.01261948594671114   0.00997363703587209
-3.27522317600233   0.01261948594671114   0.00997363703587209
-3.27522317600233   0.01261948594671114   0.00997363703587209
-3.27522317600233   0.01261948594671114   0.00997363703587209
-3.7423528723553843   0.20772201111810262   0.18541131499007552
-3.7423528723553843   0.20772201111810262   0.18541131499007552
-3.7423528723553843   0.20772201111810262   0.18541131499007552
-3.7423528723553843   0.20772201111810262   0.18541131499007552
-2.7579204171497165   0.04613356197808738   -0.18403176691271023
-2.7579204171497165   0.04613356197808738   -0.18403176691271023
-2.7579204171497165   0.04613356197808738   -0.18403176691271023
-2.7579204171497165   0.04613356197808738   -0.18403176691271023
-2.527552533737413   0.6853714193228627   0.13670852952492707
-2.527552533737413   0.6853714193228627   0.13670852952492707
-2.527552533737413   0.6853714193228627   0.13670852952492707
-2.527552533737413   0.6853714193228627   0.13670852952492707
-3.8139301688762015   0.043774762988665894   -0.29656015789116463
-3.8139301688762015   0.043774762988665894   -0.29656015789116463
-3.8139301688762015   0.043774762988665894   -0.29656015789116463
-3.8139301688762015   0.043774762988665894   -0.29656015789116463
-3.1911904482118185   0.23228842713874898   0.10818260004667932
-3.1911904482118185   0.23228842713874898   0.10818260004667932
-3.1911904482118185   0.23228842713874898   0.10818260004667932
-3.1911904482118185   0.23228842713874898   0.10818260004667932
-2.9032212404139117   -0.49638531230610317   0.04163427364264885
-2.9032212404139117   -0.49638531230610317   0.04163427364264885
-2.9032212404139117   -0.49638531230610317   0.04163427364264885
-2.9032212404139117   -0.49638531230610317   0.04163427364264885
-1.7112117428069444   -0.2064591508517506   0.10704569624518855
-1.7112117428069444   -0.2064591508517506   0.10704569624518855
-1.7112117428069444   -0.2064591508517506   0.10704569624518855
-1.7112117428069444   -0.2064591508517506   0.10704569624518855
-1.650983267775686   -0.0025274463199076447   0.013933683184398124
-1.650983267775686   -0.0025274463199076447   0.013933683184398124
-1.650983267775686   -0.0025274463199076447   0.013933683184398124
-1.650983267775686   -0.0025274463199076447   0.013933683184398124
-2.8238328216949964   -0.22716407991315035   -0.02543916965286258
-2.8238328216949964   -0.22716407991315035   -0.02543916965286258
-2.8238328216949964   -0.22716407991315035   -0.02543916965286258
-2.8238328216949964   -0.22716407991315035   -0.02543916965286258
-2.2759002061968756   -0.22227310295712144   -0.06585273014372366
-2.2759002061968756   -0.22227310295712144   -0.06585273014372366
-2.2759002061968756   -0.22227310295712144   -0.06585273014372366
-2.2759002061968756   -0.22227310295712144   -0.06585273014372366
-2.8205991761071054   -0.2387703074569706   0.002335285830380368
-2.8205991761071054   -0.2387703074569706   0.002335285830380368
-2.8205991761071054   -0.2387703074569706   0.002335285830380368
-2.8205991761071054   -0.2387703074569706   0.002335285830380368
-1.6362972461243992   0.026998448463105285   0.057837896657818244
-1.6362972461243992   0.026998448463105285   0.057837896657818244
-1.6362972461243992   0.026998448463105285   0.057837896657818244
-1.6362972461243992   0.026998448463105285   0.057837896657818244
-1.5636437938935097   0.25738678662122844   -0.022542975225439743
-1.5636437938935097   0.25738678662122844   -0.022542975225439743
-1.5636437938935097   0.25738678662122844   -0.022542975225439743
-1.5636437938935097   0.25738678662122844   -0.022542975225439743
-2.7431912947465498   0.009610088463388067   -0.07386268138217705
-2.7431912947465498   0.009610088463388067   -0.07386268138217705
-2.7431912947465498   0.009610088463388067   -0.07386268138217705
-2.7431912947465498   0.009610088463388067   -0.07386268138217705
-2.183832446593453   0.01157725867747117   0.03158629513436918
-2.183832446593453   0.01157725867747117   0.03158629513436918
-2.183832446593453   0.01157725867747117   0.03158629513436918
-2.183832446593453   0.01157725867747117   0.03158629513436918
-2.7337761699439658   0.020361260562560934   -0.037538229468443846
-2.7337761699439658   0.020361260562560934   -0.037538229468443846
-2.7337761699439658   0.020361260562560934   -0.037538229468443846
-2.7337761699439658   0.020361260562560934   -0.037538229468443846
-1.5568594629404748   0.26283507027769515   0.005930395883283368
-1.5568594629404748   0.26283507027769515   0.005930395883283368
-1.5568594629404748   0.26283507027769515   0.005930395883283368
-1.5568594629404748   0.26283507027769515   0.005930395883283368
-1.4811654116132373   0.5196474841755667   -0.06425947006608032
-1.4811654116132373   0.5196474841755667   -0.06425947006608032
-1.4811654116132373   0.5196474841755667   -0.06425947006608032
-1.4811654116132373   0.5196474841755667   -0.06425947006608032
-2.667427054559442   0.24822262627327363   -0.12551528153561498
-2.667427054559442   0.24822262627327363   -0.12551528153561498
-2.667427054559442   0.24822262627327363   -0.12551528153561498
-2.667427054559442   0.24822262627327363   -0.12551528153561498
-2.096679761065129   0.24626211689830924   0.12511282424430398
-2.096679761065129   0.24626211689830924   0.12511282424430398
-2.096679761065129   0.24626211689830924   0.12511282424430398
-2.096679761065129   0.24626211689830924   0.12511282424430398
-1.8564882816021344   -0.6659452652213596   -0.15985088336118197
-1.8564882816021344   -0.6659452652213596   -0.15985088336118197
-1.8564882816021344   -0.6659452652213596   -0.15985088336118197
-1.8564882816021344   -0.6659452652213596   -0.15985088336118197
-0.5472304435187388   -0.006492371963625135   0.280861628927091
-0.5472304435187388   -0.006492371963625135   0.280861628927091
-0.5472304435187388   -0.006492371963625135   0.280861628927091
-0.5472304435187388   -0.006492371963625135   0.280861628927091
-0.6253968941350744   -0.19442951375270626   -0.20432334995892432
-0.6253968941350744   -0.19442951375270626   -0.20432334995892432
-0.6253968941350744   -0.19442951375270626   -0.20432334995892432
-0.6253968941350744   -0.19442951375270626   -0.20432334995892432
-1.6263261713308326   -0.025519101351680895   0.1602108204404218
-1.6263261713308326   -0.025519101351680895   0.1602108204404218
-1.6263261713308326   -0.025519101351680895   0.1602108204404218
-1.6263261713308326   -0.025519101351680895   0.1602108204404218
-1.1639336724971425   -0.21332245975560993   -0.047491066682662446
-1.1639336724971425   -0.21332245975560993   -0.047491066682662446
-1.1639336724971425   -0.21332245975560993   -0.047491066682662446
-1.1639336724971425   -0.21332245975560993   -0.047491066682662446
-1.7785653053608903   -0.42458276351533075   -0.20192118754623078
-1.7785653053608903   -0.42458276351533075   -0.20192118754623078
-1.7785653053608903   -0.42458276351533075   -0.20192118754623078
-1.7785653053608903   -0.42458276351533075   -0.20192118754623078
-0.4530627649030901   0.22472914361286778   0.23818863883542254
-0.4530627649030901   0.22472914361286778   0.23818863883542254
-0.4530627649030901   0.22472914361286778   0.23818863883542254
-0.4530627649030901   0.22472914361286778   0.23818863883542254
-0.4982021393626729   0.051452122393816996   -0.2299768643173505
-0.4982021393626729   0.051452122393816996   -0.2299768643173505
-0.4982021393626729   0.051452122393816996   -0.2299768643173505
-0.4982021393626729   0.051452122393816996   -0.2299768643173505
-1.5518402799069277   0.18710981760000545   0.10675156372869257
-1.5518402799069277   0.18710981760000545   0.10675156372869257
-1.5518402799069277   0.18710981760000545   0.10675156372869257
-1.5518402799069277   0.18710981760000545   0.10675156372869257
-1.066225672212827   0.004294142098626885   0.05174484510851011
-1.066225672212827   0.004294142098626885   0.05174484510851011
-1.066225672212827   0.004294142098626885   0.05174484510851011
-1.066225672212827   0.004294142098626885   0.05174484510851011
-1.6992550517053817   -0.19283798561997767   -0.25037449204361506
-1.6992550517053817   -0.19283798561997767   -0.25037449204361506
-1.6992550517053817   -0.19283798561997767   -0.25037449204361506
-1.6992550517053817   -0.19283798561997767   -0.25037449204361506
-0.33208676938806037   0.4501005237899578   0.20195158415958686
-0.33208676938806037   0.4501005237899578   0.20195158415958686
-0.33208676938806037   0.4501005237899578   0.20195158415958686
-0.33208676938806037   0.4501005237899578   0.20195158415958686
-0.3905658580094854   0.3263171101619883   -0.25750615259351406
-0.3905658580094854   0.3263171101619883   -0.25750615259351406
-0.3905658580094854   0.3263171101619883   -0.25750615259351406
-0.3905658580094854   0.3263171101619883   -0.25750615259351406
-1.475593136891366   0.42802728390106437   0.05522210381777895
-1.475593136891366   0.42802728390106437   0.05522210381777895
-1.475593136891366   0.42802728390106437   0.05522210381777895
-1.475593136891366   0.42802728390106437   0.05522210381777895
-0.9648269998544332   0.23155573394753032   0.1511379746670528
-0.9648269998544332   0.23155573394753032   0.1511379746670528
-0.9648269998544332   0.23155573394753032   0.1511379746670528
-0.9648269998544332   0.23155573394753032   0.1511379746670528
-0.8147631594782998   -0.7166530187977718   -0.34664130403658255
-0.8147631594782998   -0.7166530187977718   -0.34664130403658255
-0.8147631594782998   -0.7166530187977718   -0.34664130403658255
-0.8147631594782998   -0.7166530187977718   -0.34664130403658255
0.3407923192621688   0.21605311799640886   0.4268893272965642
0.3407923192621688   0.21605311799640886   0.4268893272965642
0.3407923192621688   0.21605311799640886   0.4268893272965642
0.3407923192621688   0.21605311799640886   0.4268893272965642
0.34419419550508246   -0.3490206133620351   -0.4586481141993177
0.34419419550508246   -0.3490206133620351   -0.4586481141993177
0.34419419550508246   -0.3490206133620351   -0.4586481141993177
0.34419419550508246   -0.3490206133620351   -0.4586481141993177
-0.43170730226710596   0.22035863671505723   0.349336458913154
-0.43170730226710596   0.22035863671505723   0.349336458913154
-0.43170730226710596   0.22035863671505723   0.349336458913154
-0.43170730226710596   0.22035863671505723   0.349336458913154
-0.15183480837267602   -0.15076202266746325   -0.08219962854203126
-0.15183480837267602   -0.15076202266746325   -0.08219962854203126
-0.15183480837267602   -0.15076202266746325   -0.08219962854203126
-0.15183480837267602   -0.15076202266746325   -0.08219962854203126
-0.7359283266993778   -0.552997916891411   -0.3984121096417371
-0.7359283266993778   -0.552997916891411   -0.3984121096417371
-0.7359283266993778   -0.552997916891411   -0.3984121096417371
-0.7359283266993778   -0.552997916891411   -0.3984121096417371
0.6699194279926037   0.44584014829968266   0.3751172865765712
0.6699194279926037   0.44584014829968266   0.3751172865765712
0.6699194279926037   0.44584014829968266   0.3751172865765712
0.6699194279926037   0.44584014829968266   0.3751172865765712
0.5868835604981122   -0.20806407577826172   -0.5444797266059722
0.5868835604981122   -0.20806407577826172   -0.5444797266059722
0.5868835604981122   -0.20806407577826172   -0.5444797266059722
0.5868835604981122   -0.20806407577826172   -0.5444797266059722
-0.34197492462243984   0.32262579467387736   0.2799855371037545
-0.34197492462243984   0.32262579467387736   0.2799855371037545
-0.34197492462243984   0.32262579467387736   0.2799855371037545
-0.34197492462243984   0.32262579467387736   0.2799855371037545
0.04857952121089458   -0.005931426726787686   0.0255569310622685
0.04857952121089458   -0.005931426726787686   0.0255569310622685
0.04857952121089458   -0.005931426726787686   0.0255569310622685
0.04857952121089458   -0.005931426726787686   0.0255569310622685
-0.641997224859047   -0.43703693450798325   -0.46046323489742075
-0.641997224859047   -0.43703693450798325   -0.46046323489742075
-0.641997224859047   -0.43703693450798325   -0.46046323489742075
-0.641997224859047   -0.43703693450798325   -0.46046323489742075
0.9083955246344554   0.573088317303335   0.2819277009941472
0.9083955246344554   0.573088317303335   0.2819277009941472
0.9083955246344554   0.573088317303335   0.2819277009941472
0.9083955246344554   0.573088317303335   0.2819277009941472
0.9261789893259148   0.0682121188696867   -0.5827499734416323
0.9261789893259148   0.0682121188696867   -0.5827499734416323
0.9261789893259148   0.0682121188696867   -0.5827499734416323
0.9261789893259148   0.0682121188696867   -0.5827499734416323
-0.25807856618691977   0.5037619138662321   0.22748550281506985
-0.25807856618691977   0.5037619138662321   0.22748550281506985
-0.25807856618691977   0.5037619138662321   0.22748550281506985
-0.25807856618691977   0.5037619138662321   0.22748550281506985
0.22774897012174913   0.14659722779587903   0.13057794676849607
0.22774897012174913   0.14659722779587903   0.13057794676849607
0.22774897012174913   0.14659722779587903   0.13057794676849607
0.22774897012174913   0.14659722779587903   0.13057794676849607
-1.7777569077160844   0.09620059285407029   0.4875241340704983
-1.7777569077160844   0.09620059285407029   0.4875241340704983
-1.7777569077160844   0.09620059285407029   0.4875241340704983
-1.7777569077160844   0.09620059285407029   0.4875241340704983
-2.0864230918150426   -0.6369225777159095   -0.2885876847227306
-2.0864230918150426   -0.6369225777159095   -0.2885876847227306
-2.0864230918150426   -0.6369225777159095   -0.2885876847227306
-2.0864230918150426   -0.6369225777159095   -0.2885876847227306
-1.6657179324437852   0.29691912311817775   0.39949953343003763
-1.6657179324437852   0.29691912311817775   0.39949953343003763
-1.6657179324437852   0.29691912311817775   0.39949953343003763
-1.6657179324437852   0.29691912311817775   0.39949953343003763
-1.7255698457306419   -0.42244045541506403   -0.3713037473920104
-1.7255698457306419   -0.42244045541506403   -0.3713037473920104
-1.7255698457306419   -0.42244045541506403   -0.3713037473920104
-1.7255698457306419   -0.42244045541506403   -0.3713037473920104
-1.76714732342877   -0.13607836314496263   -0.13211814183162893
-1.76714732342877   -0.13607836314496263   -0.13211814183162893
-1.76714732342877   -0.13607836314496263   -0.13211814183162893
-1.76714732342877   -0.13607836314496263   -0.13211814183162893
-1.4039353999287436   0.36021777347970796   0.45421025272264726
-1.4039353999287436   0.36021777347970796   0.45421025272264726
-1.4039353999287436   0.36021777347970796   0.45421025272264726
-1.4039353999287436   0.36021777347970796   0.45421025272264726
-1.9673827692855277   -0.4657694968164488   -0.3461360308440482
-1.9673827692855277   -0.4657694968164488   -0.3461360308440482
-1.9673827692855277   -0.4657694968164488   -0.3461360308440482
-1.9673827692855277   -0.4657694968164488   -0.3461360308440482
-1.5346010914720565   0.4091879393159526   0.3364340199561333
-1.5346010914720565   0.4091879393159526   0.3364340199561333
-1.5346010914720565   0.4091879393159526   0.3364340199561333
-1.5346010914720565   0.4091879393159526   0.3364340199561333
-1.4469232943513306   -0.2955621332966454   -0.4629784304037351
-1.4469232943513306   -0.2955621332966454   -0.4629784304037351
-1.4469232943513306   -0.2955621332966454   -0.4629784304037351
-1.4469232943513306   -0.2955621332966454   -0.4629784304037351
-1.5615337630605637   0.007551324152588135   -0.02632419617022015
-1.5615337630605637   0.007551324152588135   -0.02632419617022015
-1.5615337630605637   0.007551324152588135   -0.02632419617022015
-1.5615337630605637   0.007551324152588135   -0.02632419617022015
-1.1232322086447317   0.4967982373805947   0.363116627452019
-1.1232322086447317   0.4967982373805947   0.363116627452019
-1.1232322086447317   0.4967982373805947   0.363116627452019
-1.1232322086447317   0.4967982373805947   0.363116627452019
-1.8394012614680089   -0.3642815156506768   -0.4140973750569683
-1.8394012614680089   -0.3642815156506768   -0.4140973750569683
-1.8394012614680089   -0.3642815156506768   -0.4140973750569683
-1.8394012614680089   -0.3642815156506768   -0.4140973750569683
-1.4144546837120435   0.5801716552310405   0.2906143175901387
-1.4144546837120435   0.5801716552310405   0.2906143175901387
-1.4144546837120435   0.5801716552310405   0.2906143175901387
-1.4144546837120435   0.5801716552310405   0.2906143175901387
-1.0750768676660591   -0.05433583422976013   -0.5216981516895941
-1.0750768676660591   -0.05433583422976013   -0.5216981516895941
-1.0750768676660591   -0.05433583422976013   -0.5216981516895941
-1.0750768676660591   -0.05433583422976013   -0.5216981516895941
-1.3137816398060718   0.15728243691377752   0.08717609931211194
-1.3137816398060718   0.15728243691377752   0.08717609931211194
-1.3137816398060718   0.15728243691377752   0.08717609931211194
-1.3137816398060718   0.15728243691377752   0.08717609931211194
-1.8695596220238022   -0.11711690364405553   0.2759239901615876
-1.8695596220238022   -0.11711690364405553   0.2759239901615876
-1.8695596220238022   -0.11711690364405553   0.2759239901615876
-1.8695596220238022   -0.11711690364405553   0.2759239901615876
-2.3027078351993135   -0.5194102060265406   -0.11279040816857624
-2.3027078351993135   -0.5194102060265406   -0.11279040816857624
-2.3027078351993135   -0.5194102060265406   -0.11279040816857624
-2.3027078351993135   -0.5194102060265406   -0.11279040816857624
-2.050355906545045   0.0530681935423607   0.1853026680682299
-2.050355906545045   0.0530681935423607   0.1853026680682299
-2.050355906545045   0.0530681935423607   0.1853026680682299
-2.050355906545045   0.0530681935423607   0.1853026680682299
-1.8889021008991795   -0.24816934561029422   -0.17133284011843186
-1.8889021008991795   -0.24816934561029422   -0.17133284011843186
-1.8889021008991795   -0.24816934561029422   -0.17133284011843186
-1.8889021008991795   -0.24816934561029422   -0.17133284011843186
-2.0290328396963195   -0.192134125783958   -0.09362515078160268
-2.0290328396963195   -0.192134125783958   -0.09362515078160268
-2.0290328396963195   -0.192134125783958   -0.09362515078160268
-2.0290328396963195   -0.192134125783958   -0.09362515078160268
-1.7312253231635097   0.12800843099578357   0.2408732719538089
-1.7312253231635097   0.12800843099578357   0.2408732719538089
-1.7312253231635097   0.12800843099578357   0.2408732719538089
-1.7312253231635097   0.12800843099578357   0.2408732719538089
-2.1924133367149725   -0.3074902354979826   -0.16442605374108077
-2.1924133367149725   -0.3074902354979826   -0.16442605374108077
-2.1924133367149725   -0.3074902354979826   -0.16442605374108077
-2.1924133367149725   -0.3074902354979826   -0.16442605374108077
-1.933168331202427   0.2761815742467513   0.14145620848332013
-1.933168331202427   0.2761815742467513   0.14145620848332013
-1.933168331202427   0.2761815742467513   0.14145620848332013
-1.933168331202427   0.2761815742467513   0.14145620848332013
-1.7327896280602655   -0.032714350361018885   -0.21260637330790977
-1.7327896280602655   -0.032714350361018885   -0.21260637330790977
-1.7327896280602655   -0.032714350361018885   -0.21260637330790977
-1.7327896280602655   -0.032714350361018885   -0.21260637330790977
-1.8893302404414172   0.016429488583556917   0.0041429175611982505
-1.8893302404414172   0.016429488583556917   0.0041429175611982505
-1.8893302404414172   0.016429488583556917   0.0041429175611982505
-1.8893302404414172   0.016429488583556917   0.0041429175611982505
-1.5674741697858285   0.3644003986450434   0.21685616905818234
-1.5674741697858285   0.3644003986450434   0.21685616905818234
-1.5674741697858285   0.3644003986450434   0.21685616905818234
-1.5674741697858285   0.3644003986450434   0.21685616905818234
-2.0818423616539814   -0.10429174693643894   -0.221440622591294
-2.0818423616539814   -0.10429174693643894   -0.221440622591294
-2.0818423616539814   -0.10429174693643894   -0.221440622591294
-2.0818423616539814   -0.10429174693643894   -0.221440622591294
-1.8154441034160034   0.5227410045277052   0.09978498434395597
-1.8154441034160034   0.5227410045277052   0.09978498434395597
-1.8154441034160034   0.5227410045277052   0.09978498434395597
-1.8154441034160034   0.5227410045277052   0.09978498434395597
-1.5977500341591275   0.20601670587570986   -0.25170748528991777
-1.5977500341591275   0.20601670587570986   -0.25170748528991777
-1.5977500341591275   0.20601670587570986   -0.25170748528991777
-1.5977500341591275   0.20601670587570986   -0.25170748528991777
-1.757289481739592   0.23138201168862388   0.10349614400374019
-1.757289481739592   0.23138201168862388   0.10349614400374019
-1.757289481739592   0.23138201168862388   0.10349614400374019
-1.757289481739592   0.23138201168862388   0.10349614400374019
-2.2238712723088176   -0.3150031299580857   0.0769853302153861
-2.2238712723088176   -0.3150031299580857   0.0769853302153861
-2.2238712723088176   -0.3150031299580857   0.0769853302153861
-2.2238712723088176   -0.3150031299580857   0.0769853302153861
-2.519235163862969   -0.32585740717728406   0.06845970541464666
-2.519235163862969   -0.32585740717728406   0.06845970541464666
-2.519235163862969   -0.32585740717728406   0.06845970541464666
-2.519235163862969   -0.32585740717728406   0.06845970541464666
-2.4249461694908545   -0.14706332013124856   -0.02382202294749608
-2.4249461694908545   -0.14706332013124856   -0.02382202294749608
-2.4249461694908545   -0.14706332013124856   -0.02382202294749608
-2.4249461694908545   -0.14706332013124856   -0.02382202294749608
-2.1026667122184244   -0.04523585365767935   0.022052686901373866
-2.1026667122184244   -0.04523585365767935   0.022052686901373866
-2.1026667122184244   -0.04523585365767935   0.022052686901373866
-2.1026667122184244   -0.04523585365767935   0.022052686901373866
-2.3211508192554797   -0.1964702612028777   -0.061919663271089775
-2.3211508192554797   -0.1964702612028777   -0.061919663271089775
-2.3211508192554797   -0.1964702612028777   -0.061919663271089775
-2.3211508192554797   -0.1964702612028777   -0.061919663271089775
-2.1046045658993746   -0.07067090154639244   0.037798466385304985
-2.1046045658993746   -0.07067090154639244   0.037798466385304985
-2.1046045658993746   -0.07067090154639244   0.037798466385304985
-2.1046045658993746   -0.07067090154639244   0.037798466385304985
-2.4083077776420385   -0.10692773407471279   0.019234350240066395
-2.4083077776420385   -0.10692773407471279   0.019234350240066395
-2.4083077776420385   -0.10692773407471279   0.019234350240066395
-2.4083077776420385   -0.10692773407471279   0.019234350240066395
-2.301959923738581   0.10051045128113412   -0.06059223830141541
-2.301959923738581   0.10051045128113412   -0.06059223830141541
-2.301959923738581   0.10051045128113412   -0.06059223830141541
-2.301959923738581   0.10051045128113412   -0.06059223830141541
-1.9858778234797185   0.17975935444837166   -0.025669033104759098
-1.9858778234797185   0.17975935444837166   -0.025669033104759098
-1.9858778234797185   0.17975935444837166   -0.025669033104759098
-1.9858778234797185   0.17975935444837166   -0.025669033104759098
-2.192746155875718   0.02499966814890564   0.03451622397740026
-2.192746155875718   0.02499966814890564   0.03451622397740026
-2.192746155875718   0.02499966814890564   0.03451622397740026
-2.192746155875718   0.02499966814890564   0.03451622397740026
-1.982065850884164   0.17603145864714298   -0.0028812743257886075
-1.982065850884164   0.17603145864714298   -0.0028812743257886075
-1.982065850884164   0.17603145864714298   -0.0028812743257886075
-1.982065850884164   0.17603145864714298   -0.0028812743257886075
-2.292965893547242   0.11704434986925083   -0.03215598593283914
-2.292965893547242   0.11704434986925083   -0.03215598593283914
-2.292965893547242   0.11704434986925083   -0.03215598593283914
-2.292965893547242   0.11704434986925083   -0.03215598593283914
-2.184210212127367   0.34952885152594726   -0.10220099770444463
-2.184210212127367   0.34952885152594726   -0.10220099770444463
-2.184210212127367   0.34952885152594726   -0.10220099770444463
-2.184210212127367   0.34952885152594726   -0.10220099770444463
-1.874406277804979   0.4056751444674898   -0.0779600275407078
-1.874406277804979   0.4056751444674898   -0.0779600275407078
-1.874406277804979   0.4056751444674898   -0.0779600275407078
-1.874406277804979   0.4056751444674898   -0.0779600275407078
-2.0701881577319647   0.24685895018071002   0.12645048502890707
-2.0701881577319647   0.24685895018071002   0.12645048502890707
-2.0701881577319647   0.24685895018071002   0.12645048502890707
-2.0701881577319647   0.24685895018071002   0.12645048502890707
-2.5926836744750346   -0.4972361624207738   -0.1274040924022341
-2.5926836744750346   -0.4972361624207738   -0.1274040924022341
-2.5926836744750346   -0.4972361624207738   -0.1274040924022341
-2.5926836744750346   -0.4972361624207738   -0.1274040924022341
-2.7530602887309072   -0.13637247704630462   0.24189987017246944
-2.7530602887309072   -0.13637247704630462   0.24189987017246944
-2.7530602887309072   -0.13637247704630462   0.24189987017246944
-2.7530602887309072   -0.13637247704630462   0.24189987017246944
-2.796081612893117   -0.3385774790242022   -0.23532562635990018
-2.796081612893117   -0.3385774790242022   -0.23532562635990018
-2.796081612893117   -0.3385774790242022   -0.23532562635990018
-2.796081612893117   -0.3385774790242022   -0.23532562635990018
-2.320172798947383   0.14961487483782937   0.20336663480078357
-2.320172798947383   0.14961487483782937   0.20336663480078357
-2.320172798947383   0.14961487483782937   0.20336663480078357
-2.320172798947383   0.14961487483782937   0.20336663480078357
-2.6048212924255747   -0.192201748240792   -0.038830364672827314
-2.6048212924255747   -0.192201748240792   -0.038830364672827314
-2.6048212924255747   -0.192201748240792   -0.038830364672827314
-2.6048212924255747   -0.192201748240792   -0.038830364672827314
-2.476576327356647   -0.2611821026053951   -0.1678540298023345
-2.476576327356647   -0.2611821026053951   -0.1678540298023345
-2.476576327356647   -0.2611821026053951   -0.1678540298023345
-2.476576327356647   -0.2611821026053951   -0.1678540298023345
-2.6242588915122433   0.08763869139062852   0.1975718101296399
-2.6242588915122433   0.08763869139062852   0.1975718101296399
-2.6242588915122433   0.08763869139062852   0.1975718101296399
-2.6242588915122433   0.08763869139062852   0.1975718101296399
-2.6355051198822923   -0.10377353678893719   -0.2640003682407789
-2.6355051198822923   -0.10377353678893719   -0.2640003682407789
-2.6355051198822923   -0.10377353678893719   -0.2640003682407789
-2.6355051198822923   -0.10377353678893719   -0.2640003682407789
-2.209233866773243   0.35259484881468406   0.15095364899170174
-2.209233866773243   0.35259484881468406   0.15095364899170174
-2.209233866773243   0.35259484881468406   0.15095364899170174
-2.209233866773243   0.35259484881468406   0.15095364899170174
-2.4593491790555286   0.020928252883748   0.06064460557497628
-2.4593491790555286   0.020928252883748   0.06064460557497628
-2.4593491790555286   0.020928252883748   0.06064460557497628
-2.4593491790555286   0.020928252883748   0.06064460557497628
-2.3608087305796017   -0.039082791271129125   -0.21524302995430686
-2.3608087305796017   -0.039082791271129125   -0.21524302995430686
-2.3608087305796017   -0.039082791271129125   -0.21524302995430686
-2.3608087305796017   -0.039082791271129125   -0.21524302995430686
-2.468345944241398   0.30348841513138913   0.16453355804338168
-2.468345944241398   0.30348841513138913   0.16453355804338168
-2.468345944241398   0.30348841513138913   0.16453355804338168
-2.468345944241398   0.30348841513138913   0.16453355804338168
-2.4948996004961725   0.15520349276306444   -0.28959038826741423
-2.4948996004961725   0.15520349276306444   -0.28959038826741423
-2.4948996004961725   0.15520349276306444   -0.28959038826741423
-2.4948996004961725   0.15520349276306444   -0.28959038826741423
-2.097982984233913   0.5791935561106637   0.09927043717810613
-2.097982984233913   0.5791935561106637   0.09927043717810613
-2.097982984233913   0.5791935561106637   0.09927043717810613
-2.097982984233913   0.5791935561106637   0.09927043717810613
-2.335231997377802   0.23283210346132843   0.15590057332820725
-2.335231997377802   0.23283210346132843   0.15590057332820725
-2.335231997377802   0.23283210346132843   0.15590057332820725
-2.335231997377802   0.23283210346132843   0.15590057332820725
-2.9562611357545237   -0.5923590057205319   -0.31811783627144735
-2.9562611357545237   -0.5923590057205319   -0.31811783627144735
-2.9562611357545237   -0.5923590057205319   -0.31811783627144735
-2.9562611357545237   -0.5923590057205319   -0.31811783627144735
-3.2508109363898146   0.050056880314883756   0.4334515177279309
-3.2508109363898146   0.050056880314883756   0.4334515177279309
-3.2508109363898146   0.050056880314883756   0.4334515177279309
-3.2508109363898146   0.050056880314883756   0.4334515177279309
-3.204252163962056   -0.4886288187459125   -0.423055956696745
-3.204252163962056   -0.4886288187459125   -0.423055956696745
-3.204252163962056   -0.4886288187459125   -0.423055956696745
-3.204252163962056   -0.4886288187459125   -0.423055956696745
-2.5290010673278305   0.3729278438166437   0.38857177862567444
-2.5290010673278305   0.3729278438166437   0.38857177862567444
-2.5290010673278305   0.3729278438166437   0.38857177862567444
-2.5290010673278305   0.3729278438166437   0.38857177862567444
-2.865860185775211   -0.1257987181044845   -0.020693607516474755
-2.865860185775211   -0.1257987181044845   -0.020693607516474755
-2.865860185775211   -0.1257987181044845   -0.020693607516474755
-2.865860185775211   -0.1257987181044845   -0.020693607516474755
-2.8345877218849513   -0.4028095575498409   -0.36362409279349145
-2.8345877218849513   -0.4028095575498409   -0.36362409279349145
-2.8345877218849513   -0.4028095575498409   -0.36362409279349145
-2.8345877218849513   -0.4028095575498409   -0.36362409279349145
-2.8823566950607065   0.30341739696479264   0.39437517209929546
-2.8823566950607065   0.30341739696479264   0.39437517209929546
-2.8823566950607065   0.30341739696479264   0.39437517209929546
-2.8823566950607065   0.30341739696479264   0.39437517209929546
-2.928155052772999   -0.3513963189836278   -0.5039449030332115
-2.928155052772999   -0.3513963189836278   -0.5039449030332115
-2.928155052772999   -0.3513963189836278   -0.5039449030332115
-2.928155052772999   -0.3513963189836278   -0.5039449030332115
-2.4044505036111596   0.46957785574518063   0.31792132058076705
-2.4044505036111596   0.46957785574518063   0.31792132058076705
-2.4044505036111596   0.46957785574518063   0.31792132058076705
-2.4044505036111596   0.46957785574518063   0.31792132058076705
-2.6776804993887144   0.01742819808283247   0.07494357881788352
-2.6776804993887144   0.01742819808283247   0.07494357881788352
-2.6776804993887144   0.01742819808283247   0.07494357881788352
-2.6776804993887144   0.01742819808283247   0.07494357881788352
-2.7040080139023788   -0.2898630046907448   -0.4204253704394173
-2.7040080139023788   -0.2898630046907448   -0.4204253704394173
-2.7040080139023788   -0.2898630046907448   -0.4204253704394173
-2.7040080139023788   -0.2898630046907448   -0.4204253704394173
-2.611522273174379   0.4251198107596552   0.3027028652166057
-2.611522273174379   0.4251198107596552   0.3027028652166057
-2.611522273174379   0.4251198107596552   0.3027028652166057
-2.611522273174379   0.4251198107596552   0.3027028652166057
-2.566692012868037   -0.11354101044417542   -0.5504156720558504
-2.566692012868037   -0.11354101044417542   -0.5504156720558504
-2.566692012868037   -0.11354101044417542   -0.5504156720558504
-2.566692012868037   -0.11354101044417542   -0.5504156720558504
-2.2927359285834896   0.6145613215919732   0.2618701424670771
-2.2927359285834896   0.6145613215919732   0.2618701424670771
-2.2927359285834896   0.6145613215919732   0.2618701424670771
-2.2927359285834896   0.6145613215919732   0.2618701424670771
-2.4229011212222615   0.1608863624973128   0.1853265720874108
-2.4229011212222615   0.1608863624973128   0.1853265720874108
-2.4229011212222615   0.1608863624973128   0.1853265720874108
-2.4229011212222615   0.1608863624973128   0.1853265720874108
1.7854541754399884   0.28984191902569634   0.4733575317302678
1.7854541754399884   0.28984191902569634   0.4733575317302678
1.7854541754399884   0.28984191902569634   0.4733575317302678
1.7854541754399884   0.28984191902569634   0.4733575317302678
-0.051025197125986355   -0.7619459957422164   -0.3136609598090023
-0.051025197125986355   -0.7619459957422164   -0.3136609598090023
-0.051025197125986355   -0.7619459957422164   -0.3136609598090023
-0.051025197125986355   -0.7619459957422164   -0.3136609598090023
0.3996219908887875   0.15006232381194515   0.3660183121236063
0.3996219908887875   0.15006232381194515   0.3660183121236063
0.3996219908887875   0.15006232381194515   0.3660183121236063
0.3996219908887875   0.15006232381194515   0.3660183121236063
1.8662978893135689   -0.2709042622636477   -0.392032206084829
1.8662978893135689   -0.2709042622636477   -0.392032206084829
1.8662978893135689   -0.2709042622636477   -0.392032206084829
1.8662978893135689   -0.2709042622636477   -0.392032206084829
0.9103190530555454   -0.14955522826111917   -0.22471487801138595
0.9103190530555454   -0.14955522826111917   -0.22471487801138595
0.9103190530555454   -0.14955522826111917   -0.22471487801138595
0.9103190530555454   -0.14955522826111917   -0.22471487801138595
2.1883315695189816   0.5200391363741603   0.4271927963044884
2.1883315695189816   0.5200391363741603   0.4271927963044884
2.1883315695189816   0.5200391363741603   0.4271927963044884
2.1883315695189816   0.5200391363741603   0.4271927963044884
0.09719463133759065   -0.6212747541716317   -0.3747814076487705
0.09719463133759065   -0.6212747541716317   -0.3747814076487705
0.09719463133759065   -0.6212747541716317   -0.3747814076487705
0.09719463133759065   -0.6212747541716317   -0.3747814076487705
0.5654516446778662   0.26065155297117193   0.3057150619061547
0.5654516446778662   0.26065155297117193   0.3057150619061547
0.5654516446778662   0.26065155297117193   0.3057150619061547
0.5654516446778662   0.26065155297117193   0.3057150619061547
2.18157963755443   -0.14592100890439597   -0.49104126329148623
2.18157963755443   -0.14592100890439597   -0.49104126329148623
2.18157963755443   -0.14592100890439597   -0.49104126329148623
2.18157963755443   -0.14592100890439597   -0.49104126329148623
1.194586082458745   -0.01142955853842259   -0.10494496100858107
1.194586082458745   -0.01142955853842259   -0.10494496100858107
1.194586082458745   -0.01142955853842259   -0.10494496100858107
1.194586082458745   -0.01142955853842259   -0.10494496100858107
2.507358602310656   0.6552303686946241   0.3367021828906258
2.507358602310656   0.6552303686946241   0.3367021828906258
2.507358602310656   0.6552303686946241   0.3367021828906258
2.507358602310656   0.6552303686946241   0.3367021828906258
0.25894166900393534   -0.5212308355455526   -0.44495242794677514
0.25894166900393534   -0.5212308355455526   -0.44495242794677514
0.25894166900393534   -0.5212308355455526   -0.44495242794677514
0.25894166900393534   -0.5212308355455526   -0.44495242794677514
0.726481998991663   0.46323196403408695   0.26458197297191877
0.726481998991663   0.46323196403408695   0.26458197297191877
0.726481998991663   0.46323196403408695   0.26458197297191877
0.726481998991663   0.46323196403408695   0.26458197297191877
2.5998527677509204   0.13396137279556825   -0.5417335119687342
2.5998527677509204   0.13396137279556825   -0.5417335119687342
2.5998527677509204   0.13396137279556825   -0.5417335119687342
2.5998527677509204   0.13396137279556825   -0.5417335119687342
1.434393116549104   0.14302386387886368   0.00859131064107993
1.434393116549104   0.14302386387886368   0.00859131064107993
1.434393116549104   0.14302386387886368   0.00859131064107993
1.434393116549104   0.14302386387886368   0.00859131064107993
0.2433765743798685   0.0763709482655184   0.3200309537125372
0.2433765743798685   0.0763709482655184   0.3200309537125372
0.2433765743798685   0.0763709482655184   0.3200309537125372
0.2433765743798685   0.0763709482655184   0.3200309537125372
-1.7160871907552588   -0.6463232850819352   -0.14377967752623505
-1.7160871907552588   -0.6463232850819352   -0.14377967752623505
-1.7160871907552588   -0.6463232850819352   -0.14377967752623505
-1.7160871907552588   -0.6463232850819352   -0.14377967752623505
-1.430831469304424   -0.09291173960886953   0.14688455829393593
-1.430831469304424   -0.09291173960886953   0.14688455829393593
-1.430831469304424   -0.09291173960886953   0.14688455829393593
-1.430831469304424   -0.09291173960886953   0.14688455829393593
0.2579740405690131   -0.07723933545144249   -0.11491978021184768
0.2579740405690131   -0.07723933545144249   -0.11491978021184768
0.2579740405690131   -0.07723933545144249   -0.11491978021184768
0.2579740405690131   -0.07723933545144249   -0.11491978021184768
-0.6753749644238208   -0.1684649388238469   -0.10835380402056626
-0.6753749644238208   -0.1684649388238469   -0.10835380402056626
-0.6753749644238208   -0.1684649388238469   -0.10835380402056626
-0.6753749644238208   -0.1684649388238469   -0.10835380402056626
0.41388764438230113   0.30344746012526014   0.2839614432778593
0.41388764438230113   0.30344746012526014   0.2839614432778593
0.41388764438230113   0.30344746012526014   0.2839614432778593
0.41388764438230113   0.30344746012526014   0.2839614432778593
-1.572534809985101   -0.4593882720529665   -0.1951556126653535
-1.572534809985101   -0.4593882720529665   -0.1951556126653535
-1.572534809985101   -0.4593882720529665   -0.1951556126653535
-1.572534809985101   -0.4593882720529665   -0.1951556126653535
-1.27950835866691   0.12124351663844674   0.10390169229581761
-1.27950835866691   0.12124351663844674   0.10390169229581761
-1.27950835866691   0.12124351663844674   0.10390169229581761
-1.27950835866691   0.12124351663844674   0.10390169229581761
0.44638201688623963   0.12642287968659002   -0.1554044037673964
0.44638201688623963   0.12642287968659002   -0.1554044037673964
0.44638201688623963   0.12642287968659002   -0.1554044037673964
0.44638201688623963   0.12642287968659002   -0.1554044037673964
-0.5150482985843321   0.020782551062915725   -0.012860499236628797
-0.5150482985843321   0.020782551062915725   -0.012860499236628797
-0.5150482985843321   0.020782551062915725   -0.012860499236628797
-0.5150482985843321   0.020782551062915725   -0.012860499236628797
0.6088103658580524   0.5289658060332317   0.25419441474502563
0.6088103658580524   0.5289658060332317   0.25419441474502563
0.6088103658580524   0.5289658060332317   0.25419441474502563
0.6088103658580524   0.5289658060332317   0.25419441474502563
-1.4282871222196314   -0.26764982428914447   -0.25109878454019774
-1.4282871222196314   -0.26764982428914447   -0.25109878454019774
-1.4282871222196314   -0.26764982428914447   -0.25109878454019774
-1.4282871222196314   -0.26764982428914447   -0.25109878454019774
-1.1273381635669164   0.3630253024321003   0.06292362689982373
-1.1273381635669164   0.3630253024321003   0.06292362689982373
-1.1273381635669164   0.3630253024321003   0.06292362689982373
-1.1273381635669164   0.3630253024321003   0.06292362689982373
0.6125898703981002   0.3569415954975457   -0.19858830145932246
0.6125898703981002   0.3569415954975457   -0.19858830145932246
0.6125898703981002   0.3569415954975457   -0.19858830145932246
0.6125898703981002   0.3569415954975457   -0.19858830145932246
-0.3381659637757438   0.22930974042512126   0.08879065935191907
-0.3381659637757438   0.22930974042512126   0.08879065935191907
-0.3381659637757438   0.22930974042512126   0.08879065935191907
-0.3381659637757438   0.22930974042512126   0.08879065935191907
-1.560093196762649   -0.124789627807642   0.11465663516253641
-1.560093196762649   -0.124789627807642   0.11465663516253641
-1.560093196762649   -0.124789627807642   0.11465663516253641
-1.560093196762649   -0.124789627807642   0.11465663516253641
-3.351299978920788   -0.45696704722829057   0.030361154727347947
-3.351299978920788   -0.45696704722829057   0.030361154727347947
-3.351299978920788   -0.45696704722829057   0.030361154727347947
-3.351299978920788   -0.45696704722829057   0.030361154727347947
-3.2183713001494607   -0.28544428823500095   -0.06328489805419811
-3.2183713001494607   -0.28544428823500095   -0.06328489805419811
-3.2183713001494607   -0.28544428823500095   -0.06328489805419811
-3.2183713001494607   -0.28544428823500095   -0.06328489805419811
-1.4035040062414388   0.11884043133922984   0.07176970266076195
-1.4035040062414388   0.11884043133922984   0.07176970266076195
-1.4035040062414388   0.11884043133922984   0.07176970266076195
-1.4035040062414388   0.11884043133922984   0.07176970266076195
-2.3868160719742684   -0.17166152922458355   -0.06278876197418679
-2.3868160719742684   -0.17166152922458355   -0.06278876197418679
-2.3868160719742684   -0.17166152922458355   -0.06278876197418679
-2.3868160719742684   -0.17166152922458355   -0.06278876197418679
-1.4055729222384743   0.10485456480083227   0.07541098921398189
-1.4055729222384743   0.10485456480083227   0.07541098921398189
-1.4055729222384743   0.10485456480083227   0.07541098921398189
-1.4055729222384743   0.10485456480083227   0.07541098921398189
-3.20416980709158   -0.25932584463571745   -0.018395876364078648
-3.20416980709158   -0.25932584463571745   -0.018395876364078648
-3.20416980709158   -0.25932584463571745   -0.018395876364078648
-3.20416980709158   -0.25932584463571745   -0.018395876364078648
-3.0593558455795975   -0.04970873610120097   -0.09953146375274308
-3.0593558455795975   -0.04970873610120097   -0.09953146375274308
-3.0593558455795975   -0.04970873610120097   -0.09953146375274308
-3.0593558455795975   -0.04970873610120097   -0.09953146375274308
-1.253659638617418   0.3282431109691374   0.0261456982126039
-1.253659638617418   0.3282431109691374   0.0261456982126039
-1.253659638617418   0.3282431109691374   0.0261456982126039
-1.253659638617418   0.3282431109691374   0.0261456982126039
-2.222712843228354   0.03554312675037935   0.03331145367948532
-2.222712843228354   0.03554312675037935   0.03331145367948532
-2.222712843228354   0.03554312675037935   0.03331145367948532
-2.222712843228354   0.03554312675037935   0.03331145367948532
-1.2500818547008354   0.3387565838150257   0.03352114494962807
-1.2500818547008354   0.3387565838150257   0.03352114494962807
-1.2500818547008354   0.3387565838150257   0.03352114494962807
-1.2500818547008354   0.3387565838150257   0.03352114494962807
-3.0532804012721426   -0.05056898072305516   -0.06829399759363439
-3.0532804012721426   -0.05056898072305516   -0.06829399759363439
-3.0532804012721426   -0.05056898072305516   -0.06829399759363439
-3.0532804012721426   -0.05056898072305516   -0.06829399759363439
-2.9067830498174336   0.1865897272302024   -0.14101034171469023
-2.9067830498174336   0.1865897272302024   -0.14101034171469023
-2.9067830498174336   0.1865897272302024   -0.14101034171469023
-2.9067830498174336   0.1865897272302024   -0.14101034171469023
-1.1101320433867692   0.5382644451237139   -0.026284914891053668
-1.1101320433867692   0.5382644451237139   -0.026284914891053668
-1.1101320433867692   0.5382644451237139   -0.026284914891053668
-1.1101320433867692   0.5382644451237139   -0.026284914891053668
-2.067066831068919   0.24213906381991274   0.12313565432853821
-2.067066831068919   0.24213906381991274   0.12313565432853821
-2.067066831068919   0.24213906381991274   0.12313565432853821
-2.067066831068919   0.24213906381991274   0.12313565432853821
-3.350160382053984   -0.32362837614899354   -0.09727953201789813
-3.350160382053984   -0.32362837614899354   -0.09727953201789813
-3.350160382053984   -0.32362837614899354   -0.09727953201789813
-3.350160382053984   -0.32362837614899354   -0.09727953201789813
-4.966356986095079   -0.2791111762007027   0.20158927027285015
-4.966356986095079   -0.2791111762007027   0.20158927027285015
-4.966356986095079   -0.2791111762007027   0.20158927027285015
-4.966356986095079   -0.2791111762007027   0.20158927027285015
-4.965318776902207   -0.4736907438789565   -0.26801548082832094
-4.965318776902207   -0.4736907438789565   -0.26801548082832094
-4.965318776902207   -0.4736907438789565   -0.26801548082832094
-4.965318776902207   -0.4736907438789565   -0.26801548082832094
-3.0385298902085554   0.30514106791656515   0.2453367954987625
-3.0385298902085554   0.30514106791656515   0.2453367954987625
-3.0385298902085554   0.30514106791656515   0.2453367954987625
-3.0385298902085554   0.30514106791656515   0.2453367954987625
-4.0574050094783205   -0.17269596636425844   -0.026201071437831985
-4.0574050094783205   -0.17269596636425844   -0.026201071437831985
-4.0574050094783205   -0.17269596636425844   -0.026201071437831985
-4.0574050094783205   -0.17269596636425844   -0.026201071437831985
-3.1942345253655517   -0.09289988323328024   -0.1351454291363498
-3.1942345253655517   -0.09289988323328024   -0.1351454291363498
-3.1942345253655517   -0.09289988323328024   -0.1351454291363498
-3.1942345253655517   -0.09289988323328024   -0.1351454291363498
-4.7996590310760805   -0.06569468206005058   0.1522871864834543
-4.7996590310760805   -0.06569468206005058   0.1522871864834543
-4.7996590310760805   -0.06569468206005058   0.1522871864834543
-4.7996590310760805   -0.06569468206005058   0.1522871864834543
-4.766663513838115   -0.24871789679100254   -0.2981804319718605
-4.766663513838115   -0.24871789679100254   -0.2981804319718605
-4.766663513838115   -0.24871789679100254   -0.2981804319718605
-4.766663513838115   -0.24871789679100254   -0.2981804319718605
-2.891304099238008   0.4958134147668556   0.19520511708715044
-2.891304099238008   0.4958134147668556   0.19520511708715044
-2.891304099238008   0.4958134147668556   0.19520511708715044
-2.891304099238008   0.4958134147668556   0.19520511708715044
-3.8612350362568626   0.03609511569509616   0.07271033882284142
-3.8612350362568626   0.03609511569509616   0.07271033882284142
-3.8612350362568626   0.03609511569509616   0.07271033882284142
-3.8612350362568626   0.03609511569509616   0.07271033882284142
-3.0418755575726335   0.11959002407719954   -0.18142878389633074
-3.0418755575726335   0.11959002407719954   -0.18142878389633074
-3.0418755575726335   0.11959002407719954   -0.18142878389633074
-3.0418755575726335   0.11959002407719954   -0.18142878389633074
-4.604879433042945   0.13871811635923548   0.12330395885374262
-4.604879433042945   0.13871811635923548   0.12330395885374262
-4.604879433042945   0.13871811635923548   0.12330395885374262
-4.604879433042945   0.13871811635923548   0.12330395885374262
-4.588861306536867   -0.0030100367436938225   -0.32086920479072856
-4.588861306536867   -0.0030100367436938225   -0.32086920479072856
-4.588861306536867   -0.0030100367436938225   -0.32086920479072856
-4.588861306536867   -0.0030100367436938225   -0.32086920479072856
-2.7455882676892003   0.706829225740929   0.14472407041575086
-2.7455882676892003   0.706829225740929   0.14472407041575086
-2.7455882676892003   0.706829225740929   0.14472407041575086
-2.7455882676892003   0.706829225740929   0.14472407041575086
-3.713422985017323   0.23121595617346657   0.16147963759537054
-3.713422985017323   0.23121595617346657   0.16147963759537054
-3.713422985017323   0.23121595617346657   0.16147963759537054
-3.713422985017323   0.23121595617346657   0.16147963759537054
-5.102804231184128   -0.4658197570534873   -0.29393837431961123
-5.102804231184128   -0.4658197570534873   -0.29393837431961123
-5.102804231184128   -0.4658197570534873   -0.29393837431961123
-5.102804231184128   -0.4658197570534873   -0.29393837431961123
-6.804543091476846   -0.1161054560305661   0.434101822559441
-6.804543091476846   -0.1161054560305661   0.434101822559441
-6.804543091476846   -0.1161054560305661   0.434101822559441
-6.804543091476846   -0.1161054560305661   0.434101822559441
-6.705888123537492   -0.6184156065659783   -0.3912584170777736
-6.705888123537492   -0.6184156065659783   -0.3912584170777736
-6.705888123537492   -0.6184156065659783   -0.3912584170777736
-6.705888123537492   -0.6184156065659783   -0.3912584170777736
-4.62842896468072   0.5147881055035822   0.4279547308965789
-4.62842896468072   0.5147881055035822   0.4279547308965789
-4.62842896468072   0.5147881055035822   0.4279547308965789
-4.62842896468072   0.5147881055035822   0.4279547308965789
-5.560222083697788   -0.09823895931427407   0.04491793383936521
-5.560222083697788   -0.09823895931427407   0.04491793383936521
-5.560222083697788   -0.09823895931427407   0.04491793383936521
-5.560222083697788   -0.09823895931427407   0.04491793383936521
-4.933889048925554   -0.2522296876606933   -0.33232789716328665
-4.933889048925554   -0.2522296876606933   -0.33232789716328665
-4.933889048925554   -0.2522296876606933   -0.33232789716328665
-4.933889048925554   -0.2522296876606933   -0.33232789716328665
-6.391445580487473   0.1575846454034655   0.4049540462027496
-6.391445580487473   0.1575846454034655   0.4049540462027496
-6.391445580487473   0.1575846454034655   0.4049540462027496
-6.391445580487473   0.1575846454034655   0.4049540462027496
-6.392957367599801   -0.48478486409270594   -0.46538541462002325
-6.392957367599801   -0.48478486409270594   -0.46538541462002325
-6.392957367599801   -0.48478486409270594   -0.46538541462002325
-6.392957367599801   -0.48478486409270594   -0.46538541462002325
-4.466233323588861   0.60261779840871   0.35263482407464436
-4.466233323588861   0.60261779840871   0.35263482407464436
-4.466233323588861   0.60261779840871   0.35263482407464436
-4.466233323588861   0.60261779840871   0.35263482407464436
-5.3808197437275584   0.04179097985938274   0.12497281551743467
-5.3808197437275584   0.04179097985938274   0.12497281551743467
-5.3808197437275584   0.04179097985938274   0.12497281551743467
-5.3808197437275584   0.04179097985938274   0.12497281551743467
-4.762429621145978   -0.14229000411531145   -0.38343886118687454
-4.762429621145978   -0.14229000411531145   -0.38343886118687454
-4.762429621145978   -0.14229000411531145   -0.38343886118687454
-4.762429621145978   -0.14229000411531145   -0.38343886118687454
-6.085723479448886   0.2711605290250707   0.3148386330167186
-6.085723479448886   0.2711605290250707   0.3148386330167186
-6.085723479448886   0.2711605290250707   0.3148386330167186
-6.085723479448886   0.2711605290250707   0.3148386330167186
-6.008354710515802   -0.28466039600903703   -0.5186196636054143
-6.008354710515802   -0.28466039600903703   -0.5186196636054143
-6.008354710515802   -0.28466039600903703   -0.5186196636054143
-6.008354710515802   -0.28466039600903703   -0.5186196636054143
-4.3234053206789795   0.7096212747502657   0.29377941300474175
-4.3234053206789795   0.7096212747502657   0.29377941300474175
-4.3234053206789795   0.7096212747502657   0.29377941300474175
-4.3234053206789795   0.7096212747502657   0.29377941300474175
-5.04995571483535   0.17330722534181642   0.23731653346122095
-5.04995571483535   0.17330722534181642   0.23731653346122095
-5.04995571483535   0.17330722534181642   0.23731653346122095
-5.04995571483535   0.17330722534181642   0.23731653346122095
5.436766606758364   0.49332607809143425   0.47490760547514643
5.436766606758364   0.49332607809143425   0.47490760547514643
5.436766606758364   0.49332607809143425   0.47490760547514643
5.436766606758364   0.49332607809143425   0.47490760547514643
1.9951509315304388   -0.9104120541521972   -0.3127698879970576
1.9951509315304388   -0.9104120541521972   -0.3127698879970576
1.9951509315304388   -0.9104120541521972   -0.3127698879970576
1.9951509315304388   -0.9104120541521972   -0.3127698879970576
2.469055224563657   -0.003539051313791175   0.3420365134146114
2.469055224563657   -0.003539051313791175   0.3420365134146114
2.469055224563657   -0.003539051313791175   0.3420365134146114
2.469055224563657   -0.003539051313791175   0.3420365134146114
5.538560582617987   -0.13125353996972722   -0.39907366951304396
5.538560582617987   -0.13125353996972722   -0.39907366951304396
5.538560582617987   -0.13125353996972722   -0.39907366951304396
5.538560582617987   -0.13125353996972722   -0.39907366951304396
3.6224041111640735   -0.16627953747157664   -0.35130084131082306
3.6224041111640735   -0.16627953747157664   -0.35130084131082306
3.6224041111640735   -0.16627953747157664   -0.35130084131082306
3.6224041111640735   -0.16627953747157664   -0.35130084131082306
5.86515936392425   0.6898398444042466   0.4128268526442064
5.86515936392425   0.6898398444042466   0.4128268526442064
5.86515936392425   0.6898398444042466   0.4128268526442064
5.86515936392425   0.6898398444042466   0.4128268526442064
2.165422832978749   -0.80166604596642   -0.3779984498572692
2.165422832978749   -0.80166604596642   -0.3779984498572692
2.165422832978749   -0.80166604596642   -0.3779984498572692
2.165422832978749   -0.80166604596642   -0.3779984498572692
2.6574283915547268   0.10391776416641396   0.2823038480622658
2.6574283915547268   0.10391776416641396   0.2823038480622658
2.6574283915547268   0.10391776416641396   0.2823038480622658
2.6574283915547268   0.10391776416641396   0.2823038480622658
5.880050489245355   -0.009008503507747179   -0.5034373120463774
5.880050489245355   -0.009008503507747179   -0.5034373120463774
5.880050489245355   -0.009008503507747179   -0.5034373120463774
5.880050489245355   -0.009008503507747179   -0.5034373120463774
3.9783020640727247   -0.03404092880112164   -0.21233402749659155
3.9783020640727247   -0.03404092880112164   -0.21233402749659155
3.9783020640727247   -0.03404092880112164   -0.21233402749659155
3.9783020640727247   -0.03404092880112164   -0.21233402749659155
6.2104537737749235   0.8216468270139471   0.3179237800797359
6.2104537737749235   0.8216468270139471   0.3179237800797359
6.2104537737749235   0.8216468270139471   0.3179237800797359
6.2104537737749235   0.8216468270139471   0.3179237800797359
2.3515976213753556   -0.7021650520050793   -0.4407671866630375
2.3515976213753556   -0.7021650520050793   -0.4407671866630375
2.3515976213753556   -0.7021650520050793   -0.4407671866630375
2.3515976213753556   -0.7021650520050793   -0.4407671866630375
2.8455077775119046   0.34037548886906016   0.24468205863774134
2.8455077775119046   0.34037548886906016   0.24468205863774134
2.8455077775119046   0.34037548886906016   0.24468205863774134
2.8455077775119046   0.34037548886906016   0.24468205863774134
6.328124941067095   0.30989849625295285   -0.5433047044942522
6.328124941067095   0.30989849625295285   -0.5433047044942522
6.328124941067095   0.30989849625295285   -0.5433047044942522
6.328124941067095   0.30989849625295285   -0.5433047044942522
4.19974943675633   0.12648050769038244   -0.09170973983120137
4.19974943675633   0.12648050769038244   -0.09170973983120137
4.19974943675633   0.12648050769038244   -0.09170973983120137
4.19974943675633   0.12648050769038244   -0.09170973983120137
2.370481290883378   0.27536693139510626   0.37810292322033506
2.370481290883378   0.27536693139510626   0.37810292322033506
2.370481290883378   0.27536693139510626   0.37810292322033506
2.370481290883378   0.27536693139510626   0.37810292322033506
-1.1475799296920377   -0.8491889815249822   -0.16358692703391126
-1.1475799296920377   -0.8491889815249822   -0.16358692703391126
-1.1475799296920377   -0.8491889815249822   -0.16358692703391126
-1.1475799296920377   -0.8491889815249822   -0.16358692703391126
-0.8207048274596869   -0.24695714852594852   0.11517002244407665
-0.8207048274596869   -0.24695714852594852   0.11517002244407665
-0.8207048274596869   -0.24695714852594852   0.11517002244407665
-0.8207048274596869   -0.24695714852594852   0.11517002244407665
2.391578336404076   0.002095847912338966   -0.05098282660942291
2.391578336404076   0.002095847912338966   -0.05098282660942291
2.391578336404076   0.002095847912338966   -0.05098282660942291
2.391578336404076   0.002095847912338966   -0.05098282660942291
0.6673060172380402   -0.180946527398384   -0.15021893775905193
0.6673060172380402   -0.180946527398384   -0.15021893775905193
0.6673060172380402   -0.180946527398384   -0.15021893775905193
0.6673060172380402   -0.180946527398384   -0.15021893775905193
2.5637798216580996   0.47444155526950527   0.3376788923035587
2.5637798216580996   0.47444155526950527   0.3376788923035587
2.5637798216580996   0.47444155526950527   0.3376788923035587
2.5637798216580996   0.47444155526950527   0.3376788923035587
-0.9791945039381844   -0.7055910471075838   -0.21864446136677582
-0.9791945039381844   -0.7055910471075838   -0.21864446136677582
-0.9791945039381844   -0.7055910471075838   -0.21864446136677582
-0.9791945039381844   -0.7055910471075838   -0.21864446136677582
-0.6451164894582895   -0.04620291631116262   0.07296512258836958
-0.6451164894582895   -0.04620291631116262   0.07296512258836958
-0.6451164894582895   -0.04620291631116262   0.07296512258836958
-0.6451164894582895   -0.04620291631116262   0.07296512258836958
2.597742557191207   0.18249478019386445   -0.09470233978272072
2.597742557191207   0.18249478019386445   -0.09470233978272072
2.597742557191207   0.18249478019386445   -0.09470233978272072
2.597742557191207   0.18249478019386445   -0.09470233978272072
0.8371394865167784   -0.022161351635396398   -0.0598139529547449
0.8371394865167784   -0.022161351635396398   -0.0598139529547449
0.8371394865167784   -0.022161351635396398   -0.0598139529547449
0.8371394865167784   -0.022161351635396398   -0.0598139529547449
2.7767969552389813   0.6834996952005068   0.299564735449446
2.7767969552389813   0.6834996952005068   0.299564735449446
2.7767969552389813   0.6834996952005068   0.299564735449446
2.7767969552389813   0.6834996952005068   0.299564735449446
-0.8104077700200459   -0.5334447138318386   -0.26624948269973664
-0.8104077700200459   -0.5334447138318386   -0.26624948269973664
-0.8104077700200459   -0.5334447138318386   -0.26624948269973664
-0.8104077700200459   -0.5334447138318386   -0.26624948269973664
-0.47182108109540755   0.18596035749917067   0.030916460042310023
-0.47182108109540755   0.18596035749917067   0.030916460042310023
-0.47182108109540755   0.18596035749917067   0.030916460042310023
-0.47182108109540755   0.18596035749917067   0.030916460042310023
2.7808674661812147   0.3969468317951665   -0.13509084094181645
2.7808674661812147   0.3969468317951665   -0.13509084094181645
2.7808674661812147   0.3969468317951665   -0.13509084094181645
2.7808674661812147   0.3969468317951665   -0.13509084094181645
1.0460861922836049   0.17222114720983722   0.045625499442497414
1.0460861922836049   0.17222114720983722   0.045625499442497414
1.0460861922836049   0.17222114720983722   0.045625499442497414
1.0460861922836049   0.17222114720983722   0.045625499442497414
-0.901159960185954   0.059044594472926315   0.1602793444985982
-0.901159960185954   0.059044594472926315   0.1602793444985982
-0.901159960185954   0.059044594472926315   0.1602793444985982
-0.901159960185954   0.059044594472926315   0.1602793444985982
-4.227754152331817   -0.7489083632708794   -0.021044955000487805
-4.227754152331817   -0.7489083632708794   -0.021044955000487805
-4.227754152331817   -0.7489083632708794   -0.021044955000487805
-4.227754152331817   -0.7489083632708794   -0.021044955000487805
-4.019150982870338   -0.4385479498355031   -0.09952522658400446
-4.019150982870338   -0.4385479498355031   -0.09952522658400446
-4.019150982870338   -0.4385479498355031   -0.09952522658400446
-4.019150982870338   -0.4385479498355031   -0.09952522658400446
-0.7514357026916474   0.10756565257263564   0.10699284518569037
-0.7514357026916474   0.10756565257263564   0.10699284518569037
-0.7514357026916474   0.10756565257263564   0.10699284518569037
-0.7514357026916474   0.10756565257263564   0.10699284518569037
-2.4792785909268584   -0.2307114482718125   -0.09366078242828159
-2.4792785909268584   -0.2307114482718125   -0.09366078242828159
-2.4792785909268584   -0.2307114482718125   -0.09366078242828159
-2.4792785909268584   -0.2307114482718125   -0.09366078242828159
-0.7169370314376727   0.2660085471445587   0.12104330688364028
-0.7169370314376727   0.2660085471445587   0.12104330688364028
-0.7169370314376727   0.2660085471445587   0.12104330688364028
-0.7169370314376727   0.2660085471445587   0.12104330688364028
-4.044606080280519   -0.5879472705636339   -0.07740139290678492
-4.044606080280519   -0.5879472705636339   -0.07740139290678492
-4.044606080280519   -0.5879472705636339   -0.07740139290678492
-4.044606080280519   -0.5879472705636339   -0.07740139290678492
-3.825701993551107   -0.21829367563113466   -0.13449587985506747
-3.825701993551107   -0.21829367563113466   -0.13449587985506747
-3.825701993551107   -0.21829367563113466   -0.13449587985506747
-3.825701993551107   -0.21829367563113466   -0.13449587985506747
-0.5804869078151338   0.28974570601135974   0.0601644084816261
-0.5804869078151338   0.28974570601135974   0.0601644084816261
-0.5804869078151338   0.28974570601135974   0.0601644084816261
-0.5804869078151338   0.28974570601135974   0.0601644084816261
-2.2842239951443926   -0.04637540422687886   -0.001504221543978404
-2.2842239951443926   -0.04637540422687886   -0.001504221543978404
-2.2842239951443926   -0.04637540422687886   -0.001504221543978404
-2.2842239951443926   -0.04637540422687886   -0.001504221543978404
-0.5389003386231295   0.4812786861800631   0.07656427427294413
-0.5389003386231295   0.4812786861800631   0.07656427427294413
-0.5389003386231295   0.4812786861800631   0.07656427427294413
-0.5389003386231295   0.4812786861800631   0.07656427427294413
-3.858864493808847   -0.4014025868655328   -0.1171994699093694
-3.858864493808847   -0.4014025868655328   -0.1171994699093694
-3.858864493808847   -0.4014025868655328   -0.1171994699093694
-3.858864493808847   -0.4014025868655328   -0.1171994699093694
-3.645677530510898   0.0011254221018160981   -0.17643454287641422
-3.645677530510898   0.0011254221018160981   -0.17643454287641422
-3.645677530510898   0.0011254221018160981   -0.17643454287641422
-3.645677530510898   0.0011254221018160981   -0.17643454287641422
-0.41715854921772677   0.4759168105856705   0.014272666344228996
-0.41715854921772677   0.4759168105856705   0.014272666344228996
-0.41715854921772677   0.4759168105856705   0.014272666344228996
-0.41715854921772677   0.4759168105856705   0.014272666344228996
-2.1049503160218843   0.13724214937089135   0.08623734908172981
-2.1049503160218843   0.13724214937089135   0.08623734908172981
-2.1049503160218843   0.13724214937089135   0.08623734908172981
-2.1049503160218843   0.13724214937089135   0.08623734908172981
-4.119221396608137   -0.16288318357372544   -0.06440635607920583
-4.119221396608137   -0.16288318357372544   -0.06440635607920583
-4.119221396608137   -0.16288318357372544   -0.06440635607920583
-4.119221396608137   -0.16288318357372544   -0.06440635607920583
-7.233703497920176   -0.605151982924862   0.1421956204622715
-7.233703497920176   -0.605151982924862   0.1421956204622715
-7.233703497920176   -0.605151982924862   0.1421956204622715
-7.233703497920176   -0.605151982924862   0.1421956204622715
-7.130198657820863   -0.622220219241752   -0.2998008726805165
-7.130198657820863   -0.622220219241752   -0.2998008726805165
-7.130198657820863   -0.622220219241752   -0.2998008726805165
-7.130198657820863   -0.622220219241752   -0.2998008726805165
-3.801694507518353   0.2793837947700518   0.26982540557039125
-3.801694507518353   0.2793837947700518   0.26982540557039125
-3.801694507518353   0.2793837947700518   0.26982540557039125
-3.801694507518353   0.2793837947700518   0.26982540557039125
-5.532646237453679   -0.24237742544556273   -0.0325261014511917
-5.532646237453679   -0.24237742544556273   -0.0325261014511917
-5.532646237453679   -0.24237742544556273   -0.0325261014511917
-5.532646237453679   -0.24237742544556273   -0.0325261014511917
-3.9189062359738642   0.06052379273023256   -0.0973732346673456
-3.9189062359738642   0.06052379273023256   -0.0973732346673456
-3.9189062359738642   0.06052379273023256   -0.0973732346673456
-3.9189062359738642   0.06052379273023256   -0.0973732346673456
-7.0128549513824625   -0.4032282392190756   0.06792567948886385
-7.0128549513824625   -0.4032282392190756   0.06792567948886385
-7.0128549513824625   -0.4032282392190756   0.06792567948886385
-7.0128549513824625   -0.4032282392190756   0.06792567948886385
-6.877829231978157   -0.40684814443291084   -0.33157754617153296
-6.877829231978157   -0.40684814443291084   -0.33157754617153296
-6.877829231978157   -0.40684814443291084   -0.33157754617153296
-6.877829231978157   -0.40684814443291084   -0.33157754617153296
-3.621388260544642   0.45328957032753703   0.21548953921862168
-3.621388260544642   0.45328957032753703   0.21548953921862168
-3.621388260544642   0.45328957032753703   0.21548953921862168
-3.621388260544642   0.45328957032753703   0.21548953921862168
-5.276351068504934   -0.038527437361654204   0.059740490324587725
-5.276351068504934   -0.038527437361654204   0.059740490324587725
-5.276351068504934   -0.038527437361654204   0.059740490324587725
-5.276351068504934   -0.038527437361654204   0.059740490324587725
-3.7314075666147364   0.2604068447610113   -0.14172426556534284
-3.7314075666147364   0.2604068447610113   -0.14172426556534284
-3.7314075666147364   0.2604068447610113   -0.14172426556534284
-3.7314075666147364   0.2604068447610113   -0.14172426556534284
-6.762331080375173   -0.20848657333345777   0.04755164074393331
-6.762331080375173   -0.20848657333345777   0.04755164074393331
-6.762331080375173   -0.20848657333345777   0.04755164074393331
-6.762331080375173   -0.20848657333345777   0.04755164074393331
-6.65212191168496   -0.17312494705278603   -0.34851314955706447
-6.65212191168496   -0.17312494705278603   -0.34851314955706447
-6.65212191168496   -0.17312494705278603   -0.34851314955706447
-6.65212191168496   -0.17312494705278603   -0.34851314955706447
-3.446750148036488   0.6448532291493907   0.17447456244808707
-3.446750148036488   0.6448532291493907   0.17447456244808707
-3.446750148036488   0.6448532291493907   0.17447456244808707
-3.446750148036488   0.6448532291493907   0.17447456244808707
-5.101751389190721   0.13601228067491578   0.1394302917539152
-5.101751389190721   0.13601228067491578   0.1394302917539152
-5.101751389190721   0.13601228067491578   0.1394302917539152
-5.101751389190721   0.13601228067491578   0.1394302917539152
-7.265495333673803   -0.3495828143566586   -0.27233272687406457
-7.265495333673803   -0.3495828143566586   -0.27233272687406457
-7.265495333673803   -0.3495828143566586   -0.27233272687406457
-7.265495333673803   -0.3495828143566586   -0.27233272687406457
-10.347223470352189   -0.37199341135694586   0.47240438167605386
-10.347223470352189   -0.37199341135694586   0.47240438167605386
-10.347223470352189   -0.37199341135694586   0.47240438167605386
-10.347223470352189   -0.37199341135694586   0.47240438167605386
-10.143045921020372   -0.7456268358044722   -0.35950301930404166
-10.143045921020372   -0.7456268358044722   -0.35950301930404166
-10.143045921020372   -0.7456268358044722   -0.35950301930404166
-10.143045921020372   -0.7456268358044722   -0.35950301930404166
-6.733600228160759   0.5814369878159391   0.4795340685623122
-6.733600228160759   0.5814369878159391   0.4795340685623122
-6.733600228160759   0.5814369878159391   0.4795340685623122
-6.733600228160759   0.5814369878159391   0.4795340685623122
-8.240208822415877   -0.10198138132304835   0.09375735896495868
-8.240208822415877   -0.10198138132304835   0.09375735896495868
-8.240208822415877   -0.10198138132304835   0.09375735896495868
-8.240208822415877   -0.10198138132304835   0.09375735896495868
-7.028593576770708   -0.11136241702335403   -0.3026332696481136
-7.028593576770708   -0.11136241702335403   -0.3026332696481136
-7.028593576770708   -0.11136241702335403   -0.3026332696481136
-7.028593576770708   -0.11136241702335403   -0.3026332696481136
-9.843466836815423   -0.04824169537019252   0.4410072612863203
-9.843466836815423   -0.04824169537019252   0.4410072612863203
-9.843466836815423   -0.04824169537019252   0.4410072612863203
-9.843466836815423   -0.04824169537019252   0.4410072612863203
-9.76251702446895   -0.611793063455295   -0.4231357843652917
-9.76251702446895   -0.611793063455295   -0.4231357843652917
-9.76251702446895   -0.611793063455295   -0.4231357843652917
-9.76251702446895   -0.611793063455295   -0.4231357843652917
-6.521405677590582   0.6640257493686441   0.37966633196478394
-6.521405677590582   0.6640257493686441   0.37966633196478394
-6.521405677590582   0.6640257493686441   0.37966633196478394
-6.521405677590582   0.6640257493686441   0.37966633196478394
-8.041219386624647   0.04398421087503923   0.17100268863378887
-8.041219386624647   0.04398421087503923   0.17100268863378887
-8.041219386624647   0.04398421087503923   0.17100268863378887
-8.041219386624647   0.04398421087503923   0.17100268863378887
-6.799639626368616   -0.003404966227930961   -0.34407269632880616
-6.799639626368616   -0.003404966227930961   -0.34407269632880616
-6.799639626368616   -0.003404966227930961   -0.34407269632880616
-6.799639626368616   -0.003404966227930961   -0.34407269632880616
-9.479771540887178   0.06014918694494975   0.31864938314315483
-9.479771540887178   0.06014918694494975   0.31864938314315483
-9.479771540887178   0.06014918694494975   0.31864938314315483
-9.479771540887178   0.06014918694494975   0.31864938314315483
-9.347409186879347   -0.4502932332767009   -0.48178926092972474
-9.347409186879347   -0.4502932332767009   -0.48178926092972474
-9.347409186879347   -0.4502932332767009   -0.48178926092972474
-9.347409186879347   -0.4502932332767009   -0.48178926092972474
-6.334530229347763   0.7429259912166901   0.3233943238594449
-6.334530229347763   0.7429259912166901   0.3233943238594449
-6.334530229347763   0.7429259912166901   0.3233943238594449
-6.334530229347763   0.7429259912166901   0.3233943238594449
-7.623617016107919   0.16565849895963747   0.286978783000731
-7.623617016107919   0.16565849895963747   0.286978783000731
-7.623617016107919   0.16565849895963747   0.286978783000731
-7.623617016107919   0.16565849895963747   0.286978783000731
9.163909013670668   0.6836905050141118   0.48898482569425716
9.163909013670668   0.6836905050141118   0.48898482569425716
9.163909013670668   0.6836905050141118   0.48898482569425716
9.163909013670668   0.6836905050141118   0.48898482569425716
4.048150906467653   -1.0858585252413373   -0.22320032404951218
4.048150906467653   -1.0858585252413373   -0.22320032404951218
4.048150906467653   -1.0858585252413373   -0.22320032404951218
4.048150906467653   -1.0858585252413373   -0.22320032404951218
4.518879947875284   -0.18808673728665526   0.3364409786450198
4.518879947875284   -0.18808673728665526   0.3364409786450198
4.518879947875284   -0.18808673728665526   0.3364409786450198
4.518879947875284   -0.18808673728665526   0.3364409786450198
9.267908236617039   -0.023680996514014563   -0.35088502666383214
9.267908236617039   -0.023680996514014563   -0.35088502666383214
9.267908236617039   -0.023680996514014563   -0.35088502666383214
9.267908236617039   -0.023680996514014563   -0.35088502666383214
6.354060737901996   -0.1953333922437568   -0.4993881094934191
6.354060737901996   -0.1953333922437568   -0.4993881094934191
6.354060737901996   -0.1953333922437568   -0.4993881094934191
6.354060737901996   -0.1953333922437568   -0.4993881094934191
9.592913648118303   0.8412700115821845   0.40919102274619873
9.592913648118303   0.8412700115821845   0.40919102274619873
9.592913648118303   0.8412700115821845   0.40919102274619873
9.592913648118303   0.8412700115821845   0.40919102274619873
4.225023869814131   -1.0218884119427534   -0.29903773700461844
4.225023869814131   -1.0218884119427534   -0.29903773700461844
4.225023869814131   -1.0218884119427534   -0.29903773700461844
4.225023869814131   -1.0218884119427534   -0.29903773700461844
4.704085804346801   -0.08906302849610226   0.2722547479104016
4.704085804346801   -0.08906302849610226   0.2722547479104016
4.704085804346801   -0.08906302849610226   0.2722547479104016
4.704085804346801   -0.08906302849610226   0.2722547479104016
9.589882227145775   0.08561889118601007   -0.4391364016045115
9.589882227145775   0.08561889118601007   -0.4391364016045115
9.589882227145775   0.08561889118601007   -0.4391364016045115
9.589882227145775   0.08561889118601007   -0.4391364016045115
6.757254973213003   -0.0782753498735489   -0.33926885376500404
6.757254973213003   -0.0782753498735489   -0.33926885376500404
6.757254973213003   -0.0782753498735489   -0.33926885376500404
6.757254973213003   -0.0782753498735489   -0.33926885376500404
9.913083996114471   0.9589866059669561   0.30350472845802334
9.913083996114471   0.9589866059669561   0.30350472845802334
9.913083996114471   0.9589866059669561   0.30350472845802334
9.913083996114471   0.9589866059669561   0.30350472845802334
4.408210838812408   -0.9351039398427861   -0.3610791684148804
4.408210838812408   -0.9351039398427861   -0.3610791684148804
4.408210838812408   -0.9351039398427861   -0.3610791684148804
4.408210838812408   -0.9351039398427861   -0.3610791684148804
4.871710990778887   0.17501494439364362   0.23869148649741043
4.871710990778887   0.17501494439364362   0.23869148649741043
4.871710990778887   0.17501494439364362   0.23869148649741043
4.871710990778887   0.17501494439364362   0.23869148649741043
9.985463932917124   0.4051932173857318   -0.4601162974501529
9.985463932917124   0.4051932173857318   -0.4601162974501529
9.985463932917124   0.4051932173857318   -0.4601162974501529
9.985463932917124   0.4051932173857318   -0.4601162974501529
6.910247061916715   0.0788942154285861   -0.22804827678206457
6.910247061916715   0.0788942154285861   -0.22804827678206457
6.910247061916715   0.0788942154285861   -0.22804827678206457
6.910247061916715   0.0788942154285861   -0.22804827678206457
4.4786603976807955   0.39789515892615246   0.4455934478486837
4.4786603976807955   0.39789515892615246   0.4455934478486837
4.4786603976807955   0.39789515892615246   0.4455934478486837
4.4786603976807955   0.39789515892615246   0.4455934478486837
-0.5420387408951257   -1.3406047379472508   -0.12670253198108583
-0.5420387408951257   -1.3406047379472508   -0.12670253198108583
-0.5420387408951257   -1.3406047379472508   -0.12670253198108583
-0.5420387408951257   -1.3406047379472508   -0.12670253198108583
-0.13542007387474791   -0.470177813265243   0.11464727778149142
-0.13542007387474791   -0.470177813265243   0.11464727778149142
-0.13542007387474791   -0.470177813265243   0.11464727778149142
-0.13542007387474791   -0.470177813265243   0.11464727778149142
4.441961968096819   -0.2574743757154627   0.021238718181499028
4.441961968096819   -0.2574743757154627   0.021238718181499028
4.441961968096819   -0.2574743757154627   0.021238718181499028
4.441961968096819   -0.2574743757154627   0.021238718181499028
2.0050111131195534   -0.3766565288011492   -0.23927777041021356
2.0050111131195534   -0.3766565288011492   -0.23927777041021356
2.0050111131195534   -0.3766565288011492   -0.23927777041021356
2.0050111131195534   -0.3766565288011492   -0.23927777041021356
4.67779537141892   0.5484350767104184   0.39449628236612966
4.67779537141892   0.5484350767104184   0.39449628236612966
4.67779537141892   0.5484350767104184   0.39449628236612966
4.67779537141892   0.5484350767104184   0.39449628236612966
-0.3549609405987459   -1.2597947290930198   -0.19344014001072174
-0.3549609405987459   -1.2597947290930198   -0.19344014001072174
-0.3549609405987459   -1.2597947290930198   -0.19344014001072174
-0.3549609405987459   -1.2597947290930198   -0.19344014001072174
0.0535037679193011   -0.2933435721028898   0.07034468800566009
0.0535037679193011   -0.2933435721028898   0.07034468800566009
0.0535037679193011   -0.2933435721028898   0.07034468800566009
0.0535037679193011   -0.2933435721028898   0.07034468800566009
4.635114280898545   -0.12418660452316277   -0.037479293303820604
4.635114280898545   -0.12418660452316277   -0.037479293303820604
4.635114280898545   -0.12418660452316277   -0.037479293303820604
4.635114280898545   -0.12418660452316277   -0.037479293303820604
2.1695653917260844   -0.26818889931937506   -0.15534682291596455
2.1695653917260844   -0.26818889931937506   -0.15534682291596455
2.1695653917260844   -0.26818889931937506   -0.15534682291596455
2.1695653917260844   -0.26818889931937506   -0.15534682291596455
4.883617466119664   0.7289835296598113   0.35186649861880237
4.883617466119664   0.7289835296598113   0.35186649861880237
4.883617466119664   0.7289835296598113   0.35186649861880237
4.883617466119664   0.7289835296598113   0.35186649861880237
-0.18541636186494695   -1.1369306508489951   -0.28066888216949026
-0.18541636186494695   -1.1369306508489951   -0.28066888216949026
-0.18541636186494695   -1.1369306508489951   -0.28066888216949026
-0.18541636186494695   -1.1369306508489951   -0.28066888216949026
0.20173172280558574   -0.08675903850551417   0.025515550930654572
0.20173172280558574   -0.08675903850551417   0.025515550930654572
0.20173172280558574   -0.08675903850551417   0.025515550930654572
0.20173172280558574   -0.08675903850551417   0.025515550930654572
4.779941677794225   0.045476732181343404   -0.09061686621369114
4.779941677794225   0.045476732181343404   -0.09061686621369114
4.779941677794225   0.045476732181343404   -0.09061686621369114
4.779941677794225   0.045476732181343404   -0.09061686621369114
2.369860428155351   -0.10615249727356069   -0.0656310354345877
2.369860428155351   -0.10615249727356069   -0.0656310354345877
2.369860428155351   -0.10615249727356069   -0.0656310354345877
2.369860428155351   -0.10615249727356069   -0.0656310354345877
-0.18269189839800312   0.10849872252282271   0.22092822003445353
-0.18269189839800312   0.10849872252282271   0.22092822003445353
-0.18269189839800312   0.10849872252282271   0.22092822003445353
-0.18269189839800312   0.10849872252282271   0.22092822003445353
-5.097325470396884   -1.685267257513841   -0.10265434819963487
-5.097325470396884   -1.685267257513841   -0.10265434819963487
-5.097325470396884   -1.685267257513841   -0.10265434819963487
-5.097325470396884   -1.685267257513841   -0.10265434819963487
-4.68452700590355   -0.7218486955406402   -0.10698759216878649
-4.68452700590355   -0.7218486955406402   -0.10698759216878649
-4.68452700590355   -0.7218486955406402   -0.10698759216878649
-4.68452700590355   -0.7218486955406402   -0.10698759216878649
-0.16282479170131203   -0.5915127750530801   0.09895865043650803
-0.16282479170131203   -0.5915127750530801   0.09895865043650803
-0.16282479170131203   -0.5915127750530801   0.09895865043650803
-0.16282479170131203   -0.5915127750530801   0.09895865043650803
-2.543606477538592   -0.6838482741836474   -0.2140980286994703
-2.543606477538592   -0.6838482741836474   -0.2140980286994703
-2.543606477538592   -0.6838482741836474   -0.2140980286994703
-2.543606477538592   -0.6838482741836474   -0.2140980286994703
0.02708639050117153   0.2777265495443587   0.17927523685148694
0.02708639050117153   0.2777265495443587   0.17927523685148694
0.02708639050117153   0.2777265495443587   0.17927523685148694
0.02708639050117153   0.2777265495443587   0.17927523685148694
-4.8627192253597995   -1.5793690573918449   -0.1404283275988285
-4.8627192253597995   -1.5793690573918449   -0.1404283275988285
-4.8627192253597995   -1.5793690573918449   -0.1404283275988285
-4.8627192253597995   -1.5793690573918449   -0.1404283275988285
-4.450309577861343   -0.5254606639127124   -0.14604477109277153
-4.450309577861343   -0.5254606639127124   -0.14604477109277153
-4.450309577861343   -0.5254606639127124   -0.14604477109277153
-4.450309577861343   -0.5254606639127124   -0.14604477109277153
0.01329275130747029   -0.4635195927879372   0.03946562563153802
0.01329275130747029   -0.4635195927879372   0.03946562563153802
0.01329275130747029   -0.4635195927879372   0.03946562563153802
0.01329275130747029   -0.4635195927879372   0.03946562563153802
-2.3162407864032333   -0.5428412758561854   -0.11932935786368452
-2.3162407864032333   -0.5428412758561854   -0.11932935786368452
-2.3162407864032333   -0.5428412758561854   -0.11932935786368452
-2.3162407864032333   -0.5428412758561854   -0.11932935786368452
0.21909594413993   0.4655181617560636   0.13944383524983592
0.21909594413993   0.4655181617560636   0.13944383524983592
0.21909594413993   0.4655181617560636   0.13944383524983592
0.21909594413993   0.4655181617560636   0.13944383524983592
-4.6564560759894675   -1.4548417237523292   -0.24739620189373107
-4.6564560759894675   -1.4548417237523292   -0.24739620189373107
-4.6564560759894675   -1.4548417237523292   -0.24739620189373107
-4.6564560759894675   -1.4548417237523292   -0.24739620189373107
-4.284858747754609   -0.33843887818290186   -0.1898055789619957
-4.284858747754609   -0.33843887818290186   -0.1898055789619957
-4.284858747754609   -0.33843887818290186   -0.1898055789619957
-4.284858747754609   -0.33843887818290186   -0.1898055789619957
0.12909789262657126   -0.36169394780712033   -0.06271869066281165
0.12909789262657126   -0.36169394780712033   -0.06271869066281165
0.12909789262657126   -0.36169394780712033   -0.06271869066281165
0.12909789262657126   -0.36169394780712033   -0.06271869066281165
-2.1494067906065033   -0.41156346673491767   -0.060324946412289325
-2.1494067906065033   -0.41156346673491767   -0.060324946412289325
-2.1494067906065033   -0.41156346673491767   -0.060324946412289325
-2.1494067906065033   -0.41156346673491767   -0.060324946412289325
-4.769868737869431   -0.14245978635201484   -0.008178156724237745
-4.769868737869431   -0.14245978635201484   -0.008178156724237745
-4.769868737869431   -0.14245978635201484   -0.008178156724237745
-4.769868737869431   -0.14245978635201484   -0.008178156724237745
-9.671026795538667   -1.811865231297657   -0.08328517631462778
-9.671026795538667   -1.811865231297657   -0.08328517631462778
-9.671026795538667   -1.811865231297657   -0.08328517631462778
-9.671026795538667   -1.811865231297657   -0.08328517631462778
-9.226218200983823   -0.9234806351564773   -0.31997305059678394
-9.226218200983823   -0.9234806351564773   -0.31997305059678394
-9.226218200983823   -0.9234806351564773   -0.31997305059678394
-9.226218200983823   -0.9234806351564773   -0.31997305059678394
-4.599336685637915   -0.6140679555301862   0.2111832691488897
-4.599336685637915   -0.6140679555301862   0.2111832691488897
-4.599336685637915   -0.6140679555301862   0.2111832691488897
-4.599336685637915   -0.6140679555301862   0.2111832691488897
-7.004320686236277   -0.820626624400867   -0.1510990462257488
-7.004320686236277   -0.820626624400867   -0.1510990462257488
-7.004320686236277   -0.820626624400867   -0.1510990462257488
-7.004320686236277   -0.820626624400867   -0.1510990462257488
-4.51115891695137   0.07593888598304632   -0.03793472893161909
-4.51115891695137   0.07593888598304632   -0.03793472893161909
-4.51115891695137   0.07593888598304632   -0.03793472893161909
-4.51115891695137   0.07593888598304632   -0.03793472893161909
-9.318555664620002   -1.6176471716193315   -0.08749383231475097
-9.318555664620002   -1.6176471716193315   -0.08749383231475097
-9.318555664620002   -1.6176471716193315   -0.08749383231475097
-9.318555664620002   -1.6176471716193315   -0.08749383231475097
-8.891828716182065   -0.7180636601761667   -0.3708361576624747
-8.891828716182065   -0.7180636601761667   -0.3708361576624747
-8.891828716182065   -0.7180636601761667   -0.3708361576624747
-8.891828716182065   -0.7180636601761667   -0.3708361576624747
-4.371569518989543   -0.4595671381666945   0.18176199752025282
-4.371569518989543   -0.4595671381666945   0.18176199752025282
-4.371569518989543   -0.4595671381666945   0.18176199752025282
-4.371569518989543   -0.4595671381666945   0.18176199752025282
-6.661360637629882   -0.6235755686782979   -0.05058427626927156
-6.661360637629882   -0.6235755686782979   -0.05058427626927156
-6.661360637629882   -0.6235755686782979   -0.05058427626927156
-6.661360637629882   -0.6235755686782979   -0.05058427626927156
-4.276308528506312   0.26575630937117456   -0.06725649760152097
-4.276308528506312   0.26575630937117456   -0.06725649760152097
-4.276308528506312   0.26575630937117456   -0.06725649760152097
-4.276308528506312   0.26575630937117456   -0.06725649760152097
-9.003576105362217   -1.459873506410997   -0.18776325732833937
-9.003576105362217   -1.459873506410997   -0.18776325732833937
-9.003576105362217   -1.459873506410997   -0.18776325732833937
-9.003576105362217   -1.459873506410997   -0.18776325732833937
-8.619812921797276   -0.5011497090282744   -0.3824773546794506
-8.619812921797276   -0.5011497090282744   -0.3824773546794506
-8.619812921797276   -0.5011497090282744   -0.3824773546794506
-8.619812921797276   -0.5011497090282744   -0.3824773546794506
-4.240583583933665   -0.3613460660900162   0.05447742804989189
-4.240583583933665   -0.3613460660900162   0.05447742804989189
-4.240583583933665   -0.3613460660900162   0.05447742804989189
-4.240583583933665   -0.3613460660900162   0.05447742804989189
-6.47026689048812   -0.5033070867014023   -0.017987348099970685
-6.47026689048812   -0.5033070867014023   -0.017987348099970685
-6.47026689048812   -0.5033070867014023   -0.017987348099970685
-6.47026689048812   -0.5033070867014023   -0.017987348099970685
-9.404180481404234   -0.3250412144088226   -0.23587762253128602
-9.404180481404234   -0.3250412144088226   -0.23587762253128602
-9.404180481404234   -0.3250412144088226   -0.23587762253128602
-9.404180481404234   -0.3250412144088226   -0.23587762253128602
-14.178755738475314   -1.2185829111167223   0.5432252282973933
-14.178755738475314   -1.2185829111167223   0.5432252282973933
-14.178755738475314   -1.2185829111167223   0.5432252282973933
-14.178755738475314   -1.2185829111167223   0.5432252282973933
-13.683683041536973   -0.9672751652392368   -0.313943883337352
-13.683683041536973   -0.9672751652392368   -0.313943883337352
-13.683683041536973   -0.9672751652392368   -0.313943883337352
-13.683683041536973   -0.9672751652392368   -0.313943883337352
-8.82793962086869   0.25019492495285456   0.49774428986946706
-8.82793962086869   0.25019492495285456   0.49774428986946706
-8.82793962086869   0.25019492495285456   0.49774428986946706
-8.82793962086869   0.25019492495285456   0.49774428986946706
-11.00884425625959   -0.3843325306948744   0.04877094408181515
-11.00884425625959   -0.3843325306948744   0.04877094408181515
-11.00884425625959   -0.3843325306948744   0.04877094408181515
-11.00884425625959   -0.3843325306948744   0.04877094408181515
-9.035199254996616   -0.02705118535590323   -0.2613077704612864
-9.035199254996616   -0.02705118535590323   -0.2613077704612864
-9.035199254996616   -0.02705118535590323   -0.2613077704612864
-9.035199254996616   -0.02705118535590323   -0.2613077704612864
-13.442967524702771   -0.6565731722241419   0.5789317078185654
-13.442967524702771   -0.6565731722241419   0.5789317078185654
-13.442967524702771   -0.6565731722241419   0.5789317078185654
-13.442967524702771   -0.6565731722241419   0.5789317078185654
-13.153084419368001   -0.813017550635236   -0.3738714262771978
-13.153084419368001   -0.813017550635236   -0.3738714262771978
-13.153084419368001   -0.813017550635236   -0.3738714262771978
-13.153084419368001   -0.813017550635236   -0.3738714262771978
-8.496911770934089   0.404433773045787   0.4812511353554526
-8.496911770934089   0.404433773045787   0.4812511353554526
-8.496911770934089   0.404433773045787   0.4812511353554526
-8.496911770934089   0.404433773045787   0.4812511353554526
-10.692131891893638   -0.15508419074549362   0.2181836738161791
-10.692131891893638   -0.15508419074549362   0.2181836738161791
-10.692131891893638   -0.15508419074549362   0.2181836738161791
-10.692131891893638   -0.15508419074549362   0.2181836738161791
-8.711696172354985   0.09365580356843539   -0.2818929022716107
-8.711696172354985   0.09365580356843539   -0.2818929022716107
-8.711696172354985   0.09365580356843539   -0.2818929022716107
-8.711696172354985   0.09365580356843539   -0.2818929022716107
-12.931768268323484   -0.4957078315343111   0.41539960984435675
-12.931768268323484   -0.4957078315343111   0.41539960984435675
-12.931768268323484   -0.4957078315343111   0.41539960984435675
-12.931768268323484   -0.4957078315343111   0.41539960984435675
-12.604707965200998   -0.6661062172370475   -0.4515889825560083
-12.604707965200998   -0.6661062172370475   -0.4515889825560083
-12.604707965200998   -0.6661062172370475   -0.4515889825560083
-12.604707965200998   -0.6661062172370475   -0.4515889825560083
-8.250288501354822   0.5909383947910123   0.37305664371353875
-8.250288501354822   0.5909383947910123   0.37305664371353875
-8.250288501354822   0.5909383947910123   0.37305664371353875
-8.250288501354822   0.5909383947910123   0.37305664371353875
-10.104474031746033   0.041327747437384765   0.3867547828047838
-10.104474031746033   0.041327747437384765   0.3867547828047838
-10.104474031746033   0.041327747437384765   0.3867547828047838
-10.104474031746033   0.041327747437384765   0.3867547828047838
12.542018109107419   0.749260009920758   0.45852514912119824
12.542018109107419   0.749260009920758   0.45852514912119824
12.542018109107419   0.749260009920758   0.45852514912119824
12.542018109107419   0.749260009920758   0.45852514912119824
5.9864013944079275   -1.1256893648303026   0.10652279316636881
5.9864013944079275   -1.1256893648303026   0.10652279316636881
5.9864013944079275   -1.1256893648303026   0.10652279316636881
5.9864013944079275   -1.1256893648303026   0.10652279316636881
6.320242471192955   -0.47224917237223996   0.3539398594693709
6.320242471192955   -0.47224917237223996   0.3539398594693709
6.320242471192955   -0.47224917237223996   0.3539398594693709
6.320242471192955   -0.47224917237223996   0.3539398594693709
12.610255592499724   0.0994131664045832   -0.098719879863847
12.610255592499724   0.0994131664045832   -0.098719879863847
12.610255592499724   0.0994131664045832   -0.098719879863847
12.610255592499724   0.0994131664045832   -0.098719879863847
8.822216761501336   -0.24404610025408924   -0.588848517221684
8.822216761501336   -0.24404610025408924   -0.588848517221684
8.822216761501336   -0.24404610025408924   -0.588848517221684
8.822216761501336   -0.24404610025408924   -0.588848517221684
12.849762632497427   0.8354271544171912   0.36280133211205523
12.849762632497427   0.8354271544171912   0.36280133211205523
12.849762632497427   0.8354271544171912   0.36280133211205523
12.849762632497427   0.8354271544171912   0.36280133211205523
6.138466319265869   -1.1505322723142315   0.1233421997759353
6.138466319265869   -1.1505322723142315   0.1233421997759353
6.138466319265869   -1.1505322723142315   0.1233421997759353
6.138466319265869   -1.1505322723142315   0.1233421997759353
6.4475568898537166   -0.401093318826228   0.2696278856266008
6.4475568898537166   -0.401093318826228   0.2696278856266008
6.4475568898537166   -0.401093318826228   0.2696278856266008
6.4475568898537166   -0.401093318826228   0.2696278856266008
12.833901550360228   0.17978282791108446   -0.02699666033548509
12.833901550360228   0.17978282791108446   -0.02699666033548509
12.833901550360228   0.17978282791108446   -0.02699666033548509
12.833901550360228   0.17978282791108446   -0.02699666033548509
9.188836516892819   -0.1935557873369591   -0.40151090503285136
9.188836516892819   -0.1935557873369591   -0.40151090503285136
9.188836516892819   -0.1935557873369591   -0.40151090503285136
9.188836516892819   -0.1935557873369591   -0.40151090503285136
13.036277573874282   0.9130487482347824   0.2516175369110889
13.036277573874282   0.9130487482347824   0.2516175369110889
13.036277573874282   0.9130487482347824   0.2516175369110889
13.036277573874282   0.9130487482347824   0.2516175369110889
6.28534769340682   -1.0941924120827682   0.15168099664865775
6.28534769340682   -1.0941924120827682   0.15168099664865775
6.28534769340682   -1.0941924120827682   0.15168099664865775
6.28534769340682   -1.0941924120827682   0.15168099664865775
6.634528181879764   -0.123676724685708   0.24646974323000648
6.634528181879764   -0.123676724685708   0.24646974323000648
6.634528181879764   -0.123676724685708   0.24646974323000648
6.634528181879764   -0.123676724685708   0.24646974323000648
13.065892543604104   0.36250917055386855   -0.0009350783193543544
13.065892543604104   0.36250917055386855   -0.0009350783193543544
13.065892543604104   0.36250917055386855   -0.0009350783193543544
13.065892543604104   0.36250917055386855   -0.0009350783193543544
9.236798703224856   -0.09086128940808069   -0.2990792794597841
9.236798703224856   -0.09086128940808069   -0.2990792794597841
9.236798703224856   -0.09086128940808069   -0.2990792794597841
9.236798703224856   -0.09086128940808069   -0.2990792794597841
6.316228764248924   0.15198610415502922   0.47798417338601856
6.316228764248924   0.15198610415502922   0.47798417338601856
6.316228764248924   0.15198610415502922   0.47798417338601856
6.316228764248924   0.15198610415502922   0.47798417338601856
0.35048445918821014   -2.252738765616757   0.23490993149670647
0.35048445918821014   -2.252738765616757   0.23490993149670647
0.35048445918821014   -2.252738765616757   0.23490993149670647
0.35048445918821014   -2.252738765616757   0.23490993149670647
0.7870126854207731   -0.9492356622007414   0.21738156843139572
0.7870126854207731   -0.9492356622007414   0.21738156843139572
0.7870126854207731   -0.9492356622007414   0.21738156843139572
0.7870126854207731   -0.9492356622007414   0.21738156843139572
6.1531738194422525   -1.0988897689964274   0.14523719734000595
6.1531738194422525   -1.0988897689964274   0.14523719734000595
6.1531738194422525   -1.0988897689964274   0.14523719734000595
6.1531738194422525   -1.0988897689964274   0.14523719734000595
3.2907750939306126   -1.015429264086059   -0.37915113162301317
3.2907750939306126   -1.015429264086059   -0.37915113162301317
3.2907750939306126   -1.015429264086059   -0.37915113162301317
3.2907750939306126   -1.015429264086059   -0.37915113162301317
6.468288331540019   0.22327262591947794   0.3986473629130023
6.468288331540019   0.22327262591947794   0.3986473629130023
6.468288331540019   0.22327262591947794   0.3986473629130023
6.468288331540019   0.22327262591947794   0.3986473629130023
0.55505221395861   -2.188244016480991   0.29658756540083064
0.55505221395861   -2.188244016480991   0.29658756540083064
0.55505221395861   -2.188244016480991   0.29658756540083064
0.55505221395861   -2.188244016480991   0.29658756540083064
0.9630442982866734   -0.8194591371539373   0.15822802615417864
0.9630442982866734   -0.8194591371539373   0.15822802615417864
0.9630442982866734   -0.8194591371539373   0.15822802615417864
0.9630442982866734   -0.8194591371539373   0.15822802615417864
6.303615165200901   -1.03137706657458   0.18020301011087503
6.303615165200901   -1.03137706657458   0.18020301011087503
6.303615165200901   -1.03137706657458   0.18020301011087503
6.303615165200901   -1.03137706657458   0.18020301011087503
3.441175958167403   -0.966107048874954   -0.18952924258934278
3.441175958167403   -0.966107048874954   -0.18952924258934278
3.441175958167403   -0.966107048874954   -0.18952924258934278
3.441175958167403   -0.966107048874954   -0.18952924258934278
6.609996043256571   0.34535972781011304   0.33537060600453206
6.609996043256571   0.34535972781011304   0.33537060600453206
6.609996043256571   0.34535972781011304   0.33537060600453206
6.609996043256571   0.34535972781011304   0.33537060600453206
0.7367097279335892   -2.1161496238360415   0.32324566107087915
0.7367097279335892   -2.1161496238360415   0.32324566107087915
0.7367097279335892   -2.1161496238360415   0.32324566107087915
0.7367097279335892   -2.1161496238360415   0.32324566107087915
1.2328775484609675   -0.6247265775306994   0.10543071455935177
1.2328775484609675   -0.6247265775306994   0.10543071455935177
1.2328775484609675   -0.6247265775306994   0.10543071455935177
1.2328775484609675   -0.6247265775306994   0.10543071455935177
6.4685501414661495   -0.9285476268340214   0.22145044331026975
6.4685501414661495   -0.9285476268340214   0.22145044331026975
6.4685501414661495   -0.9285476268340214   0.22145044331026975
6.4685501414661495   -0.9285476268340214   0.22145044331026975
3.7029547631798767   -0.8460223001349498   0.030926822025814038
3.7029547631798767   -0.8460223001349498   0.030926822025814038
3.7029547631798767   -0.8460223001349498   0.030926822025814038
3.7029547631798767   -0.8460223001349498   0.030926822025814038
0.7279877150115782   -0.4381135514940939   0.3078009964908833
0.7279877150115782   -0.4381135514940939   0.3078009964908833
0.7279877150115782   -0.4381135514940939   0.3078009964908833
0.7279877150115782   -0.4381135514940939   0.3078009964908833
-5.334667668431837   -3.877310153023452   0.33767742222762065
-5.334667668431837   -3.877310153023452   0.33767742222762065
-5.334667668431837   -3.877310153023452   0.33767742222762065
-5.334667668431837   -3.877310153023452   0.33767742222762065
-4.643140925416086   -1.5024172181494555   0.024752568669404784
-4.643140925416086   -1.5024172181494555   0.024752568669404784
-4.643140925416086   -1.5024172181494555   0.024752568669404784
-4.643140925416086   -1.5024172181494555   0.024752568669404784
0.39053449528776085   -2.8397606135619813   0.12551556912757478
0.39053449528776085   -2.8397606135619813   0.12551556912757478
0.39053449528776085   -2.8397606135619813   0.12551556912757478
0.39053449528776085   -2.8397606135619813   0.12551556912757478
-2.28580804438579   -2.1800917065566923   -0.45510579687322483
-2.28580804438579   -2.1800917065566923   -0.45510579687322483
-2.28580804438579   -2.1800917065566923   -0.45510579687322483
-2.28580804438579   -2.1800917065566923   -0.45510579687322483
0.9123070732850225   -0.34779546919394544   0.24241331474584682
0.9123070732850225   -0.34779546919394544   0.24241331474584682
0.9123070732850225   -0.34779546919394544   0.24241331474584682
0.9123070732850225   -0.34779546919394544   0.24241331474584682
-5.045002144784327   -3.874471003888466   0.3875002575672396
-5.045002144784327   -3.874471003888466   0.3875002575672396
-5.045002144784327   -3.874471003888466   0.3875002575672396
-5.045002144784327   -3.874471003888466   0.3875002575672396
-4.37648583191585   -1.3487812521304618   0.002935912142235042
-4.37648583191585   -1.3487812521304618   0.002935912142235042
-4.37648583191585   -1.3487812521304618   0.002935912142235042
-4.37648583191585   -1.3487812521304618   0.002935912142235042
0.5759669240594388   -2.779197744044258   0.18257976190834302
0.5759669240594388   -2.779197744044258   0.18257976190834302
0.5759669240594388   -2.779197744044258   0.18257976190834302
0.5759669240594388   -2.779197744044258   0.18257976190834302
-2.0161064085674556   -2.107499517811121   -0.17080658642819624
-2.0161064085674556   -2.107499517811121   -0.17080658642819624
-2.0161064085674556   -2.107499517811121   -0.17080658642819624
-2.0161064085674556   -2.107499517811121   -0.17080658642819624
1.08080314837336   -0.2269983421785663   0.15456148161225686
1.08080314837336   -0.2269983421785663   0.15456148161225686
1.08080314837336   -0.2269983421785663   0.15456148161225686
1.08080314837336   -0.2269983421785663   0.15456148161225686
-4.772698397630119   -3.7923569953964504   0.46544882683693867
-4.772698397630119   -3.7923569953964504   0.46544882683693867
-4.772698397630119   -3.7923569953964504   0.46544882683693867
-4.772698397630119   -3.7923569953964504   0.46544882683693867
-3.936561799255623   -1.1716374462607257   -0.046776491048644564
-3.936561799255623   -1.1716374462607257   -0.046776491048644564
-3.936561799255623   -1.1716374462607257   -0.046776491048644564
-3.936561799255623   -1.1716374462607257   -0.046776491048644564
0.8655417771433118   -2.6068472626997155   0.2508725431400889
0.8655417771433118   -2.6068472626997155   0.2508725431400889
0.8655417771433118   -2.6068472626997155   0.2508725431400889
0.8655417771433118   -2.6068472626997155   0.2508725431400889
-1.665676371631245   -1.9421976469607847   0.12786238060848182
-1.665676371631245   -1.9421976469607847   0.12786238060848182
-1.665676371631245   -1.9421976469607847   0.12786238060848182
-1.665676371631245   -1.9421976469607847   0.12786238060848182
-4.75391753573198   -0.7824689646105942   0.14658689731399815
-4.75391753573198   -0.7824689646105942   0.14658689731399815
-4.75391753573198   -0.7824689646105942   0.14658689731399815
-4.75391753573198   -0.7824689646105942   0.14658689731399815
-11.90551387147568   -6.046611812853613   -0.2927756199105094
-11.90551387147568   -6.046611812853613   -0.2927756199105094
-11.90551387147568   -6.046611812853613   -0.2927756199105094
-11.90551387147568   -6.046611812853613   -0.2927756199105094
-10.762814927419374   -1.955056467710941   -0.3302810499734259
-10.762814927419374   -1.955056467710941   -0.3302810499734259
-10.762814927419374   -1.955056467710941   -0.3302810499734259
-10.762814927419374   -1.955056467710941   -0.3302810499734259
-5.341743855033519   -5.068669594232657   0.09799029666544001
-5.341743855033519   -5.068669594232657   0.09799029666544001
-5.341743855033519   -5.068669594232657   0.09799029666544001
-5.341743855033519   -5.068669594232657   0.09799029666544001
-8.181443949302587   -3.5757792649334545   -0.4772325115814744
-8.181443949302587   -3.5757792649334545   -0.4772325115814744
-8.181443949302587   -3.5757792649334545   -0.4772325115814744
-8.181443949302587   -3.5757792649334545   -0.4772325115814744
-4.438577757044773   -0.595935487638361   0.14108668001487354
-4.438577757044773   -0.595935487638361   0.14108668001487354
-4.438577757044773   -0.595935487638361   0.14108668001487354
-4.438577757044773   -0.595935487638361   0.14108668001487354
-11.640560635881807   -6.402370184778923   -0.2716958752176053
-11.640560635881807   -6.402370184778923   -0.2716958752176053
-11.640560635881807   -6.402370184778923   -0.2716958752176053
-11.640560635881807   -6.402370184778923   -0.2716958752176053
-10.40878093454724   -1.770587199143334   -0.33612689180500194
-10.40878093454724   -1.770587199143334   -0.33612689180500194
-10.40878093454724   -1.770587199143334   -0.33612689180500194
-10.40878093454724   -1.770587199143334   -0.33612689180500194
-5.083873719448236   -5.031170767551875   0.148385989901767
-5.083873719448236   -5.031170767551875   0.148385989901767
-5.083873719448236   -5.031170767551875   0.148385989901767
-5.083873719448236   -5.031170767551875   0.148385989901767
-7.811393715265535   -3.4818666079376945   -0.33868323222754804
-7.811393715265535   -3.4818666079376945   -0.33868323222754804
-7.811393715265535   -3.4818666079376945   -0.33868323222754804
-7.811393715265535   -3.4818666079376945   -0.33868323222754804
-4.187780369858636   -0.44968776148753453   0.047369731785391
-4.187780369858636   -0.44968776148753453   0.047369731785391
-4.187780369858636   -0.44968776148753453   0.047369731785391
-4.187780369858636   -0.44968776148753453   0.047369731785391
-11.305753567319226   -6.352949488390053   -0.23862776641813377
-11.305753567319226   -6.352949488390053   -0.23862776641813377
-11.305753567319226   -6.352949488390053   -0.23862776641813377
-11.305753567319226   -6.352949488390053   -0.23862776641813377
-9.857365436727093   -1.5717783403359422   -0.3809020903863094
-9.857365436727093   -1.5717783403359422   -0.3809020903863094
-9.857365436727093   -1.5717783403359422   -0.3809020903863094
-9.857365436727093   -1.5717783403359422   -0.3809020903863094
-4.526113535988199   -4.53284151601401   0.366668895041808
-4.526113535988199   -4.53284151601401   0.366668895041808
-4.526113535988199   -4.53284151601401   0.366668895041808
-4.526113535988199   -4.53284151601401   0.366668895041808
-7.397332340954007   -3.161102148102184   -0.19330077512641713
-7.397332340954007   -3.161102148102184   -0.19330077512641713
-7.397332340954007   -3.161102148102184   -0.19330077512641713
-7.397332340954007   -3.161102148102184   -0.19330077512641713
-10.78575808881109   -0.6639584422763252   -0.07665007716484579
-10.78575808881109   -0.6639584422763252   -0.07665007716484579
-10.78575808881109   -0.6639584422763252   -0.07665007716484579
-10.78575808881109   -0.6639584422763252   -0.07665007716484579
-19.07220750550016   -3.7756393239163692   0.19401088591831162
-19.07220750550016   -3.7756393239163692   0.19401088591831162
-19.07220750550016   -3.7756393239163692   0.19401088591831162
-19.07220750550016   -3.7756393239163692   0.19401088591831162
-18.315788911986434   -1.8281424542508682   -0.4060933150316479
-18.315788911986434   -1.8281424542508682   -0.4060933150316479
-18.315788911986434   -1.8281424542508682   -0.4060933150316479
-18.315788911986434   -1.8281424542508682   -0.4060933150316479
-10.534816716270718   -1.9466938630353163   0.8013474010941364
-10.534816716270718   -1.9466938630353163   0.8013474010941364
-10.534816716270718   -1.9466938630353163   0.8013474010941364
-10.534816716270718   -1.9466938630353163   0.8013474010941364
-14.08171843829001   -2.193111443541505   0.2065951400466544
-14.08171843829001   -2.193111443541505   0.2065951400466544
-14.08171843829001   -2.193111443541505   0.2065951400466544
-14.08171843829001   -2.193111443541505   0.2065951400466544
-10.335280269290044   -0.1502957567607166   0.0026315297229637657
-10.335280269290044   -0.1502957567607166   0.0026315297229637657
-10.335280269290044   -0.1502957567607166   0.0026315297229637657
-10.335280269290044   -0.1502957567607166   0.0026315297229637657
-18.588445638651116   -3.6976608402095357   0.10014143760343863
-18.588445638651116   -3.6976608402095357   0.10014143760343863
-18.588445638651116   -3.6976608402095357   0.10014143760343863
-18.588445638651116   -3.6976608402095357   0.10014143760343863
-17.895844268829116   -1.6746549530382118   -0.5152599971695148
-17.895844268829116   -1.6746549530382118   -0.5152599971695148
-17.895844268829116   -1.6746549530382118   -0.5152599971695148
-17.895844268829116   -1.6746549530382118   -0.5152599971695148
-10.170239493476615   -1.847374396511957   0.9333675109168293
-10.170239493476615   -1.847374396511957   0.9333675109168293
-10.170239493476615   -1.847374396511957   0.9333675109168293
-10.170239493476615   -1.847374396511957   0.9333675109168293
-13.857298872823405   -1.8049320536751163   0.1974984276820172
-13.857298872823405   -1.8049320536751163   0.1974984276820172
-13.857298872823405   -1.8049320536751163   0.1974984276820172
-13.857298872823405   -1.8049320536751163   0.1974984276820172
-10.01034997228958   -0.01451329185695327   -0.10004598780300311
-10.01034997228958   -0.01451329185695327   -0.10004598780300311
-10.01034997228958   -0.01451329185695327   -0.10004598780300311
-10.01034997228958   -0.01451329185695327   -0.10004598780300311
-18.08353922736774   -3.5353214950447924   0.4069317521437785
-18.08353922736774   -3.5353214950447924   0.4069317521437785
-18.08353922736774   -3.5353214950447924   0.4069317521437785
-18.08353922736774   -3.5353214950447924   0.4069317521437785
-17.02412922841313   -1.3533617526423947   -0.5746033663951835
-17.02412922841313   -1.3533617526423947   -0.5746033663951835
-17.02412922841313   -1.3533617526423947   -0.5746033663951835
-17.02412922841313   -1.3533617526423947   -0.5746033663951835
-9.603945710446364   -1.7149212516274814   1.0293394523089563
-9.603945710446364   -1.7149212516274814   1.0293394523089563
-9.603945710446364   -1.7149212516274814   1.0293394523089563
-9.603945710446364   -1.7149212516274814   1.0293394523089563
-13.019422568833463   -1.3789333311434864   0.40022364575338143
-13.019422568833463   -1.3789333311434864   0.40022364575338143
-13.019422568833463   -1.3789333311434864   0.40022364575338143
-13.019422568833463   -1.3789333311434864   0.40022364575338143
13.736510611931848   0.4420391856141044   0.19505632786448213
13.736510611931848   0.4420391856141044   0.19505632786448213
13.736510611931848   0.4420391856141044   0.19505632786448213
13.736510611931848   0.4420391856141044   0.19505632786448213
7.026131810978211   -0.3649972965911996   0.14685162499291432
7.026131810978211   -0.3649972965911996   0.14685162499291432
7.026131810978211   -0.3649972965911996   0.14685162499291432
7.026131810978211   -0.3649972965911996   0.14685162499291432
6.747732221405918   -0.996418922432295   0.2846430470455684
6.747732221405918   -0.996418922432295   0.2846430470455684
6.747732221405918   -0.996418922432295   0.2846430470455684
6.747732221405918   -0.996418922432295   0.2846430470455684
13.636297421489598   0.7688879007323086   0.10748732130496541
13.636297421489598   0.7688879007323086   0.10748732130496541
13.636297421489598   0.7688879007323086   0.10748732130496541
13.636297421489598   0.7688879007323086   0.10748732130496541
9.738349843089168   -0.14041740324415386   -0.3588799607602162
9.738349843089168   -0.14041740324415386   -0.3588799607602162
9.738349843089168   -0.14041740324415386   -0.3588799607602162
9.738349843089168   -0.14041740324415386   -0.3588799607602162
13.558739443393398   0.3388091490561185   0.14977618250015567
13.558739443393398   0.3388091490561185   0.14977618250015567
13.558739443393398   0.3388091490561185   0.14977618250015567
13.558739443393398   0.3388091490561185   0.14977618250015567
6.80229132202215   -0.5893390482360736   0.15035867593050267
6.80229132202215   -0.5893390482360736   0.15035867593050267
6.80229132202215   -0.5893390482360736   0.15035867593050267
6.80229132202215   -0.5893390482360736   0.15035867593050267
6.570843784876071   -1.0202547537984221   0.23587319660113748
6.570843784876071   -1.0202547537984221   0.23587319660113748
6.570843784876071   -1.0202547537984221   0.23587319660113748
6.570843784876071   -1.0202547537984221   0.23587319660113748
13.474126546893082   0.7346260073991617   0.18386414937070827
13.474126546893082   0.7346260073991617   0.18386414937070827
13.474126546893082   0.7346260073991617   0.18386414937070827
13.474126546893082   0.7346260073991617   0.18386414937070827
9.706351950046816   -0.19385837113634752   -0.41736571241106935
9.706351950046816   -0.19385837113634752   -0.41736571241106935
9.706351950046816   -0.19385837113634752   -0.41736571241106935
9.706351950046816   -0.19385837113634752   -0.41736571241106935
13.359305691919888   0.2992834705589802   0.04510241134482451
13.359305691919888   0.2992834705589802   0.04510241134482451
13.359305691919888   0.2992834705589802   0.04510241134482451
13.359305691919888   0.2992834705589802   0.04510241134482451
6.644633646078823   -0.6259432107287801   0.21051095954525745
6.644633646078823   -0.6259432107287801   0.21051095954525745
6.644633646078823   -0.6259432107287801   0.21051095954525745
6.644633646078823   -0.6259432107287801   0.21051095954525745
6.383845776853777   -0.9329889041472981   0.20362131492514002
6.383845776853777   -0.9329889041472981   0.20362131492514002
6.383845776853777   -0.9329889041472981   0.20362131492514002
6.383845776853777   -0.9329889041472981   0.20362131492514002
13.223786040243299   0.7402425017321583   0.26269778172414704
13.223786040243299   0.7402425017321583   0.26269778172414704
13.223786040243299   0.7402425017321583   0.26269778172414704
13.223786040243299   0.7402425017321583   0.26269778172414704
9.338820850309183   -0.19639504832861698   -0.5652350565838323
9.338820850309183   -0.19639504832861698   -0.5652350565838323
9.338820850309183   -0.19639504832861698   -0.5652350565838323
9.338820850309183   -0.19639504832861698   -0.5652350565838323
6.956557367969049   -0.9097581229072913   0.3437402362631954
6.956557367969049   -0.9097581229072913   0.3437402362631954
6.956557367969049   -0.9097581229072913   0.3437402362631954
6.956557367969049   -0.9097581229072913   0.3437402362631954
1.3806900049029154   -0.8289967223376475   0.07725651961208918
1.3806900049029154   -0.8289967223376475   0.07725651961208918
1.3806900049029154   -0.8289967223376475   0.07725651961208918
1.3806900049029154   -0.8289967223376475   0.07725651961208918
0.9009300692809943   -2.1034131220509975   0.3748641822284151
0.9009300692809943   -2.1034131220509975   0.3748641822284151
0.9009300692809943   -2.1034131220509975   0.3748641822284151
0.9009300692809943   -2.1034131220509975   0.3748641822284151
6.996080000889236   0.2634352497804222   0.26652777224944374
6.996080000889236   0.2634352497804222   0.26652777224944374
6.996080000889236   0.2634352497804222   0.26652777224944374
6.996080000889236   0.2634352497804222   0.26652777224944374
3.9963241367617894   -0.8982039203280057   -0.014746868119257905
3.9963241367617894   -0.8982039203280057   -0.014746868119257905
3.9963241367617894   -0.8982039203280057   -0.014746868119257905
3.9963241367617894   -0.8982039203280057   -0.014746868119257905
6.757648056657169   -0.9495680840396212   0.2873713849091205
6.757648056657169   -0.9495680840396212   0.2873713849091205
6.757648056657169   -0.9495680840396212   0.2873713849091205
6.757648056657169   -0.9495680840396212   0.2873713849091205
1.079213398813258   -0.9505584029307624   0.11342611076949882
1.079213398813258   -0.9505584029307624   0.11342611076949882
1.079213398813258   -0.9505584029307624   0.11342611076949882
1.079213398813258   -0.9505584029307624   0.11342611076949882
0.6865335798371923   -2.123674434682237   0.3357977549362978
0.6865335798371923   -2.123674434682237   0.3357977549362978
0.6865335798371923   -2.123674434682237   0.3357977549362978
0.6865335798371923   -2.123674434682237   0.3357977549362978
6.832894357939478   0.20960351279880474   0.316267795320944
6.832894357939478   0.20960351279880474   0.316267795320944
6.832894357939478   0.20960351279880474   0.316267795320944
6.832894357939478   0.20960351279880474   0.316267795320944
3.7056049017699113   -0.9578176791195282   -0.1930809733355966
3.7056049017699113   -0.9578176791195282   -0.1930809733355966
3.7056049017699113   -0.9578176791195282   -0.1930809733355966
3.7056049017699113   -0.9578176791195282   -0.1930809733355966
6.582274895558076   -0.9642757694023212   0.23704976561499513
6.582274895558076   -0.9642757694023212   0.23704976561499513
6.582274895558076   -0.9642757694023212   0.23704976561499513
6.582274895558076   -0.9642757694023212   0.23704976561499513
0.8718448536839296   -1.0151033410157868   0.15378303050353387
0.8718448536839296   -1.0151033410157868   0.15378303050353387
0.8718448536839296   -1.0151033410157868   0.15378303050353387
0.8718448536839296   -1.0151033410157868   0.15378303050353387
0.44649477377989044   -2.1245440312831847   0.2635237887507108
0.44649477377989044   -2.1245440312831847   0.2635237887507108
0.44649477377989044   -2.1245440312831847   0.2635237887507108
0.44649477377989044   -2.1245440312831847   0.2635237887507108
6.647700014553143   0.21132560324070093   0.37857799603401765
6.647700014553143   0.21132560324070093   0.37857799603401765
6.647700014553143   0.21132560324070093   0.37857799603401765
6.647700014553143   0.21132560324070093   0.37857799603401765
3.5271109965875618   -0.9520336691842548   -0.34517769174743723
3.5271109965875618   -0.9520336691842548   -0.34517769174743723
3.5271109965875618   -0.9520336691842548   -0.34517769174743723
3.5271109965875618   -0.9520336691842548   -0.34517769174743723
1.072666908553314   -2.601458215805552   0.30960253133197124
1.072666908553314   -2.601458215805552   0.30960253133197124
1.072666908553314   -2.601458215805552   0.30960253133197124
1.072666908553314   -2.601458215805552   0.30960253133197124
-4.044395956090344   -1.2906726833835451   0.007711005200446097
-4.044395956090344   -1.2906726833835451   0.007711005200446097
-4.044395956090344   -1.2906726833835451   0.007711005200446097
-4.044395956090344   -1.2906726833835451   0.007711005200446097
-4.912389161140995   -3.839509820640783   0.42969319016232277
-4.912389161140995   -3.839509820640783   0.42969319016232277
-4.912389161140995   -3.839509820640783   0.42969319016232277
-4.912389161140995   -3.839509820640783   0.42969319016232277
1.2340877484935713   -0.2304132971312181   0.16765275337150629
1.2340877484935713   -0.2304132971312181   0.16765275337150629
1.2340877484935713   -0.2304132971312181   0.16765275337150629
1.2340877484935713   -0.2304132971312181   0.16765275337150629
-1.6396790690297702   -1.9625903152411788   0.0731131173394795
-1.6396790690297702   -1.9625903152411788   0.0731131173394795
-1.6396790690297702   -1.9625903152411788   0.0731131173394795
-1.6396790690297702   -1.9625903152411788   0.0731131173394795
0.7407818690117504   -2.750560200730382   0.22127025956158042
0.7407818690117504   -2.750560200730382   0.22127025956158042
0.7407818690117504   -2.750560200730382   0.22127025956158042
0.7407818690117504   -2.750560200730382   0.22127025956158042
-4.502971576255695   -1.4032512116381466   0.04052250558613188
-4.502971576255695   -1.4032512116381466   0.04052250558613188
-4.502971576255695   -1.4032512116381466   0.04052250558613188
-4.502971576255695   -1.4032512116381466   0.04052250558613188
-5.2115329184450925   -3.903537504379455   0.34838080273688876
-5.2115329184450925   -3.903537504379455   0.34838080273688876
-5.2115329184450925   -3.903537504379455   0.34838080273688876
-5.2115329184450925   -3.903537504379455   0.34838080273688876
1.0333228560765901   -0.2902416511310565   0.23631135258210645
1.0333228560765901   -0.2902416511310565   0.23631135258210645
1.0333228560765901   -0.2902416511310565   0.23631135258210645
1.0333228560765901   -0.2902416511310565   0.23631135258210645
-2.013216583292181   -2.0832675921086756   -0.1767287711602537
-2.013216583292181   -2.0832675921086756   -0.1767287711602537
-2.013216583292181   -2.0832675921086756   -0.1767287711602537
-2.013216583292181   -2.0832675921086756   -0.1767287711602537
0.5124061728219919   -2.8001071580314214   0.14159344320948064
0.5124061728219919   -2.8001071580314214   0.14159344320948064
0.5124061728219919   -2.8001071580314214   0.14159344320948064
0.5124061728219919   -2.8001071580314214   0.14159344320948064
-4.789972133713214   -1.4930278960017354   0.04567511801851626
-4.789972133713214   -1.4930278960017354   0.04567511801851626
-4.789972133713214   -1.4930278960017354   0.04567511801851626
-4.789972133713214   -1.4930278960017354   0.04567511801851626
-5.535122334817867   -3.8779869854419093   0.29583804139029724
-5.535122334817867   -3.8779869854419093   0.29583804139029724
-5.535122334817867   -3.8779869854419093   0.29583804139029724
-5.535122334817867   -3.8779869854419093   0.29583804139029724
0.8098029225785103   -0.3240623425208187   0.2795828439814436
0.8098029225785103   -0.3240623425208187   0.2795828439814436
0.8098029225785103   -0.3240623425208187   0.2795828439814436
0.8098029225785103   -0.3240623425208187   0.2795828439814436
-2.3158256359574536   -2.129695782479475   -0.4253768371084246
-2.3158256359574536   -2.129695782479475   -0.4253768371084246
-2.3158256359574536   -2.129695782479475   -0.4253768371084246
-2.3158256359574536   -2.129695782479475   -0.4253768371084246
-4.605026502742395   -4.454318414511265   0.368204003067943
-4.605026502742395   -4.454318414511265   0.368204003067943
-4.605026502742395   -4.454318414511265   0.368204003067943
-4.605026502742395   -4.454318414511265   0.368204003067943
-10.227603787951658   -1.608230346836235   -0.23911689419044596
-10.227603787951658   -1.608230346836235   -0.23911689419044596
-10.227603787951658   -1.608230346836235   -0.23911689419044596
-10.227603787951658   -1.608230346836235   -0.23911689419044596
-11.743213419015259   -6.436208541387118   -0.33823487512512607
-11.743213419015259   -6.436208541387118   -0.33823487512512607
-11.743213419015259   -6.436208541387118   -0.33823487512512607
-11.743213419015259   -6.436208541387118   -0.33823487512512607
-4.276104700086168   -0.3732484319019702   0.1448541066975965
-4.276104700086168   -0.3732484319019702   0.1448541066975965
-4.276104700086168   -0.3732484319019702   0.1448541066975965
-4.276104700086168   -0.3732484319019702   0.1448541066975965
-7.639888943920835   -3.095569358184722   -0.2724574521123758
-7.639888943920835   -3.095569358184722   -0.2724574521123758
-7.639888943920835   -3.095569358184722   -0.2724574521123758
-7.639888943920835   -3.095569358184722   -0.2724574521123758
-5.213952037621793   -5.0385295772165755   0.12089856433412138
-5.213952037621793   -5.0385295772165755   0.12089856433412138
-5.213952037621793   -5.0385295772165755   0.12089856433412138
-5.213952037621793   -5.0385295772165755   0.12089856433412138
-10.78030135326938   -1.7458626678623317   -0.21402041992050963
-10.78030135326938   -1.7458626678623317   -0.21402041992050963
-10.78030135326938   -1.7458626678623317   -0.21402041992050963
-10.78030135326938   -1.7458626678623317   -0.21402041992050963
-12.098462334638407   -6.542006379346761   -0.3912034538824931
-12.098462334638407   -6.542006379346761   -0.3912034538824931
-12.098462334638407   -6.542006379346761   -0.3912034538824931
-12.098462334638407   -6.542006379346761   -0.3912034538824931
-4.551179633695905   -0.4707678452686626   0.21737756737198677
-4.551179633695905   -0.4707678452686626   0.21737756737198677
-4.551179633695905   -0.4707678452686626   0.21737756737198677
-4.551179633695905   -0.4707678452686626   0.21737756737198677
-8.07337659429044   -3.4271538311884155   -0.38035536600851455
-8.07337659429044   -3.4271538311884155   -0.38035536600851455
-8.07337659429044   -3.4271538311884155   -0.38035536600851455
-8.07337659429044   -3.4271538311884155   -0.38035536600851455
-5.518783230185168   -5.138426266456846   0.04701800611384388
-5.518783230185168   -5.138426266456846   0.04701800611384388
-5.518783230185168   -5.138426266456846   0.04701800611384388
-5.518783230185168   -5.138426266456846   0.04701800611384388
-11.130645986180928   -1.8741352061903798   -0.21999288475157475
-11.130645986180928   -1.8741352061903798   -0.21999288475157475
-11.130645986180928   -1.8741352061903798   -0.21999288475157475
-11.130645986180928   -1.8741352061903798   -0.21999288475157475
-12.402156969799714   -6.269633012116582   -0.44124515165953704
-12.402156969799714   -6.269633012116582   -0.44124515165953704
-12.402156969799714   -6.269633012116582   -0.44124515165953704
-12.402156969799714   -6.269633012116582   -0.44124515165953704
-4.900212692690545   -0.6081944323654072   0.2005936989503158
-4.900212692690545   -0.6081944323654072   0.2005936989503158
-4.900212692690545   -0.6081944323654072   0.2005936989503158
-4.900212692690545   -0.6081944323654072   0.2005936989503158
-8.47124523119699   -3.5411979444248978   -0.482354962494372
-8.47124523119699   -3.5411979444248978   -0.482354962494372
-8.47124523119699   -3.5411979444248978   -0.482354962494372
-8.47124523119699   -3.5411979444248978   -0.482354962494372
-10.03746884500828   -1.8223568952197073   0.9256843689097427
-10.03746884500828   -1.8223568952197073   0.9256843689097427
-10.03746884500828   -1.8223568952197073   0.9256843689097427
-10.03746884500828   -1.8223568952197073   0.9256843689097427
-17.733778707562408   -1.3338203947769491   -0.3213388876320551
-17.733778707562408   -1.3338203947769491   -0.3213388876320551
-17.733778707562408   -1.3338203947769491   -0.3213388876320551
-17.733778707562408   -1.3338203947769491   -0.3213388876320551
-18.829171472719143   -3.714880315721115   0.2547698941135659
-18.829171472719143   -3.714880315721115   0.2547698941135659
-18.829171472719143   -3.714880315721115   0.2547698941135659
-18.829171472719143   -3.714880315721115   0.2547698941135659
-10.34200359658636   0.14329706848526946   0.08830862714690813
-10.34200359658636   0.14329706848526946   0.08830862714690813
-10.34200359658636   0.14329706848526946   0.08830862714690813
-10.34200359658636   0.14329706848526946   0.08830862714690813
-13.557545451593684   -1.305409685374205   0.273894531263266
-13.557545451593684   -1.305409685374205   0.273894531263266
-13.557545451593684   -1.305409685374205   0.273894531263266
-13.557545451593684   -1.305409685374205   0.273894531263266
-10.615669070537948   -1.9587317907772914   0.8220101166514899
-10.615669070537948   -1.9587317907772914   0.8220101166514899
-10.615669070537948   -1.9587317907772914   0.8220101166514899
-10.615669070537948   -1.9587317907772914   0.8220101166514899
-18.506441301521843   -1.5637867592128214   -0.28267280640806514
-18.506441301521843   -1.5637867592128214   -0.28267280640806514
-18.506441301521843   -1.5637867592128214   -0.28267280640806514
-18.506441301521843   -1.5637867592128214   -0.28267280640806514
-19.297858258495296   -3.8750139951705806   -0.07721171735760635
-19.297858258495296   -3.8750139951705806   -0.07721171735760635
-19.297858258495296   -3.8750139951705806   -0.07721171735760635
-19.297858258495296   -3.8750139951705806   -0.07721171735760635
-10.672144666042149   0.03466254887879172   0.1637159608731551
-10.672144666042149   0.03466254887879172   0.1637159608731551
-10.672144666042149   0.03466254887879172   0.1637159608731551
-10.672144666042149   0.03466254887879172   0.1637159608731551
-14.37773890499134   -1.7254108970802073   0.11417205328485763
-14.37773890499134   -1.7254108970802073   0.11417205328485763
-14.37773890499134   -1.7254108970802073   0.11417205328485763
-14.37773890499134   -1.7254108970802073   0.11417205328485763
-10.98726906312401   -2.0607520897968943   0.6835086141395381
-10.98726906312401   -2.0607520897968943   0.6835086141395381
-10.98726906312401   -2.0607520897968943   0.6835086141395381
-10.98726906312401   -2.0607520897968943   0.6835086141395381
-18.88542582026859   -1.682291315349914   -0.2077722060444226
-18.88542582026859   -1.682291315349914   -0.2077722060444226
-18.88542582026859   -1.682291315349914   -0.2077722060444226
-18.88542582026859   -1.682291315349914   -0.2077722060444226
-19.709513235605193   -3.9418149971041556   0.00043825008441533697
-19.709513235605193   -3.9418149971041556   0.00043825008441533697
-19.709513235605193   -3.9418149971041556   0.00043825008441533697
-19.709513235605193   -3.9418149971041556   0.00043825008441533697
-11.134955491411496   -0.44070252272951715   0.0658317508944875
-11.134955491411496   -0.44070252272951715   0.0658317508944875
-11.134955491411496   -0.44070252272951715   0.0658317508944875
-11.134955491411496   -0.44070252272951715   0.0658317508944875
-14.559149464442912   -2.0871264135414402   0.18070131216309168
-14.559149464442912   -2.0871264135414402   0.18070131216309168
-14.559149464442912   -2.0871264135414402   0.18070131216309168
-14.559149464442912   -2.0871264135414402   0.18070131216309168
11.996376631674654   0.5466942283214664   -0.2649355711401978
11.996376631674654   0.5466942283214664   -0.2649355711401978
11.996376631674654   0.5466942283214664   -0.2649355711401978
11.996376631674654   0.5466942283214664   -0.2649355711401978
6.048337827528101   -0.11552836002035649   0.13217182148397322
6.048337827528101   -0.11552836002035649   0.13217182148397322
6.048337827528101   -0.11552836002035649   0.13217182148397322
6.048337827528101   -0.11552836002035649   0.13217182148397322
5.658251327572462   -0.894753942485532   -0.23267580086710193
5.658251327572462   -0.894753942485532   -0.23267580086710193
5.658251327572462   -0.894753942485532   -0.23267580086710193
5.658251327572462   -0.894753942485532   -0.23267580086710193
11.856001737440215   0.8687053530975737   0.1546405516688022
11.856001737440215   0.8687053530975737   0.1546405516688022
11.856001737440215   0.8687053530975737   0.1546405516688022
11.856001737440215   0.8687053530975737   0.1546405516688022
8.423696278982813   0.020540030363846995   -0.32555235015346257
8.423696278982813   0.020540030363846995   -0.32555235015346257
8.423696278982813   0.020540030363846995   -0.32555235015346257
8.423696278982813   0.020540030363846995   -0.32555235015346257
11.657659671287037   0.298325001025769   -0.26668942702517273
11.657659671287037   0.298325001025769   -0.26668942702517273
11.657659671287037   0.298325001025769   -0.26668942702517273
11.657659671287037   0.298325001025769   -0.26668942702517273
5.845426623890748   -0.335540360248606   0.14398709848737
5.845426623890748   -0.335540360248606   0.14398709848737
5.845426623890748   -0.335540360248606   0.14398709848737
5.845426623890748   -0.335540360248606   0.14398709848737
5.448437403786558   -0.9456182403230884   -0.1916679461340185
5.448437403786558   -0.9456182403230884   -0.1916679461340185
5.448437403786558   -0.9456182403230884   -0.1916679461340185
5.448437403786558   -0.9456182403230884   -0.1916679461340185
11.564090131080176   0.7969857708234915   0.22488534255335302
11.564090131080176   0.7969857708234915   0.22488534255335302
11.564090131080176   0.7969857708234915   0.22488534255335302
11.564090131080176   0.7969857708234915   0.22488534255335302
8.306678195674621   -0.0860057588950387   -0.39036531036964967
8.306678195674621   -0.0860057588950387   -0.39036531036964967
8.306678195674621   -0.0860057588950387   -0.39036531036964967
8.306678195674621   -0.0860057588950387   -0.39036531036964967
11.364384326415193   0.23381095953318853   -0.2104688694812682
11.364384326415193   0.23381095953318853   -0.2104688694812682
11.364384326415193   0.23381095953318853   -0.2104688694812682
11.364384326415193   0.23381095953318853   -0.2104688694812682
5.6328288662332895   -0.39775777125103984   0.18242889702758625
5.6328288662332895   -0.39775777125103984   0.18242889702758625
5.6328288662332895   -0.39775777125103984   0.18242889702758625
5.6328288662332895   -0.39775777125103984   0.18242889702758625
5.2448807941144375   -0.9343003099778302   -0.1311110306974267
5.2448807941144375   -0.9343003099778302   -0.1311110306974267
5.2448807941144375   -0.9343003099778302   -0.1311110306974267
5.2448807941144375   -0.9343003099778302   -0.1311110306974267
11.202325647513618   0.7462084878621602   0.29149921444166205
11.202325647513618   0.7462084878621602   0.29149921444166205
11.202325647513618   0.7462084878621602   0.29149921444166205
11.202325647513618   0.7462084878621602   0.29149921444166205
7.891647583175874   -0.15055214205220735   -0.5138465254936934
7.891647583175874   -0.15055214205220735   -0.5138465254936934
7.891647583175874   -0.15055214205220735   -0.5138465254936934
7.891647583175874   -0.15055214205220735   -0.5138465254936934
6.076132009949002   0.10480270788563928   0.050811665682437
6.076132009949002   0.10480270788563928   0.050811665682437
6.076132009949002   0.10480270788563928   0.050811665682437
6.076132009949002   0.10480270788563928   0.050811665682437
0.6033834969013228   -0.360545510390617   -0.011734133837463287
0.6033834969013228   -0.360545510390617   -0.011734133837463287
0.6033834969013228   -0.360545510390617   -0.011734133837463287
0.6033834969013228   -0.360545510390617   -0.011734133837463287
0.23585478875744498   -1.1865599822142916   -0.2232231755923337
0.23585478875744498   -1.1865599822142916   -0.2232231755923337
0.23585478875744498   -1.1865599822142916   -0.2232231755923337
0.23585478875744498   -1.1865599822142916   -0.2232231755923337
6.0843445785821455   0.7004647233307473   0.3025717883650027
6.0843445785821455   0.7004647233307473   0.3025717883650027
6.0843445785821455   0.7004647233307473   0.3025717883650027
6.0843445785821455   0.7004647233307473   0.3025717883650027
3.1902504871618502   -0.16962720157954136   -0.12792961892455282
3.1902504871618502   -0.16962720157954136   -0.12792961892455282
3.1902504871618502   -0.16962720157954136   -0.12792961892455282
3.1902504871618502   -0.16962720157954136   -0.12792961892455282
5.903786394804981   0.00976674389639487   0.09047884891356267
5.903786394804981   0.00976674389639487   0.09047884891356267
5.903786394804981   0.00976674389639487   0.09047884891356267
5.903786394804981   0.00976674389639487   0.09047884891356267
0.4231295174681578   -0.48914545784638563   0.015735943593324697
0.4231295174681578   -0.48914545784638563   0.015735943593324697
0.4231295174681578   -0.48914545784638563   0.015735943593324697
0.4231295174681578   -0.48914545784638563   0.015735943593324697
0.03356292978774389   -1.2444112420683553   -0.15447455086312256
0.03356292978774389   -1.2444112420683553   -0.15447455086312256
0.03356292978774389   -1.2444112420683553   -0.15447455086312256
0.03356292978774389   -1.2444112420683553   -0.15447455086312256
5.862192831559225   0.597535450279534   0.3339555021266935
5.862192831559225   0.597535450279534   0.3339555021266935
5.862192831559225   0.597535450279534   0.3339555021266935
5.862192831559225   0.597535450279534   0.3339555021266935
2.9580966326876297   -0.2640736307361916   -0.18115989477033115
2.9580966326876297   -0.2640736307361916   -0.18115989477033115
2.9580966326876297   -0.2640736307361916   -0.18115989477033115
2.9580966326876297   -0.2640736307361916   -0.18115989477033115
5.691700699703844   -0.05506893273886093   0.13409922586824846
5.691700699703844   -0.05506893273886093   0.13409922586824846
5.691700699703844   -0.05506893273886093   0.13409922586824846
5.691700699703844   -0.05506893273886093   0.13409922586824846
0.20301406781348075   -0.5928478528795935   0.041217750076799925
0.20301406781348075   -0.5928478528795935   0.041217750076799925
0.20301406781348075   -0.5928478528795935   0.041217750076799925
0.20301406781348075   -0.5928478528795935   0.041217750076799925
-0.1838135202953251   -1.2516232272433627   -0.10465262153783222
-0.1838135202953251   -1.2516232272433627   -0.10465262153783222
-0.1838135202953251   -1.2516232272433627   -0.10465262153783222
-0.1838135202953251   -1.2516232272433627   -0.10465262153783222
5.638087770679674   0.5313260916532232   0.36929745049771584
5.638087770679674   0.5313260916532232   0.36929745049771584
5.638087770679674   0.5313260916532232   0.36929745049771584
5.638087770679674   0.5313260916532232   0.36929745049771584
2.7752834598961114   -0.302781377041625   -0.22733786748305643
2.7752834598961114   -0.302781377041625   -0.22733786748305643
2.7752834598961114   -0.302781377041625   -0.22733786748305643
2.7752834598961114   -0.302781377041625   -0.22733786748305643
0.609705520244785   -0.35794041221563544   0.017270884704865513
0.609705520244785   -0.35794041221563544   0.017270884704865513
0.609705520244785   -0.35794041221563544   0.017270884704865513
0.609705520244785   -0.35794041221563544   0.017270884704865513
-4.657611055341286   -0.5395540848500875   -0.1469092198348212
-4.657611055341286   -0.5395540848500875   -0.1469092198348212
-4.657611055341286   -0.5395540848500875   -0.1469092198348212
-4.657611055341286   -0.5395540848500875   -0.1469092198348212
-5.066179798642477   -1.574687085999357   -0.2534486438331397
-5.066179798642477   -1.574687085999357   -0.2534486438331397
-5.066179798642477   -1.574687085999357   -0.2534486438331397
-5.066179798642477   -1.574687085999357   -0.2534486438331397
0.6546180106490407   0.5111759005509582   0.17285705110039531
0.6546180106490407   0.5111759005509582   0.17285705110039531
0.6546180106490407   0.5111759005509582   0.17285705110039531
0.6546180106490407   0.5111759005509582   0.17285705110039531
-2.121384442572608   -0.46670075298423996   -0.12742965332959877
-2.121384442572608   -0.46670075298423996   -0.12742965332959877
-2.121384442572608   -0.46670075298423996   -0.12742965332959877
-2.121384442572608   -0.46670075298423996   -0.12742965332959877
0.45782760982329407   -0.39931640502921156   0.09939735255181617
0.45782760982329407   -0.39931640502921156   0.09939735255181617
0.45782760982329407   -0.39931640502921156   0.09939735255181617
0.45782760982329407   -0.39931640502921156   0.09939735255181617
-4.854447320446497   -0.6492527030489574   -0.12022063580364355
-4.854447320446497   -0.6492527030489574   -0.12022063580364355
-4.854447320446497   -0.6492527030489574   -0.12022063580364355
-4.854447320446497   -0.6492527030489574   -0.12022063580364355
-5.303568532723305   -1.6381995084202177   -0.16658654506380416
-5.303568532723305   -1.6381995084202177   -0.16658654506380416
-5.303568532723305   -1.6381995084202177   -0.16658654506380416
-5.303568532723305   -1.6381995084202177   -0.16658654506380416
0.43264888837382925   0.400895908879344   0.1956480911196049
0.43264888837382925   0.400895908879344   0.1956480911196049
0.43264888837382925   0.400895908879344   0.1956480911196049
0.43264888837382925   0.400895908879344   0.1956480911196049
-2.317611602507919   -0.5327706731435123   -0.1529933300821033
-2.317611602507919   -0.5327706731435123   -0.1529933300821033
-2.317611602507919   -0.5327706731435123   -0.1529933300821033
-2.317611602507919   -0.5327706731435123   -0.1529933300821033
0.2476740523897965   -0.4669164319742328   0.13858625205301806
0.2476740523897965   -0.4669164319742328   0.13858625205301806
0.2476740523897965   -0.4669164319742328   0.13858625205301806
0.2476740523897965   -0.4669164319742328   0.13858625205301806
-5.115544148485026   -0.7673376193124071   -0.09732651298029486
-5.115544148485026   -0.7673376193124071   -0.09732651298029486
-5.115544148485026   -0.7673376193124071   -0.09732651298029486
-5.115544148485026   -0.7673376193124071   -0.09732651298029486
-5.567149228816222   -1.6850002978712517   -0.14815478137598856
-5.567149228816222   -1.6850002978712517   -0.14815478137598856
-5.567149228816222   -1.6850002978712517   -0.14815478137598856
-5.567149228816222   -1.6850002978712517   -0.14815478137598856
0.19258080565753222   0.306662593967969   0.2190331870151227
0.19258080565753222   0.306662593967969   0.2190331870151227
0.19258080565753222   0.306662593967969   0.2190331870151227
0.19258080565753222   0.306662593967969   0.2190331870151227
-2.5727487806528746   -0.611893730778237   -0.21435619038042467
-2.5727487806528746   -0.611893730778237   -0.21435619038042467
-2.5727487806528746   -0.611893730778237   -0.21435619038042467
-2.5727487806528746   -0.611893730778237   -0.21435619038042467
-4.58928751525824   -0.418094028594426   0.07324842432469092
-4.58928751525824   -0.418094028594426   0.07324842432469092
-4.58928751525824   -0.418094028594426   0.07324842432469092
-4.58928751525824   -0.418094028594426   0.07324842432469092
-9.786143535427149   -0.6311119984647653   -0.2602213886460576
-9.786143535427149   -0.6311119984647653   -0.2602213886460576
-9.786143535427149   -0.6311119984647653   -0.2602213886460576
-9.786143535427149   -0.6311119984647653   -0.2602213886460576
-10.25113154794731   -1.6475623939357102   -0.25168885560947146
-10.25113154794731   -1.6475623939357102   -0.25168885560947146
-10.25113154794731   -1.6475623939357102   -0.25168885560947146
-10.25113154794731   -1.6475623939357102   -0.25168885560947146
-4.613259650661133   0.3888276100024357   0.04763740007171102
-4.613259650661133   0.3888276100024357   0.04763740007171102
-4.613259650661133   0.3888276100024357   0.04763740007171102
-4.613259650661133   0.3888276100024357   0.04763740007171102
-7.249434356830856   -0.5501809856651187   -0.10797409505475775
-7.249434356830856   -0.5501809856651187   -0.10797409505475775
-7.249434356830856   -0.5501809856651187   -0.10797409505475775
-7.249434356830856   -0.5501809856651187   -0.10797409505475775
-4.757622739100901   -0.4629941228911383   0.17764369076648948
-4.757622739100901   -0.4629941228911383   0.17764369076648948
-4.757622739100901   -0.4629941228911383   0.17764369076648948
-4.757622739100901   -0.4629941228911383   0.17764369076648948
-10.077269379167596   -0.7662415807021126   -0.26369882494456887
-10.077269379167596   -0.7662415807021126   -0.26369882494456887
-10.077269379167596   -0.7662415807021126   -0.26369882494456887
-10.077269379167596   -0.7662415807021126   -0.26369882494456887
-10.579969528174423   -1.7551642103171623   -0.1758143633924844
-10.579969528174423   -1.7551642103171623   -0.1758143633924844
-10.579969528174423   -1.7551642103171623   -0.1758143633924844
-10.579969528174423   -1.7551642103171623   -0.1758143633924844
-4.8772595169961726   0.26807629971279234   0.058682725438771455
-4.8772595169961726   0.26807629971279234   0.058682725438771455
-4.8772595169961726   0.26807629971279234   0.058682725438771455
-4.8772595169961726   0.26807629971279234   0.058682725438771455
-7.458461449389107   -0.610448433475798   -0.10873465851669839
-7.458461449389107   -0.610448433475798   -0.10873465851669839
-7.458461449389107   -0.610448433475798   -0.10873465851669839
-7.458461449389107   -0.610448433475798   -0.10873465851669839
-5.020049332263417   -0.5712127572445809   0.18402270605990656
-5.020049332263417   -0.5712127572445809   0.18402270605990656
-5.020049332263417   -0.5712127572445809   0.18402270605990656
-5.020049332263417   -0.5712127572445809   0.18402270605990656
-10.417449994693431   -0.8961454351460454   -0.22223547115864933
-10.417449994693431   -0.8961454351460454   -0.22223547115864933
-10.417449994693431   -0.8961454351460454   -0.22223547115864933
-10.417449994693431   -0.8961454351460454   -0.22223547115864933
-10.952415787327809   -1.8965184914911435   -0.18882350204110027
-10.952415787327809   -1.8965184914911435   -0.18882350204110027
-10.952415787327809   -1.8965184914911435   -0.18882350204110027
-10.952415787327809   -1.8965184914911435   -0.18882350204110027
-5.162494981450563   0.11947109440990444   0.07064506317106006
-5.162494981450563   0.11947109440990444   0.07064506317106006
-5.162494981450563   0.11947109440990444   0.07064506317106006
-5.162494981450563   0.11947109440990444   0.07064506317106006
-7.826298278839356   -0.7545873404873217   -0.17561631302431832
-7.826298278839356   -0.7545873404873217   -0.17561631302431832
-7.826298278839356   -0.7545873404873217   -0.17561631302431832
-7.826298278839356   -0.7545873404873217   -0.17561631302431832
-9.45173732638635   0.45249599216942205   0.32820166592374345
-9.45173732638635   0.45249599216942205   0.32820166592374345
-9.45173732638635   0.45249599216942205   0.32820166592374345
-9.45173732638635   0.45249599216942205   0.32820166592374345
-14.660535075103533   -0.730947808262139   -0.20081150124918323
-14.660535075103533   -0.730947808262139   -0.20081150124918323
-14.660535075103533   -0.730947808262139   -0.20081150124918323
-14.660535075103533   -0.730947808262139   -0.20081150124918323
-15.027721532954526   -0.7439384572591279   0.33784893479308564
-15.027721532954526   -0.7439384572591279   0.33784893479308564
-15.027721532954526   -0.7439384572591279   0.33784893479308564
-15.027721532954526   -0.7439384572591279   0.33784893479308564
-9.827556091644755   0.3007562768034462   -0.08213024483593356
-9.827556091644755   0.3007562768034462   -0.08213024483593356
-9.827556091644755   0.3007562768034462   -0.08213024483593356
-9.827556091644755   0.3007562768034462   -0.08213024483593356
-11.671731556687863   0.010405587427059881   0.2954209821733754
-11.671731556687863   0.010405587427059881   0.2954209821733754
-11.671731556687863   0.010405587427059881   0.2954209821733754
-11.671731556687863   0.010405587427059881   0.2954209821733754
-9.722187984853882   0.33224314882228567   0.41322341709951027
-9.722187984853882   0.33224314882228567   0.41322341709951027
-9.722187984853882   0.33224314882228567   0.41322341709951027
-9.722187984853882   0.33224314882228567   0.41322341709951027
-15.126353891835858   -0.7686895813684815   -0.13056173550422379
-15.126353891835858   -0.7686895813684815   -0.13056173550422379
-15.126353891835858   -0.7686895813684815   -0.13056173550422379
-15.126353891835858   -0.7686895813684815   -0.13056173550422379
-15.491990258001676   -0.8702654279792079   0.4589216685426849
-15.491990258001676   -0.8702654279792079   0.4589216685426849
-15.491990258001676   -0.8702654279792079   0.4589216685426849
-15.491990258001676   -0.8702654279792079   0.4589216685426849
-10.167882335156577   0.21502540948452786   -0.08556801810503412
-10.167882335156577   0.21502540948452786   -0.08556801810503412
-10.167882335156577   0.21502540948452786   -0.08556801810503412
-10.167882335156577   0.21502540948452786   -0.08556801810503412
-12.267312742469185   -0.13781115462277915   0.15878574284430502
-12.267312742469185   -0.13781115462277915   0.15878574284430502
-12.267312742469185   -0.13781115462277915   0.15878574284430502
-12.267312742469185   -0.13781115462277915   0.15878574284430502
-10.071606558359617   0.20349519442793795   0.40734108093635424
-10.071606558359617   0.20349519442793795   0.40734108093635424
-10.071606558359617   0.20349519442793795   0.40734108093635424
-10.071606558359617   0.20349519442793795   0.40734108093635424
-15.606389793145043   -0.8768589712690646   -0.1064824638842865
-15.606389793145043   -0.8768589712690646   -0.1064824638842865
-15.606389793145043   -0.8768589712690646   -0.1064824638842865
-15.606389793145043   -0.8768589712690646   -0.1064824638842865
-16.151136066523506   -1.377079360808234   0.400128135612915
-16.151136066523506   -1.377079360808234   0.400128135612915
-16.151136066523506   -1.377079360808234   0.400128135612915
-16.151136066523506   -1.377079360808234   0.400128135612915
-10.560217415919931   -0.04399189009857807   -0.08035824639446165
-10.560217415919931   -0.04399189009857807   -0.08035824639446165
-10.560217415919931   -0.04399189009857807   -0.08035824639446165
-10.560217415919931   -0.04399189009857807   -0.08035824639446165
-12.526180430937499   -0.32351554182998266   0.03724856268569199
-12.526180430937499   -0.32351554182998266   0.03724856268569199
-12.526180430937499   -0.32351554182998266   0.03724856268569199
-12.526180430937499   -0.32351554182998266   0.03724856268569199
9.683582614203111   0.5149680878106495   -0.3505907260360065
9.683582614203111   0.5149680878106495   -0.3505907260360065
9.683582614203111   0.5149680878106495   -0.3505907260360065
9.683582614203111   0.5149680878106495   -0.3505907260360065
4.808981890652017   0.0008978442947134013   0.12854367605440076
4.808981890652017   0.0008978442947134013   0.12854367605440076
4.808981890652017   0.0008978442947134013   0.12854367605440076
4.808981890652017   0.0008978442947134013   0.12854367605440076
4.389403849814639   -0.7196293699710744   -0.32043517604886296
4.389403849814639   -0.7196293699710744   -0.32043517604886296
4.389403849814639   -0.7196293699710744   -0.32043517604886296
4.389403849814639   -0.7196293699710744   -0.32043517604886296
9.498341025405615   0.7857733203369266   0.1610173153559975
9.498341025405615   0.7857733203369266   0.1610173153559975
9.498341025405615   0.7857733203369266   0.1610173153559975
9.498341025405615   0.7857733203369266   0.1610173153559975
6.728273717312388   0.059697682048159395   -0.22127833305110223
6.728273717312388   0.059697682048159395   -0.22127833305110223
6.728273717312388   0.059697682048159395   -0.22127833305110223
6.728273717312388   0.059697682048159395   -0.22127833305110223
9.293105180698989   0.2577668448728687   -0.33715543271300624
9.293105180698989   0.2577668448728687   -0.33715543271300624
9.293105180698989   0.2577668448728687   -0.33715543271300624
9.293105180698989   0.2577668448728687   -0.33715543271300624
4.585730716098039   -0.20053187293032737   0.14210165832730215
4.585730716098039   -0.20053187293032737   0.14210165832730215
4.585730716098039   -0.20053187293032737   0.14210165832730215
4.585730716098039   -0.20053187293032737   0.14210165832730215
4.17949283044909   -0.7805511202536946   -0.2782018122019792
4.17949283044909   -0.7805511202536946   -0.2782018122019792
4.17949283044909   -0.7805511202536946   -0.2782018122019792
4.17949283044909   -0.7805511202536946   -0.2782018122019792
9.184183672110711   0.7023158735990354   0.21934280246190752
9.184183672110711   0.7023158735990354   0.21934280246190752
9.184183672110711   0.7023158735990354   0.21934280246190752
9.184183672110711   0.7023158735990354   0.21934280246190752
6.561958349097897   -0.0494883535679731   -0.29241477497899215
6.561958349097897   -0.0494883535679731   -0.29241477497899215
6.561958349097897   -0.0494883535679731   -0.29241477497899215
6.561958349097897   -0.0494883535679731   -0.29241477497899215
8.983441891960377   0.18289084129237065   -0.2649410659829408
8.983441891960377   0.18289084129237065   -0.2649410659829408
8.983441891960377   0.18289084129237065   -0.2649410659829408
8.983441891960377   0.18289084129237065   -0.2649410659829408
4.372341384394511   -0.26901931415192326   0.17450915142331314
4.372341384394511   -0.26901931415192326   0.17450915142331314
4.372341384394511   -0.26901931415192326   0.17450915142331314
4.372341384394511   -0.26901931415192326   0.17450915142331314
3.987555116020875   -0.8004795011225612   -0.22717019898920088
3.987555116020875   -0.8004795011225612   -0.22717019898920088
3.987555116020875   -0.8004795011225612   -0.22717019898920088
3.987555116020875   -0.8004795011225612   -0.22717019898920088
8.830014396276328   0.6277270917366133   0.27220122727751167
8.830014396276328   0.6277270917366133   0.27220122727751167
8.830014396276328   0.6277270917366133   0.27220122727751167
8.830014396276328   0.6277270917366133   0.27220122727751167
6.181005417431872   -0.12528300877144072   -0.39797209952168955
6.181005417431872   -0.12528300877144072   -0.39797209952168955
6.181005417431872   -0.12528300877144072   -0.39797209952168955
6.181005417431872   -0.12528300877144072   -0.39797209952168955
4.888641358696614   0.503667217375295   0.024071643196806047
4.888641358696614   0.503667217375295   0.024071643196806047
4.888641358696614   0.503667217375295   0.024071643196806047
4.888641358696614   0.503667217375295   0.024071643196806047
0.17948138634006924   -0.15598559969283782   -0.0183876664768986
0.17948138634006924   -0.15598559969283782   -0.0183876664768986
0.17948138634006924   -0.15598559969283782   -0.0183876664768986
0.17948138634006924   -0.15598559969283782   -0.0183876664768986
-0.13670659933824372   -0.6476963334663368   -0.21718231770052057
-0.13670659933824372   -0.6476963334663368   -0.21718231770052057
-0.13670659933824372   -0.6476963334663368   -0.21718231770052057
-0.13670659933824372   -0.6476963334663368   -0.21718231770052057
4.792949272634791   0.71042082040727   0.2672417476734671
4.792949272634791   0.71042082040727   0.2672417476734671
4.792949272634791   0.71042082040727   0.2672417476734671
4.792949272634791   0.71042082040727   0.2672417476734671
2.393271212745307   0.10111500420041492   -0.028033235505684526
2.393271212745307   0.10111500420041492   -0.028033235505684526
2.393271212745307   0.10111500420041492   -0.028033235505684526
2.393271212745307   0.10111500420041492   -0.028033235505684526
4.681877314381894   0.36993122348412566   0.05237155333214555
4.681877314381894   0.36993122348412566   0.05237155333214555
4.681877314381894   0.36993122348412566   0.05237155333214555
4.681877314381894   0.36993122348412566   0.05237155333214555
-0.02370631789099694   -0.305278413348919   0.005401169418310758
-0.02370631789099694   -0.305278413348919   0.005401169418310758
-0.02370631789099694   -0.305278413348919   0.005401169418310758
-0.02370631789099694   -0.305278413348919   0.005401169418310758
-0.3355755351078169   -0.7462963734893038   -0.18743525005045386
-0.3355755351078169   -0.7462963734893038   -0.18743525005045386
-0.3355755351078169   -0.7462963734893038   -0.18743525005045386
-0.3355755351078169   -0.7462963734893038   -0.18743525005045386
4.567712863430214   0.5864523083917514   0.2958949240581528
4.567712863430214   0.5864523083917514   0.2958949240581528
4.567712863430214   0.5864523083917514   0.2958949240581528
4.567712863430214   0.5864523083917514   0.2958949240581528
2.1509332489833457   -0.020834428945608552   -0.0974197331373889
2.1509332489833457   -0.020834428945608552   -0.0974197331373889
2.1509332489833457   -0.020834428945608552   -0.0974197331373889
2.1509332489833457   -0.020834428945608552   -0.0974197331373889
4.460748369259552   0.26663367476132294   0.08089108683531138
4.460748369259552   0.26663367476132294   0.08089108683531138
4.460748369259552   0.26663367476132294   0.08089108683531138
4.460748369259552   0.26663367476132294   0.08089108683531138
-0.2284037054214484   -0.4262704043431621   0.028397929235246977
-0.2284037054214484   -0.4262704043431621   0.028397929235246977
-0.2284037054214484   -0.4262704043431621   0.028397929235246977
-0.2284037054214484   -0.4262704043431621   0.028397929235246977
-0.5325185788158127   -0.8063734480000471   -0.14859389827314945
-0.5325185788158127   -0.8063734480000471   -0.14859389827314945
-0.5325185788158127   -0.8063734480000471   -0.14859389827314945
-0.5325185788158127   -0.8063734480000471   -0.14859389827314945
4.353514722357298   0.4813338747700383   0.3208144568002628
4.353514722357298   0.4813338747700383   0.3208144568002628
4.353514722357298   0.4813338747700383   0.3208144568002628
4.353514722357298   0.4813338747700383   0.3208144568002628
1.9708231798076852   -0.0996307330003971   -0.14882780385519095
1.9708231798076852   -0.0996307330003971   -0.14882780385519095
1.9708231798076852   -0.0996307330003971   -0.14882780385519095
1.9708231798076852   -0.0996307330003971   -0.14882780385519095
0.3384645548171099   0.5109594969930411   0.10958307922242574
0.3384645548171099   0.5109594969930411   0.10958307922242574
0.3384645548171099   0.5109594969930411   0.10958307922242574
0.3384645548171099   0.5109594969930411   0.10958307922242574
-4.304700829530751   -0.2757919840733354   -0.1484842238135314
-4.304700829530751   -0.2757919840733354   -0.1484842238135314
-4.304700829530751   -0.2757919840733354   -0.1484842238135314
-4.304700829530751   -0.2757919840733354   -0.1484842238135314
-4.551417082656048   -0.5918275520788436   -0.1361251187435248
-4.551417082656048   -0.5918275520788436   -0.1361251187435248
-4.551417082656048   -0.5918275520788436   -0.1361251187435248
-4.551417082656048   -0.5918275520788436   -0.1361251187435248
0.17833223107374205   0.5814465654039026   0.12886893548918404
0.17833223107374205   0.5814465654039026   0.12886893548918404
0.17833223107374205   0.5814465654039026   0.12886893548918404
0.17833223107374205   0.5814465654039026   0.12886893548918404
-2.0822600604091135   0.06636255248973999   0.0075377890939706815
-2.0822600604091135   0.06636255248973999   0.0075377890939706815
-2.0822600604091135   0.06636255248973999   0.0075377890939706815
-2.0822600604091135   0.06636255248973999   0.0075377890939706815
0.1443601509584859   0.4022032820467719   0.13825181827001876
0.1443601509584859   0.4022032820467719   0.13825181827001876
0.1443601509584859   0.4022032820467719   0.13825181827001876
0.1443601509584859   0.4022032820467719   0.13825181827001876
-4.51204870604893   -0.4071879722298123   -0.12392281555696386
-4.51204870604893   -0.4071879722298123   -0.12392281555696386
-4.51204870604893   -0.4071879722298123   -0.12392281555696386
-4.51204870604893   -0.4071879722298123   -0.12392281555696386
-4.764890452055634   -0.7002430434726081   -0.112507330210201
-4.764890452055634   -0.7002430434726081   -0.112507330210201
-4.764890452055634   -0.7002430434726081   -0.112507330210201
-4.764890452055634   -0.7002430434726081   -0.112507330210201
-0.026728254433244183   0.45387692921121725   0.15662785062188855
-0.026728254433244183   0.45387692921121725   0.15662785062188855
-0.026728254433244183   0.45387692921121725   0.15662785062188855
-0.026728254433244183   0.45387692921121725   0.15662785062188855
-2.286726202862083   -0.03939640290179369   -0.04479389678960835
-2.286726202862083   -0.03939640290179369   -0.04479389678960835
-2.286726202862083   -0.03939640290179369   -0.04479389678960835
-2.286726202862083   -0.03939640290179369   -0.04479389678960835
-0.055804394869133314   0.2975837079478869   0.16754036970577318
-0.055804394869133314   0.2975837079478869   0.16754036970577318
-0.055804394869133314   0.2975837079478869   0.16754036970577318
-0.055804394869133314   0.2975837079478869   0.16754036970577318
-4.731136042822757   -0.53927155341229   -0.10470677410613392
-4.731136042822757   -0.53927155341229   -0.10470677410613392
-4.731136042822757   -0.53927155341229   -0.10470677410613392
-4.731136042822757   -0.53927155341229   -0.10470677410613392
-4.976998578872365   -0.7857186410209285   -0.073293603399467
-4.976998578872365   -0.7857186410209285   -0.073293603399467
-4.976998578872365   -0.7857186410209285   -0.073293603399467
-4.976998578872365   -0.7857186410209285   -0.073293603399467
-0.2391356100088851   0.3337015571458714   0.17824594061556942
-0.2391356100088851   0.3337015571458714   0.17824594061556942
-0.2391356100088851   0.3337015571458714   0.17824594061556942
-0.2391356100088851   0.3337015571458714   0.17824594061556942
-2.5066990884656137   -0.14697831764209424   -0.10188397302379798
-2.5066990884656137   -0.14697831764209424   -0.10188397302379798
-2.5066990884656137   -0.14697831764209424   -0.10188397302379798
-2.5066990884656137   -0.14697831764209424   -0.10188397302379798
-4.057971543683404   0.607033934902656   0.20233628644730406
-4.057971543683404   0.607033934902656   0.20233628644730406
-4.057971543683404   0.607033934902656   0.20233628644730406
-4.057971543683404   0.607033934902656   0.20233628644730406
-8.634483266640414   -0.380205862293995   -0.24401041163896603
-8.634483266640414   -0.380205862293995   -0.24401041163896603
-8.634483266640414   -0.380205862293995   -0.24401041163896603
-8.634483266640414   -0.380205862293995   -0.24401041163896603
-8.827018410437946   -0.4707150153731492   -0.036316967029890845
-8.827018410437946   -0.4707150153731492   -0.036316967029890845
-8.827018410437946   -0.4707150153731492   -0.036316967029890845
-8.827018410437946   -0.4707150153731492   -0.036316967029890845
-4.319771822056205   0.4388447147340524   -0.008571082557144671
-4.319771822056205   0.4388447147340524   -0.008571082557144671
-4.319771822056205   0.4388447147340524   -0.008571082557144671
-4.319771822056205   0.4388447147340524   -0.008571082557144671
-6.413225876303374   0.06902293757952083   0.046434612412364296
-6.413225876303374   0.06902293757952083   0.046434612412364296
-6.413225876303374   0.06902293757952083   0.046434612412364296
-6.413225876303374   0.06902293757952083   0.046434612412364296
-4.261342990264022   0.4951391835793151   0.22727860755850604
-4.261342990264022   0.4951391835793151   0.22727860755850604
-4.261342990264022   0.4951391835793151   0.22727860755850604
-4.261342990264022   0.4951391835793151   0.22727860755850604
-8.87799170434445   -0.5195539463327472   -0.24234450560289933
-8.87799170434445   -0.5195539463327472   -0.24234450560289933
-8.87799170434445   -0.5195539463327472   -0.24234450560289933
-8.87799170434445   -0.5195539463327472   -0.24234450560289933
-9.090008484735554   -0.5925101092774845   -0.031500351773231905
-9.090008484735554   -0.5925101092774845   -0.031500351773231905
-9.090008484735554   -0.5925101092774845   -0.031500351773231905
-9.090008484735554   -0.5925101092774845   -0.031500351773231905
-4.53567748579676   0.317104528893442   0.01620992871812099
-4.53567748579676   0.317104528893442   0.01620992871812099
-4.53567748579676   0.317104528893442   0.01620992871812099
-4.53567748579676   0.317104528893442   0.01620992871812099
-6.598145431335631   -0.028181901190634795   0.003429701846068278
-6.598145431335631   -0.028181901190634795   0.003429701846068278
-6.598145431335631   -0.028181901190634795   0.003429701846068278
-6.598145431335631   -0.028181901190634795   0.003429701846068278
-4.471755558520224   0.39002113759922574   0.262902956394989
-4.471755558520224   0.39002113759922574   0.262902956394989
-4.471755558520224   0.39002113759922574   0.262902956394989
-4.471755558520224   0.39002113759922574   0.262902956394989
-9.138962865573971   -0.6504591715451644   -0.21832319369770026
-9.138962865573971   -0.6504591715451644   -0.21832319369770026
-9.138962865573971   -0.6504591715451644   -0.21832319369770026
-9.138962865573971   -0.6504591715451644   -0.21832319369770026
-9.332339997019641   -0.7227331231844378   0.029468990768427183
-9.332339997019641   -0.7227331231844378   0.029468990768427183
-9.332339997019641   -0.7227331231844378   0.029468990768427183
-9.332339997019641   -0.7227331231844378   0.029468990768427183
-4.764466302165358   0.172639712005771   0.031009427108958043
-4.764466302165358   0.172639712005771   0.031009427108958043
-4.764466302165358   0.172639712005771   0.031009427108958043
-4.764466302165358   0.172639712005771   0.031009427108958043
-6.884634227513242   -0.16354541639811115   -0.0539991768423701
-6.884634227513242   -0.16354541639811115   -0.0539991768423701
-6.884634227513242   -0.16354541639811115   -0.0539991768423701
-6.884634227513242   -0.16354541639811115   -0.0539991768423701
-8.3261135617429   0.6330210373089811   0.2846112132455412
-8.3261135617429   0.6330210373089811   0.2846112132455412
-8.3261135617429   0.6330210373089811   0.2846112132455412
-8.3261135617429   0.6330210373089811   0.2846112132455412
-12.74058021982056   -0.588519367837995   -0.22737782248047178
-12.74058021982056   -0.588519367837995   -0.22737782248047178
-12.74058021982056   -0.588519367837995   -0.22737782248047178
-12.74058021982056   -0.588519367837995   -0.22737782248047178
-12.91929295943509   -0.2525414073751002   0.24311820206191304
-12.91929295943509   -0.2525414073751002   0.24311820206191304
-12.91929295943509   -0.2525414073751002   0.24311820206191304
-12.91929295943509   -0.2525414073751002   0.24311820206191304
-8.699584986830443   0.25927059904387684   -0.1291354634093972
-8.699584986830443   0.25927059904387684   -0.1291354634093972
-8.699584986830443   0.25927059904387684   -0.1291354634093972
-8.699584986830443   0.25927059904387684   -0.1291354634093972
-10.200462930993734   0.13330007047966985   0.23282917505822676
-10.200462930993734   0.13330007047966985   0.23282917505822676
-10.200462930993734   0.13330007047966985   0.23282917505822676
-10.200462930993734   0.13330007047966985   0.23282917505822676
-8.531875317972313   0.6417126470751073   0.3269708328499288
-8.531875317972313   0.6417126470751073   0.3269708328499288
-8.531875317972313   0.6417126470751073   0.3269708328499288
-8.531875317972313   0.6417126470751073   0.3269708328499288
-13.077086147464765   -0.6250669745778041   -0.17332217088347968
-13.077086147464765   -0.6250669745778041   -0.17332217088347968
-13.077086147464765   -0.6250669745778041   -0.17332217088347968
-13.077086147464765   -0.6250669745778041   -0.17332217088347968
-13.245787242316998   -0.3162334022832307   0.3360428302165951
-13.245787242316998   -0.3162334022832307   0.3360428302165951
-13.245787242316998   -0.3162334022832307   0.3360428302165951
-13.245787242316998   -0.3162334022832307   0.3360428302165951
-8.950362591121214   0.18927241726056598   -0.11505341023958693
-8.950362591121214   0.18927241726056598   -0.11505341023958693
-8.950362591121214   0.18927241726056598   -0.11505341023958693
-8.950362591121214   0.18927241726056598   -0.11505341023958693
-10.646375910848093   0.06544313813521274   0.14792485810972666
-10.646375910848093   0.06544313813521274   0.14792485810972666
-10.646375910848093   0.06544313813521274   0.14792485810972666
-10.646375910848093   0.06544313813521274   0.14792485810972666
-8.765174020876541   0.5939275396753425   0.40623431856900327
-8.765174020876541   0.5939275396753425   0.40623431856900327
-8.765174020876541   0.5939275396753425   0.40623431856900327
-8.765174020876541   0.5939275396753425   0.40623431856900327
-13.42146864024889   -0.7113813523851888   -0.1472162093406847
-13.42146864024889   -0.7113813523851888   -0.1472162093406847
-13.42146864024889   -0.7113813523851888   -0.1472162093406847
-13.42146864024889   -0.7113813523851888   -0.1472162093406847
-13.688504068627044   -0.5865461211525869   0.3351572510426055
-13.688504068627044   -0.5865461211525869   0.3351572510426055
-13.688504068627044   -0.5865461211525869   0.3351572510426055
-13.688504068627044   -0.5865461211525869   0.3351572510426055
-9.218936981443555   -0.018352393310830717   -0.10789666122474739
-9.218936981443555   -0.018352393310830717   -0.10789666122474739
-9.218936981443555   -0.018352393310830717   -0.10789666122474739
-9.218936981443555   -0.018352393310830717   -0.10789666122474739
-10.78057910817868   -0.03121615461920868   0.11886527025581595
-10.78057910817868   -0.03121615461920868   0.11886527025581595
-10.78057910817868   -0.03121615461920868   0.11886527025581595
-10.78057910817868   -0.03121615461920868   0.11886527025581595
7.304273314176912   0.40339293291394474   -0.3542723043743379
7.304273314176912   0.40339293291394474   -0.3542723043743379
7.304273314176912   0.40339293291394474   -0.3542723043743379
7.304273314176912   0.40339293291394474   -0.3542723043743379
3.479165252611085   0.07499694773285215   0.13631754667871118
3.479165252611085   0.07499694773285215   0.13631754667871118
3.479165252611085   0.07499694773285215   0.13631754667871118
3.479165252611085   0.07499694773285215   0.13631754667871118
3.0849514060140777   -0.5962463172490156   -0.33569125318193277
3.0849514060140777   -0.5962463172490156   -0.33569125318193277
3.0849514060140777   -0.5962463172490156   -0.33569125318193277
3.0849514060140777   -0.5962463172490156   -0.33569125318193277
7.142855732391043   0.6741856666768307   0.16838156969531815
7.142855732391043   0.6741856666768307   0.16838156969531815
7.142855732391043   0.6741856666768307   0.16838156969531815
7.142855732391043   0.6741856666768307   0.16838156969531815
4.981528672567111   0.06757983658584121   -0.1471647706153251
4.981528672567111   0.06757983658584121   -0.1471647706153251
4.981528672567111   0.06757983658584121   -0.1471647706153251
4.981528672567111   0.06757983658584121   -0.1471647706153251
6.9425871349919355   0.17555327421522038   -0.33432902483861043
6.9425871349919355   0.17555327421522038   -0.33432902483861043
6.9425871349919355   0.17555327421522038   -0.33432902483861043
6.9425871349919355   0.17555327421522038   -0.33432902483861043
3.2812326957234226   -0.10160123247717179   0.15107011059292563
3.2812326957234226   -0.10160123247717179   0.15107011059292563
3.2812326957234226   -0.10160123247717179   0.15107011059292563
3.2812326957234226   -0.10160123247717179   0.15107011059292563
2.9005389996503608   -0.6554663369381761   -0.2859235777638003
2.9005389996503608   -0.6554663369381761   -0.2859235777638003
2.9005389996503608   -0.6554663369381761   -0.2859235777638003
2.9005389996503608   -0.6554663369381761   -0.2859235777638003
6.856180796654675   0.5897227690218997   0.22077427567578353
6.856180796654675   0.5897227690218997   0.22077427567578353
6.856180796654675   0.5897227690218997   0.22077427567578353
6.856180796654675   0.5897227690218997   0.22077427567578353
4.8147263792576105   -0.03464254732330185   -0.20814685990063203
4.8147263792576105   -0.03464254732330185   -0.20814685990063203
4.8147263792576105   -0.03464254732330185   -0.20814685990063203
4.8147263792576105   -0.03464254732330185   -0.20814685990063203
6.660719183116655   0.10032684225780697   -0.26713786525017813
6.660719183116655   0.10032684225780697   -0.26713786525017813
6.660719183116655   0.10032684225780697   -0.26713786525017813
6.660719183116655   0.10032684225780697   -0.26713786525017813
3.091069043833891   -0.17100197952857   0.18226228574422002
3.091069043833891   -0.17100197952857   0.18226228574422002
3.091069043833891   -0.17100197952857   0.18226228574422002
3.091069043833891   -0.17100197952857   0.18226228574422002
2.7340984879946992   -0.693503592062987   -0.2380362834388619
2.7340984879946992   -0.693503592062987   -0.2380362834388619
2.7340984879946992   -0.693503592062987   -0.2380362834388619
2.7340984879946992   -0.693503592062987   -0.2380362834388619
6.5331220094423825   0.4971476469222732   0.26168784806292755
6.5331220094423825   0.4971476469222732   0.26168784806292755
6.5331220094423825   0.4971476469222732   0.26168784806292755
6.5331220094423825   0.4971476469222732   0.26168784806292755
4.490283094569785   -0.11243511990263921   -0.2974708561921362
4.490283094569785   -0.11243511990263921   -0.2974708561921362
4.490283094569785   -0.11243511990263921   -0.2974708561921362
4.490283094569785   -0.11243511990263921   -0.2974708561921362
3.5349924445318415   0.5140701967033142   -0.023619742687910977
3.5349924445318415   0.5140701967033142   -0.023619742687910977
3.5349924445318415   0.5140701967033142   -0.023619742687910977
3.5349924445318415   0.5140701967033142   -0.023619742687910977
-0.2252987807020086   -0.046374703599799234   -0.0003180840449955167
-0.2252987807020086   -0.046374703599799234   -0.0003180840449955167
-0.2252987807020086   -0.046374703599799234   -0.0003180840449955167
-0.2252987807020086   -0.046374703599799234   -0.0003180840449955167
-0.5029623187116696   -0.44473510927755355   -0.21262630940418953
-0.5029623187116696   -0.44473510927755355   -0.21262630940418953
-0.5029623187116696   -0.44473510927755355   -0.21262630940418953
-0.5029623187116696   -0.44473510927755355   -0.21262630940418953
3.4409631592647694   0.612036214466342   0.23608498135614603
3.4409631592647694   0.612036214466342   0.23608498135614603
3.4409631592647694   0.612036214466342   0.23608498135614603
3.4409631592647694   0.612036214466342   0.23608498135614603
1.5379328752811126   0.1517183239622332   0.010572957009536386
1.5379328752811126   0.1517183239622332   0.010572957009536386
1.5379328752811126   0.1517183239622332   0.010572957009536386
1.5379328752811126   0.1517183239622332   0.010572957009536386
3.3468889406779   0.3694253542156945   0.008324748672481688
3.3468889406779   0.3694253542156945   0.008324748672481688
3.3468889406779   0.3694253542156945   0.008324748672481688
3.3468889406779   0.3694253542156945   0.008324748672481688
-0.4072493451813438   -0.2004854940834438   0.021688943053329843
-0.4072493451813438   -0.2004854940834438   0.021688943053329843
-0.4072493451813438   -0.2004854940834438   0.021688943053329843
-0.4072493451813438   -0.2004854940834438   0.021688943053329843
-0.6767182561457341   -0.5567104244246242   -0.17548762044777771
-0.6767182561457341   -0.5567104244246242   -0.17548762044777771
-0.6767182561457341   -0.5567104244246242   -0.17548762044777771
-0.6767182561457341   -0.5567104244246242   -0.17548762044777771
3.2362250404418966   0.4788762193530209   0.258164069902659
3.2362250404418966   0.4788762193530209   0.258164069902659
3.2362250404418966   0.4788762193530209   0.258164069902659
3.2362250404418966   0.4788762193530209   0.258164069902659
1.3243005319428784   0.02021696461069511   -0.055504024630182364
1.3243005319428784   0.02021696461069511   -0.055504024630182364
1.3243005319428784   0.02021696461069511   -0.055504024630182364
1.3243005319428784   0.02021696461069511   -0.055504024630182364
3.145234282953304   0.24932908987273994   0.03275741194000453
3.145234282953304   0.24932908987273994   0.03275741194000453
3.145234282953304   0.24932908987273994   0.03275741194000453
3.145234282953304   0.24932908987273994   0.03275741194000453
-0.5869921007274639   -0.328427897014661   0.044860629233610214
-0.5869921007274639   -0.328427897014661   0.044860629233610214
-0.5869921007274639   -0.328427897014661   0.044860629233610214
-0.5869921007274639   -0.328427897014661   0.044860629233610214
-0.8482752573738606   -0.6513036172849644   -0.14058302374359286
-0.8482752573738606   -0.6513036172849644   -0.14058302374359286
-0.8482752573738606   -0.6513036172849644   -0.14058302374359286
-0.8482752573738606   -0.6513036172849644   -0.14058302374359286
3.047202413532932   0.3552419971662961   0.27873775502300147
3.047202413532932   0.3552419971662961   0.27873775502300147
3.047202413532932   0.3552419971662961   0.27873775502300147
3.047202413532932   0.3552419971662961   0.27873775502300147
1.1596636348366165   -0.08013600038240251   -0.11077828077662048
1.1596636348366165   -0.08013600038240251   -0.11077828077662048
1.1596636348366165   -0.08013600038240251   -0.11077828077662048
1.1596636348366165   -0.08013600038240251   -0.11077828077662048
-0.07557852497306178   0.6167591831674138   0.08514930783252553
-0.07557852497306178   0.6167591831674138   0.08514930783252553
-0.07557852497306178   0.6167591831674138   0.08514930783252553
-0.07557852497306178   0.6167591831674138   0.08514930783252553
-3.850508873798569   -0.1636132134236239   -0.12776039160286665
-3.850508873798569   -0.1636132134236239   -0.12776039160286665
-3.850508873798569   -0.1636132134236239   -0.12776039160286665
-3.850508873798569   -0.1636132134236239   -0.12776039160286665
-4.029524991711475   -0.3057883313936769   -0.09944832571374154
-4.029524991711475   -0.3057883313936769   -0.09944832571374154
-4.029524991711475   -0.3057883313936769   -0.09944832571374154
-4.029524991711475   -0.3057883313936769   -0.09944832571374154
-0.2521164707406667   0.49439541875502985   0.10247240241824175
-0.2521164707406667   0.49439541875502985   0.10247240241824175
-0.2521164707406667   0.49439541875502985   0.10247240241824175
-0.2521164707406667   0.49439541875502985   0.10247240241824175
-2.0470932762704517   0.1616625454731151   0.04022528281584675
-2.0470932762704517   0.1616625454731151   0.04022528281584675
-2.0470932762704517   0.1616625454731151   0.04022528281584675
-2.0470932762704517   0.1616625454731151   0.04022528281584675
-0.2485432478176732   0.4943703914045664   0.12036354438367258
-0.2485432478176732   0.4943703914045664   0.12036354438367258
-0.2485432478176732   0.4943703914045664   0.12036354438367258
-0.2485432478176732   0.4943703914045664   0.12036354438367258
-4.029714578226998   -0.3023796676357019   -0.10380492204933114
-4.029714578226998   -0.3023796676357019   -0.10380492204933114
-4.029714578226998   -0.3023796676357019   -0.10380492204933114
-4.029714578226998   -0.3023796676357019   -0.10380492204933114
-4.20748297226344   -0.4269937493228963   -0.06697082421848276
-4.20748297226344   -0.4269937493228963   -0.06697082421848276
-4.20748297226344   -0.4269937493228963   -0.06697082421848276
-4.20748297226344   -0.4269937493228963   -0.06697082421848276
-0.4332167784396877   0.35726399036624634   0.12804535329159908
-0.4332167784396877   0.35726399036624634   0.12804535329159908
-0.4332167784396877   0.35726399036624634   0.12804535329159908
-0.4332167784396877   0.35726399036624634   0.12804535329159908
-2.226879990608594   0.042354682738867555   -0.013503087065208808
-2.226879990608594   0.042354682738867555   -0.013503087065208808
-2.226879990608594   0.042354682738867555   -0.013503087065208808
-2.226879990608594   0.042354682738867555   -0.013503087065208808
-0.4260791187565053   0.37240059553074145   0.1485970465430163
-0.4260791187565053   0.37240059553074145   0.1485970465430163
-0.4260791187565053   0.37240059553074145   0.1485970465430163
-0.4260791187565053   0.37240059553074145   0.1485970465430163
-4.213578187027996   -0.44108790956880584   -0.08335273779535285
-4.213578187027996   -0.44108790956880584   -0.08335273779535285
-4.213578187027996   -0.44108790956880584   -0.08335273779535285
-4.213578187027996   -0.44108790956880584   -0.08335273779535285
-4.383429515443963   -0.5377798371394188   -0.034867125375804
-4.383429515443963   -0.5377798371394188   -0.034867125375804
-4.383429515443963   -0.5377798371394188   -0.034867125375804
-4.383429515443963   -0.5377798371394188   -0.034867125375804
-0.6149972908268097   0.224631684241697   0.1498715074650157
-0.6149972908268097   0.224631684241697   0.1498715074650157
-0.6149972908268097   0.224631684241697   0.1498715074650157
-0.6149972908268097   0.224631684241697   0.1498715074650157
-2.4148400211925645   -0.07799509778714125   -0.0732886484336492
-2.4148400211925645   -0.07799509778714125   -0.0732886484336492
-2.4148400211925645   -0.07799509778714125   -0.0732886484336492
-2.4148400211925645   -0.07799509778714125   -0.0732886484336492
-3.6127303885844073   0.7103754665448757   0.18714335449937952
-3.6127303885844073   0.7103754665448757   0.18714335449937952
-3.6127303885844073   0.7103754665448757   0.18714335449937952
-3.6127303885844073   0.7103754665448757   0.18714335449937952
-7.388857273108158   -0.2830985922622964   -0.23110337517501922
-7.388857273108158   -0.2830985922622964   -0.23110337517501922
-7.388857273108158   -0.2830985922622964   -0.23110337517501922
-7.388857273108158   -0.2830985922622964   -0.23110337517501922
-7.486859154564051   -0.18807022771777793   0.023941537691550052
-7.486859154564051   -0.18807022771777793   0.023941537691550052
-7.486859154564051   -0.18807022771777793   0.023941537691550052
-7.486859154564051   -0.18807022771777793   0.023941537691550052
-3.883741437872972   0.3544711448484569   -0.030790032763331088
-3.883741437872972   0.3544711448484569   -0.030790032763331088
-3.883741437872972   0.3544711448484569   -0.030790032763331088
-3.883741437872972   0.3544711448484569   -0.030790032763331088
-5.556926412659102   0.15571167506084183   0.06824571566908494
-5.556926412659102   0.15571167506084183   0.06824571566908494
-5.556926412659102   0.15571167506084183   0.06824571566908494
-5.556926412659102   0.15571167506084183   0.06824571566908494
-3.7859646737234613   0.5915277895654674   0.22103714326718582
-3.7859646737234613   0.5915277895654674   0.22103714326718582
-3.7859646737234613   0.5915277895654674   0.22103714326718582
-3.7859646737234613   0.5915277895654674   0.22103714326718582
-7.5836317816191015   -0.42412273534033207   -0.22386908996114568
-7.5836317816191015   -0.42412273534033207   -0.22386908996114568
-7.5836317816191015   -0.42412273534033207   -0.22386908996114568
-7.5836317816191015   -0.42412273534033207   -0.22386908996114568
-7.694024414157496   -0.310557181439709   0.03624830541310187
-7.694024414157496   -0.310557181439709   0.03624830541310187
-7.694024414157496   -0.310557181439709   0.03624830541310187
-7.694024414157496   -0.310557181439709   0.03624830541310187
-4.064135048356754   0.22749010711685336   -0.004715061124771325
-4.064135048356754   0.22749010711685336   -0.004715061124771325
-4.064135048356754   0.22749010711685336   -0.004715061124771325
-4.064135048356754   0.22749010711685336   -0.004715061124771325
-5.709625634007645   0.048912978377066096   0.01815357883264146
-5.709625634007645   0.048912978377066096   0.01815357883264146
-5.709625634007645   0.048912978377066096   0.01815357883264146
-5.709625634007645   0.048912978377066096   0.01815357883264146
-3.9623298457696228   0.47907690245066126   0.25272415647708
-3.9623298457696228   0.47907690245066126   0.25272415647708
-3.9623298457696228   0.47907690245066126   0.25272415647708
-3.9623298457696228   0.47907690245066126   0.25272415647708
-7.790550321620902   -0.5568646816497915   -0.2000737316938474
-7.790550321620902   -0.5568646816497915   -0.2000737316938474
-7.790550321620902   -0.5568646816497915   -0.2000737316938474
-7.790550321620902   -0.5568646816497915   -0.2000737316938474
-7.882126685354722   -0.4421532028363093   0.07470523608792035
-7.882126685354722   -0.4421532028363093   0.07470523608792035
-7.882126685354722   -0.4421532028363093   0.07470523608792035
-7.882126685354722   -0.4421532028363093   0.07470523608792035
-4.249550633610631   0.08256424320798561   0.014183203443481562
-4.249550633610631   0.08256424320798561   0.014183203443481562
-4.249550633610631   0.08256424320798561   0.014183203443481562
-4.249550633610631   0.08256424320798561   0.014183203443481562
-5.9404700029635835   -0.08426395288728838   -0.045147949988709746
-5.9404700029635835   -0.08426395288728838   -0.045147949988709746
-5.9404700029635835   -0.08426395288728838   -0.045147949988709746
-5.9404700029635835   -0.08426395288728838   -0.045147949988709746
-7.10557440658685   0.6369998602822387   0.26521250488698767
-7.10557440658685   0.6369998602822387   0.26521250488698767
-7.10557440658685   0.6369998602822387   0.26521250488698767
-7.10557440658685   0.6369998602822387   0.26521250488698767
-10.745959657209124   -0.4948041122157474   -0.25681121489958675
-10.745959657209124   -0.4948041122157474   -0.25681121489958675
-10.745959657209124   -0.4948041122157474   -0.25681121489958675
-10.745959657209124   -0.4948041122157474   -0.25681121489958675
-10.868142235296364   -0.09963648788446289   0.2448863504150709
-10.868142235296364   -0.09963648788446289   0.2448863504150709
-10.868142235296364   -0.09963648788446289   0.2448863504150709
-10.868142235296364   -0.09963648788446289   0.2448863504150709
-7.449144884756947   0.17581986505134406   -0.15137720604204885
-7.449144884756947   0.17581986505134406   -0.15137720604204885
-7.449144884756947   0.17581986505134406   -0.15137720604204885
-7.449144884756947   0.17581986505134406   -0.15137720604204885
-8.642723176510314   0.1448014783277971   0.21051726889970945
-8.642723176510314   0.1448014783277971   0.21051726889970945
-8.642723176510314   0.1448014783277971   0.21051726889970945
-8.642723176510314   0.1448014783277971   0.21051726889970945
-7.264987320169676   0.6342194345391479   0.31101104740643715
-7.264987320169676   0.6342194345391479   0.31101104740643715
-7.264987320169676   0.6342194345391479   0.31101104740643715
-7.264987320169676   0.6342194345391479   0.31101104740643715
-11.049093606616553   -0.5548298641051876   -0.20467712996510112
-11.049093606616553   -0.5548298641051876   -0.20467712996510112
-11.049093606616553   -0.5548298641051876   -0.20467712996510112
-11.049093606616553   -0.5548298641051876   -0.20467712996510112
-11.139108459019178   -0.16417575200715806   0.30645161131975784
-11.139108459019178   -0.16417575200715806   0.30645161131975784
-11.139108459019178   -0.16417575200715806   0.30645161131975784
-11.139108459019178   -0.16417575200715806   0.30645161131975784
-7.6438987032214385   0.10618133822269016   -0.12986165956900853
-7.6438987032214385   0.10618133822269016   -0.12986165956900853
-7.6438987032214385   0.10618133822269016   -0.12986165956900853
-7.6438987032214385   0.10618133822269016   -0.12986165956900853
-9.01869340481963   0.07258524357566642   0.12665112416816005
-9.01869340481963   0.07258524357566642   0.12665112416816005
-9.01869340481963   0.07258524357566642   0.12665112416816005
-9.01869340481963   0.07258524357566642   0.12665112416816005
-7.44853714570829   0.5860614013624601   0.3670660648569607
-7.44853714570829   0.5860614013624601   0.3670660648569607
-7.44853714570829   0.5860614013624601   0.3670660648569607
-7.44853714570829   0.5860614013624601   0.3670660648569607
-11.329283083398249   -0.6388688820128401   -0.16972838056984885
-11.329283083398249   -0.6388688820128401   -0.16972838056984885
-11.329283083398249   -0.6388688820128401   -0.16972838056984885
-11.329283083398249   -0.6388688820128401   -0.16972838056984885
-11.496665793083327   -0.391994476333275   0.30162173530280456
-11.496665793083327   -0.391994476333275   0.30162173530280456
-11.496665793083327   -0.391994476333275   0.30162173530280456
-11.496665793083327   -0.391994476333275   0.30162173530280456
-7.849311381316957   -0.08576536604705232   -0.11760608051251059
-7.849311381316957   -0.08576536604705232   -0.11760608051251059
-7.849311381316957   -0.08576536604705232   -0.11760608051251059
-7.849311381316957   -0.08576536604705232   -0.11760608051251059
-9.118975210647347   -0.016626355968620166   0.09808892273512498
-9.118975210647347   -0.016626355968620166   0.09808892273512498
-9.118975210647347   -0.016626355968620166   0.09808892273512498
-9.118975210647347   -0.016626355968620166   0.09808892273512498
4.982905925354222   0.279992154100266   -0.342447094227356
4.982905925354222   0.279992154100266   -0.342447094227356
4.982905925354222   0.279992154100266   -0.342447094227356
4.982905925354222   0.279992154100266   -0.342447094227356
2.128700126453306   0.14109336309926984   0.14798164029754357
2.128700126453306   0.14109336309926984   0.14798164029754357
2.128700126453306   0.14109336309926984   0.14798164029754357
2.128700126453306   0.14109336309926984   0.14798164029754357
1.7749638349640477   -0.4968473458615471   -0.31889159556957614
1.7749638349640477   -0.4968473458615471   -0.31889159556957614
1.7749638349640477   -0.4968473458615471   -0.31889159556957614
1.7749638349640477   -0.4968473458615471   -0.31889159556957614
4.8631317836432135   0.569616503703794   0.17967464394944507
4.8631317836432135   0.569616503703794   0.17967464394944507
4.8631317836432135   0.569616503703794   0.17967464394944507
4.8631317836432135   0.569616503703794   0.17967464394944507
3.2552638828293703   0.07246874479969456   -0.08903737197921596
3.2552638828293703   0.07246874479969456   -0.08903737197921596
3.2552638828293703   0.07246874479969456   -0.08903737197921596
3.2552638828293703   0.07246874479969456   -0.08903737197921596
4.665729440347313   0.08128331713646653   -0.3190038859627726
4.665729440347313   0.08128331713646653   -0.3190038859627726
4.665729440347313   0.08128331713646653   -0.3190038859627726
4.665729440347313   0.08128331713646653   -0.3190038859627726
1.9686659303566534   -0.012214407197515986   0.16498594272945574
1.9686659303566534   -0.012214407197515986   0.16498594272945574
1.9686659303566534   -0.012214407197515986   0.16498594272945574
1.9686659303566534   -0.012214407197515986   0.16498594272945574
1.6240073642422064   -0.555080952538934   -0.27107089971567
1.6240073642422064   -0.555080952538934   -0.27107089971567
1.6240073642422064   -0.555080952538934   -0.27107089971567
1.6240073642422064   -0.555080952538934   -0.27107089971567
4.61495105552539   0.48704715341310323   0.23097579420305794
4.61495105552539   0.48704715341310323   0.23097579420305794
4.61495105552539   0.48704715341310323   0.23097579420305794
4.61495105552539   0.48704715341310323   0.23097579420305794
3.097916208285519   -0.023255510405246538   -0.14631220415490861
3.097916208285519   -0.023255510405246538   -0.14631220415490861
3.097916208285519   -0.023255510405246538   -0.14631220415490861
3.097916208285519   -0.023255510405246538   -0.14631220415490861
4.420930982042894   0.006752055837555115   -0.25882947563391234
4.420930982042894   0.006752055837555115   -0.25882947563391234
4.420930982042894   0.006752055837555115   -0.25882947563391234
4.420930982042894   0.006752055837555115   -0.25882947563391234
1.8126296280544745   -0.08018366463361781   0.19714313144036896
1.8126296280544745   -0.08018366463361781   0.19714313144036896
1.8126296280544745   -0.08018366463361781   0.19714313144036896
1.8126296280544745   -0.08018366463361781   0.19714313144036896
1.4888912482747347   -0.609198594183564   -0.22581259629861003
1.4888912482747347   -0.609198594183564   -0.22581259629861003
1.4888912482747347   -0.609198594183564   -0.22581259629861003
1.4888912482747347   -0.609198594183564   -0.22581259629861003
4.325547702045175   0.37765254785362545   0.2631552690788779
4.325547702045175   0.37765254785362545   0.2631552690788779
4.325547702045175   0.37765254785362545   0.2631552690788779
4.325547702045175   0.37765254785362545   0.2631552690788779
2.8354795876910948   -0.10227431269347453   -0.2243193461378587
2.8354795876910948   -0.10227431269347453   -0.2243193461378587
2.8354795876910948   -0.10227431269347453   -0.2243193461378587
2.8354795876910948   -0.10227431269347453   -0.2243193461378587
2.1410484108487156   0.4142680304951325   -0.06345160512130665
2.1410484108487156   0.4142680304951325   -0.06345160512130665
2.1410484108487156   0.4142680304951325   -0.06345160512130665
2.1410484108487156   0.4142680304951325   -0.06345160512130665
-0.6637387753407378   0.038990543736496186   0.02112829789691128
-0.6637387753407378   0.038990543736496186   0.02112829789691128
-0.6637387753407378   0.038990543736496186   0.02112829789691128
-0.6637387753407378   0.038990543736496186   0.02112829789691128
-0.9055475661856006   -0.3436474031034493   -0.19582238104244087
-0.9055475661856006   -0.3436474031034493   -0.19582238104244087
-0.9055475661856006   -0.3436474031034493   -0.19582238104244087
-0.9055475661856006   -0.3436474031034493   -0.19582238104244087
2.0797971263297357   0.498704289786979   0.20972322561037127
2.0797971263297357   0.498704289786979   0.20972322561037127
2.0797971263297357   0.498704289786979   0.20972322561037127
2.0797971263297357   0.498704289786979   0.20972322561037127
0.6482909286752466   0.14474863714831251   0.024700862068368443
0.6482909286752466   0.14474863714831251   0.024700862068368443
0.6482909286752466   0.14474863714831251   0.024700862068368443
0.6482909286752466   0.14474863714831251   0.024700862068368443
1.9845046936908095   0.26660049626738375   -0.03463514406468586
1.9845046936908095   0.26660049626738375   -0.03463514406468586
1.9845046936908095   0.26660049626738375   -0.03463514406468586
1.9845046936908095   0.26660049626738375   -0.03463514406468586
-0.8116117450572099   -0.11290022109443389   0.04310954259049726
-0.8116117450572099   -0.11290022109443389   0.04310954259049726
-0.8116117450572099   -0.11290022109443389   0.04310954259049726
-0.8116117450572099   -0.11290022109443389   0.04310954259049726
-1.0460147778735516   -0.4608312158586304   -0.15813328784014902
-1.0460147778735516   -0.4608312158586304   -0.15813328784014902
-1.0460147778735516   -0.4608312158586304   -0.15813328784014902
-1.0460147778735516   -0.4608312158586304   -0.15813328784014902
1.9076145568605118   0.3638879678060065   0.22799614303093196
1.9076145568605118   0.3638879678060065   0.22799614303093196
1.9076145568605118   0.3638879678060065   0.22799614303093196
1.9076145568605118   0.3638879678060065   0.22799614303093196
0.4754541195713693   0.01277667480948437   -0.038702792939120656
0.4754541195713693   0.01277667480948437   -0.038702792939120656
0.4754541195713693   0.01277667480948437   -0.038702792939120656
0.4754541195713693   0.01277667480948437   -0.038702792939120656
1.8153328358166074   0.14096672130909033   -0.010491215691704595
1.8153328358166074   0.14096672130909033   -0.010491215691704595
1.8153328358166074   0.14096672130909033   -0.010491215691704595
1.8153328358166074   0.14096672130909033   -0.010491215691704595
-0.9572266167415066   -0.24140352927357592   0.06637983123503782
-0.9572266167415066   -0.24140352927357592   0.06637983123503782
-0.9572266167415066   -0.24140352927357592   0.06637983123503782
-0.9572266167415066   -0.24140352927357592   0.06637983123503782
-1.1846677369616072   -0.5715389246450715   -0.12329670353929753
-1.1846677369616072   -0.5715389246450715   -0.12329670353929753
-1.1846677369616072   -0.5715389246450715   -0.12329670353929753
-1.1846677369616072   -0.5715389246450715   -0.12329670353929753
1.7522302228346551   0.23381974916194492   0.24786393315551764
1.7522302228346551   0.23381974916194492   0.24786393315551764
1.7522302228346551   0.23381974916194492   0.24786393315551764
1.7522302228346551   0.23381974916194492   0.24786393315551764
0.33609355185604767   -0.09739109615656388   -0.09489686851674736
0.33609355185604767   -0.09739109615656388   -0.09489686851674736
0.33609355185604767   -0.09739109615656388   -0.09489686851674736
0.33609355185604767   -0.09739109615656388   -0.09489686851674736
-0.5602758117215647   0.529560174381835   0.04787348534742317
-0.5602758117215647   0.529560174381835   0.04787348534742317
-0.5602758117215647   0.529560174381835   0.04787348534742317
-0.5602758117215647   0.529560174381835   0.04787348534742317
-3.415338855616216   -0.08297632974715052   -0.10349552499643477
-3.415338855616216   -0.08297632974715052   -0.10349552499643477
-3.415338855616216   -0.08297632974715052   -0.10349552499643477
-3.415338855616216   -0.08297632974715052   -0.10349552499643477
-3.55369950581737   -0.20161546230035376   -0.07599896778197282
-3.55369950581737   -0.20161546230035376   -0.07599896778197282
-3.55369950581737   -0.20161546230035376   -0.07599896778197282
-3.55369950581737   -0.20161546230035376   -0.07599896778197282
-0.7053551835345933   0.3804043513319084   0.08108777777722262
-0.7053551835345933   0.3804043513319084   0.08108777777722262
-0.7053551835345933   0.3804043513319084   0.08108777777722262
-0.7053551835345933   0.3804043513319084   0.08108777777722262
-2.0537006070366726   0.15405625301671577   0.0403323606904952
-2.0537006070366726   0.15405625301671577   0.0403323606904952
-2.0537006070366726   0.15405625301671577   0.0403323606904952
-2.0537006070366726   0.15405625301671577   0.0403323606904952
-0.700848415027733   0.4007997864522558   0.0832261851911919
-0.700848415027733   0.4007997864522558   0.0832261851911919
-0.700848415027733   0.4007997864522558   0.0832261851911919
-0.700848415027733   0.4007997864522558   0.0832261851911919
-3.5585398847804846   -0.22234450787687043   -0.07947181702102593
-3.5585398847804846   -0.22234450787687043   -0.07947181702102593
-3.5585398847804846   -0.22234450787687043   -0.07947181702102593
-3.5585398847804846   -0.22234450787687043   -0.07947181702102593
-3.695578100668653   -0.3292892534791356   -0.042359543706345704
-3.695578100668653   -0.3292892534791356   -0.042359543706345704
-3.695578100668653   -0.3292892534791356   -0.042359543706345704
-3.695578100668653   -0.3292892534791356   -0.042359543706345704
-0.852732642284365   0.24165063906932133   0.1057955351778173
-0.852732642284365   0.24165063906932133   0.1057955351778173
-0.852732642284365   0.24165063906932133   0.1057955351778173
-0.852732642284365   0.24165063906932133   0.1057955351778173
-2.1995898735991486   0.029936275486942443   -0.014269986949253521
-2.1995898735991486   0.029936275486942443   -0.014269986949253521
-2.1995898735991486   0.029936275486942443   -0.014269986949253521
-2.1995898735991486   0.029936275486942443   -0.014269986949253521
-0.8451790567659112   0.2719210703421385   0.1132930314972837
-0.8451790567659112   0.2719210703421385   0.1132930314972837
-0.8451790567659112   0.2719210703421385   0.1132930314972837
-0.8451790567659112   0.2719210703421385   0.1132930314972837
-3.7053107977746635   -0.36173879633954814   -0.05857348637598596
-3.7053107977746635   -0.36173879633954814   -0.05857348637598596
-3.7053107977746635   -0.36173879633954814   -0.05857348637598596
-3.7053107977746635   -0.36173879633954814   -0.05857348637598596
-3.835142485655662   -0.45131381181093866   -0.009710777969309553
-3.835142485655662   -0.45131381181093866   -0.009710777969309553
-3.835142485655662   -0.45131381181093866   -0.009710777969309553
-3.835142485655662   -0.45131381181093866   -0.009710777969309553
-0.9987993690010041   0.10680018748397074   0.12770602413464616
-0.9987993690010041   0.10680018748397074   0.12770602413464616
-0.9987993690010041   0.10680018748397074   0.12770602413464616
-0.9987993690010041   0.10680018748397074   0.12770602413464616
-2.3514220652048543   -0.0943493664847408   -0.07341595452230462
-2.3514220652048543   -0.0943493664847408   -0.07341595452230462
-2.3514220652048543   -0.0943493664847408   -0.07341595452230462
-2.3514220652048543   -0.0943493664847408   -0.07341595452230462
-3.221172326509468   0.6279426918753965   0.15641809891475456
-3.221172326509468   0.6279426918753965   0.15641809891475456
-3.221172326509468   0.6279426918753965   0.15641809891475456
-3.221172326509468   0.6279426918753965   0.15641809891475456
-6.115398832976302   -0.20394180250205007   -0.2115899690243544
-6.115398832976302   -0.20394180250205007   -0.2115899690243544
-6.115398832976302   -0.20394180250205007   -0.2115899690243544
-6.115398832976302   -0.20394180250205007   -0.2115899690243544
-6.1676012959591064   -0.08561386716109776   0.05264476527503087
-6.1676012959591064   -0.08561386716109776   0.05264476527503087
-6.1676012959591064   -0.08561386716109776   0.05264476527503087
-6.1676012959591064   -0.08561386716109776   0.05264476527503087
-3.457839245396364   0.24757267418809048   -0.045885802165417766
-3.457839245396364   0.24757267418809048   -0.045885802165417766
-3.457839245396364   0.24757267418809048   -0.045885802165417766
-3.457839245396364   0.24757267418809048   -0.045885802165417766
-4.712644121032525   0.1480014826427518   0.05876091706679959
-4.712644121032525   0.1480014826427518   0.05876091706679959
-4.712644121032525   0.1480014826427518   0.05876091706679959
-4.712644121032525   0.1480014826427518   0.05876091706679959
-3.359087531417984   0.5038741842291606   0.19157125768544425
-3.359087531417984   0.5038741842291606   0.19157125768544425
-3.359087531417984   0.5038741842291606   0.19157125768544425
-3.359087531417984   0.5038741842291606   0.19157125768544425
-6.270571944777439   -0.34613431204216094   -0.20168803393560003
-6.270571944777439   -0.34613431204216094   -0.20168803393560003
-6.270571944777439   -0.34613431204216094   -0.20168803393560003
-6.270571944777439   -0.34613431204216094   -0.20168803393560003
-6.334742692393696   -0.21202266091164623   0.06832874276967266
-6.334742692393696   -0.21202266091164623   0.06832874276967266
-6.334742692393696   -0.21202266091164623   0.06832874276967266
-6.334742692393696   -0.21202266091164623   0.06832874276967266
-3.601211991638713   0.1197659039845439   -0.019584156020388793
-3.601211991638713   0.1197659039845439   -0.019584156020388793
-3.601211991638713   0.1197659039845439   -0.019584156020388793
-3.601211991638713   0.1197659039845439   -0.019584156020388793
-4.835942513546368   0.03518161360256289   0.0039431820441029886
-4.835942513546368   0.03518161360256289   0.0039431820441029886
-4.835942513546368   0.03518161360256289   0.0039431820441029886
-4.835942513546368   0.03518161360256289   0.0039431820441029886
-3.49893132066362   0.386492404540304   0.22509269829934747
-3.49893132066362   0.386492404540304   0.22509269829934747
-3.49893132066362   0.386492404540304   0.22509269829934747
-3.49893132066362   0.386492404540304   0.22509269829934747
-6.437340569589007   -0.4790663676875935   -0.17761693643102644
-6.437340569589007   -0.4790663676875935   -0.17761693643102644
-6.437340569589007   -0.4790663676875935   -0.17761693643102644
-6.437340569589007   -0.4790663676875935   -0.17761693643102644
-6.483750870694917   -0.34643815201386063   0.10337146441853573
-6.483750870694917   -0.34643815201386063   0.10337146441853573
-6.483750870694917   -0.34643815201386063   0.10337146441853573
-6.483750870694917   -0.34643815201386063   0.10337146441853573
-3.7470544747585404   -0.021675060658205902   0.0010905253635039858
-3.7470544747585404   -0.021675060658205902   0.0010905253635039858
-3.7470544747585404   -0.021675060658205902   0.0010905253635039858
-3.7470544747585404   -0.021675060658205902   0.0010905253635039858
-5.019670168852869   -0.09516275675211139   -0.05944219428457165
-5.019670168852869   -0.09516275675211139   -0.05944219428457165
-5.019670168852869   -0.09516275675211139   -0.05944219428457165
-5.019670168852869   -0.09516275675211139   -0.05944219428457165
-5.8667033484941715   0.5816654355700084   0.2462802153142391
-5.8667033484941715   0.5816654355700084   0.2462802153142391
-5.8667033484941715   0.5816654355700084   0.2462802153142391
-5.8667033484941715   0.5816654355700084   0.2462802153142391
-8.647961189698924   -0.3969605962826819   -0.27686467894817174
-8.647961189698924   -0.3969605962826819   -0.27686467894817174
-8.647961189698924   -0.3969605962826819   -0.27686467894817174
-8.647961189698924   -0.3969605962826819   -0.27686467894817174
-8.733261601767646   -0.0018647848083483964   0.2443162616701886
-8.733261601767646   -0.0018647848083483964   0.2443162616701886
-8.733261601767646   -0.0018647848083483964   0.2443162616701886
-8.733261601767646   -0.0018647848083483964   0.2443162616701886
-6.177999629535413   0.08196749839003736   -0.16692826815775907
-6.177999629535413   0.08196749839003736   -0.16692826815775907
-6.177999629535413   0.08196749839003736   -0.16692826815775907
-6.177999629535413   0.08196749839003736   -0.16692826815775907
-7.033268843065835   0.13647041089685397   0.17705592221857214
-7.033268843065835   0.13647041089685397   0.17705592221857214
-7.033268843065835   0.13647041089685397   0.17705592221857214
-7.033268843065835   0.13647041089685397   0.17705592221857214
-5.991784390468233   0.5556587418593382   0.29045668370896205
-5.991784390468233   0.5556587418593382   0.29045668370896205
-5.991784390468233   0.5556587418593382   0.29045668370896205
-5.991784390468233   0.5556587418593382   0.29045668370896205
-8.923047927163351   -0.4791271146060909   -0.22735303551046204
-8.923047927163351   -0.4791271146060909   -0.22735303551046204
-8.923047927163351   -0.4791271146060909   -0.22735303551046204
-8.923047927163351   -0.4791271146060909   -0.22735303551046204
-8.96908995485701   -0.07127777661359724   0.30803401788512574
-8.96908995485701   -0.07127777661359724   0.30803401788512574
-8.96908995485701   -0.07127777661359724   0.30803401788512574
-8.96908995485701   -0.07127777661359724   0.30803401788512574
-6.332110869328057   0.011861794686162108   -0.14239659750006184
-6.332110869328057   0.011861794686162108   -0.14239659750006184
-6.332110869328057   0.011861794686162108   -0.14239659750006184
-6.332110869328057   0.011861794686162108   -0.14239659750006184
-7.3495073235866535   0.056512637676120026   0.09138871607898724
-7.3495073235866535   0.056512637676120026   0.09138871607898724
-7.3495073235866535   0.056512637676120026   0.09138871607898724
-7.3495073235866535   0.056512637676120026   0.09138871607898724
-6.137131376477814   0.5019830564772523   0.34237960496017883
-6.137131376477814   0.5019830564772523   0.34237960496017883
-6.137131376477814   0.5019830564772523   0.34237960496017883
-6.137131376477814   0.5019830564772523   0.34237960496017883
-9.166663039678776   -0.563992630376192   -0.1871165524611118
-9.166663039678776   -0.563992630376192   -0.1871165524611118
-9.166663039678776   -0.563992630376192   -0.1871165524611118
-9.166663039678776   -0.563992630376192   -0.1871165524611118
-9.2845899694912   -0.2873990248506486   0.3095042136439961
-9.2845899694912   -0.2873990248506486   0.3095042136439961
-9.2845899694912   -0.2873990248506486   0.3095042136439961
-9.2845899694912   -0.2873990248506486   0.3095042136439961
-6.493209840622607   -0.1644866834447527   -0.12587485378917695
-6.493209840622607   -0.1644866834447527   -0.12587485378917695
-6.493209840622607   -0.1644866834447527   -0.12587485378917695
-6.493209840622607   -0.1644866834447527   -0.12587485378917695
-7.441491660261502   -0.03425421178609467   0.05017001330288062
-7.441491660261502   -0.03425421178609467   0.05017001330288062
-7.441491660261502   -0.03425421178609467   0.05017001330288062
-7.441491660261502   -0.03425421178609467   0.05017001330288062
2.706529833045121   0.16036371559993529   -0.3334963037909451
2.706529833045121   0.16036371559993529   -0.3334963037909451
2.706529833045121   0.16036371559993529   -0.3334963037909451
2.706529833045121   0.16036371559993529   -0.3334963037909451
0.7764311336544144   0.20207382525821432   0.16038496626386906
0.7764311336544144   0.20207382525821432   0.16038496626386906
0.7764311336544144   0.20207382525821432   0.16038496626386906
0.7764311336544144   0.20207382525821432   0.16038496626386906
0.46547357720997456   -0.40461097375717614   -0.29380453692241193
0.46547357720997456   -0.40461097375717614   -0.29380453692241193
0.46547357720997456   -0.40461097375717614   -0.29380453692241193
0.46547357720997456   -0.40461097375717614   -0.29380453692241193
2.6295260533101   0.46779582873894227   0.19301385132945728
2.6295260533101   0.46779582873894227   0.19301385132945728
2.6295260533101   0.46779582873894227   0.19301385132945728
2.6295260533101   0.46779582873894227   0.19301385132945728
1.5479840951215065   0.0777902230693992   -0.03614366414498513
1.5479840951215065   0.0777902230693992   -0.03614366414498513
1.5479840951215065   0.0777902230693992   -0.03614366414498513
1.5479840951215065   0.0777902230693992   -0.03614366414498513
2.4336355110517673   -0.013288571540825578   -0.3053544596824523
2.4336355110517673   -0.013288571540825578   -0.3053544596824523
2.4336355110517673   -0.013288571540825578   -0.3053544596824523
2.4336355110517673   -0.013288571540825578   -0.3053544596824523
0.6552447688355859   0.07035407588986932   0.18008637155860704
0.6552447688355859   0.07035407588986932   0.18008637155860704
0.6552447688355859   0.07035407588986932   0.18008637155860704
0.6552447688355859   0.07035407588986932   0.18008637155860704
0.34796165595390005   -0.46238363696263035   -0.24918875810411933
0.34796165595390005   -0.46238363696263035   -0.24918875810411933
0.34796165595390005   -0.46238363696263035   -0.24918875810411933
0.34796165595390005   -0.46238363696263035   -0.24918875810411933
2.418327254079716   0.38802735363307284   0.24746841027842045
2.418327254079716   0.38802735363307284   0.24746841027842045
2.418327254079716   0.38802735363307284   0.24746841027842045
2.418327254079716   0.38802735363307284   0.24746841027842045
1.3994980249920115   -0.012250237193439206   -0.09486380136234947
1.3994980249920115   -0.012250237193439206   -0.09486380136234947
1.3994980249920115   -0.012250237193439206   -0.09486380136234947
1.3994980249920115   -0.012250237193439206   -0.09486380136234947
2.2236915021545203   -0.08744709603711381   -0.25023589967740234
2.2236915021545203   -0.08744709603711381   -0.25023589967740234
2.2236915021545203   -0.08744709603711381   -0.25023589967740234
2.2236915021545203   -0.08744709603711381   -0.25023589967740234
0.5344424195257366   0.00493582435423412   0.21589559843820663
0.5344424195257366   0.00493582435423412   0.21589559843820663
0.5344424195257366   0.00493582435423412   0.21589559843820663
0.5344424195257366   0.00493582435423412   0.21589559843820663
0.24278884667584255   -0.5330082660602004   -0.20738994512067394
0.24278884667584255   -0.5330082660602004   -0.20738994512067394
0.24278884667584255   -0.5330082660602004   -0.20738994512067394
0.24278884667584255   -0.5330082660602004   -0.20738994512067394
2.1570724154998935   0.2597836163089536   0.27435360528653596
2.1570724154998935   0.2597836163089536   0.27435360528653596
2.1570724154998935   0.2597836163089536   0.27435360528653596
2.1570724154998935   0.2597836163089536   0.27435360528653596
1.196723875276326   -0.09283870845532166   -0.16621530459394068
1.196723875276326   -0.09283870845532166   -0.16621530459394068
1.196723875276326   -0.09283870845532166   -0.16621530459394068
1.196723875276326   -0.09283870845532166   -0.16621530459394068
0.7436925230589548   0.2966702429549659   -0.09790450441018746
0.7436925230589548   0.2966702429549659   -0.09790450441018746
0.7436925230589548   0.2966702429549659   -0.09790450441018746
0.7436925230589548   0.2966702429549659   -0.09790450441018746
-1.126628200288248   0.09829137762448581   0.03964987450693215
-1.126628200288248   0.09829137762448581   0.03964987450693215
-1.126628200288248   0.09829137762448581   0.03964987450693215
-1.126628200288248   0.09829137762448581   0.03964987450693215
-1.3268239952663436   -0.25877286523068954   -0.17104142788164706
-1.3268239952663436   -0.25877286523068954   -0.17104142788164706
-1.3268239952663436   -0.25877286523068954   -0.17104142788164706
-1.3268239952663436   -0.25877286523068954   -0.17104142788164706
0.7151626319635513   0.36859438517853704   0.18143537790976635
0.7151626319635513   0.36859438517853704   0.18143537790976635
0.7151626319635513   0.36859438517853704   0.18143537790976635
0.7151626319635513   0.36859438517853704   0.18143537790976635
-0.25504760289170125   0.1209251704125763   0.030008773161188614
-0.25504760289170125   0.1209251704125763   0.030008773161188614
-0.25504760289170125   0.1209251704125763   0.030008773161188614
-0.25504760289170125   0.1209251704125763   0.030008773161188614
0.6208673819111395   0.1505703319553206   -0.07201681912907967
0.6208673819111395   0.1505703319553206   -0.07201681912907967
0.6208673819111395   0.1505703319553206   -0.07201681912907967
0.6208673819111395   0.1505703319553206   -0.07201681912907967
-1.2377043880209098   -0.04592445481445126   0.06170819792928572
-1.2377043880209098   -0.04592445481445126   0.06170819792928572
-1.2377043880209098   -0.04592445481445126   0.06170819792928572
-1.2377043880209098   -0.04592445481445126   0.06170819792928572
-1.4319838123093618   -0.376362395794129   -0.13365730579987212
-1.4319838123093618   -0.376362395794129   -0.13365730579987212
-1.4319838123093618   -0.376362395794129   -0.13365730579987212
-1.4319838123093618   -0.376362395794129   -0.13365730579987212
0.5771775370050252   0.23675408347863122   0.1977529267102534
0.5771775370050252   0.23675408347863122   0.1977529267102534
0.5771775370050252   0.23675408347863122   0.1977529267102534
0.5771775370050252   0.23675408347863122   0.1977529267102534
-0.38477998696123267   -0.005532884209513228   -0.030545471629697788
-0.38477998696123267   -0.005532884209513228   -0.030545471629697788
-0.38477998696123267   -0.005532884209513228   -0.030545471629697788
-0.38477998696123267   -0.005532884209513228   -0.030545471629697788
0.4857011962369209   0.024442606953977444   -0.04731730060562269
0.4857011962369209   0.024442606953977444   -0.04731730060562269
0.4857011962369209   0.024442606953977444   -0.04731730060562269
0.4857011962369209   0.024442606953977444   -0.04731730060562269
-1.3472005051950597   -0.17074395292323555   0.08464078690075919
-1.3472005051950597   -0.17074395292323555   0.08464078690075919
-1.3472005051950597   -0.17074395292323555   0.08464078690075919
-1.3472005051950597   -0.17074395292323555   0.08464078690075919
-1.5363647601228714   -0.49344317956033235   -0.09985572749858793
-1.5363647601228714   -0.49344317956033235   -0.09985572749858793
-1.5363647601228714   -0.49344317956033235   -0.09985572749858793
-1.5363647601228714   -0.49344317956033235   -0.09985572749858793
0.45637289705101614   0.10685625968548032   0.22066578100951717
0.45637289705101614   0.10685625968548032   0.22066578100951717
0.45637289705101614   0.10685625968548032   0.22066578100951717
0.45637289705101614   0.10685625968548032   0.22066578100951717
-0.4974305607245527   -0.1192841041716238   -0.0878732909516504
-0.4974305607245527   -0.1192841041716238   -0.0878732909516504
-0.4974305607245527   -0.1192841041716238   -0.0878732909516504
-0.4974305607245527   -0.1192841041716238   -0.0878732909516504
-1.0694436978513853   0.40972879972354054   0.01413496459219063
-1.0694436978513853   0.40972879972354054   0.01413496459219063
-1.0694436978513853   0.40972879972354054   0.01413496459219063
-1.0694436978513853   0.40972879972354054   0.01413496459219063
-3.005449421795382   -0.03347811644702725   -0.08202103500989402
-3.005449421795382   -0.03347811644702725   -0.08202103500989402
-3.005449421795382   -0.03347811644702725   -0.08202103500989402
-3.005449421795382   -0.03347811644702725   -0.08202103500989402
-3.100009363336344   -0.12449053364796148   -0.048732467320621115
-3.100009363336344   -0.12449053364796148   -0.048732467320621115
-3.100009363336344   -0.12449053364796148   -0.048732467320621115
-3.100009363336344   -0.12449053364796148   -0.048732467320621115
-1.180843107568917   0.24245127320740062   0.05763887216738131
-1.180843107568917   0.24245127320740062   0.05763887216738131
-1.180843107568917   0.24245127320740062   0.05763887216738131
-1.180843107568917   0.24245127320740062   0.05763887216738131
-2.084047525898757   0.12107791434717724   0.03128390463267475
-2.084047525898757   0.12107791434717724   0.03128390463267475
-2.084047525898757   0.12107791434717724   0.03128390463267475
-2.084047525898757   0.12107791434717724   0.03128390463267475
-1.1750485495198044   0.2800505914195781   0.049012344200782265
-1.1750485495198044   0.2800505914195781   0.049012344200782265
-1.1750485495198044   0.2800505914195781   0.049012344200782265
-1.1750485495198044   0.2800505914195781   0.049012344200782265
-3.110320956395026   -0.1666068868697571   -0.05817407939229849
-3.110320956395026   -0.1666068868697571   -0.05817407939229849
-3.110320956395026   -0.1666068868697571   -0.05817407939229849
-3.110320956395026   -0.1666068868697571   -0.05817407939229849
-3.204680237042701   -0.25285852510159185   -0.01480269091841209
-3.204680237042701   -0.25285852510159185   -0.01480269091841209
-3.204680237042701   -0.25285852510159185   -0.01480269091841209
-3.204680237042701   -0.25285852510159185   -0.01480269091841209
-1.2918693851733396   0.10874362052033837   0.08180881356575609
-1.2918693851733396   0.10874362052033837   0.08180881356575609
-1.2918693851733396   0.10874362052033837   0.08180881356575609
-1.2918693851733396   0.10874362052033837   0.08180881356575609
-2.1932910952058937   -0.0007518170924625256   -0.02306141853389923
-2.1932910952058937   -0.0007518170924625256   -0.02306141853389923
-2.1932910952058937   -0.0007518170924625256   -0.02306141853389923
-2.1932910952058937   -0.0007518170924625256   -0.02306141853389923
-1.2841043241759924   0.15007728622500371   0.07930045284785657
-1.2841043241759924   0.15007728622500371   0.07930045284785657
-1.2841043241759924   0.15007728622500371   0.07930045284785657
-1.2841043241759924   0.15007728622500371   0.07930045284785657
-3.218873045921906   -0.30061993868807374   -0.038005321727983446
-3.218873045921906   -0.30061993868807374   -0.038005321727983446
-3.218873045921906   -0.30061993868807374   -0.038005321727983446
-3.218873045921906   -0.30061993868807374   -0.038005321727983446
-3.307399025635342   -0.3768641908394464   0.017983789151898674
-3.307399025635342   -0.3768641908394464   0.017983789151898674
-3.307399025635342   -0.3768641908394464   0.017983789151898674
-3.307399025635342   -0.3768641908394464   0.017983789151898674
-1.4009249256650134   -0.020120356800871986   0.10402062203124117
-1.4009249256650134   -0.020120356800871986   0.10402062203124117
-1.4009249256650134   -0.020120356800871986   0.10402062203124117
-1.4009249256650134   -0.020120356800871986   0.10402062203124117
-2.308184728254857   -0.12290353876185289   -0.08204043566493732
-2.308184728254857   -0.12290353876185289   -0.08204043566493732
-2.308184728254857   -0.12290353876185289   -0.08204043566493732
-2.308184728254857   -0.12290353876185289   -0.08204043566493732
-2.8532708044560207   0.5165671533790459   0.12882678186084356
-2.8532708044560207   0.5165671533790459   0.12882678186084356
-2.8532708044560207   0.5165671533790459   0.12882678186084356
-2.8532708044560207   0.5165671533790459   0.12882678186084356
-4.84095384089362   -0.14093644549158868   -0.18808034444983618
-4.84095384089362   -0.14093644549158868   -0.18808034444983618
-4.84095384089362   -0.14093644549158868   -0.18808034444983618
-4.84095384089362   -0.14093644549158868   -0.18808034444983618
-4.85039287574246   -0.005542682149458189   0.08109104649293525
-4.85039287574246   -0.005542682149458189   0.08109104649293525
-4.85039287574246   -0.005542682149458189   0.08109104649293525
-4.85039287574246   -0.005542682149458189   0.08109104649293525
-3.0524767948952127   0.12430893964786471   -0.05986909841088317
-3.0524767948952127   0.12430893964786471   -0.05986909841088317
-3.0524767948952127   0.12430893964786471   -0.05986909841088317
-3.0524767948952127   0.12430893964786471   -0.05986909841088317
-3.8796934324700487   0.12347231319769358   0.04150113343228437
-3.8796934324700487   0.12347231319769358   0.04150113343228437
-3.8796934324700487   0.12347231319769358   0.04150113343228437
-3.8796934324700487   0.12347231319769358   0.04150113343228437
-2.9545656409332137   0.39016973143605604   0.16382587961101353
-2.9545656409332137   0.39016973143605604   0.16382587961101353
-2.9545656409332137   0.39016973143605604   0.16382587961101353
-2.9545656409332137   0.39016973143605604   0.16382587961101353
-4.957005552992657   -0.2801049972257994   -0.17741002468176081
-4.957005552992657   -0.2801049972257994   -0.17741002468176081
-4.957005552992657   -0.2801049972257994   -0.17741002468176081
-4.957005552992657   -0.2801049972257994   -0.17741002468176081
-4.979188462912708   -0.13203068135106422   0.09940938857556555
-4.979188462912708   -0.13203068135106422   0.09940938857556555
-4.979188462912708   -0.13203068135106422   0.09940938857556555
-4.979188462912708   -0.13203068135106422   0.09940938857556555
-3.1576979317029   0.001315339799051185   -0.03406502912011164
-3.1576979317029   0.001315339799051185   -0.03406502912011164
-3.1576979317029   0.001315339799051185   -0.03406502912011164
-3.1576979317029   0.001315339799051185   -0.03406502912011164
-3.972801992669457   0.009781716595083867   -0.015521439846885143
-3.972801992669457   0.009781716595083867   -0.015521439846885143
-3.972801992669457   0.009781716595083867   -0.015521439846885143
-3.972801992669457   0.009781716595083867   -0.015521439846885143
-3.0571751137198837   0.27205249240933693   0.197811908184747
-3.0571751137198837   0.27205249240933693   0.197811908184747
-3.0571751137198837   0.27205249240933693   0.197811908184747
-3.0571751137198837   0.27205249240933693   0.197811908184747
-5.085127265341297   -0.4081838184069225   -0.154131486511583
-5.085127265341297   -0.4081838184069225   -0.154131486511583
-5.085127265341297   -0.4081838184069225   -0.154131486511583
-5.085127265341297   -0.4081838184069225   -0.154131486511583
-5.090586364488734   -0.2636355292204534   0.13482007228246065
-5.090586364488734   -0.2636355292204534   0.13482007228246065
-5.090586364488734   -0.2636355292204534   0.13482007228246065
-5.090586364488734   -0.2636355292204534   0.13482007228246065
-3.2642013951628246   -0.12995437123872344   -0.01293787808629715
-3.2642013951628246   -0.12995437123872344   -0.01293787808629715
-3.2642013951628246   -0.12995437123872344   -0.01293787808629715
-3.2642013951628246   -0.12995437123872344   -0.01293787808629715
-4.110491373702694   -0.11364338976991217   -0.07749310932856082
-4.110491373702694   -0.11364338976991217   -0.07749310932856082
-4.110491373702694   -0.11364338976991217   -0.07749310932856082
-4.110491373702694   -0.11364338976991217   -0.07749310932856082
-4.627866443362037   0.5080961069313665   0.22832409078518484
-4.627866443362037   0.5080961069313665   0.22832409078518484
-4.627866443362037   0.5080961069313665   0.22832409078518484
-4.627866443362037   0.5080961069313665   0.22832409078518484
-6.500841452458699   -0.2977992916901817   -0.2874450124963281
-6.500841452458699   -0.2977992916901817   -0.2874450124963281
-6.500841452458699   -0.2977992916901817   -0.2874450124963281
-6.500841452458699   -0.2977992916901817   -0.2874450124963281
-6.549215172216969   0.08913059608982188   0.2401027630227197
-6.549215172216969   0.08913059608982188   0.2401027630227197
-6.549215172216969   0.08913059608982188   0.2401027630227197
-6.549215172216969   0.08913059608982188   0.2401027630227197
-4.904115677076529   -0.01711684978235195   -0.17594879254457058
-4.904115677076529   -0.01711684978235195   -0.17594879254457058
-4.904115677076529   -0.01711684978235195   -0.17594879254457058
-4.904115677076529   -0.01711684978235195   -0.17594879254457058
-5.403369540260948   0.12325172157639575   0.1297929173389331
-5.403369540260948   0.12325172157639575   0.1297929173389331
-5.403369540260948   0.12325172157639575   0.1297929173389331
-5.403369540260948   0.12325172157639575   0.1297929173389331
-4.719278860857677   0.4611008279255133   0.27001761084188436
-4.719278860857677   0.4611008279255133   0.27001761084188436
-4.719278860857677   0.4611008279255133   0.27001761084188436
-4.719278860857677   0.4611008279255133   0.27001761084188436
-6.743289309086821   -0.3983244022690331   -0.24281292296768436
-6.743289309086821   -0.3983244022690331   -0.24281292296768436
-6.743289309086821   -0.3983244022690331   -0.24281292296768436
-6.743289309086821   -0.3983244022690331   -0.24281292296768436
-6.749535253799895   0.01822002261301625   0.3068189266060477
-6.749535253799895   0.01822002261301625   0.3068189266060477
-6.749535253799895   0.01822002261301625   0.3068189266060477
-6.749535253799895   0.01822002261301625   0.3068189266060477
-5.020044098832051   -0.08575228163983017   -0.1511471907324477
-5.020044098832051   -0.08575228163983017   -0.1511471907324477
-5.020044098832051   -0.08575228163983017   -0.1511471907324477
-5.020044098832051   -0.08575228163983017   -0.1511471907324477
-5.658312872738664   0.03922612042714291   0.045371953441761315
-5.658312872738664   0.03922612042714291   0.045371953441761315
-5.658312872738664   0.03922612042714291   0.045371953441761315
-5.658312872738664   0.03922612042714291   0.045371953441761315
-4.827285855098431   0.4055703885760642   0.3213213577198233
-4.827285855098431   0.4055703885760642   0.3213213577198233
-4.827285855098431   0.4055703885760642   0.3213213577198233
-4.827285855098431   0.4055703885760642   0.3213213577198233
-6.951081370815082   -0.48189052088443485   -0.20080111497244063
-6.951081370815082   -0.48189052088443485   -0.20080111497244063
-6.951081370815082   -0.48189052088443485   -0.20080111497244063
-6.951081370815082   -0.48189052088443485   -0.20080111497244063
-7.026783858067802   -0.18259891061327194   0.31713802781366696
-7.026783858067802   -0.18259891061327194   0.31713802781366696
-7.026783858067802   -0.18259891061327194   0.31713802781366696
-7.026783858067802   -0.18259891061327194   0.31713802781366696
-5.139592174178687   -0.24204733399178713   -0.1317971713960339
-5.139592174178687   -0.24204733399178713   -0.1317971713960339
-5.139592174178687   -0.24204733399178713   -0.1317971713960339
-5.139592174178687   -0.24204733399178713   -0.1317971713960339
-5.743062461552025   -0.04979497556408674   -0.005200355425954595
-5.743062461552025   -0.04979497556408674   -0.005200355425954595
-5.743062461552025   -0.04979497556408674   -0.005200355425954595
-5.743062461552025   -0.04979497556408674   -0.005200355425954595
0.43914579286704547   0.03626613598601898   -0.3313681393097387
0.43914579286704547   0.03626613598601898   -0.3313681393097387
0.43914579286704547   0.03626613598601898   -0.3313681393097387
0.43914579286704547   0.03626613598601898   -0.3313681393097387
-0.5682990198281208   0.24963504109680273   0.1701726182998855
-0.5682990198281208   0.24963504109680273   0.1701726182998855
-0.5682990198281208   0.24963504109680273   0.1701726182998855
-0.5682990198281208   0.24963504109680273   0.1701726182998855
-0.8382729020058763   -0.3176675560146976   -0.26650411712276534
-0.8382729020058763   -0.3176675560146976   -0.26650411712276534
-0.8382729020058763   -0.3176675560146976   -0.26650411712276534
-0.8382729020058763   -0.3176675560146976   -0.26650411712276534
0.39823219375418595   0.34688440286302347   0.2093375682868705
0.39823219375418595   0.34688440286302347   0.2093375682868705
0.39823219375418595   0.34688440286302347   0.2093375682868705
0.39823219375418595   0.34688440286302347   0.2093375682868705
-0.15160873505948397   0.07605425947481571   0.029067814777188634
-0.15160873505948397   0.07605425947481571   0.029067814777188634
-0.15160873505948397   0.07605425947481571   0.029067814777188634
-0.15160873505948397   0.07605425947481571   0.029067814777188634
0.2048434818454783   -0.11490647791550201   -0.29581511047814213
0.2048434818454783   -0.11490647791550201   -0.29581511047814213
0.2048434818454783   -0.11490647791550201   -0.29581511047814213
0.2048434818454783   -0.11490647791550201   -0.29581511047814213
-0.6564098825407095   0.13259763232028704   0.19254579186808388
-0.6564098825407095   0.13259763232028704   0.19254579186808388
-0.6564098825407095   0.13259763232028704   0.19254579186808388
-0.6564098825407095   0.13259763232028704   0.19254579186808388
-0.9270060762187904   -0.3756457468837081   -0.22556376200697756
-0.9270060762187904   -0.3756457468837081   -0.22556376200697756
-0.9270060762187904   -0.3756457468837081   -0.22556376200697756
-0.9270060762187904   -0.3756457468837081   -0.22556376200697756
0.21501599072786456   0.26798363055499064   0.2866851480278692
0.21501599072786456   0.26798363055499064   0.2866851480278692
0.21501599072786456   0.26798363055499064   0.2866851480278692
0.21501599072786456   0.26798363055499064   0.2866851480278692
-0.296931376519317   -0.010753621170763061   -0.03810453604226744
-0.296931376519317   -0.010753621170763061   -0.03810453604226744
-0.296931376519317   -0.010753621170763061   -0.03810453604226744
-0.296931376519317   -0.010753621170763061   -0.03810453604226744
0.017272099925387398   -0.19040624528282107   -0.24364443014672024
0.017272099925387398   -0.19040624528282107   -0.24364443014672024
0.017272099925387398   -0.19040624528282107   -0.24364443014672024
0.017272099925387398   -0.19040624528282107   -0.24364443014672024
-0.7452126136424502   0.06679370072796284   0.2409641032630449
-0.7452126136424502   0.06679370072796284   0.2409641032630449
-0.7452126136424502   0.06679370072796284   0.2409641032630449
-0.7452126136424502   0.06679370072796284   0.2409641032630449
-1.0083045616884503   -0.4655111382511633   -0.18674319032570486
-1.0083045616884503   -0.4655111382511633   -0.18674319032570486
-1.0083045616884503   -0.4655111382511633   -0.18674319032570486
-1.0083045616884503   -0.4655111382511633   -0.18674319032570486
-0.039404505385983446   0.10209419640629575   0.32645313267523257
-0.039404505385983446   0.10209419640629575   0.32645313267523257
-0.039404505385983446   0.10209419640629575   0.32645313267523257
-0.039404505385983446   0.10209419640629575   0.32645313267523257
-0.451354958270303   -0.09847288670205079   -0.1152438763057776
-0.451354958270303   -0.09847288670205079   -0.1152438763057776
-0.451354958270303   -0.09847288670205079   -0.1152438763057776
-0.451354958270303   -0.09847288670205079   -0.1152438763057776
-0.6468531082132598   0.1597698871935797   -0.13273266972258657
-0.6468531082132598   0.1597698871935797   -0.13273266972258657
-0.6468531082132598   0.1597698871935797   -0.13273266972258657
-0.6468531082132598   0.1597698871935797   -0.13273266972258657
-1.5939162585669733   0.06689082597215812   0.04477829022395627
-1.5939162585669733   0.06689082597215812   0.04477829022395627
-1.5939162585669733   0.06689082597215812   0.04477829022395627
-1.5939162585669733   0.06689082597215812   0.04477829022395627
-1.7327745862549142   -0.184924655926426   -0.13822260939658343
-1.7327745862549142   -0.184924655926426   -0.13822260939658343
-1.7327745862549142   -0.184924655926426   -0.13822260939658343
-1.7327745862549142   -0.184924655926426   -0.13822260939658343
-0.6642888590593498   0.15391741613407572   0.1318311254610943
-0.6642888590593498   0.15391741613407572   0.1318311254610943
-0.6642888590593498   0.15391741613407572   0.1318311254610943
-0.6642888590593498   0.15391741613407572   0.1318311254610943
-1.156932525617249   0.045770566143408686   0.02410354762543057
-1.156932525617249   0.045770566143408686   0.02410354762543057
-1.156932525617249   0.045770566143408686   0.02410354762543057
-1.156932525617249   0.045770566143408686   0.02410354762543057
-0.7393091343600395   0.01961865779184213   -0.10897149270011736
-0.7393091343600395   0.01961865779184213   -0.10897149270011736
-0.7393091343600395   0.01961865779184213   -0.10897149270011736
-0.7393091343600395   0.01961865779184213   -0.10897149270011736
-1.6671516057214901   -0.060023192351462695   0.06499082969554268
-1.6671516057214901   -0.060023192351462695   0.06499082969554268
-1.6671516057214901   -0.060023192351462695   0.06499082969554268
-1.6671516057214901   -0.060023192351462695   0.06499082969554268
-1.8017576441608427   -0.298924011003912   -0.10170236453659465
-1.8017576441608427   -0.298924011003912   -0.10170236453659465
-1.8017576441608427   -0.298924011003912   -0.10170236453659465
-1.8017576441608427   -0.298924011003912   -0.10170236453659465
-0.7714422988664655   0.02799132977671301   0.14861804809421786
-0.7714422988664655   0.02799132977671301   0.14861804809421786
-0.7714422988664655   0.02799132977671301   0.14861804809421786
-0.7714422988664655   0.02799132977671301   0.14861804809421786
-1.2440996156784772   -0.06838545695216874   -0.03307620558702014
-1.2440996156784772   -0.06838545695216874   -0.03307620558702014
-1.2440996156784772   -0.06838545695216874   -0.03307620558702014
-1.2440996156784772   -0.06838545695216874   -0.03307620558702014
-0.8436857659346721   -0.1032422949544815   -0.08136566251561284
-0.8436857659346721   -0.1032422949544815   -0.08136566251561284
-0.8436857659346721   -0.1032422949544815   -0.08136566251561284
-0.8436857659346721   -0.1032422949544815   -0.08136566251561284
-1.7395875481531227   -0.17776375733320243   0.08798786183129763
-1.7395875481531227   -0.17776375733320243   0.08798786183129763
-1.7395875481531227   -0.17776375733320243   0.08798786183129763
-1.7395875481531227   -0.17776375733320243   0.08798786183129763
-1.8711960561832512   -0.4166589517767948   -0.06934132306759096
-1.8711960561832512   -0.4166589517767948   -0.06934132306759096
-1.8711960561832512   -0.4166589517767948   -0.06934132306759096
-1.8711960561832512   -0.4166589517767948   -0.06934132306759096
-0.8609931206482702   -0.1001219875768834   0.18442486420091164
-0.8609931206482702   -0.1001219875768834   0.18442486420091164
-0.8609931206482702   -0.1001219875768834   0.18442486420091164
-0.8609931206482702   -0.1001219875768834   0.18442486420091164
-1.3314581586007805   -0.1818087603110794   -0.091364642752135
-1.3314581586007805   -0.1818087603110794   -0.091364642752135
-1.3314581586007805   -0.1818087603110794   -0.091364642752135
-1.3314581586007805   -0.1818087603110794   -0.091364642752135
-1.5654630870197357   0.26809196024711296   -0.014156986314839942
-1.5654630870197357   0.26809196024711296   -0.014156986314839942
-1.5654630870197357   0.26809196024711296   -0.014156986314839942
-1.5654630870197357   0.26809196024711296   -0.014156986314839942
-2.6120122329026336   -0.08851570791317809   -0.07322545462975513
-2.6120122329026336   -0.08851570791317809   -0.07322545462975513
-2.6120122329026336   -0.08851570791317809   -0.07322545462975513
-2.6120122329026336   -0.08851570791317809   -0.07322545462975513
-2.639098747256265   -0.06368612971466492   -0.014792502755598097
-2.639098747256265   -0.06368612971466492   -0.014792502755598097
-2.639098747256265   -0.06368612971466492   -0.014792502755598097
-2.639098747256265   -0.06368612971466492   -0.014792502755598097
-1.661676697777072   0.012078449898887844   0.020263727167282475
-1.661676697777072   0.012078449898887844   0.020263727167282475
-1.661676697777072   0.012078449898887844   0.020263727167282475
-1.661676697777072   0.012078449898887844   0.020263727167282475
-2.1151971681677124   0.030027287408808223   0.007692256277601478
-2.1151971681677124   0.030027287408808223   0.007692256277601478
-2.1151971681677124   0.030027287408808223   0.007692256277601478
-2.1151971681677124   0.030027287408808223   0.007692256277601478
-1.6352929016603222   0.14407147623802258   0.020189681411896393
-1.6352929016603222   0.14407147623802258   0.020189681411896393
-1.6352929016603222   0.14407147623802258   0.020189681411896393
-1.6352929016603222   0.14407147623802258   0.020189681411896393
-2.6744990945378277   -0.2046957072186122   -0.05078466165946238
-2.6744990945378277   -0.2046957072186122   -0.05078466165946238
-2.6744990945378277   -0.2046957072186122   -0.05078466165946238
-2.6744990945378277   -0.2046957072186122   -0.05078466165946238
-2.7037234451796044   -0.18614124390533138   0.01923855144367248
-2.7037234451796044   -0.18614124390533138   0.01923855144367248
-2.7037234451796044   -0.18614124390533138   0.01923855144367248
-2.7037234451796044   -0.18614124390533138   0.01923855144367248
-1.7349228138961381   -0.10824454228990738   0.04179231807292412
-1.7349228138961381   -0.10824454228990738   0.04179231807292412
-1.7349228138961381   -0.10824454228990738   0.04179231807292412
-1.7349228138961381   -0.10824454228990738   0.04179231807292412
-2.1853350256641755   -0.08133650938054182   -0.044837866676223845
-2.1853350256641755   -0.08133650938054182   -0.044837866676223845
-2.1853350256641755   -0.08133650938054182   -0.044837866676223845
-2.1853350256641755   -0.08133650938054182   -0.044837866676223845
-1.7076511285679699   0.01933895801086072   0.05056724441299798
-1.7076511285679699   0.01933895801086072   0.05056724441299798
-1.7076511285679699   0.01933895801086072   0.05056724441299798
-1.7076511285679699   0.01933895801086072   0.05056724441299798
-2.7418567770721545   -0.32458639077048596   -0.032982961153952425
-2.7418567770721545   -0.32458639077048596   -0.032982961153952425
-2.7418567770721545   -0.32458639077048596   -0.032982961153952425
-2.7418567770721545   -0.32458639077048596   -0.032982961153952425
-2.766689740654167   -0.30371497790866125   0.05181233148144836
-2.766689740654167   -0.30371497790866125   0.05181233148144836
-2.766689740654167   -0.30371497790866125   0.05181233148144836
-2.766689740654167   -0.30371497790866125   0.05181233148144836
-1.8051660924892114   -0.22189613400411515   0.0660456776298973
-1.8051660924892114   -0.22189613400411515   0.0660456776298973
-1.8051660924892114   -0.22189613400411515   0.0660456776298973
-1.8051660924892114   -0.22189613400411515   0.0660456776298973
-2.2608111619006808   -0.19344822259450545   -0.10190640038221555
-2.2608111619006808   -0.19344822259450545   -0.10190640038221555
-2.2608111619006808   -0.19344822259450545   -0.10190640038221555
-2.2608111619006808   -0.19344822259450545   -0.10190640038221555
-2.4800058714890545   0.3904394551535395   0.10785118937148491
-2.4800058714890545   0.3904394551535395   0.10785118937148491
-2.4800058714890545   0.3904394551535395   0.10785118937148491
-2.4800058714890545   0.3904394551535395   0.10785118937148491
-3.5881159530253006   -0.14627718577775273   -0.16466169400505087
-3.5881159530253006   -0.14627718577775273   -0.16466169400505087
-3.5881159530253006   -0.14627718577775273   -0.16466169400505087
-3.5881159530253006   -0.14627718577775273   -0.16466169400505087
-3.5390627034905457   0.061523554205045294   0.11278988297010703
-3.5390627034905457   0.061523554205045294   0.11278988297010703
-3.5390627034905457   0.061523554205045294   0.11278988297010703
-3.5390627034905457   0.061523554205045294   0.11278988297010703
-2.648973751146969   -0.054115862689830374   -0.07373778923395197
-2.648973751146969   -0.054115862689830374   -0.07373778923395197
-2.648973751146969   -0.054115862689830374   -0.07373778923395197
-2.648973751146969   -0.054115862689830374   -0.07373778923395197
-3.0537233173864418   0.06343493908021969   0.014074446146959046
-3.0537233173864418   0.06343493908021969   0.014074446146959046
-3.0537233173864418   0.06343493908021969   0.014074446146959046
-3.0537233173864418   0.06343493908021969   0.014074446146959046
-2.5415617987441963   0.26692248381521744   0.1422836262748639
-2.5415617987441963   0.26692248381521744   0.1422836262748639
-2.5415617987441963   0.26692248381521744   0.1422836262748639
-2.5415617987441963   0.26692248381521744   0.1422836262748639
-3.6596331155841453   -0.2726732519908803   -0.1558653713020261
-3.6596331155841453   -0.2726732519908803   -0.1558653713020261
-3.6596331155841453   -0.2726732519908803   -0.1558653713020261
-3.6596331155841453   -0.2726732519908803   -0.1558653713020261
-3.6257855089927196   -0.05887309700235621   0.13308036416291663
-3.6257855089927196   -0.05887309700235621   0.13308036416291663
-3.6257855089927196   -0.05887309700235621   0.13308036416291663
-3.6257855089927196   -0.05887309700235621   0.13308036416291663
-2.7130499534422206   -0.16331628481509908   -0.05021894895963913
-2.7130499534422206   -0.16331628481509908   -0.05021894895963913
-2.7130499534422206   -0.16331628481509908   -0.05021894895963913
-2.7130499534422206   -0.16331628481509908   -0.05021894895963913
-3.112702970150758   -0.043918590958213266   -0.042877417857077466
-3.112702970150758   -0.043918590958213266   -0.042877417857077466
-3.112702970150758   -0.043918590958213266   -0.042877417857077466
-3.112702970150758   -0.043918590958213266   -0.042877417857077466
-2.60439178321984   0.15395058232259828   0.17580503501456404
-2.60439178321984   0.15395058232259828   0.17580503501456404
-2.60439178321984   0.15395058232259828   0.17580503501456404
-2.60439178321984   0.15395058232259828   0.17580503501456404
-3.74483406183277   -0.3865303467576927   -0.13450515028205795
-3.74483406183277   -0.3865303467576927   -0.13450515028205795
-3.74483406183277   -0.3865303467576927   -0.13450515028205795
-3.74483406183277   -0.3865303467576927   -0.13450515028205795
-3.6963167986239336   -0.1799337523031569   0.16928062005264427
-3.6963167986239336   -0.1799337523031569   0.16928062005264427
-3.6963167986239336   -0.1799337523031569   0.16928062005264427
-3.6963167986239336   -0.1799337523031569   0.16928062005264427
-2.7773228950476887   -0.27492459316657847   -0.03014382522827619
-2.7773228950476887   -0.27492459316657847   -0.03014382522827619
-2.7773228950476887   -0.27492459316657847   -0.03014382522827619
-2.7773228950476887   -0.27492459316657847   -0.03014382522827619
-3.201223152056274   -0.15307511924484019   -0.10111544860735974
-3.201223152056274   -0.15307511924484019   -0.10111544860735974
-3.201223152056274   -0.15307511924484019   -0.10111544860735974
-3.201223152056274   -0.15307511924484019   -0.10111544860735974
-3.3987658317074936   0.42272265026710165   0.21308907653912873
-3.3987658317074936   0.42272265026710165   0.21308907653912873
-3.3987658317074936   0.42272265026710165   0.21308907653912873
-3.3987658317074936   0.42272265026710165   0.21308907653912873
-4.357830833504645   -0.21667597709763664   -0.27706975298770986
-4.357830833504645   -0.21667597709763664   -0.27706975298770986
-4.357830833504645   -0.21667597709763664   -0.27706975298770986
-4.357830833504645   -0.21667597709763664   -0.27706975298770986
-4.3607357338838195   0.17372509924629242   0.23488100940594142
-4.3607357338838195   0.17372509924629242   0.23488100940594142
-4.3607357338838195   0.17372509924629242   0.23488100940594142
-4.3607357338838195   0.17372509924629242   0.23488100940594142
-3.633054311916153   -0.12604223027101247   -0.16960237468187342
-3.633054311916153   -0.12604223027101247   -0.16960237468187342
-3.633054311916153   -0.12604223027101247   -0.16960237468187342
-3.633054311916153   -0.12604223027101247   -0.16960237468187342
-3.7788346513496514   0.10160993265312057   0.0718341319448807
-3.7788346513496514   0.10160993265312057   0.0718341319448807
-3.7788346513496514   0.10160993265312057   0.0718341319448807
-3.7788346513496514   0.10160993265312057   0.0718341319448807
-3.4518870650551268   0.35879746416773295   0.2513941651844515
-3.4518870650551268   0.35879746416773295   0.2513941651844515
-3.4518870650551268   0.35879746416773295   0.2513941651844515
-3.4518870650551268   0.35879746416773295   0.2513941651844515
-4.555521893619724   -0.32473350806733203   -0.24059118195990045
-4.555521893619724   -0.32473350806733203   -0.24059118195990045
-4.555521893619724   -0.32473350806733203   -0.24059118195990045
-4.555521893619724   -0.32473350806733203   -0.24059118195990045
-4.5185271210878675   0.1053556573673734   0.30287552655938615
-4.5185271210878675   0.1053556573673734   0.30287552655938615
-4.5185271210878675   0.1053556573673734   0.30287552655938615
-4.5185271210878675   0.1053556573673734   0.30287552655938615
-3.708139605125013   -0.18877599557411695   -0.14878721792684693
-3.708139605125013   -0.18877599557411695   -0.14878721792684693
-3.708139605125013   -0.18877599557411695   -0.14878721792684693
-3.708139605125013   -0.18877599557411695   -0.14878721792684693
-3.966113142718444   0.018321725840472425   -0.006793250866190231
-3.966113142718444   0.018321725840472425   -0.006793250866190231
-3.966113142718444   0.018321725840472425   -0.006793250866190231
-3.966113142718444   0.018321725840472425   -0.006793250866190231
-3.5193030953300415   0.3049576869182   0.3016616485556927
-3.5193030953300415   0.3049576869182   0.3016616485556927
-3.5193030953300415   0.3049576869182   0.3016616485556927
-3.5193030953300415   0.3049576869182   0.3016616485556927
-4.721306696423364   -0.4023210906654481   -0.2033456020851511
-4.721306696423364   -0.4023210906654481   -0.2033456020851511
-4.721306696423364   -0.4023210906654481   -0.2033456020851511
-4.721306696423364   -0.4023210906654481   -0.2033456020851511
-4.752348846042682   -0.07414014088916054   0.32049546598109313
-4.752348846042682   -0.07414014088916054   0.32049546598109313
-4.752348846042682   -0.07414014088916054   0.32049546598109313
-4.752348846042682   -0.07414014088916054   0.32049546598109313
-3.7834922408676843   -0.3179996889431853   -0.12853065452614013
-3.7834922408676843   -0.3179996889431853   -0.12853065452614013
-3.7834922408676843   -0.3179996889431853   -0.12853065452614013
-3.7834922408676843   -0.3179996889431853   -0.12853065452614013
-4.03886517661324   -0.06391832804774955   -0.06288918639569108
-4.03886517661324   -0.06391832804774955   -0.06288918639569108
-4.03886517661324   -0.06391832804774955   -0.06288918639569108
-4.03886517661324   -0.06391832804774955   -0.06288918639569108
-1.9284364670514946   -0.1265641467679408   -0.35068587380045846
-1.9284364670514946   -0.1265641467679408   -0.35068587380045846
-1.9284364670514946   -0.1265641467679408   -0.35068587380045846
-1.9284364670514946   -0.1265641467679408   -0.35068587380045846
-1.8797667006884502   0.27048931180282665   0.15823201184798258
-1.8797667006884502   0.27048931180282665   0.15823201184798258
-1.8797667006884502   0.27048931180282665   0.15823201184798258
-1.8797667006884502   0.27048931180282665   0.15823201184798258
-2.1103098835336955   -0.24408629040004687   -0.23697382074059944
-2.1103098835336955   -0.24408629040004687   -0.23697382074059944
-2.1103098835336955   -0.24408629040004687   -0.23697382074059944
-2.1103098835336955   -0.24408629040004687   -0.23697382074059944
-1.9662542406132912   0.13629371561387293   0.2390396408230489
-1.9662542406132912   0.13629371561387293   0.2390396408230489
-1.9662542406132912   0.13629371561387293   0.2390396408230489
-1.9662542406132912   0.13629371561387293   0.2390396408230489
-1.8723853582196923   0.04436843425959924   0.16139945434168876
-1.8723853582196923   0.04436843425959924   0.16139945434168876
-1.8723853582196923   0.04436843425959924   0.16139945434168876
-1.8723853582196923   0.04436843425959924   0.16139945434168876
-2.1527299926046117   -0.2638205239750364   -0.29322487954463117
-2.1527299926046117   -0.2638205239750364   -0.29322487954463117
-2.1527299926046117   -0.2638205239750364   -0.29322487954463117
-2.1527299926046117   -0.2638205239750364   -0.29322487954463117
-1.9473110220883676   0.1325510586428722   0.20138313744312203
-1.9473110220883676   0.1325510586428722   0.20138313744312203
-1.9473110220883676   0.1325510586428722   0.20138313744312203
-1.9473110220883676   0.1325510586428722   0.20138313744312203
-2.1788848147976263   -0.3081534420470341   -0.20009940945676372
-2.1788848147976263   -0.3081534420470341   -0.20009940945676372
-2.1788848147976263   -0.3081534420470341   -0.20009940945676372
-2.1788848147976263   -0.3081534420470341   -0.20009940945676372
-2.1451484149130664   0.048756729547134   0.44296278104491976
-2.1451484149130664   0.048756729547134   0.44296278104491976
-2.1451484149130664   0.048756729547134   0.44296278104491976
-2.1451484149130664   0.048756729547134   0.44296278104491976
-2.0381347685033386   -0.06582961625604122   0.06395155919905118
-2.0381347685033386   -0.06582961625604122   0.06395155919905118
-2.0381347685033386   -0.06582961625604122   0.06395155919905118
-2.0381347685033386   -0.06582961625604122   0.06395155919905118
-2.3590029641252483   -0.3497231975957886   -0.22783003787303674
-2.3590029641252483   -0.3497231975957886   -0.22783003787303674
-2.3590029641252483   -0.3497231975957886   -0.22783003787303674
-2.3590029641252483   -0.3497231975957886   -0.22783003787303674
-2.0201443987232883   0.035212351958070154   0.25023687690982227
-2.0201443987232883   0.035212351958070154   0.25023687690982227
-2.0201443987232883   0.035212351958070154   0.25023687690982227
-2.0201443987232883   0.035212351958070154   0.25023687690982227
-2.2348591879925648   -0.4337001635422719   -0.1570639844610249
-2.2348591879925648   -0.4337001635422719   -0.1570639844610249
-2.2348591879925648   -0.4337001635422719   -0.1570639844610249
-2.2348591879925648   -0.4337001635422719   -0.1570639844610249
-2.4236056076143577   -0.24049726674911182   0.414783096587124
-2.4236056076143577   -0.24049726674911182   0.414783096587124
-2.4236056076143577   -0.24049726674911182   0.414783096587124
-2.4236056076143577   -0.24049726674911182   0.414783096587124
-2.1799683021201504   -0.19627291157061488   -0.089709246235346
-2.1799683021201504   -0.19627291157061488   -0.089709246235346
-2.1799683021201504   -0.19627291157061488   -0.089709246235346
-2.1799683021201504   -0.19627291157061488   -0.089709246235346
-2.014283341107652   -0.06242552022486425   -0.18143635822035453
-2.014283341107652   -0.06242552022486425   -0.18143635822035453
-2.014283341107652   -0.06242552022486425   -0.18143635822035453
-2.014283341107652   -0.06242552022486425   -0.18143635822035453
-2.019984789434442   -0.24730796758047147   -0.010416452959814138
-2.019984789434442   -0.24730796758047147   -0.010416452959814138
-2.019984789434442   -0.24730796758047147   -0.010416452959814138
-2.019984789434442   -0.24730796758047147   -0.010416452959814138
-2.033062464389747   -0.1640514096366964   -0.08923939806236927
-2.033062464389747   -0.1640514096366964   -0.08923939806236927
-2.033062464389747   -0.1640514096366964   -0.08923939806236927
-2.033062464389747   -0.1640514096366964   -0.08923939806236927
-2.083093266949319   -0.340371553711672   -0.004605474507090913
-2.083093266949319   -0.340371553711672   -0.004605474507090913
-2.083093266949319   -0.340371553711672   -0.004605474507090913
-2.083093266949319   -0.340371553711672   -0.004605474507090913
-2.020205013356644   -0.21233315498540642   -0.008588622232801608
-2.020205013356644   -0.21233315498540642   -0.008588622232801608
-2.020205013356644   -0.21233315498540642   -0.008588622232801608
-2.020205013356644   -0.21233315498540642   -0.008588622232801608
-2.082965066793434   -0.18754271332735806   -0.15679331411199007
-2.082965066793434   -0.18754271332735806   -0.15679331411199007
-2.082965066793434   -0.18754271332735806   -0.15679331411199007
-2.082965066793434   -0.18754271332735806   -0.15679331411199007
-2.0461530759264925   -0.3298426614018752   0.01109879601906628
-2.0461530759264925   -0.3298426614018752   0.01109879601906628
-2.0461530759264925   -0.3298426614018752   0.01109879601906628
-2.0461530759264925   -0.3298426614018752   0.01109879601906628
-2.0657410073798266   -0.27201719164371796   -0.057125850494575706
-2.0657410073798266   -0.27201719164371796   -0.057125850494575706
-2.0657410073798266   -0.27201719164371796   -0.057125850494575706
-2.0657410073798266   -0.27201719164371796   -0.057125850494575706
-2.1563901366126053   -0.44069713615699446   0.04491767557830114
-2.1563901366126053   -0.44069713615699446   0.04491767557830114
-2.1563901366126053   -0.44069713615699446   0.04491767557830114
-2.1563901366126053   -0.44069713615699446   0.04491767557830114
-2.0648678336436936   -0.29930289584971037   -0.05824747494863214
-2.0648678336436936   -0.29930289584971037   -0.05824747494863214
-2.0648678336436936   -0.29930289584971037   -0.05824747494863214
-2.0648678336436936   -0.29930289584971037   -0.05824747494863214
-2.1610369200584336   -0.30287823303507605   -0.11613514477275923
-2.1610369200584336   -0.30287823303507605   -0.11613514477275923
-2.1610369200584336   -0.30287823303507605   -0.11613514477275923
-2.1610369200584336   -0.30287823303507605   -0.11613514477275923
-2.0776926713871737   -0.42643454221879645   0.03753318004373697
-2.0776926713871737   -0.42643454221879645   0.03753318004373697
-2.0776926713871737   -0.42643454221879645   0.03753318004373697
-2.0776926713871737   -0.42643454221879645   0.03753318004373697
-2.0948755627256572   -0.3888404653706841   -0.02528508269070487
-2.0948755627256572   -0.3888404653706841   -0.02528508269070487
-2.0948755627256572   -0.3888404653706841   -0.02528508269070487
-2.0948755627256572   -0.3888404653706841   -0.02528508269070487
-2.2122706654577637   -0.5688255737505086   0.09100403842121144
-2.2122706654577637   -0.5688255737505086   0.09100403842121144
-2.2122706654577637   -0.5688255737505086   0.09100403842121144
-2.2122706654577637   -0.5688255737505086   0.09100403842121144
-2.127073975368682   -0.4050421465851792   -0.12171375885646245
-2.127073975368682   -0.4050421465851792   -0.12171375885646245
-2.127073975368682   -0.4050421465851792   -0.12171375885646245
-2.127073975368682   -0.4050421465851792   -0.12171375885646245
-1.9652901152692617   0.048852997163813416   -0.03310404687816962
-1.9652901152692617   0.048852997163813416   -0.03310404687816962
-1.9652901152692617   0.048852997163813416   -0.03310404687816962
-1.9652901152692617   0.048852997163813416   -0.03310404687816962
-2.205316818396223   -0.41844769499345835   -0.10521706406043177
-2.205316818396223   -0.41844769499345835   -0.10521706406043177
-2.205316818396223   -0.41844769499345835   -0.10521706406043177
-2.205316818396223   -0.41844769499345835   -0.10521706406043177
-2.113787074319042   -0.07663731990525291   0.028795254688548932
-2.113787074319042   -0.07663731990525291   0.028795254688548932
-2.113787074319042   -0.07663731990525291   0.028795254688548932
-2.113787074319042   -0.07663731990525291   0.028795254688548932
-2.0867868489121997   -0.4563312158100622   -0.06558151450128355
-2.0867868489121997   -0.4563312158100622   -0.06558151450128355
-2.0867868489121997   -0.4563312158100622   -0.06558151450128355
-2.0867868489121997   -0.4563312158100622   -0.06558151450128355
-2.091345251533094   -0.23273034578036153   -0.04816694481581938
-2.091345251533094   -0.23273034578036153   -0.04816694481581938
-2.091345251533094   -0.23273034578036153   -0.04816694481581938
-2.091345251533094   -0.23273034578036153   -0.04816694481581938
-1.9941195494635362   -0.0584817604045329   -9.44726634797971e-05
-1.9941195494635362   -0.0584817604045329   -9.44726634797971e-05
-1.9941195494635362   -0.0584817604045329   -9.44726634797971e-05
-1.9941195494635362   -0.0584817604045329   -9.44726634797971e-05
-2.218191818758057   -0.4862242203010901   -0.08364156711068858
-2.218191818758057   -0.4862242203010901   -0.08364156711068858
-2.218191818758057   -0.4862242203010901   -0.08364156711068858
-2.218191818758057   -0.4862242203010901   -0.08364156711068858
-2.136873491925457   -0.18485127234271764   0.06070934583819139
-2.136873491925457   -0.18485127234271764   0.06070934583819139
-2.136873491925457   -0.18485127234271764   0.06070934583819139
-2.136873491925457   -0.18485127234271764   0.06070934583819139
-2.117360383637693   -0.5417214918206987   -0.045518431606938886
-2.117360383637693   -0.5417214918206987   -0.045518431606938886
-2.117360383637693   -0.5417214918206987   -0.045518431606938886
-2.117360383637693   -0.5417214918206987   -0.045518431606938886
-2.1160117308967243   -0.31528440046297124   -0.09073845260771876
-2.1160117308967243   -0.31528440046297124   -0.09073845260771876
-2.1160117308967243   -0.31528440046297124   -0.09073845260771876
-2.1160117308967243   -0.31528440046297124   -0.09073845260771876
-2.0271694211126037   -0.16859112459018388   0.03230601378800675
-2.0271694211126037   -0.16859112459018388   0.03230601378800675
-2.0271694211126037   -0.16859112459018388   0.03230601378800675
-2.0271694211126037   -0.16859112459018388   0.03230601378800675
-2.2401741530879313   -0.5710913382106203   -0.06955389410630827
-2.2401741530879313   -0.5710913382106203   -0.06955389410630827
-2.2401741530879313   -0.5710913382106203   -0.06955389410630827
-2.2401741530879313   -0.5710913382106203   -0.06955389410630827
-2.1554282687064243   -0.2867851052488317   0.09186299762352748
-2.1554282687064243   -0.2867851052488317   0.09186299762352748
-2.1554282687064243   -0.2867851052488317   0.09186299762352748
-2.1554282687064243   -0.2867851052488317   0.09186299762352748
-2.1397195159169677   -0.6239666946662322   -0.014378619351708533
-2.1397195159169677   -0.6239666946662322   -0.014378619351708533
-2.1397195159169677   -0.6239666946662322   -0.014378619351708533
-2.1397195159169677   -0.6239666946662322   -0.014378619351708533
-2.145592826266229   -0.40168695840701285   -0.13753264081772748
-2.145592826266229   -0.40168695840701285   -0.13753264081772748
-2.145592826266229   -0.40168695840701285   -0.13753264081772748
-2.145592826266229   -0.40168695840701285   -0.13753264081772748
-2.036438052550015   0.21761378929478692   0.10311528088236227
-2.036438052550015   0.21761378929478692   0.10311528088236227
-2.036438052550015   0.21761378929478692   0.10311528088236227
-2.036438052550015   0.21761378929478692   0.10311528088236227
-2.3911385167164996   -0.30998254074586395   -0.145916932791013
-2.3911385167164996   -0.30998254074586395   -0.145916932791013
-2.3911385167164996   -0.30998254074586395   -0.145916932791013
-2.3911385167164996   -0.30998254074586395   -0.145916932791013
-2.2599900114834615   0.06715857227232824   0.14365064591333315
-2.2599900114834615   0.06715857227232824   0.14365064591333315
-2.2599900114834615   0.06715857227232824   0.14365064591333315
-2.2599900114834615   0.06715857227232824   0.14365064591333315
-2.1920269043691   -0.35014306100889775   -0.08889815445809583
-2.1920269043691   -0.35014306100889775   -0.08889815445809583
-2.1920269043691   -0.35014306100889775   -0.08889815445809583
-2.1920269043691   -0.35014306100889775   -0.08889815445809583
-2.2199707480432425   -0.0914293861333258   -0.028787072235782335
-2.2199707480432425   -0.0914293861333258   -0.028787072235782335
-2.2199707480432425   -0.0914293861333258   -0.028787072235782335
-2.2199707480432425   -0.0914293861333258   -0.028787072235782335
-2.0559427502846184   0.10626150526709416   0.13511804968831992
-2.0559427502846184   0.10626150526709416   0.13511804968831992
-2.0559427502846184   0.10626150526709416   0.13511804968831992
-2.0559427502846184   0.10626150526709416   0.13511804968831992
-2.411619166783538   -0.40479099521923895   -0.1425455630954861
-2.411619166783538   -0.40479099521923895   -0.1425455630954861
-2.411619166783538   -0.40479099521923895   -0.1425455630954861
-2.411619166783538   -0.40479099521923895   -0.1425455630954861
-2.300940667117596   -0.03830112916703543   0.16274754295605426
-2.300940667117596   -0.03830112916703543   0.16274754295605426
-2.300940667117596   -0.03830112916703543   0.16274754295605426
-2.300940667117596   -0.03830112916703543   0.16274754295605426
-2.2119545222685266   -0.42866484538942606   -0.07088223283044973
-2.2119545222685266   -0.42866484538942606   -0.07088223283044973
-2.2119545222685266   -0.42866484538942606   -0.07088223283044973
-2.2119545222685266   -0.42866484538942606   -0.07088223283044973
-2.240126567595344   -0.18079154257083263   -0.07867166962178904
-2.240126567595344   -0.18079154257083263   -0.07867166962178904
-2.240126567595344   -0.18079154257083263   -0.07867166962178904
-2.240126567595344   -0.18079154257083263   -0.07867166962178904
-2.0773714606717655   0.007114041236395863   0.1662541885275033
-2.0773714606717655   0.007114041236395863   0.1662541885275033
-2.0773714606717655   0.007114041236395863   0.1662541885275033
-2.0773714606717655   0.007114041236395863   0.1662541885275033
-2.449002802121277   -0.4875590891997824   -0.12830517202960398
-2.449002802121277   -0.4875590891997824   -0.12830517202960398
-2.449002802121277   -0.4875590891997824   -0.12830517202960398
-2.449002802121277   -0.4875590891997824   -0.12830517202960398
-2.327698363965188   -0.1392971980998161   0.1983686190230345
-2.327698363965188   -0.1392971980998161   0.1983686190230345
-2.327698363965188   -0.1392971980998161   0.1983686190230345
-2.327698363965188   -0.1392971980998161   0.1983686190230345
-2.2288525270262216   -0.5074767483103716   -0.054566650913916145
-2.2288525270262216   -0.5074767483103716   -0.054566650913916145
-2.2288525270262216   -0.5074767483103716   -0.054566650913916145
-2.2288525270262216   -0.5074767483103716   -0.054566650913916145
-2.276031772011884   -0.264769150878985   -0.1269105642991944
-2.276031772011884   -0.264769150878985   -0.1269105642991944
-2.276031772011884   -0.264769150878985   -0.1269105642991944
-2.276031772011884   -0.264769150878985   -0.1269105642991944
-2.1964759483555714   0.31207635348605123   0.20533701478165575
-2.1964759483555714   0.31207635348605123   0.20533701478165575
-2.1964759483555714   0.31207635348605123   0.20533701478165575
-2.1964759483555714   0.31207635348605123   0.20533701478165575
-2.328664163320523   -0.1853877245641754   -0.21206572750646718
-2.328664163320523   -0.1853877245641754   -0.21206572750646718
-2.328664163320523   -0.1853877245641754   -0.21206572750646718
-2.328664163320523   -0.1853877245641754   -0.21206572750646718
-2.2740445476635784   0.2252966014957115   0.22808201989917157
-2.2740445476635784   0.2252966014957115   0.22808201989917157
-2.2740445476635784   0.2252966014957115   0.22808201989917157
-2.2740445476635784   0.2252966014957115   0.22808201989917157
-2.3766338101101177   -0.2428252430225491   -0.12958453192507363
-2.3766338101101177   -0.2428252430225491   -0.12958453192507363
-2.3766338101101177   -0.2428252430225491   -0.12958453192507363
-2.3766338101101177   -0.2428252430225491   -0.12958453192507363
-2.2165631500037266   0.05686629623181333   0.00711481394213101
-2.2165631500037266   0.05686629623181333   0.00711481394213101
-2.2165631500037266   0.05686629623181333   0.00711481394213101
-2.2165631500037266   0.05686629623181333   0.00711481394213101
-2.2065340031168894   0.24066679869076585   0.23742246132775427
-2.2065340031168894   0.24066679869076585   0.23742246132775427
-2.2065340031168894   0.24066679869076585   0.23742246132775427
-2.2065340031168894   0.24066679869076585   0.23742246132775427
-2.4567154151855424   -0.2707665007463291   -0.18920921546854913
-2.4567154151855424   -0.2707665007463291   -0.18920921546854913
-2.4567154151855424   -0.2707665007463291   -0.18920921546854913
-2.4567154151855424   -0.2707665007463291   -0.18920921546854913
-2.3742589701106502   0.166540829047084   0.29391627016479605
-2.3742589701106502   0.166540829047084   0.29391627016479605
-2.3742589701106502   0.166540829047084   0.29391627016479605
-2.3742589701106502   0.166540829047084   0.29391627016479605
-2.4073109165339575   -0.2888992660758888   -0.11850556721690059
-2.4073109165339575   -0.2888992660758888   -0.11850556721690059
-2.4073109165339575   -0.2888992660758888   -0.11850556721690059
-2.4073109165339575   -0.2888992660758888   -0.11850556721690059
-2.3242863274039784   -0.014467200942583136   -0.051324429924498954
-2.3242863274039784   -0.014467200942583136   -0.051324429924498954
-2.3242863274039784   -0.014467200942583136   -0.051324429924498954
-2.3242863274039784   -0.014467200942583136   -0.051324429924498954
-2.230261860841461   0.1934375715849075   0.28440287358472394
-2.230261860841461   0.1934375715849075   0.28440287358472394
-2.230261860841461   0.1934375715849075   0.28440287358472394
-2.230261860841461   0.1934375715849075   0.28440287358472394
-2.5678018777820433   -0.3322898605926188   -0.17496757855246498
-2.5678018777820433   -0.3322898605926188   -0.17496757855246498
-2.5678018777820433   -0.3322898605926188   -0.17496757855246498
-2.5678018777820433   -0.3322898605926188   -0.17496757855246498
-2.5526200026538786   0.01672091725538616   0.3142001382529114
-2.5526200026538786   0.01672091725538616   0.3142001382529114
-2.5526200026538786   0.01672091725538616   0.3142001382529114
-2.5526200026538786   0.01672091725538616   0.3142001382529114
-2.435163440059638   -0.37519039814309263   -0.1030635614059382
-2.435163440059638   -0.37519039814309263   -0.1030635614059382
-2.435163440059638   -0.37519039814309263   -0.1030635614059382
-2.435163440059638   -0.37519039814309263   -0.1030635614059382
-2.3754752072684213   -0.07984448707395958   -0.10432659668570239
-2.3754752072684213   -0.07984448707395958   -0.10432659668570239
-2.3754752072684213   -0.07984448707395958   -0.10432659668570239
-2.3754752072684213   -0.07984448707395958   -0.10432659668570239
-4.823943748347256   -0.43952489673735373   -0.4476619831939902
-4.823943748347256   -0.43952489673735373   -0.4476619831939902
-4.823943748347256   -0.43952489673735373   -0.4476619831939902
-4.823943748347256   -0.43952489673735373   -0.4476619831939902
-3.0437740398808177   0.26605262977049027   0.10604787402805851
-3.0437740398808177   0.26605262977049027   0.10604787402805851
-3.0437740398808177   0.26605262977049027   0.10604787402805851
-3.0437740398808177   0.26605262977049027   0.10604787402805851
-3.1943765482980617   -0.1967669146818667   -0.1981412029708784
-3.1943765482980617   -0.1967669146818667   -0.1981412029708784
-3.1943765482980617   -0.1967669146818667   -0.1981412029708784
-3.1943765482980617   -0.1967669146818667   -0.1981412029708784
-5.120086645915778   -0.5677070441874289   0.5054377291791305
-5.120086645915778   -0.5677070441874289   0.5054377291791305
-5.120086645915778   -0.5677070441874289   0.5054377291791305
-5.120086645915778   -0.5677070441874289   0.5054377291791305
-3.721138009991226   -0.13856253787597816   0.48824071714267203
-3.721138009991226   -0.13856253787597816   0.48824071714267203
-3.721138009991226   -0.13856253787597816   0.48824071714267203
-3.721138009991226   -0.13856253787597816   0.48824071714267203
-5.301820382768472   -0.6440125340301199   -0.32692546524161115
-5.301820382768472   -0.6440125340301199   -0.32692546524161115
-5.301820382768472   -0.6440125340301199   -0.32692546524161115
-5.301820382768472   -0.6440125340301199   -0.32692546524161115
-3.1402120849485375   -0.2480306983423598   0.12394489743723483
-3.1402120849485375   -0.2480306983423598   0.12394489743723483
-3.1402120849485375   -0.2480306983423598   0.12394489743723483
-3.1402120849485375   -0.2480306983423598   0.12394489743723483
-3.2402092353245933   -0.28707222305280694   -0.14112116154325788
-3.2402092353245933   -0.28707222305280694   -0.14112116154325788
-3.2402092353245933   -0.28707222305280694   -0.14112116154325788
-3.2402092353245933   -0.28707222305280694   -0.14112116154325788
-5.278502693897016   -0.794467255643133   0.014935492780017573
-5.278502693897016   -0.794467255643133   0.014935492780017573
-5.278502693897016   -0.794467255643133   0.014935492780017573
-5.278502693897016   -0.794467255643133   0.014935492780017573
-4.113571815872124   -0.4794767980673201   0.11194641162254364
-4.113571815872124   -0.4794767980673201   0.11194641162254364
-4.113571815872124   -0.4794767980673201   0.11194641162254364
-4.113571815872124   -0.4794767980673201   0.11194641162254364
-5.320441065976951   -0.7272825679393138   -0.26194105532343465
-5.320441065976951   -0.7272825679393138   -0.26194105532343465
-5.320441065976951   -0.7272825679393138   -0.26194105532343465
-5.320441065976951   -0.7272825679393138   -0.26194105532343465
-3.2372310278955148   -0.3932170754074804   -0.02008527204322022
-3.2372310278955148   -0.3932170754074804   -0.02008527204322022
-3.2372310278955148   -0.3932170754074804   -0.02008527204322022
-3.2372310278955148   -0.3932170754074804   -0.02008527204322022
-3.239444907954334   -0.5070363387501373   -0.10207296307802706
-3.239444907954334   -0.5070363387501373   -0.10207296307802706
-3.239444907954334   -0.5070363387501373   -0.10207296307802706
-3.239444907954334   -0.5070363387501373   -0.10207296307802706
-5.399247061953888   -1.2153648071527665   0.08333094699120339
-5.399247061953888   -1.2153648071527665   0.08333094699120339
-5.399247061953888   -1.2153648071527665   0.08333094699120339
-5.399247061953888   -1.2153648071527665   0.08333094699120339
-4.105535425150193   -0.6598604990661151   0.007348653195633853
-4.105535425150193   -0.6598604990661151   0.007348653195633853
-4.105535425150193   -0.6598604990661151   0.007348653195633853
-4.105535425150193   -0.6598604990661151   0.007348653195633853
-3.2871991088996237   -0.556393757617196   -0.2886310836782556
-3.2871991088996237   -0.556393757617196   -0.2886310836782556
-3.2871991088996237   -0.556393757617196   -0.2886310836782556
-3.2871991088996237   -0.556393757617196   -0.2886310836782556
-2.245648676189733   -1.4367315137656171   -0.27006216058553384
-2.245648676189733   -1.4367315137656171   -0.27006216058553384
-2.245648676189733   -1.4367315137656171   -0.27006216058553384
-2.245648676189733   -1.4367315137656171   -0.27006216058553384
-1.973312793707096   -0.32064422523068675   -0.01574930534438772
-1.973312793707096   -0.32064422523068675   -0.01574930534438772
-1.973312793707096   -0.32064422523068675   -0.01574930534438772
-1.973312793707096   -0.32064422523068675   -0.01574930534438772
-3.4893417415543437   -1.527881576394508   -0.34185250753964636
-3.4893417415543437   -1.527881576394508   -0.34185250753964636
-3.4893417415543437   -1.527881576394508   -0.34185250753964636
-3.4893417415543437   -1.527881576394508   -0.34185250753964636
-2.7166624692482646   -1.0201788548216535   -0.07880404785302272
-2.7166624692482646   -1.0201788548216535   -0.07880404785302272
-2.7166624692482646   -1.0201788548216535   -0.07880404785302272
-2.7166624692482646   -1.0201788548216535   -0.07880404785302272
-3.2833545484328415   -0.6228852823102371   -0.21691283601639355
-3.2833545484328415   -0.6228852823102371   -0.21691283601639355
-3.2833545484328415   -0.6228852823102371   -0.21691283601639355
-3.2833545484328415   -0.6228852823102371   -0.21691283601639355
-2.192681217675513   -1.2390217501618754   -0.19421390025531413
-2.192681217675513   -1.2390217501618754   -0.19421390025531413
-2.192681217675513   -1.2390217501618754   -0.19421390025531413
-2.192681217675513   -1.2390217501618754   -0.19421390025531413
-1.9928222429901712   -0.41606290996961115   0.00452091289278297
-1.9928222429901712   -0.41606290996961115   0.00452091289278297
-1.9928222429901712   -0.41606290996961115   0.00452091289278297
-1.9928222429901712   -0.41606290996961115   0.00452091289278297
-3.499039974797101   -1.5201104509121897   -0.2022366310464438
-3.499039974797101   -1.5201104509121897   -0.2022366310464438
-3.499039974797101   -1.5201104509121897   -0.2022366310464438
-3.499039974797101   -1.5201104509121897   -0.2022366310464438
-2.6844991558417513   -0.9563413329733108   -0.08369009632650558
-2.6844991558417513   -0.9563413329733108   -0.08369009632650558
-2.6844991558417513   -0.9563413329733108   -0.08369009632650558
-2.6844991558417513   -0.9563413329733108   -0.08369009632650558
-3.3304059975857747   -0.7169327355397355   -0.16224446036223486
-3.3304059975857747   -0.7169327355397355   -0.16224446036223486
-3.3304059975857747   -0.7169327355397355   -0.16224446036223486
-3.3304059975857747   -0.7169327355397355   -0.16224446036223486
-2.1889044308464345   -1.2466888359869972   -0.14526410037114762
-2.1889044308464345   -1.2466888359869972   -0.14526410037114762
-2.1889044308464345   -1.2466888359869972   -0.14526410037114762
-2.1889044308464345   -1.2466888359869972   -0.14526410037114762
-1.9886785294394507   -0.5356076779746668   0.03350138128210792
-1.9886785294394507   -0.5356076779746668   0.03350138128210792
-1.9886785294394507   -0.5356076779746668   0.03350138128210792
-1.9886785294394507   -0.5356076779746668   0.03350138128210792
-3.4872365716376974   -1.5471872121123886   -0.30088040813263844
-3.4872365716376974   -1.5471872121123886   -0.30088040813263844
-3.4872365716376974   -1.5471872121123886   -0.30088040813263844
-3.4872365716376974   -1.5471872121123886   -0.30088040813263844
-2.7217225505327707   -1.0293356796046371   -0.15514042375184908
-2.7217225505327707   -1.0293356796046371   -0.15514042375184908
-2.7217225505327707   -1.0293356796046371   -0.15514042375184908
-2.7217225505327707   -1.0293356796046371   -0.15514042375184908
-1.9806829403713873   -0.3573920880235948   -0.024572907235826752
-1.9806829403713873   -0.3573920880235948   -0.024572907235826752
-1.9806829403713873   -0.3573920880235948   -0.024572907235826752
-1.9806829403713873   -0.3573920880235948   -0.024572907235826752
-1.6479597555033323   -1.0964626849801729   -0.1893146971565824
-1.6479597555033323   -1.0964626849801729   -0.1893146971565824
-1.6479597555033323   -1.0964626849801729   -0.1893146971565824
-1.6479597555033323   -1.0964626849801729   -0.1893146971565824
-1.4195511220585801   -0.29441942156033746   0.07674172989372022
-1.4195511220585801   -0.29441942156033746   0.07674172989372022
-1.4195511220585801   -0.29441942156033746   0.07674172989372022
-1.4195511220585801   -0.29441942156033746   0.07674172989372022
-2.1871333890615325   -1.1954030891170961   -0.2100934182301906
-2.1871333890615325   -1.1954030891170961   -0.2100934182301906
-2.1871333890615325   -1.1954030891170961   -0.2100934182301906
-2.1871333890615325   -1.1954030891170961   -0.2100934182301906
-1.800678745734574   -0.7466786018577634   -0.08759277072235876
-1.800678745734574   -0.7466786018577634   -0.08759277072235876
-1.800678745734574   -0.7466786018577634   -0.08759277072235876
-1.800678745734574   -0.7466786018577634   -0.08759277072235876
-1.9899155416697019   -0.42310175461577715   0.003694484227643814
-1.9899155416697019   -0.42310175461577715   0.003694484227643814
-1.9899155416697019   -0.42310175461577715   0.003694484227643814
-1.9899155416697019   -0.42310175461577715   0.003694484227643814
-1.6285254437721317   -1.0784772303833776   -0.1840720698509983
-1.6285254437721317   -1.0784772303833776   -0.1840720698509983
-1.6285254437721317   -1.0784772303833776   -0.1840720698509983
-1.6285254437721317   -1.0784772303833776   -0.1840720698509983
-1.4172334506784607   -0.3727431549941403   0.09924631956662142
-1.4172334506784607   -0.3727431549941403   0.09924631956662142
-1.4172334506784607   -0.3727431549941403   0.09924631956662142
-1.4172334506784607   -0.3727431549941403   0.09924631956662142
-2.1911915926840897   -1.2143976002681391   -0.18899114527828267
-2.1911915926840897   -1.2143976002681391   -0.18899114527828267
-2.1911915926840897   -1.2143976002681391   -0.18899114527828267
-2.1911915926840897   -1.2143976002681391   -0.18899114527828267
-1.7950488647794218   -0.7765191809603119   -0.11359656413093627
-1.7950488647794218   -0.7765191809603119   -0.11359656413093627
-1.7950488647794218   -0.7765191809603119   -0.11359656413093627
-1.7950488647794218   -0.7765191809603119   -0.11359656413093627
-2.003567355640573   -0.5024272599713788   0.037159699642541094
-2.003567355640573   -0.5024272599713788   0.037159699642541094
-2.003567355640573   -0.5024272599713788   0.037159699642541094
-2.003567355640573   -0.5024272599713788   0.037159699642541094
-1.6112808312922466   -1.0911366388611696   -0.15259709963527898
-1.6112808312922466   -1.0911366388611696   -0.15259709963527898
-1.6112808312922466   -1.0911366388611696   -0.15259709963527898
-1.6112808312922466   -1.0911366388611696   -0.15259709963527898
-1.3973485875037437   -0.4478863414403026   0.12365221836459282
-1.3973485875037437   -0.4478863414403026   0.12365221836459282
-1.3973485875037437   -0.4478863414403026   0.12365221836459282
-1.3973485875037437   -0.4478863414403026   0.12365221836459282
-2.1617109134587196   -1.230650489243938   -0.13661772754499327
-2.1617109134587196   -1.230650489243938   -0.13661772754499327
-2.1617109134587196   -1.230650489243938   -0.13661772754499327
-2.1617109134587196   -1.230650489243938   -0.13661772754499327
-1.786526381432608   -0.815364473789125   -0.1312227844538211
-1.786526381432608   -0.815364473789125   -0.1312227844538211
-1.786526381432608   -0.815364473789125   -0.1312227844538211
-1.786526381432608   -0.815364473789125   -0.1312227844538211
-1.3739590912585435   -0.05043173439883994   0.13465767348602778
-1.3739590912585435   -0.05043173439883994   0.13465767348602778
-1.3739590912585435   -0.05043173439883994   0.13465767348602778
-1.3739590912585435   -0.05043173439883994   0.13465767348602778
-1.2855564986363368   -0.5776375927742232   -0.11208147067029645
-1.2855564986363368   -0.5776375927742232   -0.11208147067029645
-1.2855564986363368   -0.5776375927742232   -0.11208147067029645
-1.2855564986363368   -0.5776375927742232   -0.11208147067029645
-1.1057296246366293   -0.0838246910582892   0.1563964155624761
-1.1057296246366293   -0.0838246910582892   0.1563964155624761
-1.1057296246366293   -0.0838246910582892   0.1563964155624761
-1.1057296246366293   -0.0838246910582892   0.1563964155624761
-1.5262276749362853   -0.6711539266733371   -0.07990652938180698
-1.5262276749362853   -0.6711539266733371   -0.07990652938180698
-1.5262276749362853   -0.6711539266733371   -0.07990652938180698
-1.5262276749362853   -0.6711539266733371   -0.07990652938180698
-1.3273931519852455   -0.342791451211845   -0.04735961354569214
-1.3273931519852455   -0.342791451211845   -0.04735961354569214
-1.3273931519852455   -0.342791451211845   -0.04735961354569214
-1.3273931519852455   -0.342791451211845   -0.04735961354569214
-1.3724385398453733   -0.13739059444387502   0.15527581384329117
-1.3724385398453733   -0.13739059444387502   0.15527581384329117
-1.3724385398453733   -0.13739059444387502   0.15527581384329117
-1.3724385398453733   -0.13739059444387502   0.15527581384329117
-1.2718794675588678   -0.6299487311190779   -0.12822875898792863
-1.2718794675588678   -0.6299487311190779   -0.12822875898792863
-1.2718794675588678   -0.6299487311190779   -0.12822875898792863
-1.2718794675588678   -0.6299487311190779   -0.12822875898792863
-1.1046440587370798   -0.1594424735474126   0.1679191628481709
-1.1046440587370798   -0.1594424735474126   0.1679191628481709
-1.1046440587370798   -0.1594424735474126   0.1679191628481709
-1.1046440587370798   -0.1594424735474126   0.1679191628481709
-1.5228313830715108   -0.711873904798808   -0.08961259259396097
-1.5228313830715108   -0.711873904798808   -0.08961259259396097
-1.5228313830715108   -0.711873904798808   -0.08961259259396097
-1.5228313830715108   -0.711873904798808   -0.08961259259396097
-1.3190926808894976   -0.40375685753289203   -0.08014187468714011
-1.3190926808894976   -0.40375685753289203   -0.08014187468714011
-1.3190926808894976   -0.40375685753289203   -0.08014187468714011
-1.3190926808894976   -0.40375685753289203   -0.08014187468714011
-1.3693151734966758   -0.21061801581057557   0.17671256629195178
-1.3693151734966758   -0.21061801581057557   0.17671256629195178
-1.3693151734966758   -0.21061801581057557   0.17671256629195178
-1.3693151734966758   -0.21061801581057557   0.17671256629195178
-1.265633072502322   -0.6681711667260568   -0.12829721279939443
-1.265633072502322   -0.6681711667260568   -0.12829721279939443
-1.265633072502322   -0.6681711667260568   -0.12829721279939443
-1.265633072502322   -0.6681711667260568   -0.12829721279939443
-1.092271149461013   -0.23035057015217741   0.19448286231196907
-1.092271149461013   -0.23035057015217741   0.19448286231196907
-1.092271149461013   -0.23035057015217741   0.19448286231196907
-1.092271149461013   -0.23035057015217741   0.19448286231196907
-1.495415736450618   -0.7528109290961342   -0.061758938713947484
-1.495415736450618   -0.7528109290961342   -0.061758938713947484
-1.495415736450618   -0.7528109290961342   -0.061758938713947484
-1.495415736450618   -0.7528109290961342   -0.061758938713947484
-1.3120331788869286   -0.45571863596474926   -0.1025733775157423
-1.3120331788869286   -0.45571863596474926   -0.1025733775157423
-1.3120331788869286   -0.45571863596474926   -0.1025733775157423
-1.3120331788869286   -0.45571863596474926   -0.1025733775157423
-1.0759403365241804   0.14936877976636587   0.20899296734989686
-1.0759403365241804   0.14936877976636587   0.20899296734989686
-1.0759403365241804   0.14936877976636587   0.20899296734989686
-1.0759403365241804   0.14936877976636587   0.20899296734989686
-0.6963800795517627   -0.18790966465987827   -0.06802398922035244
-0.6963800795517627   -0.18790966465987827   -0.06802398922035244
-0.6963800795517627   -0.18790966465987827   -0.06802398922035244
-0.6963800795517627   -0.18790966465987827   -0.06802398922035244
-0.6026822207494014   0.17908710668617445   0.20602562725782708
-0.6026822207494014   0.17908710668617445   0.20602562725782708
-0.6026822207494014   0.17908710668617445   0.20602562725782708
-0.6026822207494014   0.17908710668617445   0.20602562725782708
-1.1857106349149371   -0.292290456263483   -0.03504287062386918
-1.1857106349149371   -0.292290456263483   -0.03504287062386918
-1.1857106349149371   -0.292290456263483   -0.03504287062386918
-1.1857106349149371   -0.292290456263483   -0.03504287062386918
-0.8787194284808564   -0.018004586844921733   -0.03881538172013546
-0.8787194284808564   -0.018004586844921733   -0.03881538172013546
-0.8787194284808564   -0.018004586844921733   -0.03881538172013546
-0.8787194284808564   -0.018004586844921733   -0.03881538172013546
-1.05606138429453   0.09282394480709999   0.22808898140758344
-1.05606138429453   0.09282394480709999   0.22808898140758344
-1.05606138429453   0.09282394480709999   0.22808898140758344
-1.05606138429453   0.09282394480709999   0.22808898140758344
-0.733398085145935   -0.20709390816054532   -0.06137267987812147
-0.733398085145935   -0.20709390816054532   -0.06137267987812147
-0.733398085145935   -0.20709390816054532   -0.06137267987812147
-0.733398085145935   -0.20709390816054532   -0.06137267987812147
-0.6272690012509463   0.1426842749141883   0.2593702224504736
-0.6272690012509463   0.1426842749141883   0.2593702224504736
-0.6272690012509463   0.1426842749141883   0.2593702224504736
-0.6272690012509463   0.1426842749141883   0.2593702224504736
-1.1775948394242457   -0.3107459391649019   -0.045531274970169774
-1.1775948394242457   -0.3107459391649019   -0.045531274970169774
-1.1775948394242457   -0.3107459391649019   -0.045531274970169774
-1.1775948394242457   -0.3107459391649019   -0.045531274970169774
-0.902055163066583   -0.057833476671924094   -0.05336821139970365
-0.902055163066583   -0.057833476671924094   -0.05336821139970365
-0.902055163066583   -0.057833476671924094   -0.05336821139970365
-0.902055163066583   -0.057833476671924094   -0.05336821139970365
-1.0416906526333434   0.060478870092918635   0.2627648497265222
-1.0416906526333434   0.060478870092918635   0.2627648497265222
-1.0416906526333434   0.060478870092918635   0.2627648497265222
-1.0416906526333434   0.060478870092918635   0.2627648497265222
-0.7724745106983496   -0.237841857000133   -0.08613119287222147
-0.7724745106983496   -0.237841857000133   -0.08613119287222147
-0.7724745106983496   -0.237841857000133   -0.08613119287222147
-0.7724745106983496   -0.237841857000133   -0.08613119287222147
-0.7186717986222225   0.04269158781789861   0.2698547269616026
-0.7186717986222225   0.04269158781789861   0.2698547269616026
-0.7186717986222225   0.04269158781789861   0.2698547269616026
-0.7186717986222225   0.04269158781789861   0.2698547269616026
-1.158077568415488   -0.32645660331313914   -0.03844319929944448
-1.158077568415488   -0.32645660331313914   -0.03844319929944448
-1.158077568415488   -0.32645660331313914   -0.03844319929944448
-1.158077568415488   -0.32645660331313914   -0.03844319929944448
-0.9122678304118746   -0.08617018248300748   -0.07782046681268004
-0.9122678304118746   -0.08617018248300748   -0.07782046681268004
-0.9122678304118746   -0.08617018248300748   -0.07782046681268004
-0.9122678304118746   -0.08617018248300748   -0.07782046681268004
-11.283646034867315   -1.5894561374866358   -0.9316239672710127
-11.283646034867315   -1.5894561374866358   -0.9316239672710127
-11.283646034867315   -1.5894561374866358   -0.9316239672710127
-11.283646034867315   -1.5894561374866358   -0.9316239672710127
-3.903001214862045   -6.041421127737682   -0.7311596085722208
-3.903001214862045   -6.041421127737682   -0.7311596085722208
-3.903001214862045   -6.041421127737682   -0.7311596085722208
-3.903001214862045   -6.041421127737682   -0.7311596085722208
-3.0302721969785775   -0.24971266344263854   0.00559518396588124
-3.0302721969785775   -0.24971266344263854   0.00559518396588124
-3.0302721969785775   -0.24971266344263854   0.00559518396588124
-3.0302721969785775   -0.24971266344263854   0.00559518396588124
-12.021232029949601   -7.122214191866236   -3.8286892443631677
-12.021232029949601   -7.122214191866236   -3.8286892443631677
-12.021232029949601   -7.122214191866236   -3.8286892443631677
-12.021232029949601   -7.122214191866236   -3.8286892443631677
-7.371094548082024   -3.546129268118885   -0.5163457644575749
-7.371094548082024   -3.546129268118885   -0.5163457644575749
-7.371094548082024   -3.546129268118885   -0.5163457644575749
-7.371094548082024   -3.546129268118885   -0.5163457644575749
-10.483181430268571   -1.994619695382236   -1.2660307424421118
-10.483181430268571   -1.994619695382236   -1.2660307424421118
-10.483181430268571   -1.994619695382236   -1.2660307424421118
-10.483181430268571   -1.994619695382236   -1.2660307424421118
-4.210776713674418   -5.01976107694146   -1.1268789860144706
-4.210776713674418   -5.01976107694146   -1.1268789860144706
-4.210776713674418   -5.01976107694146   -1.1268789860144706
-4.210776713674418   -5.01976107694146   -1.1268789860144706
-3.0877730336681375   -0.33593817987604513   0.1168512113865787
-3.0877730336681375   -0.33593817987604513   0.1168512113865787
-3.0877730336681375   -0.33593817987604513   0.1168512113865787
-3.0877730336681375   -0.33593817987604513   0.1168512113865787
-11.24672488336557   -6.341954249714258   -3.5177358266159655
-11.24672488336557   -6.341954249714258   -3.5177358266159655
-11.24672488336557   -6.341954249714258   -3.5177358266159655
-11.24672488336557   -6.341954249714258   -3.5177358266159655
-6.940625241931173   -3.1940126042122063   0.28375437892724575
-6.940625241931173   -3.1940126042122063   0.28375437892724575
-6.940625241931173   -3.1940126042122063   0.28375437892724575
-6.940625241931173   -3.1940126042122063   0.28375437892724575
-9.842957768612562   -1.8987635580460847   -0.9420909445191923
-9.842957768612562   -1.8987635580460847   -0.9420909445191923
-9.842957768612562   -1.8987635580460847   -0.9420909445191923
-9.842957768612562   -1.8987635580460847   -0.9420909445191923
-4.094620252617279   -4.3822089757403635   -0.8711140874947902
-4.094620252617279   -4.3822089757403635   -0.8711140874947902
-4.094620252617279   -4.3822089757403635   -0.8711140874947902
-4.094620252617279   -4.3822089757403635   -0.8711140874947902
-3.539823081626211   -0.8963940146115044   -0.1812390706301635
-3.539823081626211   -0.8963940146115044   -0.1812390706301635
-3.539823081626211   -0.8963940146115044   -0.1812390706301635
-3.539823081626211   -0.8963940146115044   -0.1812390706301635
-10.249085385697702   -5.31555627751157   -3.1129283326418546
-10.249085385697702   -5.31555627751157   -3.1129283326418546
-10.249085385697702   -5.31555627751157   -3.1129283326418546
-10.249085385697702   -5.31555627751157   -3.1129283326418546
-6.426842495055746   -2.7663627050949127   1.18649672057272
-6.426842495055746   -2.7663627050949127   1.18649672057272
-6.426842495055746   -2.7663627050949127   1.18649672057272
-6.426842495055746   -2.7663627050949127   1.18649672057272
-2.9072048502112997   -1.5614584158867197   -0.23214049716947943
-2.9072048502112997   -1.5614584158867197   -0.23214049716947943
-2.9072048502112997   -1.5614584158867197   -0.23214049716947943
-2.9072048502112997   -1.5614584158867197   -0.23214049716947943
-1.3328219404029258   -1.8756194871301974   -0.3287781200828046
-1.3328219404029258   -1.8756194871301974   -0.3287781200828046
-1.3328219404029258   -1.8756194871301974   -0.3287781200828046
-1.3328219404029258   -1.8756194871301974   -0.3287781200828046
-1.1826933724913635   -0.991881625513065   0.031498877804649716
-1.1826933724913635   -0.991881625513065   0.031498877804649716
-1.1826933724913635   -0.991881625513065   0.031498877804649716
-1.1826933724913635   -0.991881625513065   0.031498877804649716
-3.5366278707311882   -2.771912611701055   -0.003983236538724011
-3.5366278707311882   -2.771912611701055   -0.003983236538724011
-3.5366278707311882   -2.771912611701055   -0.003983236538724011
-3.5366278707311882   -2.771912611701055   -0.003983236538724011
-1.9047884388995806   -1.3473497397742737   0.6062795499998164
-1.9047884388995806   -1.3473497397742737   0.6062795499998164
-1.9047884388995806   -1.3473497397742737   0.6062795499998164
-1.9047884388995806   -1.3473497397742737   0.6062795499998164
-3.301623354670335   -1.4517850425807497   -0.14908822535480176
-3.301623354670335   -1.4517850425807497   -0.14908822535480176
-3.301623354670335   -1.4517850425807497   -0.14908822535480176
-3.301623354670335   -1.4517850425807497   -0.14908822535480176
-1.5162636858596223   -2.410574991940777   -0.21765932260890047
-1.5162636858596223   -2.410574991940777   -0.21765932260890047
-1.5162636858596223   -2.410574991940777   -0.21765932260890047
-1.5162636858596223   -2.410574991940777   -0.21765932260890047
-1.274049896689991   -1.028335173215269   0.031649679331111596
-1.274049896689991   -1.028335173215269   0.031649679331111596
-1.274049896689991   -1.028335173215269   0.031649679331111596
-1.274049896689991   -1.028335173215269   0.031649679331111596
-3.7039725329493614   -2.732098775345332   -0.5679856895502328
-3.7039725329493614   -2.732098775345332   -0.5679856895502328
-3.7039725329493614   -2.732098775345332   -0.5679856895502328
-3.7039725329493614   -2.732098775345332   -0.5679856895502328
-2.264754977626117   -1.7322968006503041   0.27987839492597205
-2.264754977626117   -1.7322968006503041   0.27987839492597205
-2.264754977626117   -1.7322968006503041   0.27987839492597205
-2.264754977626117   -1.7322968006503041   0.27987839492597205
-3.4026870391686357   -1.5159366139796768   -0.277720382012283
-3.4026870391686357   -1.5159366139796768   -0.277720382012283
-3.4026870391686357   -1.5159366139796768   -0.277720382012283
-3.4026870391686357   -1.5159366139796768   -0.277720382012283
-1.5659665268655867   -2.2351284709757984   -0.22114017378633832
-1.5659665268655867   -2.2351284709757984   -0.22114017378633832
-1.5659665268655867   -2.2351284709757984   -0.22114017378633832
-1.5659665268655867   -2.2351284709757984   -0.22114017378633832
-1.413856282654348   -1.0630400139544345   0.046475293673783113
-1.413856282654348   -1.0630400139544345   0.046475293673783113
-1.413856282654348   -1.0630400139544345   0.046475293673783113
-1.413856282654348   -1.0630400139544345   0.046475293673783113
-3.953975084837294   -2.651541535421958   -0.4968515658751103
-3.953975084837294   -2.651541535421958   -0.4968515658751103
-3.953975084837294   -2.651541535421958   -0.4968515658751103
-3.953975084837294   -2.651541535421958   -0.4968515658751103
-2.3650467113766718   -1.6319458765489643   0.29675418748535426
-2.3650467113766718   -1.6319458765489643   0.29675418748535426
-2.3650467113766718   -1.6319458765489643   0.29675418748535426
-2.3650467113766718   -1.6319458765489643   0.29675418748535426
-1.06398988691221   -0.928211033152097   0.06797369339267484
-1.06398988691221   -0.928211033152097   0.06797369339267484
-1.06398988691221   -0.928211033152097   0.06797369339267484
-1.06398988691221   -0.928211033152097   0.06797369339267484
-0.640422132753718   -0.5673052467722917   -0.15961204941292684
-0.640422132753718   -0.5673052467722917   -0.15961204941292684
-0.640422132753718   -0.5673052467722917   -0.15961204941292684
-0.640422132753718   -0.5673052467722917   -0.15961204941292684
-0.6243745705755279   -0.8269725691758772   0.0693003629898376
-0.6243745705755279   -0.8269725691758772   0.0693003629898376
-0.6243745705755279   -0.8269725691758772   0.0693003629898376
-0.6243745705755279   -0.8269725691758772   0.0693003629898376
-1.164037093859468   -0.7893367510006943   -0.07776460354821177
-1.164037093859468   -0.7893367510006943   -0.07776460354821177
-1.164037093859468   -0.7893367510006943   -0.07776460354821177
-1.164037093859468   -0.7893367510006943   -0.07776460354821177
-0.7385943202708418   -0.6572379887206611   0.30324919753562757
-0.7385943202708418   -0.6572379887206611   0.30324919753562757
-0.7385943202708418   -0.6572379887206611   0.30324919753562757
-0.7385943202708418   -0.6572379887206611   0.30324919753562757
-1.1628606461514752   -0.9339780667423677   0.07275895073339408
-1.1628606461514752   -0.9339780667423677   0.07275895073339408
-1.1628606461514752   -0.9339780667423677   0.07275895073339408
-1.1628606461514752   -0.9339780667423677   0.07275895073339408
-0.6349520323131044   -0.6917322674638029   -0.1188272474101188
-0.6349520323131044   -0.6917322674638029   -0.1188272474101188
-0.6349520323131044   -0.6917322674638029   -0.1188272474101188
-0.6349520323131044   -0.6917322674638029   -0.1188272474101188
-0.628783731828559   -0.8518785992901021   0.0611959987563713
-0.628783731828559   -0.8518785992901021   0.0611959987563713
-0.628783731828559   -0.8518785992901021   0.0611959987563713
-0.628783731828559   -0.8518785992901021   0.0611959987563713
-1.2320442232883908   -0.923297245974716   0.13664011909855905
-1.2320442232883908   -0.923297245974716   0.13664011909855905
-1.2320442232883908   -0.923297245974716   0.13664011909855905
-1.2320442232883908   -0.923297245974716   0.13664011909855905
-0.7987955678387861   -0.7314562187270041   0.25944347676751434
-0.7987955678387861   -0.7314562187270041   0.25944347676751434
-0.7987955678387861   -0.7314562187270041   0.25944347676751434
-0.7987955678387861   -0.7314562187270041   0.25944347676751434
-1.2487104698146565   -0.9684173487834109   0.09842898927592511
-1.2487104698146565   -0.9684173487834109   0.09842898927592511
-1.2487104698146565   -0.9684173487834109   0.09842898927592511
-1.2487104698146565   -0.9684173487834109   0.09842898927592511
-0.6647184228773013   -0.8593594340564152   -0.11099662172102698
-0.6647184228773013   -0.8593594340564152   -0.11099662172102698
-0.6647184228773013   -0.8593594340564152   -0.11099662172102698
-0.6647184228773013   -0.8593594340564152   -0.11099662172102698
-0.6313101392920683   -0.8801269954106493   0.0855989674548604
-0.6313101392920683   -0.8801269954106493   0.0855989674548604
-0.6313101392920683   -0.8801269954106493   0.0855989674548604
-0.6313101392920683   -0.8801269954106493   0.0855989674548604
-1.434138867808035   -1.1418572485578489   0.02387960250876278
-1.434138867808035   -1.1418572485578489   0.02387960250876278
-1.434138867808035   -1.1418572485578489   0.02387960250876278
-1.434138867808035   -1.1418572485578489   0.02387960250876278
-0.8873362919128964   -0.8359722949225278   0.12615042907857382
-0.8873362919128964   -0.8359722949225278   0.12615042907857382
-0.8873362919128964   -0.8359722949225278   0.12615042907857382
-0.8873362919128964   -0.8359722949225278   0.12615042907857382
-0.5329708061220764   -0.36886357728559505   0.17920291425858403
-0.5329708061220764   -0.36886357728559505   0.17920291425858403
-0.5329708061220764   -0.36886357728559505   0.17920291425858403
-0.5329708061220764   -0.36886357728559505   0.17920291425858403
-0.36554383843553667   0.01717242921167235   -0.03531215353633922
-0.36554383843553667   0.01717242921167235   -0.03531215353633922
-0.36554383843553667   0.01717242921167235   -0.03531215353633922
-0.36554383843553667   0.01717242921167235   -0.03531215353633922
-0.34748970653916106   -0.3970970269341189   0.11164000091715956
-0.34748970653916106   -0.3970970269341189   0.11164000091715956
-0.34748970653916106   -0.3970970269341189   0.11164000091715956
-0.34748970653916106   -0.3970970269341189   0.11164000091715956
-0.4883005368232853   -0.051312797127037034   -0.025989240297789394
-0.4883005368232853   -0.051312797127037034   -0.025989240297789394
-0.4883005368232853   -0.051312797127037034   -0.025989240297789394
-0.4883005368232853   -0.051312797127037034   -0.025989240297789394
-0.4013415395401967   -0.1943048927560413   0.08893365317310208
-0.4013415395401967   -0.1943048927560413   0.08893365317310208
-0.4013415395401967   -0.1943048927560413   0.08893365317310208
-0.4013415395401967   -0.1943048927560413   0.08893365317310208
-0.523321982828582   -0.4208944465547475   0.16848517910343763
-0.523321982828582   -0.4208944465547475   0.16848517910343763
-0.523321982828582   -0.4208944465547475   0.16848517910343763
-0.523321982828582   -0.4208944465547475   0.16848517910343763
-0.30281835147943575   -0.017865468451979803   -0.044234782266352794
-0.30281835147943575   -0.017865468451979803   -0.044234782266352794
-0.30281835147943575   -0.017865468451979803   -0.044234782266352794
-0.30281835147943575   -0.017865468451979803   -0.044234782266352794
-0.31602314823754907   -0.43208675947207653   0.10251489920573466
-0.31602314823754907   -0.43208675947207653   0.10251489920573466
-0.31602314823754907   -0.43208675947207653   0.10251489920573466
-0.31602314823754907   -0.43208675947207653   0.10251489920573466
-0.48876677852013634   -0.1161284090273775   0.025530575035760096
-0.48876677852013634   -0.1161284090273775   0.025530575035760096
-0.48876677852013634   -0.1161284090273775   0.025530575035760096
-0.48876677852013634   -0.1161284090273775   0.025530575035760096
-0.36521718392262037   -0.22206954629251335   0.10797542988729461
-0.36521718392262037   -0.22206954629251335   0.10797542988729461
-0.36521718392262037   -0.22206954629251335   0.10797542988729461
-0.36521718392262037   -0.22206954629251335   0.10797542988729461
-0.5233576561548782   -0.45563923777479554   0.19208701560946878
-0.5233576561548782   -0.45563923777479554   0.19208701560946878
-0.5233576561548782   -0.45563923777479554   0.19208701560946878
-0.5233576561548782   -0.45563923777479554   0.19208701560946878
-0.28358177126886747   -0.09472543139071879   -0.07263954403221524
-0.28358177126886747   -0.09472543139071879   -0.07263954403221524
-0.28358177126886747   -0.09472543139071879   -0.07263954403221524
-0.28358177126886747   -0.09472543139071879   -0.07263954403221524
-0.259874068311033   -0.47088858692562563   0.11231110399894924
-0.259874068311033   -0.47088858692562563   0.11231110399894924
-0.259874068311033   -0.47088858692562563   0.11231110399894924
-0.259874068311033   -0.47088858692562563   0.11231110399894924
-0.5212250087701052   -0.2780636027147244   0.03396122736875077
-0.5212250087701052   -0.2780636027147244   0.03396122736875077
-0.5212250087701052   -0.2780636027147244   0.03396122736875077
-0.5212250087701052   -0.2780636027147244   0.03396122736875077
-0.3474992181308372   -0.281478734084264   0.09576808428839285
-0.3474992181308372   -0.281478734084264   0.09576808428839285
-0.3474992181308372   -0.281478734084264   0.09576808428839285
-0.3474992181308372   -0.281478734084264   0.09576808428839285
-0.33948196599334773   -0.0670760971057244   0.17924573499200191
-0.33948196599334773   -0.0670760971057244   0.17924573499200191
-0.33948196599334773   -0.0670760971057244   0.17924573499200191
-0.33948196599334773   -0.0670760971057244   0.17924573499200191
-0.05345257701468885   0.04283109507377296   -0.003613939779970935
-0.05345257701468885   0.04283109507377296   -0.003613939779970935
-0.05345257701468885   0.04283109507377296   -0.003613939779970935
-0.05345257701468885   0.04283109507377296   -0.003613939779970935
0.027031076683809996   -0.02071406752835884   0.11009736145306599
0.027031076683809996   -0.02071406752835884   0.11009736145306599
0.027031076683809996   -0.02071406752835884   0.11009736145306599
0.027031076683809996   -0.02071406752835884   0.11009736145306599
-0.2867858841374468   0.034214278758889785   -0.01615219276727776
-0.2867858841374468   0.034214278758889785   -0.01615219276727776
-0.2867858841374468   0.034214278758889785   -0.01615219276727776
-0.2867858841374468   0.034214278758889785   -0.01615219276727776
-0.16629407004117056   -0.01181702947157516   -0.014565753498704374
-0.16629407004117056   -0.01181702947157516   -0.014565753498704374
-0.16629407004117056   -0.01181702947157516   -0.014565753498704374
-0.16629407004117056   -0.01181702947157516   -0.014565753498704374
-0.2659989110419862   -0.06411678922529024   0.18611374069420522
-0.2659989110419862   -0.06411678922529024   0.18611374069420522
-0.2659989110419862   -0.06411678922529024   0.18611374069420522
-0.2659989110419862   -0.06411678922529024   0.18611374069420522
0.01653497813108313   0.08790787499854467   -0.051005073837533235
0.01653497813108313   0.08790787499854467   -0.051005073837533235
0.01653497813108313   0.08790787499854467   -0.051005073837533235
0.01653497813108313   0.08790787499854467   -0.051005073837533235
0.06922579372388499   -0.02516810628713708   0.13553725627052338
0.06922579372388499   -0.02516810628713708   0.13553725627052338
0.06922579372388499   -0.02516810628713708   0.13553725627052338
0.06922579372388499   -0.02516810628713708   0.13553725627052338
-0.24909813220711266   0.029142387172776993   -0.024089167286936813
-0.24909813220711266   0.029142387172776993   -0.024089167286936813
-0.24909813220711266   0.029142387172776993   -0.024089167286936813
-0.24909813220711266   0.029142387172776993   -0.024089167286936813
-0.10499021722716675   -0.0012112686058606964   0.01833974341413468
-0.10499021722716675   -0.0012112686058606964   0.01833974341413468
-0.10499021722716675   -0.0012112686058606964   0.01833974341413468
-0.10499021722716675   -0.0012112686058606964   0.01833974341413468
-0.22447005166023903   -0.07114666841168743   0.19934029103189566
-0.22447005166023903   -0.07114666841168743   0.19934029103189566
-0.22447005166023903   -0.07114666841168743   0.19934029103189566
-0.22447005166023903   -0.07114666841168743   0.19934029103189566
0.05413670515098666   0.08465994127130262   -0.049736234152407924
0.05413670515098666   0.08465994127130262   -0.049736234152407924
0.05413670515098666   0.08465994127130262   -0.049736234152407924
0.05413670515098666   0.08465994127130262   -0.049736234152407924
0.11372373568556182   -0.038200351116781765   0.13103675758123107
0.11372373568556182   -0.038200351116781765   0.13103675758123107
0.11372373568556182   -0.038200351116781765   0.13103675758123107
0.11372373568556182   -0.038200351116781765   0.13103675758123107
-0.18688233529011752   0.03394646061351846   -0.02756527843561742
-0.18688233529011752   0.03394646061351846   -0.02756527843561742
-0.18688233529011752   0.03394646061351846   -0.02756527843561742
-0.18688233529011752   0.03394646061351846   -0.02756527843561742
-0.04967347083587801   0.006335541295393663   0.04808264022579881
-0.04967347083587801   0.006335541295393663   0.04808264022579881
-0.04967347083587801   0.006335541295393663   0.04808264022579881
-0.04967347083587801   0.006335541295393663   0.04808264022579881
              </DataArray>   
             <DataArray type="Float64" NumberOfComponents="3" Name="Displacements" format="ascii">   
0.0   0.0   0.0
-0.03131769351637086   -0.020480176319486815   -0.010486931813646983
0.0   0.0   0.0
0.0   0.0   0.0
-0.03131769351637086   -0.020480176319486815   -0.010486931813646983
-0.019935343677492192   -0.018392670333383862   -0.00770402577040651
0.0   0.0   0.0
-0.019546186669968005   -0.019319542033320865   -0.006452766654873022
0.0   0.0   0.0
0.0   0.0   0.0
-0.019546186669968005   -0.019319542033320865   -0.006452766654873022
0.0   0.0   0.0
0.0   0.0   0.0
-0.019546186669968005   -0.019319542033320865   -0.006452766654873022
-0.03278175457789525   -0.021821856749622247   -0.008417195659087969
-0.03131769351637086   -0.020480176319486815   -0.010486931813646983
0.0   0.0   0.0
-0.019546186669968005   -0.019319542033320865   -0.006452766654873022
-0.03131769351637086   -0.020480176319486815   -0.010486931813646983
0.0   0.0   0.0
0.0   0.0   0.0
-0.03278175457789525   -0.021821856749622247   -0.008417195659087969
0.0   0.0   0.0
0.0   0.0   0.0
-0.03278175457789525   -0.021821856749622247   -0.008417195659087969
-0.019546186669968005   -0.019319542033320865   -0.006452766654873022
0.0   0.0   0.0
-0.019606824691030342   -0.019793900781936363   -0.005202681272124016
0.0   0.0   0.0
0.0   0.0   0.0
-0.019606824691030342   -0.019793900781936363   -0.005202681272124016
0.0   0.0   0.0
0.0   0.0   0.0
-0.019606824691030342   -0.019793900781936363   -0.005202681272124016
-0.0338124818289721   -0.022473991416060463   -0.00643287340112818
-0.03278175457789525   -0.021821856749622247   -0.008417195659087969
0.0   0.0   0.0
-0.019606824691030342   -0.019793900781936363   -0.005202681272124016
-0.03278175457789525   -0.021821856749622247   -0.008417195659087969
0.0   0.0   0.0
0.0   0.0   0.0
-0.0338124818289721   -0.022473991416060463   -0.00643287340112818
0.0   0.0   0.0
0.0   0.0   0.0
-0.0338124818289721   -0.022473991416060463   -0.00643287340112818
-0.019606824691030342   -0.019793900781936363   -0.005202681272124016
0.0   0.0   0.0
-0.019602735085024633   -0.019914922511839694   -0.003909292510099037
0.0   0.0   0.0
0.0   0.0   0.0
-0.019602735085024633   -0.019914922511839694   -0.003909292510099037
0.0   0.0   0.0
0.0   0.0   0.0
-0.019602735085024633   -0.019914922511839694   -0.003909292510099037
-0.036027479929562053   -0.022965714159530835   -0.004130000954821117
-0.0338124818289721   -0.022473991416060463   -0.00643287340112818
0.0   0.0   0.0
-0.019602735085024633   -0.019914922511839694   -0.003909292510099037
-0.0338124818289721   -0.022473991416060463   -0.00643287340112818
0.0   0.0   0.0
0.0   0.0   0.0
-0.019935343677492192   -0.018392670333383862   -0.00770402577040651
0.0   0.0   0.0
0.0   0.0   0.0
-0.019935343677492192   -0.018392670333383862   -0.00770402577040651
-0.009072286408507175   -0.017625923405651077   -0.005857475540456932
0.0   0.0   0.0
-0.008730971183465103   -0.01822986435526834   -0.005267432429013466
0.0   0.0   0.0
0.0   0.0   0.0
-0.008730971183465103   -0.01822986435526834   -0.005267432429013466
0.0   0.0   0.0
0.0   0.0   0.0
-0.008730971183465103   -0.01822986435526834   -0.005267432429013466
-0.019546186669968005   -0.019319542033320865   -0.006452766654873022
-0.019935343677492192   -0.018392670333383862   -0.00770402577040651
0.0   0.0   0.0
-0.008730971183465103   -0.01822986435526834   -0.005267432429013466
-0.019935343677492192   -0.018392670333383862   -0.00770402577040651
0.0   0.0   0.0
0.0   0.0   0.0
-0.019546186669968005   -0.019319542033320865   -0.006452766654873022
0.0   0.0   0.0
0.0   0.0   0.0
-0.019546186669968005   -0.019319542033320865   -0.006452766654873022
-0.008730971183465103   -0.01822986435526834   -0.005267432429013466
0.0   0.0   0.0
-0.008541532157742641   -0.018459838703517438   -0.004692178671563054
0.0   0.0   0.0
0.0   0.0   0.0
-0.008541532157742641   -0.018459838703517438   -0.004692178671563054
0.0   0.0   0.0
0.0   0.0   0.0
-0.008541532157742641   -0.018459838703517438   -0.004692178671563054
-0.019606824691030342   -0.019793900781936363   -0.005202681272124016
-0.019546186669968005   -0.019319542033320865   -0.006452766654873022
0.0   0.0   0.0
-0.008541532157742641   -0.018459838703517438   -0.004692178671563054
-0.019546186669968005   -0.019319542033320865   -0.006452766654873022
0.0   0.0   0.0
0.0   0.0   0.0
-0.019606824691030342   -0.019793900781936363   -0.005202681272124016
0.0   0.0   0.0
0.0   0.0   0.0
-0.019606824691030342   -0.019793900781936363   -0.005202681272124016
-0.008541532157742641   -0.018459838703517438   -0.004692178671563054
0.0   0.0   0.0
-0.00836994402037374   -0.01836337037806739   -0.00409682474445033
0.0   0.0   0.0
0.0   0.0   0.0
-0.00836994402037374   -0.01836337037806739   -0.00409682474445033
0.0   0.0   0.0
0.0   0.0   0.0
-0.00836994402037374   -0.01836337037806739   -0.00409682474445033
-0.019602735085024633   -0.019914922511839694   -0.003909292510099037
-0.019606824691030342   -0.019793900781936363   -0.005202681272124016
0.0   0.0   0.0
-0.00836994402037374   -0.01836337037806739   -0.00409682474445033
-0.019606824691030342   -0.019793900781936363   -0.005202681272124016
0.0   0.0   0.0
0.0   0.0   0.0
-0.009072286408507175   -0.017625923405651077   -0.005857475540456932
0.0   0.0   0.0
0.0   0.0   0.0
-0.009072286408507175   -0.017625923405651077   -0.005857475540456932
0.0011959747413262604   -0.01772330309215386   -0.004679278169780254
0.0   0.0   0.0
0.0014112794928186   -0.018037053960653287   -0.004762512690660661
0.0   0.0   0.0
0.0   0.0   0.0
0.0014112794928186   -0.018037053960653287   -0.004762512690660661
0.0   0.0   0.0
0.0   0.0   0.0
0.0014112794928186   -0.018037053960653287   -0.004762512690660661
-0.008730971183465103   -0.01822986435526834   -0.005267432429013466
-0.009072286408507175   -0.017625923405651077   -0.005857475540456932
0.0   0.0   0.0
0.0014112794928186   -0.018037053960653287   -0.004762512690660661
-0.009072286408507175   -0.017625923405651077   -0.005857475540456932
0.0   0.0   0.0
0.0   0.0   0.0
-0.008730971183465103   -0.01822986435526834   -0.005267432429013466
0.0   0.0   0.0
0.0   0.0   0.0
-0.008730971183465103   -0.01822986435526834   -0.005267432429013466
0.0014112794928186   -0.018037053960653287   -0.004762512690660661
0.0   0.0   0.0
0.001580482799278613   -0.01801167269698485   -0.004837163829007041
0.0   0.0   0.0
0.0   0.0   0.0
0.001580482799278613   -0.01801167269698485   -0.004837163829007041
0.0   0.0   0.0
0.0   0.0   0.0
0.001580482799278613   -0.01801167269698485   -0.004837163829007041
-0.008541532157742641   -0.018459838703517438   -0.004692178671563054
-0.008730971183465103   -0.01822986435526834   -0.005267432429013466
0.0   0.0   0.0
0.001580482799278613   -0.01801167269698485   -0.004837163829007041
-0.008730971183465103   -0.01822986435526834   -0.005267432429013466
0.0   0.0   0.0
0.0   0.0   0.0
-0.008541532157742641   -0.018459838703517438   -0.004692178671563054
0.0   0.0   0.0
0.0   0.0   0.0
-0.008541532157742641   -0.018459838703517438   -0.004692178671563054
0.001580482799278613   -0.01801167269698485   -0.004837163829007041
0.0   0.0   0.0
0.001809977167348177   -0.017619240775892914   -0.00491324270521858
0.0   0.0   0.0
0.0   0.0   0.0
0.001809977167348177   -0.017619240775892914   -0.00491324270521858
0.0   0.0   0.0
0.0   0.0   0.0
0.001809977167348177   -0.017619240775892914   -0.00491324270521858
-0.00836994402037374   -0.01836337037806739   -0.00409682474445033
-0.008541532157742641   -0.018459838703517438   -0.004692178671563054
0.0   0.0   0.0
0.001809977167348177   -0.017619240775892914   -0.00491324270521858
-0.008541532157742641   -0.018459838703517438   -0.004692178671563054
0.0   0.0   0.0
0.0   0.0   0.0
0.0011959747413262604   -0.01772330309215386   -0.004679278169780254
0.0   0.0   0.0
0.0   0.0   0.0
0.0011959747413262604   -0.01772330309215386   -0.004679278169780254
0.012337325409301677   -0.01859151101285378   -0.004094637977843027
0.0   0.0   0.0
0.012352147671650488   -0.018692500436345728   -0.004886261140978636
0.0   0.0   0.0
0.0   0.0   0.0
0.012352147671650488   -0.018692500436345728   -0.004886261140978636
0.0   0.0   0.0
0.0   0.0   0.0
0.012352147671650488   -0.018692500436345728   -0.004886261140978636
0.0014112794928186   -0.018037053960653287   -0.004762512690660661
0.0011959747413262604   -0.01772330309215386   -0.004679278169780254
0.0   0.0   0.0
0.012352147671650488   -0.018692500436345728   -0.004886261140978636
0.0011959747413262604   -0.01772330309215386   -0.004679278169780254
0.0   0.0   0.0
0.0   0.0   0.0
0.0014112794928186   -0.018037053960653287   -0.004762512690660661
0.0   0.0   0.0
0.0   0.0   0.0
0.0014112794928186   -0.018037053960653287   -0.004762512690660661
0.012352147671650488   -0.018692500436345728   -0.004886261140978636
0.0   0.0   0.0
0.012293113144712242   -0.018425527610799866   -0.005644946385505945
0.0   0.0   0.0
0.0   0.0   0.0
0.012293113144712242   -0.018425527610799866   -0.005644946385505945
0.0   0.0   0.0
0.0   0.0   0.0
0.012293113144712242   -0.018425527610799866   -0.005644946385505945
0.001580482799278613   -0.01801167269698485   -0.004837163829007041
0.0014112794928186   -0.018037053960653287   -0.004762512690660661
0.0   0.0   0.0
0.012293113144712242   -0.018425527610799866   -0.005644946385505945
0.0014112794928186   -0.018037053960653287   -0.004762512690660661
0.0   0.0   0.0
0.0   0.0   0.0
0.001580482799278613   -0.01801167269698485   -0.004837163829007041
0.0   0.0   0.0
0.0   0.0   0.0
0.001580482799278613   -0.01801167269698485   -0.004837163829007041
0.012293113144712242   -0.018425527610799866   -0.005644946385505945
0.0   0.0   0.0
0.01252530165097753   -0.017708226366221644   -0.006388603326047234
0.0   0.0   0.0
0.0   0.0   0.0
0.01252530165097753   -0.017708226366221644   -0.006388603326047234
0.0   0.0   0.0
0.0   0.0   0.0
0.01252530165097753   -0.017708226366221644   -0.006388603326047234
0.001809977167348177   -0.017619240775892914   -0.00491324270521858
0.001580482799278613   -0.01801167269698485   -0.004837163829007041
0.0   0.0   0.0
0.01252530165097753   -0.017708226366221644   -0.006388603326047234
0.001580482799278613   -0.01801167269698485   -0.004837163829007041
0.0   0.0   0.0
0.0   0.0   0.0
0.012337325409301677   -0.01859151101285378   -0.004094637977843027
0.0   0.0   0.0
0.0   0.0   0.0
0.012337325409301677   -0.01859151101285378   -0.004094637977843027
0.027815651029412292   -0.02078954193089884   -0.0038585941180311494
0.0   0.0   0.0
0.026114142547332377   -0.02056492993957406   -0.005651265485053994
0.0   0.0   0.0
0.0   0.0   0.0
0.026114142547332377   -0.02056492993957406   -0.005651265485053994
0.0   0.0   0.0
0.0   0.0   0.0
0.026114142547332377   -0.02056492993957406   -0.005651265485053994
0.012352147671650488   -0.018692500436345728   -0.004886261140978636
0.012337325409301677   -0.01859151101285378   -0.004094637977843027
0.0   0.0   0.0
0.026114142547332377   -0.02056492993957406   -0.005651265485053994
0.012337325409301677   -0.01859151101285378   -0.004094637977843027
0.0   0.0   0.0
0.0   0.0   0.0
0.012352147671650488   -0.018692500436345728   -0.004886261140978636
0.0   0.0   0.0
0.0   0.0   0.0
0.012352147671650488   -0.018692500436345728   -0.004886261140978636
0.026114142547332377   -0.02056492993957406   -0.005651265485053994
0.0   0.0   0.0
0.025326739158244134   -0.02013730657198348   -0.007166618685519466
0.0   0.0   0.0
0.0   0.0   0.0
0.025326739158244134   -0.02013730657198348   -0.007166618685519466
0.0   0.0   0.0
0.0   0.0   0.0
0.025326739158244134   -0.02013730657198348   -0.007166618685519466
0.012293113144712242   -0.018425527610799866   -0.005644946385505945
0.012352147671650488   -0.018692500436345728   -0.004886261140978636
0.0   0.0   0.0
0.025326739158244134   -0.02013730657198348   -0.007166618685519466
0.012352147671650488   -0.018692500436345728   -0.004886261140978636
0.0   0.0   0.0
0.0   0.0   0.0
0.012293113144712242   -0.018425527610799866   -0.005644946385505945
0.0   0.0   0.0
0.0   0.0   0.0
0.012293113144712242   -0.018425527610799866   -0.005644946385505945
0.025326739158244134   -0.02013730657198348   -0.007166618685519466
0.0   0.0   0.0
0.024158802963502833   -0.01904131270312784   -0.008768910658527572
0.0   0.0   0.0
0.0   0.0   0.0
0.024158802963502833   -0.01904131270312784   -0.008768910658527572
0.0   0.0   0.0
0.0   0.0   0.0
0.024158802963502833   -0.01904131270312784   -0.008768910658527572
0.01252530165097753   -0.017708226366221644   -0.006388603326047234
0.012293113144712242   -0.018425527610799866   -0.005644946385505945
0.0   0.0   0.0
0.024158802963502833   -0.01904131270312784   -0.008768910658527572
0.012293113144712242   -0.018425527610799866   -0.005644946385505945
0.0   0.0   0.0
-0.03131769351637086   -0.020480176319486815   -0.010486931813646983
-0.05854479028047946   -0.05726625079080817   -0.014126218038571678
-0.019935343677492192   -0.018392670333383862   -0.00770402577040651
-0.03278175457789525   -0.021821856749622247   -0.008417195659087969
-0.05854479028047946   -0.05726625079080817   -0.014126218038571678
-0.03736917219511982   -0.05538701096241275   -0.011622400423333151
-0.019935343677492192   -0.018392670333383862   -0.00770402577040651
-0.0374217012331575   -0.05633632256029572   -0.010463788675965098
-0.03278175457789525   -0.021821856749622247   -0.008417195659087969
-0.019546186669968005   -0.019319542033320865   -0.006452766654873022
-0.0374217012331575   -0.05633632256029572   -0.010463788675965098
-0.019935343677492192   -0.018392670333383862   -0.00770402577040651
-0.03278175457789525   -0.021821856749622247   -0.008417195659087969
-0.0374217012331575   -0.05633632256029572   -0.010463788675965098
-0.060309961591239886   -0.05859003449484172   -0.012243558557252834
-0.05854479028047946   -0.05726625079080817   -0.014126218038571678
-0.03278175457789525   -0.021821856749622247   -0.008417195659087969
-0.0374217012331575   -0.05633632256029572   -0.010463788675965098
-0.05854479028047946   -0.05726625079080817   -0.014126218038571678
-0.019935343677492192   -0.018392670333383862   -0.00770402577040651
-0.03278175457789525   -0.021821856749622247   -0.008417195659087969
-0.060309961591239886   -0.05859003449484172   -0.012243558557252834
-0.019546186669968005   -0.019319542033320865   -0.006452766654873022
-0.0338124818289721   -0.022473991416060463   -0.00643287340112818
-0.060309961591239886   -0.05859003449484172   -0.012243558557252834
-0.0374217012331575   -0.05633632256029572   -0.010463788675965098
-0.019546186669968005   -0.019319542033320865   -0.006452766654873022
-0.0375780889288519   -0.05691426450810465   -0.009349865516210795
-0.0338124818289721   -0.022473991416060463   -0.00643287340112818
-0.019606824691030342   -0.019793900781936363   -0.005202681272124016
-0.0375780889288519   -0.05691426450810465   -0.009349865516210795
-0.019546186669968005   -0.019319542033320865   -0.006452766654873022
-0.0338124818289721   -0.022473991416060463   -0.00643287340112818
-0.0375780889288519   -0.05691426450810465   -0.009349865516210795
-0.06153992505076578   -0.059336916229402466   -0.010399360962822147
-0.060309961591239886   -0.05859003449484172   -0.012243558557252834
-0.0338124818289721   -0.022473991416060463   -0.00643287340112818
-0.0375780889288519   -0.05691426450810465   -0.009349865516210795
-0.060309961591239886   -0.05859003449484172   -0.012243558557252834
-0.019546186669968005   -0.019319542033320865   -0.006452766654873022
-0.0338124818289721   -0.022473991416060463   -0.00643287340112818
-0.06153992505076578   -0.059336916229402466   -0.010399360962822147
-0.019606824691030342   -0.019793900781936363   -0.005202681272124016
-0.036027479929562053   -0.022965714159530835   -0.004130000954821117
-0.06153992505076578   -0.059336916229402466   -0.010399360962822147
-0.0375780889288519   -0.05691426450810465   -0.009349865516210795
-0.019606824691030342   -0.019793900781936363   -0.005202681272124016
-0.03747547574015938   -0.05721290536008106   -0.008306651480343298
-0.036027479929562053   -0.022965714159530835   -0.004130000954821117
-0.019602735085024633   -0.019914922511839694   -0.003909292510099037
-0.03747547574015938   -0.05721290536008106   -0.008306651480343298
-0.019606824691030342   -0.019793900781936363   -0.005202681272124016
-0.036027479929562053   -0.022965714159530835   -0.004130000954821117
-0.03747547574015938   -0.05721290536008106   -0.008306651480343298
-0.06299407686016695   -0.05976892551207531   -0.008720276114428799
-0.06153992505076578   -0.059336916229402466   -0.010399360962822147
-0.036027479929562053   -0.022965714159530835   -0.004130000954821117
-0.03747547574015938   -0.05721290536008106   -0.008306651480343298
-0.06153992505076578   -0.059336916229402466   -0.010399360962822147
-0.019606824691030342   -0.019793900781936363   -0.005202681272124016
-0.019935343677492192   -0.018392670333383862   -0.00770402577040651
-0.03736917219511982   -0.05538701096241275   -0.011622400423333151
-0.009072286408507175   -0.017625923405651077   -0.005857475540456932
-0.019546186669968005   -0.019319542033320865   -0.006452766654873022
-0.03736917219511982   -0.05538701096241275   -0.011622400423333151
-0.01732466979779238   -0.05451263390897649   -0.009912431522525607
-0.009072286408507175   -0.017625923405651077   -0.005857475540456932
-0.01718376178372582   -0.05511755167001997   -0.009319491167179849
-0.019546186669968005   -0.019319542033320865   -0.006452766654873022
-0.008730971183465103   -0.01822986435526834   -0.005267432429013466
-0.01718376178372582   -0.05511755167001997   -0.009319491167179849
-0.009072286408507175   -0.017625923405651077   -0.005857475540456932
-0.019546186669968005   -0.019319542033320865   -0.006452766654873022
-0.01718376178372582   -0.05511755167001997   -0.009319491167179849
-0.0374217012331575   -0.05633632256029572   -0.010463788675965098
-0.03736917219511982   -0.05538701096241275   -0.011622400423333151
-0.019546186669968005   -0.019319542033320865   -0.006452766654873022
-0.01718376178372582   -0.05511755167001997   -0.009319491167179849
-0.03736917219511982   -0.05538701096241275   -0.011622400423333151
-0.009072286408507175   -0.017625923405651077   -0.005857475540456932
-0.019546186669968005   -0.019319542033320865   -0.006452766654873022
-0.0374217012331575   -0.05633632256029572   -0.010463788675965098
-0.008730971183465103   -0.01822986435526834   -0.005267432429013466
-0.019606824691030342   -0.019793900781936363   -0.005202681272124016
-0.0374217012331575   -0.05633632256029572   -0.010463788675965098
-0.01718376178372582   -0.05511755167001997   -0.009319491167179849
-0.008730971183465103   -0.01822986435526834   -0.005267432429013466
-0.017059858474112448   -0.05541064999941644   -0.008781615760277745
-0.019606824691030342   -0.019793900781936363   -0.005202681272124016
-0.008541532157742641   -0.018459838703517438   -0.004692178671563054
-0.017059858474112448   -0.05541064999941644   -0.008781615760277745
-0.008730971183465103   -0.01822986435526834   -0.005267432429013466
-0.019606824691030342   -0.019793900781936363   -0.005202681272124016
-0.017059858474112448   -0.05541064999941644   -0.008781615760277745
-0.0375780889288519   -0.05691426450810465   -0.009349865516210795
-0.0374217012331575   -0.05633632256029572   -0.010463788675965098
-0.019606824691030342   -0.019793900781936363   -0.005202681272124016
-0.017059858474112448   -0.05541064999941644   -0.008781615760277745
-0.0374217012331575   -0.05633632256029572   -0.010463788675965098
-0.008730971183465103   -0.01822986435526834   -0.005267432429013466
-0.019606824691030342   -0.019793900781936363   -0.005202681272124016
-0.0375780889288519   -0.05691426450810465   -0.009349865516210795
-0.008541532157742641   -0.018459838703517438   -0.004692178671563054
-0.019602735085024633   -0.019914922511839694   -0.003909292510099037
-0.0375780889288519   -0.05691426450810465   -0.009349865516210795
-0.017059858474112448   -0.05541064999941644   -0.008781615760277745
-0.008541532157742641   -0.018459838703517438   -0.004692178671563054
-0.01687096536699225   -0.05540299876753041   -0.008312901232693706
-0.019602735085024633   -0.019914922511839694   -0.003909292510099037
-0.00836994402037374   -0.01836337037806739   -0.00409682474445033
-0.01687096536699225   -0.05540299876753041   -0.008312901232693706
-0.008541532157742641   -0.018459838703517438   -0.004692178671563054
-0.019602735085024633   -0.019914922511839694   -0.003909292510099037
-0.01687096536699225   -0.05540299876753041   -0.008312901232693706
-0.03747547574015938   -0.05721290536008106   -0.008306651480343298
-0.0375780889288519   -0.05691426450810465   -0.009349865516210795
-0.019602735085024633   -0.019914922511839694   -0.003909292510099037
-0.01687096536699225   -0.05540299876753041   -0.008312901232693706
-0.0375780889288519   -0.05691426450810465   -0.009349865516210795
-0.008541532157742641   -0.018459838703517438   -0.004692178671563054
-0.009072286408507175   -0.017625923405651077   -0.005857475540456932
-0.01732466979779238   -0.05451263390897649   -0.009912431522525607
0.0011959747413262604   -0.01772330309215386   -0.004679278169780254
-0.008730971183465103   -0.01822986435526834   -0.005267432429013466
-0.01732466979779238   -0.05451263390897649   -0.009912431522525607
0.002009774430272955   -0.05453815407454899   -0.008829560637715055
0.0011959747413262604   -0.01772330309215386   -0.004679278169780254
0.002184458452018337   -0.0548258639415708   -0.008791882296435008
-0.008730971183465103   -0.01822986435526834   -0.005267432429013466
0.0014112794928186   -0.018037053960653287   -0.004762512690660661
0.002184458452018337   -0.0548258639415708   -0.008791882296435008
0.0011959747413262604   -0.01772330309215386   -0.004679278169780254
-0.008730971183465103   -0.01822986435526834   -0.005267432429013466
0.002184458452018337   -0.0548258639415708   -0.008791882296435008
-0.01718376178372582   -0.05511755167001997   -0.009319491167179849
-0.01732466979779238   -0.05451263390897649   -0.009912431522525607
-0.008730971183465103   -0.01822986435526834   -0.005267432429013466
0.002184458452018337   -0.0548258639415708   -0.008791882296435008
-0.01732466979779238   -0.05451263390897649   -0.009912431522525607
0.0011959747413262604   -0.01772330309215386   -0.004679278169780254
-0.008730971183465103   -0.01822986435526834   -0.005267432429013466
-0.01718376178372582   -0.05511755167001997   -0.009319491167179849
0.0014112794928186   -0.018037053960653287   -0.004762512690660661
-0.008541532157742641   -0.018459838703517438   -0.004692178671563054
-0.01718376178372582   -0.05511755167001997   -0.009319491167179849
0.002184458452018337   -0.0548258639415708   -0.008791882296435008
0.0014112794928186   -0.018037053960653287   -0.004762512690660661
0.0022992779508626275   -0.05480909368104055   -0.008816734377111486
-0.008541532157742641   -0.018459838703517438   -0.004692178671563054
0.001580482799278613   -0.01801167269698485   -0.004837163829007041
0.0022992779508626275   -0.05480909368104055   -0.008816734377111486
0.0014112794928186   -0.018037053960653287   -0.004762512690660661
-0.008541532157742641   -0.018459838703517438   -0.004692178671563054
0.0022992779508626275   -0.05480909368104055   -0.008816734377111486
-0.017059858474112448   -0.05541064999941644   -0.008781615760277745
-0.01718376178372582   -0.05511755167001997   -0.009319491167179849
-0.008541532157742641   -0.018459838703517438   -0.004692178671563054
0.0022992779508626275   -0.05480909368104055   -0.008816734377111486
-0.01718376178372582   -0.05511755167001997   -0.009319491167179849
0.0014112794928186   -0.018037053960653287   -0.004762512690660661
-0.008541532157742641   -0.018459838703517438   -0.004692178671563054
-0.017059858474112448   -0.05541064999941644   -0.008781615760277745
0.001580482799278613   -0.01801167269698485   -0.004837163829007041
-0.00836994402037374   -0.01836337037806739   -0.00409682474445033
-0.017059858474112448   -0.05541064999941644   -0.008781615760277745
0.0022992779508626275   -0.05480909368104055   -0.008816734377111486
0.001580482799278613   -0.01801167269698485   -0.004837163829007041
0.002423099898170386   -0.05447851022953583   -0.008905116407578162
-0.00836994402037374   -0.01836337037806739   -0.00409682474445033
0.001809977167348177   -0.017619240775892914   -0.00491324270521858
0.002423099898170386   -0.05447851022953583   -0.008905116407578162
0.001580482799278613   -0.01801167269698485   -0.004837163829007041
-0.00836994402037374   -0.01836337037806739   -0.00409682474445033
0.002423099898170386   -0.05447851022953583   -0.008905116407578162
-0.01687096536699225   -0.05540299876753041   -0.008312901232693706
-0.017059858474112448   -0.05541064999941644   -0.008781615760277745
-0.00836994402037374   -0.01836337037806739   -0.00409682474445033
0.002423099898170386   -0.05447851022953583   -0.008905116407578162
-0.017059858474112448   -0.05541064999941644   -0.008781615760277745
0.001580482799278613   -0.01801167269698485   -0.004837163829007041
0.0011959747413262604   -0.01772330309215386   -0.004679278169780254
0.002009774430272955   -0.05453815407454899   -0.008829560637715055
0.012337325409301677   -0.01859151101285378   -0.004094637977843027
0.0014112794928186   -0.018037053960653287   -0.004762512690660661
0.002009774430272955   -0.05453815407454899   -0.008829560637715055
0.022494120647830112   -0.055430921840175985   -0.00832162691142811
0.012337325409301677   -0.01859151101285378   -0.004094637977843027
0.022588188081184343   -0.0554307755679913   -0.008857276344724673
0.0014112794928186   -0.018037053960653287   -0.004762512690660661
0.012352147671650488   -0.018692500436345728   -0.004886261140978636
0.022588188081184343   -0.0554307755679913   -0.008857276344724673
0.012337325409301677   -0.01859151101285378   -0.004094637977843027
0.0014112794928186   -0.018037053960653287   -0.004762512690660661
0.022588188081184343   -0.0554307755679913   -0.008857276344724673
0.002184458452018337   -0.0548258639415708   -0.008791882296435008
0.002009774430272955   -0.05453815407454899   -0.008829560637715055
0.0014112794928186   -0.018037053960653287   -0.004762512690660661
0.022588188081184343   -0.0554307755679913   -0.008857276344724673
0.002009774430272955   -0.05453815407454899   -0.008829560637715055
0.012337325409301677   -0.01859151101285378   -0.004094637977843027
0.0014112794928186   -0.018037053960653287   -0.004762512690660661
0.002184458452018337   -0.0548258639415708   -0.008791882296435008
0.012352147671650488   -0.018692500436345728   -0.004886261140978636
0.001580482799278613   -0.01801167269698485   -0.004837163829007041
0.002184458452018337   -0.0548258639415708   -0.008791882296435008
0.022588188081184343   -0.0554307755679913   -0.008857276344724673
0.012352147671650488   -0.018692500436345728   -0.004886261140978636
0.022474342988623382   -0.05513181180481722   -0.009463679255867606
0.001580482799278613   -0.01801167269698485   -0.004837163829007041
0.012293113144712242   -0.018425527610799866   -0.005644946385505945
0.022474342988623382   -0.05513181180481722   -0.009463679255867606
0.012352147671650488   -0.018692500436345728   -0.004886261140978636
0.001580482799278613   -0.01801167269698485   -0.004837163829007041
0.022474342988623382   -0.05513181180481722   -0.009463679255867606
0.0022992779508626275   -0.05480909368104055   -0.008816734377111486
0.002184458452018337   -0.0548258639415708   -0.008791882296435008
0.001580482799278613   -0.01801167269698485   -0.004837163829007041
0.022474342988623382   -0.05513181180481722   -0.009463679255867606
0.002184458452018337   -0.0548258639415708   -0.008791882296435008
0.012352147671650488   -0.018692500436345728   -0.004886261140978636
0.001580482799278613   -0.01801167269698485   -0.004837163829007041
0.0022992779508626275   -0.05480909368104055   -0.008816734377111486
0.012293113144712242   -0.018425527610799866   -0.005644946385505945
0.001809977167348177   -0.017619240775892914   -0.00491324270521858
0.0022992779508626275   -0.05480909368104055   -0.008816734377111486
0.022474342988623382   -0.05513181180481722   -0.009463679255867606
0.012293113144712242   -0.018425527610799866   -0.005644946385505945
0.022405669423133854   -0.05445190978734778   -0.01011843211580524
0.001809977167348177   -0.017619240775892914   -0.00491324270521858
0.01252530165097753   -0.017708226366221644   -0.006388603326047234
0.022405669423133854   -0.05445190978734778   -0.01011843211580524
0.012293113144712242   -0.018425527610799866   -0.005644946385505945
0.001809977167348177   -0.017619240775892914   -0.00491324270521858
0.022405669423133854   -0.05445190978734778   -0.01011843211580524
0.002423099898170386   -0.05447851022953583   -0.008905116407578162
0.0022992779508626275   -0.05480909368104055   -0.008816734377111486
0.001809977167348177   -0.017619240775892914   -0.00491324270521858
0.022405669423133854   -0.05445190978734778   -0.01011843211580524
0.0022992779508626275   -0.05480909368104055   -0.008816734377111486
0.012293113144712242   -0.018425527610799866   -0.005644946385505945
0.012337325409301677   -0.01859151101285378   -0.004094637977843027
0.022494120647830112   -0.055430921840175985   -0.00832162691142811
0.027815651029412292   -0.02078954193089884   -0.0038585941180311494
0.012352147671650488   -0.018692500436345728   -0.004886261140978636
0.022494120647830112   -0.055430921840175985   -0.00832162691142811
0.04720060996046926   -0.057092028830540514   -0.008179526481742552
0.027815651029412292   -0.02078954193089884   -0.0038585941180311494
0.04622645709860999   -0.056939475826089554   -0.009383332646051892
0.012352147671650488   -0.018692500436345728   -0.004886261140978636
0.026114142547332377   -0.02056492993957406   -0.005651265485053994
0.04622645709860999   -0.056939475826089554   -0.009383332646051892
0.027815651029412292   -0.02078954193089884   -0.0038585941180311494
0.012352147671650488   -0.018692500436345728   -0.004886261140978636
0.04622645709860999   -0.056939475826089554   -0.009383332646051892
0.022588188081184343   -0.0554307755679913   -0.008857276344724673
0.022494120647830112   -0.055430921840175985   -0.00832162691142811
0.012352147671650488   -0.018692500436345728   -0.004886261140978636
0.04622645709860999   -0.056939475826089554   -0.009383332646051892
0.022494120647830112   -0.055430921840175985   -0.00832162691142811
0.027815651029412292   -0.02078954193089884   -0.0038585941180311494
0.012352147671650488   -0.018692500436345728   -0.004886261140978636
0.022588188081184343   -0.0554307755679913   -0.008857276344724673
0.026114142547332377   -0.02056492993957406   -0.005651265485053994
0.012293113144712242   -0.018425527610799866   -0.005644946385505945
0.022588188081184343   -0.0554307755679913   -0.008857276344724673
0.04622645709860999   -0.056939475826089554   -0.009383332646051892
0.026114142547332377   -0.02056492993957406   -0.005651265485053994
0.045357057595346036   -0.0564780690300008   -0.0107361202409013
0.012293113144712242   -0.018425527610799866   -0.005644946385505945
0.025326739158244134   -0.02013730657198348   -0.007166618685519466
0.045357057595346036   -0.0564780690300008   -0.0107361202409013
0.026114142547332377   -0.02056492993957406   -0.005651265485053994
0.012293113144712242   -0.018425527610799866   -0.005644946385505945
0.045357057595346036   -0.0564780690300008   -0.0107361202409013
0.022474342988623382   -0.05513181180481722   -0.009463679255867606
0.022588188081184343   -0.0554307755679913   -0.008857276344724673
0.012293113144712242   -0.018425527610799866   -0.005644946385505945
0.045357057595346036   -0.0564780690300008   -0.0107361202409013
0.022588188081184343   -0.0554307755679913   -0.008857276344724673
0.026114142547332377   -0.02056492993957406   -0.005651265485053994
0.012293113144712242   -0.018425527610799866   -0.005644946385505945
0.022474342988623382   -0.05513181180481722   -0.009463679255867606
0.025326739158244134   -0.02013730657198348   -0.007166618685519466
0.01252530165097753   -0.017708226366221644   -0.006388603326047234
0.022474342988623382   -0.05513181180481722   -0.009463679255867606
0.045357057595346036   -0.0564780690300008   -0.0107361202409013
0.025326739158244134   -0.02013730657198348   -0.007166618685519466
0.04406019537768304   -0.05544843682801545   -0.012143428791720203
0.01252530165097753   -0.017708226366221644   -0.006388603326047234
0.024158802963502833   -0.01904131270312784   -0.008768910658527572
0.04406019537768304   -0.05544843682801545   -0.012143428791720203
0.025326739158244134   -0.02013730657198348   -0.007166618685519466
0.01252530165097753   -0.017708226366221644   -0.006388603326047234
0.04406019537768304   -0.05544843682801545   -0.012143428791720203
0.022405669423133854   -0.05445190978734778   -0.01011843211580524
0.022474342988623382   -0.05513181180481722   -0.009463679255867606
0.01252530165097753   -0.017708226366221644   -0.006388603326047234
0.04406019537768304   -0.05544843682801545   -0.012143428791720203
0.022474342988623382   -0.05513181180481722   -0.009463679255867606
0.025326739158244134   -0.02013730657198348   -0.007166618685519466
-0.05854479028047946   -0.05726625079080817   -0.014126218038571678
-0.08027850837193237   -0.10752675816086782   -0.016082468285765473
-0.03736917219511982   -0.05538701096241275   -0.011622400423333151
-0.060309961591239886   -0.05859003449484172   -0.012243558557252834
-0.08027850837193237   -0.10752675816086782   -0.016082468285765473
-0.051606774355293816   -0.10608849655302954   -0.014047925702225258
-0.03736917219511982   -0.05538701096241275   -0.011622400423333151
-0.0517300255241082   -0.10690922323525862   -0.01314774229297838
-0.060309961591239886   -0.05859003449484172   -0.012243558557252834
-0.0374217012331575   -0.05633632256029572   -0.010463788675965098
-0.0517300255241082   -0.10690922323525862   -0.01314774229297838
-0.03736917219511982   -0.05538701096241275   -0.011622400423333151
-0.060309961591239886   -0.05859003449484172   -0.012243558557252834
-0.0517300255241082   -0.10690922323525862   -0.01314774229297838
-0.08171989458799608   -0.10864784422952949   -0.014675529953573732
-0.08027850837193237   -0.10752675816086782   -0.016082468285765473
-0.060309961591239886   -0.05859003449484172   -0.012243558557252834
-0.0517300255241082   -0.10690922323525862   -0.01314774229297838
-0.08027850837193237   -0.10752675816086782   -0.016082468285765473
-0.03736917219511982   -0.05538701096241275   -0.011622400423333151
-0.060309961591239886   -0.05859003449484172   -0.012243558557252834
-0.08171989458799608   -0.10864784422952949   -0.014675529953573732
-0.0374217012331575   -0.05633632256029572   -0.010463788675965098
-0.06153992505076578   -0.059336916229402466   -0.010399360962822147
-0.08171989458799608   -0.10864784422952949   -0.014675529953573732
-0.0517300255241082   -0.10690922323525862   -0.01314774229297838
-0.0374217012331575   -0.05633632256029572   -0.010463788675965098
-0.05187393170184465   -0.107479599446569   -0.01231234082626988
-0.06153992505076578   -0.059336916229402466   -0.010399360962822147
-0.0375780889288519   -0.05691426450810465   -0.009349865516210795
-0.05187393170184465   -0.107479599446569   -0.01231234082626988
-0.0374217012331575   -0.05633632256029572   -0.010463788675965098
-0.06153992505076578   -0.059336916229402466   -0.010399360962822147
-0.05187393170184465   -0.107479599446569   -0.01231234082626988
-0.08263319599136534   -0.10934996656925744   -0.01336358818952406
-0.08171989458799608   -0.10864784422952949   -0.014675529953573732
-0.06153992505076578   -0.059336916229402466   -0.010399360962822147
-0.05187393170184465   -0.107479599446569   -0.01231234082626988
-0.08171989458799608   -0.10864784422952949   -0.014675529953573732
-0.0374217012331575   -0.05633632256029572   -0.010463788675965098
-0.06153992505076578   -0.059336916229402466   -0.010399360962822147
-0.08263319599136534   -0.10934996656925744   -0.01336358818952406
-0.0375780889288519   -0.05691426450810465   -0.009349865516210795
-0.06299407686016695   -0.05976892551207531   -0.008720276114428799
-0.08263319599136534   -0.10934996656925744   -0.01336358818952406
-0.05187393170184465   -0.107479599446569   -0.01231234082626988
-0.0375780889288519   -0.05691426450810465   -0.009349865516210795
-0.05178737428565683   -0.10785366302601299   -0.011527944509281846
-0.06299407686016695   -0.05976892551207531   -0.008720276114428799
-0.03747547574015938   -0.05721290536008106   -0.008306651480343298
-0.05178737428565683   -0.10785366302601299   -0.011527944509281846
-0.0375780889288519   -0.05691426450810465   -0.009349865516210795
-0.06299407686016695   -0.05976892551207531   -0.008720276114428799
-0.05178737428565683   -0.10785366302601299   -0.011527944509281846
-0.08367235590140483   -0.10985298831097676   -0.012155517828700495
-0.08263319599136534   -0.10934996656925744   -0.01336358818952406
-0.06299407686016695   -0.05976892551207531   -0.008720276114428799
-0.05178737428565683   -0.10785366302601299   -0.011527944509281846
-0.08263319599136534   -0.10934996656925744   -0.01336358818952406
-0.0375780889288519   -0.05691426450810465   -0.009349865516210795
-0.03736917219511982   -0.05538701096241275   -0.011622400423333151
-0.051606774355293816   -0.10608849655302954   -0.014047925702225258
-0.01732466979779238   -0.05451263390897649   -0.009912431522525607
-0.0374217012331575   -0.05633632256029572   -0.010463788675965098
-0.051606774355293816   -0.10608849655302954   -0.014047925702225258
-0.024559321346572887   -0.10537221634996909   -0.012633990722181009
-0.01732466979779238   -0.05451263390897649   -0.009912431522525607
-0.024507863370091348   -0.10589772971685886   -0.012126205903272442
-0.0374217012331575   -0.05633632256029572   -0.010463788675965098
-0.01718376178372582   -0.05511755167001997   -0.009319491167179849
-0.024507863370091348   -0.10589772971685886   -0.012126205903272442
-0.01732466979779238   -0.05451263390897649   -0.009912431522525607
-0.0374217012331575   -0.05633632256029572   -0.010463788675965098
-0.024507863370091348   -0.10589772971685886   -0.012126205903272442
-0.0517300255241082   -0.10690922323525862   -0.01314774229297838
-0.051606774355293816   -0.10608849655302954   -0.014047925702225258
-0.0374217012331575   -0.05633632256029572   -0.010463788675965098
-0.024507863370091348   -0.10589772971685886   -0.012126205903272442
-0.051606774355293816   -0.10608849655302954   -0.014047925702225258
-0.01732466979779238   -0.05451263390897649   -0.009912431522525607
-0.0374217012331575   -0.05633632256029572   -0.010463788675965098
-0.0517300255241082   -0.10690922323525862   -0.01314774229297838
-0.01718376178372582   -0.05511755167001997   -0.009319491167179849
-0.0375780889288519   -0.05691426450810465   -0.009349865516210795
-0.0517300255241082   -0.10690922323525862   -0.01314774229297838
-0.024507863370091348   -0.10589772971685886   -0.012126205903272442
-0.01718376178372582   -0.05511755167001997   -0.009319491167179849
-0.024442511472402954   -0.1062061105422948   -0.011680169939815712
-0.0375780889288519   -0.05691426450810465   -0.009349865516210795
-0.017059858474112448   -0.05541064999941644   -0.008781615760277745
-0.024442511472402954   -0.1062061105422948   -0.011680169939815712
-0.01718376178372582   -0.05511755167001997   -0.009319491167179849
-0.0375780889288519   -0.05691426450810465   -0.009349865516210795
-0.024442511472402954   -0.1062061105422948   -0.011680169939815712
-0.05187393170184465   -0.107479599446569   -0.01231234082626988
-0.0517300255241082   -0.10690922323525862   -0.01314774229297838
-0.0375780889288519   -0.05691426450810465   -0.009349865516210795
-0.024442511472402954   -0.1062061105422948   -0.011680169939815712
-0.0517300255241082   -0.10690922323525862   -0.01314774229297838
-0.01718376178372582   -0.05511755167001997   -0.009319491167179849
-0.0375780889288519   -0.05691426450810465   -0.009349865516210795
-0.05187393170184465   -0.107479599446569   -0.01231234082626988
-0.017059858474112448   -0.05541064999941644   -0.008781615760277745
-0.03747547574015938   -0.05721290536008106   -0.008306651480343298
-0.05187393170184465   -0.107479599446569   -0.01231234082626988
-0.024442511472402954   -0.1062061105422948   -0.011680169939815712
-0.017059858474112448   -0.05541064999941644   -0.008781615760277745
-0.02432879710896049   -0.1063017695473131   -0.011295670260649225
-0.03747547574015938   -0.05721290536008106   -0.008306651480343298
-0.01687096536699225   -0.05540299876753041   -0.008312901232693706
-0.02432879710896049   -0.1063017695473131   -0.011295670260649225
-0.017059858474112448   -0.05541064999941644   -0.008781615760277745
-0.03747547574015938   -0.05721290536008106   -0.008306651480343298
-0.02432879710896049   -0.1063017695473131   -0.011295670260649225
-0.05178737428565683   -0.10785366302601299   -0.011527944509281846
-0.05187393170184465   -0.107479599446569   -0.01231234082626988
-0.03747547574015938   -0.05721290536008106   -0.008306651480343298
-0.02432879710896049   -0.1063017695473131   -0.011295670260649225
-0.05187393170184465   -0.107479599446569   -0.01231234082626988
-0.017059858474112448   -0.05541064999941644   -0.008781615760277745
-0.01732466979779238   -0.05451263390897649   -0.009912431522525607
-0.024559321346572887   -0.10537221634996909   -0.012633990722181009
0.002009774430272955   -0.05453815407454899   -0.008829560637715055
-0.01718376178372582   -0.05511755167001997   -0.009319491167179849
-0.024559321346572887   -0.10537221634996909   -0.012633990722181009
0.0016980397305429423   -0.10533425437694853   -0.011755464540926578
0.002009774430272955   -0.05453815407454899   -0.008829560637715055
0.001800752351372186   -0.10556942665763903   -0.0116379121849277
-0.01718376178372582   -0.05511755167001997   -0.009319491167179849
0.002184458452018337   -0.0548258639415708   -0.008791882296435008
0.001800752351372186   -0.10556942665763903   -0.0116379121849277
0.002009774430272955   -0.05453815407454899   -0.008829560637715055
-0.01718376178372582   -0.05511755167001997   -0.009319491167179849
0.001800752351372186   -0.10556942665763903   -0.0116379121849277
-0.024507863370091348   -0.10589772971685886   -0.012126205903272442
-0.024559321346572887   -0.10537221634996909   -0.012633990722181009
-0.01718376178372582   -0.05511755167001997   -0.009319491167179849
0.001800752351372186   -0.10556942665763903   -0.0116379121849277
-0.024559321346572887   -0.10537221634996909   -0.012633990722181009
0.002009774430272955   -0.05453815407454899   -0.008829560637715055
-0.01718376178372582   -0.05511755167001997   -0.009319491167179849
-0.024507863370091348   -0.10589772971685886   -0.012126205903272442
0.002184458452018337   -0.0548258639415708   -0.008791882296435008
-0.017059858474112448   -0.05541064999941644   -0.008781615760277745
-0.024507863370091348   -0.10589772971685886   -0.012126205903272442
0.001800752351372186   -0.10556942665763903   -0.0116379121849277
0.002184458452018337   -0.0548258639415708   -0.008791882296435008
0.0018630166522535466   -0.1055883576587741   -0.011580462070945123
-0.017059858474112448   -0.05541064999941644   -0.008781615760277745
0.0022992779508626275   -0.05480909368104055   -0.008816734377111486
0.0018630166522535466   -0.1055883576587741   -0.011580462070945123
0.002184458452018337   -0.0548258639415708   -0.008791882296435008
-0.017059858474112448   -0.05541064999941644   -0.008781615760277745
0.0018630166522535466   -0.1055883576587741   -0.011580462070945123
-0.024442511472402954   -0.1062061105422948   -0.011680169939815712
-0.024507863370091348   -0.10589772971685886   -0.012126205903272442
-0.017059858474112448   -0.05541064999941644   -0.008781615760277745
0.0018630166522535466   -0.1055883576587741   -0.011580462070945123
-0.024507863370091348   -0.10589772971685886   -0.012126205903272442
0.002184458452018337   -0.0548258639415708   -0.008791882296435008
-0.017059858474112448   -0.05541064999941644   -0.008781615760277745
-0.024442511472402954   -0.1062061105422948   -0.011680169939815712
0.0022992779508626275   -0.05480909368104055   -0.008816734377111486
-0.01687096536699225   -0.05540299876753041   -0.008312901232693706
-0.024442511472402954   -0.1062061105422948   -0.011680169939815712
0.0018630166522535466   -0.1055883576587741   -0.011580462070945123
0.0022992779508626275   -0.05480909368104055   -0.008816734377111486
0.001905164202592999   -0.10538781002781374   -0.011586804370687973
-0.01687096536699225   -0.05540299876753041   -0.008312901232693706
0.002423099898170386   -0.05447851022953583   -0.008905116407578162
0.001905164202592999   -0.10538781002781374   -0.011586804370687973
0.0022992779508626275   -0.05480909368104055   -0.008816734377111486
-0.01687096536699225   -0.05540299876753041   -0.008312901232693706
0.001905164202592999   -0.10538781002781374   -0.011586804370687973
-0.02432879710896049   -0.1063017695473131   -0.011295670260649225
-0.024442511472402954   -0.1062061105422948   -0.011680169939815712
-0.01687096536699225   -0.05540299876753041   -0.008312901232693706
0.001905164202592999   -0.10538781002781374   -0.011586804370687973
-0.024442511472402954   -0.1062061105422948   -0.011680169939815712
0.0022992779508626275   -0.05480909368104055   -0.008816734377111486
0.002009774430272955   -0.05453815407454899   -0.008829560637715055
0.0016980397305429423   -0.10533425437694853   -0.011755464540926578
0.022494120647830112   -0.055430921840175985   -0.00832162691142811
0.002184458452018337   -0.0548258639415708   -0.008791882296435008
0.0016980397305429423   -0.10533425437694853   -0.011755464540926578
0.029073261184606035   -0.1059343793614717   -0.011397047718217852
0.022494120647830112   -0.055430921840175985   -0.00832162691142811
0.0291607092081004   -0.10590377454453985   -0.011677912049453256
0.002184458452018337   -0.0548258639415708   -0.008791882296435008
0.022588188081184343   -0.0554307755679913   -0.008857276344724673
0.0291607092081004   -0.10590377454453985   -0.011677912049453256
0.022494120647830112   -0.055430921840175985   -0.00832162691142811
0.002184458452018337   -0.0548258639415708   -0.008791882296435008
0.0291607092081004   -0.10590377454453985   -0.011677912049453256
0.001800752351372186   -0.10556942665763903   -0.0116379121849277
0.0016980397305429423   -0.10533425437694853   -0.011755464540926578
0.002184458452018337   -0.0548258639415708   -0.008791882296435008
0.0291607092081004   -0.10590377454453985   -0.011677912049453256
0.0016980397305429423   -0.10533425437694853   -0.011755464540926578
0.022494120647830112   -0.055430921840175985   -0.00832162691142811
0.002184458452018337   -0.0548258639415708   -0.008791882296435008
0.001800752351372186   -0.10556942665763903   -0.0116379121849277
0.022588188081184343   -0.0554307755679913   -0.008857276344724673
0.0022992779508626275   -0.05480909368104055   -0.008816734377111486
0.001800752351372186   -0.10556942665763903   -0.0116379121849277
0.0291607092081004   -0.10590377454453985   -0.011677912049453256
0.022588188081184343   -0.0554307755679913   -0.008857276344724673
0.029075622720147267   -0.10566124048046505   -0.012014462197131074
0.0022992779508626275   -0.05480909368104055   -0.008816734377111486
0.022474342988623382   -0.05513181180481722   -0.009463679255867606
0.029075622720147267   -0.10566124048046505   -0.012014462197131074
0.022588188081184343   -0.0554307755679913   -0.008857276344724673
0.0022992779508626275   -0.05480909368104055   -0.008816734377111486
0.029075622720147267   -0.10566124048046505   -0.012014462197131074
0.0018630166522535466   -0.1055883576587741   -0.011580462070945123
0.001800752351372186   -0.10556942665763903   -0.0116379121849277
0.0022992779508626275   -0.05480909368104055   -0.008816734377111486
0.029075622720147267   -0.10566124048046505   -0.012014462197131074
0.001800752351372186   -0.10556942665763903   -0.0116379121849277
0.022588188081184343   -0.0554307755679913   -0.008857276344724673
0.0022992779508626275   -0.05480909368104055   -0.008816734377111486
0.0018630166522535466   -0.1055883576587741   -0.011580462070945123
0.022474342988623382   -0.05513181180481722   -0.009463679255867606
0.002423099898170386   -0.05447851022953583   -0.008905116407578162
0.0018630166522535466   -0.1055883576587741   -0.011580462070945123
0.029075622720147267   -0.10566124048046505   -0.012014462197131074
0.022474342988623382   -0.05513181180481722   -0.009463679255867606
0.028954472569846228   -0.10515466129935265   -0.012413265470734092
0.002423099898170386   -0.05447851022953583   -0.008905116407578162
0.022405669423133854   -0.05445190978734778   -0.01011843211580524
0.028954472569846228   -0.10515466129935265   -0.012413265470734092
0.022474342988623382   -0.05513181180481722   -0.009463679255867606
0.002423099898170386   -0.05447851022953583   -0.008905116407578162
0.028954472569846228   -0.10515466129935265   -0.012413265470734092
0.001905164202592999   -0.10538781002781374   -0.011586804370687973
0.0018630166522535466   -0.1055883576587741   -0.011580462070945123
0.002423099898170386   -0.05447851022953583   -0.008905116407578162
0.028954472569846228   -0.10515466129935265   -0.012413265470734092
0.0018630166522535466   -0.1055883576587741   -0.011580462070945123
0.022474342988623382   -0.05513181180481722   -0.009463679255867606
0.022494120647830112   -0.055430921840175985   -0.00832162691142811
0.029073261184606035   -0.1059343793614717   -0.011397047718217852
0.04720060996046926   -0.057092028830540514   -0.008179526481742552
0.022588188081184343   -0.0554307755679913   -0.008857276344724673
0.029073261184606035   -0.1059343793614717   -0.011397047718217852
0.06024371481597312   -0.10702507504922477   -0.01139657195082685
0.04720060996046926   -0.057092028830540514   -0.008179526481742552
0.059703461387835804   -0.10684187393668149   -0.01212819272065232
0.022588188081184343   -0.0554307755679913   -0.008857276344724673
0.04622645709860999   -0.056939475826089554   -0.009383332646051892
0.059703461387835804   -0.10684187393668149   -0.01212819272065232
0.04720060996046926   -0.057092028830540514   -0.008179526481742552
0.022588188081184343   -0.0554307755679913   -0.008857276344724673
0.059703461387835804   -0.10684187393668149   -0.01212819272065232
0.0291607092081004   -0.10590377454453985   -0.011677912049453256
0.029073261184606035   -0.1059343793614717   -0.011397047718217852
0.022588188081184343   -0.0554307755679913   -0.008857276344724673
0.059703461387835804   -0.10684187393668149   -0.01212819272065232
0.029073261184606035   -0.1059343793614717   -0.011397047718217852
0.04720060996046926   -0.057092028830540514   -0.008179526481742552
0.022588188081184343   -0.0554307755679913   -0.008857276344724673
0.0291607092081004   -0.10590377454453985   -0.011677912049453256
0.04622645709860999   -0.056939475826089554   -0.009383332646051892
0.022474342988623382   -0.05513181180481722   -0.009463679255867606
0.0291607092081004   -0.10590377454453985   -0.011677912049453256
0.059703461387835804   -0.10684187393668149   -0.01212819272065232
0.04622645709860999   -0.056939475826089554   -0.009383332646051892
0.059166449659782135   -0.10646782625774519   -0.012960220542503398
0.022474342988623382   -0.05513181180481722   -0.009463679255867606
0.045357057595346036   -0.0564780690300008   -0.0107361202409013
0.059166449659782135   -0.10646782625774519   -0.012960220542503398
0.04622645709860999   -0.056939475826089554   -0.009383332646051892
0.022474342988623382   -0.05513181180481722   -0.009463679255867606
0.059166449659782135   -0.10646782625774519   -0.012960220542503398
0.029075622720147267   -0.10566124048046505   -0.012014462197131074
0.0291607092081004   -0.10590377454453985   -0.011677912049453256
0.022474342988623382   -0.05513181180481722   -0.009463679255867606
0.059166449659782135   -0.10646782625774519   -0.012960220542503398
0.0291607092081004   -0.10590377454453985   -0.011677912049453256
0.04622645709860999   -0.056939475826089554   -0.009383332646051892
0.022474342988623382   -0.05513181180481722   -0.009463679255867606
0.029075622720147267   -0.10566124048046505   -0.012014462197131074
0.045357057595346036   -0.0564780690300008   -0.0107361202409013
0.022405669423133854   -0.05445190978734778   -0.01011843211580524
0.029075622720147267   -0.10566124048046505   -0.012014462197131074
0.059166449659782135   -0.10646782625774519   -0.012960220542503398
0.045357057595346036   -0.0564780690300008   -0.0107361202409013
0.058222844043123036   -0.10567979796467046   -0.013892758335627406
0.022405669423133854   -0.05445190978734778   -0.01011843211580524
0.04406019537768304   -0.05544843682801545   -0.012143428791720203
0.058222844043123036   -0.10567979796467046   -0.013892758335627406
0.045357057595346036   -0.0564780690300008   -0.0107361202409013
0.022405669423133854   -0.05445190978734778   -0.01011843211580524
0.058222844043123036   -0.10567979796467046   -0.013892758335627406
0.028954472569846228   -0.10515466129935265   -0.012413265470734092
0.029075622720147267   -0.10566124048046505   -0.012014462197131074
0.022405669423133854   -0.05445190978734778   -0.01011843211580524
0.058222844043123036   -0.10567979796467046   -0.013892758335627406
0.029075622720147267   -0.10566124048046505   -0.012014462197131074
0.045357057595346036   -0.0564780690300008   -0.0107361202409013
-0.08027850837193237   -0.10752675816086782   -0.016082468285765473
-0.09593439476242986   -0.16719943878925791   -0.017141637945014995
-0.051606774355293816   -0.10608849655302954   -0.014047925702225258
-0.08171989458799608   -0.10864784422952949   -0.014675529953573732
-0.09593439476242986   -0.16719943878925791   -0.017141637945014995
-0.062252249188797244   -0.166282346100994   -0.015479452531405858
-0.051606774355293816   -0.10608849655302954   -0.014047925702225258
-0.0623370371553945   -0.1669896688205234   -0.014834125335351155
-0.08171989458799608   -0.10864784422952949   -0.014675529953573732
-0.0517300255241082   -0.10690922323525862   -0.01314774229297838
-0.0623370371553945   -0.1669896688205234   -0.014834125335351155
-0.051606774355293816   -0.10608849655302954   -0.014047925702225258
-0.08171989458799608   -0.10864784422952949   -0.014675529953573732
-0.0623370371553945   -0.1669896688205234   -0.014834125335351155
-0.09691099486861064   -0.16815586925224071   -0.01620498389833322
-0.09593439476242986   -0.16719943878925791   -0.017141637945014995
-0.08171989458799608   -0.10864784422952949   -0.014675529953573732
-0.0623370371553945   -0.1669896688205234   -0.014834125335351155
-0.09593439476242986   -0.16719943878925791   -0.017141637945014995
-0.051606774355293816   -0.10608849655302954   -0.014047925702225258
-0.08171989458799608   -0.10864784422952949   -0.014675529953573732
-0.09691099486861064   -0.16815586925224071   -0.01620498389833322
-0.0517300255241082   -0.10690922323525862   -0.01314774229297838
-0.08263319599136534   -0.10934996656925744   -0.01336358818952406
-0.09691099486861064   -0.16815586925224071   -0.01620498389833322
-0.0623370371553945   -0.1669896688205234   -0.014834125335351155
-0.0517300255241082   -0.10690922323525862   -0.01314774229297838
-0.06240069600140652   -0.1675496130561571   -0.014252932024967932
-0.08263319599136534   -0.10934996656925744   -0.01336358818952406
-0.05187393170184465   -0.107479599446569   -0.01231234082626988
-0.06240069600140652   -0.1675496130561571   -0.014252932024967932
-0.0517300255241082   -0.10690922323525862   -0.01314774229297838
-0.08263319599136534   -0.10934996656925744   -0.01336358818952406
-0.06240069600140652   -0.1675496130561571   -0.014252932024967932
-0.09747624643262709   -0.1688315841112036   -0.015357788147719998
-0.09691099486861064   -0.16815586925224071   -0.01620498389833322
-0.08263319599136534   -0.10934996656925744   -0.01336358818952406
-0.06240069600140652   -0.1675496130561571   -0.014252932024967932
-0.09691099486861064   -0.16815586925224071   -0.01620498389833322
-0.0517300255241082   -0.10690922323525862   -0.01314774229297838
-0.08263319599136534   -0.10934996656925744   -0.01336358818952406
-0.09747624643262709   -0.1688315841112036   -0.015357788147719998
-0.05187393170184465   -0.107479599446569   -0.01231234082626988
-0.08367235590140483   -0.10985298831097676   -0.012155517828700495
-0.09747624643262709   -0.1688315841112036   -0.015357788147719998
-0.06240069600140652   -0.1675496130561571   -0.014252932024967932
-0.05187393170184465   -0.107479599446569   -0.01231234082626988
-0.06228161715965105   -0.1680085257242032   -0.013727409358750303
-0.08367235590140483   -0.10985298831097676   -0.012155517828700495
-0.05178737428565683   -0.10785366302601299   -0.011527944509281846
-0.06228161715965105   -0.1680085257242032   -0.013727409358750303
-0.05187393170184465   -0.107479599446569   -0.01231234082626988
-0.08367235590140483   -0.10985298831097676   -0.012155517828700495
-0.06228161715965105   -0.1680085257242032   -0.013727409358750303
-0.0980593032996485   -0.16943562285505837   -0.014610627182287025
-0.09747624643262709   -0.1688315841112036   -0.015357788147719998
-0.08367235590140483   -0.10985298831097676   -0.012155517828700495
-0.06228161715965105   -0.1680085257242032   -0.013727409358750303
-0.09747624643262709   -0.1688315841112036   -0.015357788147719998
-0.05187393170184465   -0.107479599446569   -0.01231234082626988
-0.051606774355293816   -0.10608849655302954   -0.014047925702225258
-0.062252249188797244   -0.166282346100994   -0.015479452531405858
-0.024559321346572887   -0.10537221634996909   -0.012633990722181009
-0.0517300255241082   -0.10690922323525862   -0.01314774229297838
-0.062252249188797244   -0.166282346100994   -0.015479452531405858
-0.03066785212371213   -0.16580963570741356   -0.014328180270921056
-0.024559321346572887   -0.10537221634996909   -0.012633990722181009
-0.0306192208399512   -0.16625417097456913   -0.013903235875051413
-0.0517300255241082   -0.10690922323525862   -0.01314774229297838
-0.024507863370091348   -0.10589772971685886   -0.012126205903272442
-0.0306192208399512   -0.16625417097456913   -0.013903235875051413
-0.024559321346572887   -0.10537221634996909   -0.012633990722181009
-0.0517300255241082   -0.10690922323525862   -0.01314774229297838
-0.0306192208399512   -0.16625417097456913   -0.013903235875051413
-0.0623370371553945   -0.1669896688205234   -0.014834125335351155
-0.062252249188797244   -0.166282346100994   -0.015479452531405858
-0.0517300255241082   -0.10690922323525862   -0.01314774229297838
-0.0306192208399512   -0.16625417097456913   -0.013903235875051413
-0.062252249188797244   -0.166282346100994   -0.015479452531405858
-0.024559321346572887   -0.10537221634996909   -0.012633990722181009
-0.0517300255241082   -0.10690922323525862   -0.01314774229297838
-0.0623370371553945   -0.1669896688205234   -0.014834125335351155
-0.024507863370091348   -0.10589772971685886   -0.012126205903272442
-0.05187393170184465   -0.107479599446569   -0.01231234082626988
-0.0623370371553945   -0.1669896688205234   -0.014834125335351155
-0.0306192208399512   -0.16625417097456913   -0.013903235875051413
-0.024507863370091348   -0.10589772971685886   -0.012126205903272442
-0.03054913546956642   -0.16657529115941733   -0.013541510796992994
-0.05187393170184465   -0.107479599446569   -0.01231234082626988
-0.024442511472402954   -0.1062061105422948   -0.011680169939815712
-0.03054913546956642   -0.16657529115941733   -0.013541510796992994
-0.024507863370091348   -0.10589772971685886   -0.012126205903272442
-0.05187393170184465   -0.107479599446569   -0.01231234082626988
-0.03054913546956642   -0.16657529115941733   -0.013541510796992994
-0.06240069600140652   -0.1675496130561571   -0.014252932024967932
-0.0623370371553945   -0.1669896688205234   -0.014834125335351155
-0.05187393170184465   -0.107479599446569   -0.01231234082626988
-0.03054913546956642   -0.16657529115941733   -0.013541510796992994
-0.0623370371553945   -0.1669896688205234   -0.014834125335351155
-0.024507863370091348   -0.10589772971685886   -0.012126205903272442
-0.05187393170184465   -0.107479599446569   -0.01231234082626988
-0.06240069600140652   -0.1675496130561571   -0.014252932024967932
-0.024442511472402954   -0.1062061105422948   -0.011680169939815712
-0.05178737428565683   -0.10785366302601299   -0.011527944509281846
-0.06240069600140652   -0.1675496130561571   -0.014252932024967932
-0.03054913546956642   -0.16657529115941733   -0.013541510796992994
-0.024442511472402954   -0.1062061105422948   -0.011680169939815712
-0.030439988158224077   -0.16677509086183706   -0.013244016832088496
-0.05178737428565683   -0.10785366302601299   -0.011527944509281846
-0.02432879710896049   -0.1063017695473131   -0.011295670260649225
-0.030439988158224077   -0.16677509086183706   -0.013244016832088496
-0.024442511472402954   -0.1062061105422948   -0.011680169939815712
-0.05178737428565683   -0.10785366302601299   -0.011527944509281846
-0.030439988158224077   -0.16677509086183706   -0.013244016832088496
-0.06228161715965105   -0.1680085257242032   -0.013727409358750303
-0.06240069600140652   -0.1675496130561571   -0.014252932024967932
-0.05178737428565683   -0.10785366302601299   -0.011527944509281846
-0.030439988158224077   -0.16677509086183706   -0.013244016832088496
-0.06240069600140652   -0.1675496130561571   -0.014252932024967932
-0.024442511472402954   -0.1062061105422948   -0.011680169939815712
-0.024559321346572887   -0.10537221634996909   -0.012633990722181009
-0.03066785212371213   -0.16580963570741356   -0.014328180270921056
0.0016980397305429423   -0.10533425437694853   -0.011755464540926578
-0.024507863370091348   -0.10589772971685886   -0.012126205903272442
-0.03066785212371213   -0.16580963570741356   -0.014328180270921056
6.122121301424161e-05   -0.16572914233527772   -0.013655704565107844
0.0016980397305429423   -0.10533425437694853   -0.011755464540926578
0.000161063572175173   -0.16590977259584294   -0.013452738825412015
-0.024507863370091348   -0.10589772971685886   -0.012126205903272442
0.001800752351372186   -0.10556942665763903   -0.0116379121849277
0.000161063572175173   -0.16590977259584294   -0.013452738825412015
0.0016980397305429423   -0.10533425437694853   -0.011755464540926578
-0.024507863370091348   -0.10589772971685886   -0.012126205903272442
0.000161063572175173   -0.16590977259584294   -0.013452738825412015
-0.0306192208399512   -0.16625417097456913   -0.013903235875051413
-0.03066785212371213   -0.16580963570741356   -0.014328180270921056
-0.024507863370091348   -0.10589772971685886   -0.012126205903272442
0.000161063572175173   -0.16590977259584294   -0.013452738825412015
-0.03066785212371213   -0.16580963570741356   -0.014328180270921056
0.0016980397305429423   -0.10533425437694853   -0.011755464540926578
-0.024507863370091348   -0.10589772971685886   -0.012126205903272442
-0.0306192208399512   -0.16625417097456913   -0.013903235875051413
0.001800752351372186   -0.10556942665763903   -0.0116379121849277
-0.024442511472402954   -0.1062061105422948   -0.011680169939815712
-0.0306192208399512   -0.16625417097456913   -0.013903235875051413
0.000161063572175173   -0.16590977259584294   -0.013452738825412015
0.001800752351372186   -0.10556942665763903   -0.0116379121849277
0.00022937228751192918   -0.1659661489610657   -0.013312156713380792
-0.024442511472402954   -0.1062061105422948   -0.011680169939815712
0.0018630166522535466   -0.1055883576587741   -0.011580462070945123
0.00022937228751192918   -0.1659661489610657   -0.013312156713380792
0.001800752351372186   -0.10556942665763903   -0.0116379121849277
-0.024442511472402954   -0.1062061105422948   -0.011680169939815712
0.00022937228751192918   -0.1659661489610657   -0.013312156713380792
-0.03054913546956642   -0.16657529115941733   -0.013541510796992994
-0.0306192208399512   -0.16625417097456913   -0.013903235875051413
-0.024442511472402954   -0.1062061105422948   -0.011680169939815712
0.00022937228751192918   -0.1659661489610657   -0.013312156713380792
-0.0306192208399512   -0.16625417097456913   -0.013903235875051413
0.001800752351372186   -0.10556942665763903   -0.0116379121849277
-0.024442511472402954   -0.1062061105422948   -0.011680169939815712
-0.03054913546956642   -0.16657529115941733   -0.013541510796992994
0.0018630166522535466   -0.1055883576587741   -0.011580462070945123
-0.02432879710896049   -0.1063017695473131   -0.011295670260649225
-0.03054913546956642   -0.16657529115941733   -0.013541510796992994
0.00022937228751192918   -0.1659661489610657   -0.013312156713380792
0.0018630166522535466   -0.1055883576587741   -0.011580462070945123
0.000269039549403072   -0.1658965758860299   -0.013236747929269217
-0.02432879710896049   -0.1063017695473131   -0.011295670260649225
0.001905164202592999   -0.10538781002781374   -0.011586804370687973
0.000269039549403072   -0.1658965758860299   -0.013236747929269217
0.0018630166522535466   -0.1055883576587741   -0.011580462070945123
-0.02432879710896049   -0.1063017695473131   -0.011295670260649225
0.000269039549403072   -0.1658965758860299   -0.013236747929269217
-0.030439988158224077   -0.16677509086183706   -0.013244016832088496
-0.03054913546956642   -0.16657529115941733   -0.013541510796992994
-0.02432879710896049   -0.1063017695473131   -0.011295670260649225
0.000269039549403072   -0.1658965758860299   -0.013236747929269217
-0.03054913546956642   -0.16657529115941733   -0.013541510796992994
0.0018630166522535466   -0.1055883576587741   -0.011580462070945123
0.0016980397305429423   -0.10533425437694853   -0.011755464540926578
6.122121301424161e-05   -0.16572914233527772   -0.013655704565107844
0.029073261184606035   -0.1059343793614717   -0.011397047718217852
0.001800752351372186   -0.10556942665763903   -0.0116379121849277
6.122121301424161e-05   -0.16572914233527772   -0.013655704565107844
0.031846445093167475   -0.16600759897721626   -0.013458952816332782
0.029073261184606035   -0.1059343793614717   -0.011397047718217852
0.03197002144324608   -0.16593996920177995   -0.013482720818913094
0.001800752351372186   -0.10556942665763903   -0.0116379121849277
0.0291607092081004   -0.10590377454453985   -0.011677912049453256
0.03197002144324608   -0.16593996920177995   -0.013482720818913094
0.029073261184606035   -0.1059343793614717   -0.011397047718217852
0.001800752351372186   -0.10556942665763903   -0.0116379121849277
0.03197002144324608   -0.16593996920177995   -0.013482720818913094
0.000161063572175173   -0.16590977259584294   -0.013452738825412015
6.122121301424161e-05   -0.16572914233527772   -0.013655704565107844
0.001800752351372186   -0.10556942665763903   -0.0116379121849277
0.03197002144324608   -0.16593996920177995   -0.013482720818913094
6.122121301424161e-05   -0.16572914233527772   -0.013655704565107844
0.029073261184606035   -0.1059343793614717   -0.011397047718217852
0.001800752351372186   -0.10556942665763903   -0.0116379121849277
0.000161063572175173   -0.16590977259584294   -0.013452738825412015
0.0291607092081004   -0.10590377454453985   -0.011677912049453256
0.0018630166522535466   -0.1055883576587741   -0.011580462070945123
0.000161063572175173   -0.16590977259584294   -0.013452738825412015
0.03197002144324608   -0.16593996920177995   -0.013482720818913094
0.0291607092081004   -0.10590377454453985   -0.011677912049453256
0.031969239640593505   -0.16575722183407296   -0.01356553993606479
0.0018630166522535466   -0.1055883576587741   -0.011580462070945123
0.029075622720147267   -0.10566124048046505   -0.012014462197131074
0.031969239640593505   -0.16575722183407296   -0.01356553993606479
0.0291607092081004   -0.10590377454453985   -0.011677912049453256
0.0018630166522535466   -0.1055883576587741   -0.011580462070945123
0.031969239640593505   -0.16575722183407296   -0.01356553993606479
0.00022937228751192918   -0.1659661489610657   -0.013312156713380792
0.000161063572175173   -0.16590977259584294   -0.013452738825412015
0.0018630166522535466   -0.1055883576587741   -0.011580462070945123
0.031969239640593505   -0.16575722183407296   -0.01356553993606479
0.000161063572175173   -0.16590977259584294   -0.013452738825412015
0.0291607092081004   -0.10590377454453985   -0.011677912049453256
0.0018630166522535466   -0.1055883576587741   -0.011580462070945123
0.00022937228751192918   -0.1659661489610657   -0.013312156713380792
0.029075622720147267   -0.10566124048046505   -0.012014462197131074
0.001905164202592999   -0.10538781002781374   -0.011586804370687973
0.00022937228751192918   -0.1659661489610657   -0.013312156713380792
0.031969239640593505   -0.16575722183407296   -0.01356553993606479
0.029075622720147267   -0.10566124048046505   -0.012014462197131074
0.031889135034182815   -0.16541325626170209   -0.013709624979070687
0.001905164202592999   -0.10538781002781374   -0.011586804370687973
0.028954472569846228   -0.10515466129935265   -0.012413265470734092
0.031889135034182815   -0.16541325626170209   -0.013709624979070687
0.029075622720147267   -0.10566124048046505   -0.012014462197131074
0.001905164202592999   -0.10538781002781374   -0.011586804370687973
0.031889135034182815   -0.16541325626170209   -0.013709624979070687
0.000269039549403072   -0.1658965758860299   -0.013236747929269217
0.00022937228751192918   -0.1659661489610657   -0.013312156713380792
0.001905164202592999   -0.10538781002781374   -0.011586804370687973
0.031889135034182815   -0.16541325626170209   -0.013709624979070687
0.00022937228751192918   -0.1659661489610657   -0.013312156713380792
0.029075622720147267   -0.10566124048046505   -0.012014462197131074
0.029073261184606035   -0.1059343793614717   -0.011397047718217852
0.031846445093167475   -0.16600759897721626   -0.013458952816332782
0.06024371481597312   -0.10702507504922477   -0.01139657195082685
0.0291607092081004   -0.10590377454453985   -0.011677912049453256
0.031846445093167475   -0.16600759897721626   -0.013458952816332782
0.0669461750566275   -0.1665210676621224   -0.013632281898939853
0.06024371481597312   -0.10702507504922477   -0.01139657195082685
0.06686814610216994   -0.166285689869225   -0.013901824202018727
0.0291607092081004   -0.10590377454453985   -0.011677912049453256
0.059703461387835804   -0.10684187393668149   -0.01212819272065232
0.06686814610216994   -0.166285689869225   -0.013901824202018727
0.06024371481597312   -0.10702507504922477   -0.01139657195082685
0.0291607092081004   -0.10590377454453985   -0.011677912049453256
0.06686814610216994   -0.166285689869225   -0.013901824202018727
0.03197002144324608   -0.16593996920177995   -0.013482720818913094
0.031846445093167475   -0.16600759897721626   -0.013458952816332782
0.0291607092081004   -0.10590377454453985   -0.011677912049453256
0.06686814610216994   -0.166285689869225   -0.013901824202018727
0.031846445093167475   -0.16600759897721626   -0.013458952816332782
0.06024371481597312   -0.10702507504922477   -0.01139657195082685
0.0291607092081004   -0.10590377454453985   -0.011677912049453256
0.03197002144324608   -0.16593996920177995   -0.013482720818913094
0.059703461387835804   -0.10684187393668149   -0.01212819272065232
0.029075622720147267   -0.10566124048046505   -0.012014462197131074
0.03197002144324608   -0.16593996920177995   -0.013482720818913094
0.06686814610216994   -0.166285689869225   -0.013901824202018727
0.059703461387835804   -0.10684187393668149   -0.01212819272065232
0.06668637991984495   -0.1659867746707055   -0.014267103132260152
0.029075622720147267   -0.10566124048046505   -0.012014462197131074
0.059166449659782135   -0.10646782625774519   -0.012960220542503398
0.06668637991984495   -0.1659867746707055   -0.014267103132260152
0.059703461387835804   -0.10684187393668149   -0.01212819272065232
0.029075622720147267   -0.10566124048046505   -0.012014462197131074
0.06668637991984495   -0.1659867746707055   -0.014267103132260152
0.031969239640593505   -0.16575722183407296   -0.01356553993606479
0.03197002144324608   -0.16593996920177995   -0.013482720818913094
0.029075622720147267   -0.10566124048046505   -0.012014462197131074
0.06668637991984495   -0.1659867746707055   -0.014267103132260152
0.03197002144324608   -0.16593996920177995   -0.013482720818913094
0.059703461387835804   -0.10684187393668149   -0.01212819272065232
0.029075622720147267   -0.10566124048046505   -0.012014462197131074
0.031969239640593505   -0.16575722183407296   -0.01356553993606479
0.059166449659782135   -0.10646782625774519   -0.012960220542503398
0.028954472569846228   -0.10515466129935265   -0.012413265470734092
0.031969239640593505   -0.16575722183407296   -0.01356553993606479
0.06668637991984495   -0.1659867746707055   -0.014267103132260152
0.059166449659782135   -0.10646782625774519   -0.012960220542503398
0.06621411718826714   -0.1654137584005436   -0.014727425979775319
0.028954472569846228   -0.10515466129935265   -0.012413265470734092
0.058222844043123036   -0.10567979796467046   -0.013892758335627406
0.06621411718826714   -0.1654137584005436   -0.014727425979775319
0.059166449659782135   -0.10646782625774519   -0.012960220542503398
0.028954472569846228   -0.10515466129935265   -0.012413265470734092
0.06621411718826714   -0.1654137584005436   -0.014727425979775319
0.031889135034182815   -0.16541325626170209   -0.013709624979070687
0.031969239640593505   -0.16575722183407296   -0.01356553993606479
0.028954472569846228   -0.10515466129935265   -0.012413265470734092
0.06621411718826714   -0.1654137584005436   -0.014727425979775319
0.031969239640593505   -0.16575722183407296   -0.01356553993606479
0.059166449659782135   -0.10646782625774519   -0.012960220542503398
-0.09593439476242986   -0.16719943878925791   -0.017141637945014995
-0.10544405773009315   -0.23222667653823417   -0.01744467965225982
-0.062252249188797244   -0.166282346100994   -0.015479452531405858
-0.09691099486861064   -0.16815586925224071   -0.01620498389833322
-0.10544405773009315   -0.23222667653823417   -0.01744467965225982
-0.06925530052923823   -0.2318511495266619   -0.01611772525458759
-0.062252249188797244   -0.166282346100994   -0.015479452531405858
-0.06923605138068689   -0.2324556876729252   -0.015721223902823656
-0.09691099486861064   -0.16815586925224071   -0.01620498389833322
-0.0623370371553945   -0.1669896688205234   -0.014834125335351155
-0.06923605138068689   -0.2324556876729252   -0.015721223902823656
-0.062252249188797244   -0.166282346100994   -0.015479452531405858
-0.09691099486861064   -0.16815586925224071   -0.01620498389833322
-0.06923605138068689   -0.2324556876729252   -0.015721223902823656
-0.10590623521049505   -0.23303889912478484   -0.016959499795344096
-0.10544405773009315   -0.23222667653823417   -0.01744467965225982
-0.09691099486861064   -0.16815586925224071   -0.01620498389833322
-0.06923605138068689   -0.2324556876729252   -0.015721223902823656
-0.10544405773009315   -0.23222667653823417   -0.01744467965225982
-0.062252249188797244   -0.166282346100994   -0.015479452531405858
-0.09691099486861064   -0.16815586925224071   -0.01620498389833322
-0.10590623521049505   -0.23303889912478484   -0.016959499795344096
-0.0623370371553945   -0.1669896688205234   -0.014834125335351155
-0.09747624643262709   -0.1688315841112036   -0.015357788147719998
-0.10590623521049505   -0.23303889912478484   -0.016959499795344096
-0.06923605138068689   -0.2324556876729252   -0.015721223902823656
-0.0623370371553945   -0.1669896688205234   -0.014834125335351155
-0.0691515432409419   -0.23301245683364094   -0.015390530940286933
-0.09747624643262709   -0.1688315841112036   -0.015357788147719998
-0.06240069600140652   -0.1675496130561571   -0.014252932024967932
-0.0691515432409419   -0.23301245683364094   -0.015390530940286933
-0.0623370371553945   -0.1669896688205234   -0.014834125335351155
-0.09747624643262709   -0.1688315841112036   -0.015357788147719998
-0.0691515432409419   -0.23301245683364094   -0.015390530940286933
-0.10606022196683068   -0.23370025332157643   -0.016569067652816145
-0.10590623521049505   -0.23303889912478484   -0.016959499795344096
-0.09747624643262709   -0.1688315841112036   -0.015357788147719998
-0.0691515432409419   -0.23301245683364094   -0.015390530940286933
-0.10590623521049505   -0.23303889912478484   -0.016959499795344096
-0.0623370371553945   -0.1669896688205234   -0.014834125335351155
-0.09747624643262709   -0.1688315841112036   -0.015357788147719998
-0.10606022196683068   -0.23370025332157643   -0.016569067652816145
-0.06240069600140652   -0.1675496130561571   -0.014252932024967932
-0.0980593032996485   -0.16943562285505837   -0.014610627182287025
-0.10606022196683068   -0.23370025332157643   -0.016569067652816145
-0.0691515432409419   -0.23301245683364094   -0.015390530940286933
-0.06240069600140652   -0.1675496130561571   -0.014252932024967932
-0.06893068622307101   -0.23356381101128734   -0.015121113435406874
-0.0980593032996485   -0.16943562285505837   -0.014610627182287025
-0.06228161715965105   -0.1680085257242032   -0.013727409358750303
-0.06893068622307101   -0.23356381101128734   -0.015121113435406874
-0.06240069600140652   -0.1675496130561571   -0.014252932024967932
-0.0980593032996485   -0.16943562285505837   -0.014610627182287025
-0.06893068622307101   -0.23356381101128734   -0.015121113435406874
-0.10611936559522311   -0.23441710400964996   -0.016281433128843916
-0.10606022196683068   -0.23370025332157643   -0.016569067652816145
-0.0980593032996485   -0.16943562285505837   -0.014610627182287025
-0.06893068622307101   -0.23356381101128734   -0.015121113435406874
-0.10606022196683068   -0.23370025332157643   -0.016569067652816145
-0.06240069600140652   -0.1675496130561571   -0.014252932024967932
-0.062252249188797244   -0.166282346100994   -0.015479452531405858
-0.06925530052923823   -0.2318511495266619   -0.01611772525458759
-0.03066785212371213   -0.16580963570741356   -0.014328180270921056
-0.0623370371553945   -0.1669896688205234   -0.014834125335351155
-0.06925530052923823   -0.2318511495266619   -0.01611772525458759
-0.03563652885989804   -0.23163742844249752   -0.0152140631006393
-0.03066785212371213   -0.16580963570741356   -0.014328180270921056
-0.0355190656664208   -0.23200401398963433   -0.014869681351128837
-0.0623370371553945   -0.1669896688205234   -0.014834125335351155
-0.0306192208399512   -0.16625417097456913   -0.013903235875051413
-0.0355190656664208   -0.23200401398963433   -0.014869681351128837
-0.03066785212371213   -0.16580963570741356   -0.014328180270921056
-0.0623370371553945   -0.1669896688205234   -0.014834125335351155
-0.0355190656664208   -0.23200401398963433   -0.014869681351128837
-0.06923605138068689   -0.2324556876729252   -0.015721223902823656
-0.06925530052923823   -0.2318511495266619   -0.01611772525458759
-0.0623370371553945   -0.1669896688205234   -0.014834125335351155
-0.0355190656664208   -0.23200401398963433   -0.014869681351128837
-0.06925530052923823   -0.2318511495266619   -0.01611772525458759
-0.03066785212371213   -0.16580963570741356   -0.014328180270921056
-0.0623370371553945   -0.1669896688205234   -0.014834125335351155
-0.06923605138068689   -0.2324556876729252   -0.015721223902823656
-0.0306192208399512   -0.16625417097456913   -0.013903235875051413
-0.06240069600140652   -0.1675496130561571   -0.014252932024967932
-0.06923605138068689   -0.2324556876729252   -0.015721223902823656
-0.0355190656664208   -0.23200401398963433   -0.014869681351128837
-0.0306192208399512   -0.16625417097456913   -0.013903235875051413
-0.035373059102362873   -0.2323398165522375   -0.014591204578529039
-0.06240069600140652   -0.1675496130561571   -0.014252932024967932
-0.03054913546956642   -0.16657529115941733   -0.013541510796992994
-0.035373059102362873   -0.2323398165522375   -0.014591204578529039
-0.0306192208399512   -0.16625417097456913   -0.013903235875051413
-0.06240069600140652   -0.1675496130561571   -0.014252932024967932
-0.035373059102362873   -0.2323398165522375   -0.014591204578529039
-0.0691515432409419   -0.23301245683364094   -0.015390530940286933
-0.06923605138068689   -0.2324556876729252   -0.015721223902823656
-0.06240069600140652   -0.1675496130561571   -0.014252932024967932
-0.035373059102362873   -0.2323398165522375   -0.014591204578529039
-0.06923605138068689   -0.2324556876729252   -0.015721223902823656
-0.0306192208399512   -0.16625417097456913   -0.013903235875051413
-0.06240069600140652   -0.1675496130561571   -0.014252932024967932
-0.0691515432409419   -0.23301245683364094   -0.015390530940286933
-0.03054913546956642   -0.16657529115941733   -0.013541510796992994
-0.06228161715965105   -0.1680085257242032   -0.013727409358750303
-0.0691515432409419   -0.23301245683364094   -0.015390530940286933
-0.035373059102362873   -0.2323398165522375   -0.014591204578529039
-0.03054913546956642   -0.16657529115941733   -0.013541510796992994
-0.03519611629162862   -0.23264592462081865   -0.014380176543121726
-0.06228161715965105   -0.1680085257242032   -0.013727409358750303
-0.030439988158224077   -0.16677509086183706   -0.013244016832088496
-0.03519611629162862   -0.23264592462081865   -0.014380176543121726
-0.03054913546956642   -0.16657529115941733   -0.013541510796992994
-0.06228161715965105   -0.1680085257242032   -0.013727409358750303
-0.03519611629162862   -0.23264592462081865   -0.014380176543121726
-0.06893068622307101   -0.23356381101128734   -0.015121113435406874
-0.0691515432409419   -0.23301245683364094   -0.015390530940286933
-0.06228161715965105   -0.1680085257242032   -0.013727409358750303
-0.03519611629162862   -0.23264592462081865   -0.014380176543121726
-0.0691515432409419   -0.23301245683364094   -0.015390530940286933
-0.03054913546956642   -0.16657529115941733   -0.013541510796992994
-0.03066785212371213   -0.16580963570741356   -0.014328180270921056
-0.03563652885989804   -0.23163742844249752   -0.0152140631006393
6.122121301424161e-05   -0.16572914233527772   -0.013655704565107844
-0.0306192208399512   -0.16625417097456913   -0.013903235875051413
-0.03563652885989804   -0.23163742844249752   -0.0152140631006393
-0.0029269926595752098   -0.23151618385755696   -0.014744515307540687
6.122121301424161e-05   -0.16572914233527772   -0.013655704565107844
-0.0027598984687233806   -0.23164073803377946   -0.014455599008967703
-0.0306192208399512   -0.16625417097456913   -0.013903235875051413
0.000161063572175173   -0.16590977259584294   -0.013452738825412015
-0.0027598984687233806   -0.23164073803377946   -0.014455599008967703
6.122121301424161e-05   -0.16572914233527772   -0.013655704565107844
-0.0306192208399512   -0.16625417097456913   -0.013903235875051413
-0.0027598984687233806   -0.23164073803377946   -0.014455599008967703
-0.0355190656664208   -0.23200401398963433   -0.014869681351128837
-0.03563652885989804   -0.23163742844249752   -0.0152140631006393
-0.0306192208399512   -0.16625417097456913   -0.013903235875051413
-0.0027598984687233806   -0.23164073803377946   -0.014455599008967703
-0.03563652885989804   -0.23163742844249752   -0.0152140631006393
6.122121301424161e-05   -0.16572914233527772   -0.013655704565107844
-0.0306192208399512   -0.16625417097456913   -0.013903235875051413
-0.0355190656664208   -0.23200401398963433   -0.014869681351128837
0.000161063572175173   -0.16590977259584294   -0.013452738825412015
-0.03054913546956642   -0.16657529115941733   -0.013541510796992994
-0.0355190656664208   -0.23200401398963433   -0.014869681351128837
-0.0027598984687233806   -0.23164073803377946   -0.014455599008967703
0.000161063572175173   -0.16590977259584294   -0.013452738825412015
-0.002616232935407979   -0.2317323739193515   -0.014231984370457647
-0.03054913546956642   -0.16657529115941733   -0.013541510796992994
0.00022937228751192918   -0.1659661489610657   -0.013312156713380792
-0.002616232935407979   -0.2317323739193515   -0.014231984370457647
0.000161063572175173   -0.16590977259584294   -0.013452738825412015
-0.03054913546956642   -0.16657529115941733   -0.013541510796992994
-0.002616232935407979   -0.2317323739193515   -0.014231984370457647
-0.035373059102362873   -0.2323398165522375   -0.014591204578529039
-0.0355190656664208   -0.23200401398963433   -0.014869681351128837
-0.03054913546956642   -0.16657529115941733   -0.013541510796992994
-0.002616232935407979   -0.2317323739193515   -0.014231984370457647
-0.0355190656664208   -0.23200401398963433   -0.014869681351128837
0.000161063572175173   -0.16590977259584294   -0.013452738825412015
-0.03054913546956642   -0.16657529115941733   -0.013541510796992994
-0.035373059102362873   -0.2323398165522375   -0.014591204578529039
0.00022937228751192918   -0.1659661489610657   -0.013312156713380792
-0.030439988158224077   -0.16677509086183706   -0.013244016832088496
-0.035373059102362873   -0.2323398165522375   -0.014591204578529039
-0.002616232935407979   -0.2317323739193515   -0.014231984370457647
0.00022937228751192918   -0.1659661489610657   -0.013312156713380792
-0.0025087749637332044   -0.23179064784326497   -0.014076074314853502
-0.030439988158224077   -0.16677509086183706   -0.013244016832088496
0.000269039549403072   -0.1658965758860299   -0.013236747929269217
-0.0025087749637332044   -0.23179064784326497   -0.014076074314853502
0.00022937228751192918   -0.1659661489610657   -0.013312156713380792
-0.030439988158224077   -0.16677509086183706   -0.013244016832088496
-0.0025087749637332044   -0.23179064784326497   -0.014076074314853502
-0.03519611629162862   -0.23264592462081865   -0.014380176543121726
-0.035373059102362873   -0.2323398165522375   -0.014591204578529039
-0.030439988158224077   -0.16677509086183706   -0.013244016832088496
-0.0025087749637332044   -0.23179064784326497   -0.014076074314853502
-0.035373059102362873   -0.2323398165522375   -0.014591204578529039
0.00022937228751192918   -0.1659661489610657   -0.013312156713380792
6.122121301424161e-05   -0.16572914233527772   -0.013655704565107844
-0.0029269926595752098   -0.23151618385755696   -0.014744515307540687
0.031846445093167475   -0.16600759897721626   -0.013458952816332782
0.000161063572175173   -0.16590977259584294   -0.013452738825412015
-0.0029269926595752098   -0.23151618385755696   -0.014744515307540687
0.03078265658625682   -0.2314665922770396   -0.014712852898277584
0.031846445093167475   -0.16600759897721626   -0.013458952816332782
0.031005982006156417   -0.23135695290781508   -0.014482224987780786
0.000161063572175173   -0.16590977259584294   -0.013452738825412015
0.03197002144324608   -0.16593996920177995   -0.013482720818913094
0.031005982006156417   -0.23135695290781508   -0.014482224987780786
0.031846445093167475   -0.16600759897721626   -0.013458952816332782
0.000161063572175173   -0.16590977259584294   -0.013452738825412015
0.031005982006156417   -0.23135695290781508   -0.014482224987780786
-0.0027598984687233806   -0.23164073803377946   -0.014455599008967703
-0.0029269926595752098   -0.23151618385755696   -0.014744515307540687
0.000161063572175173   -0.16590977259584294   -0.013452738825412015
0.031005982006156417   -0.23135695290781508   -0.014482224987780786
-0.0029269926595752098   -0.23151618385755696   -0.014744515307540687
0.031846445093167475   -0.16600759897721626   -0.013458952816332782
0.000161063572175173   -0.16590977259584294   -0.013452738825412015
-0.0027598984687233806   -0.23164073803377946   -0.014455599008967703
0.03197002144324608   -0.16593996920177995   -0.013482720818913094
0.00022937228751192918   -0.1659661489610657   -0.013312156713380792
-0.0027598984687233806   -0.23164073803377946   -0.014455599008967703
0.031005982006156417   -0.23135695290781508   -0.014482224987780786
0.03197002144324608   -0.16593996920177995   -0.013482720818913094
0.03115210679434268   -0.23122764505627483   -0.014315054573709251
0.00022937228751192918   -0.1659661489610657   -0.013312156713380792
0.031969239640593505   -0.16575722183407296   -0.01356553993606479
0.03115210679434268   -0.23122764505627483   -0.014315054573709251
0.03197002144324608   -0.16593996920177995   -0.013482720818913094
0.00022937228751192918   -0.1659661489610657   -0.013312156713380792
0.03115210679434268   -0.23122764505627483   -0.014315054573709251
-0.002616232935407979   -0.2317323739193515   -0.014231984370457647
-0.0027598984687233806   -0.23164073803377946   -0.014455599008967703
0.00022937228751192918   -0.1659661489610657   -0.013312156713380792
0.03115210679434268   -0.23122764505627483   -0.014315054573709251
-0.0027598984687233806   -0.23164073803377946   -0.014455599008967703
0.03197002144324608   -0.16593996920177995   -0.013482720818913094
0.00022937228751192918   -0.1659661489610657   -0.013312156713380792
-0.002616232935407979   -0.2317323739193515   -0.014231984370457647
0.031969239640593505   -0.16575722183407296   -0.01356553993606479
0.000269039549403072   -0.1658965758860299   -0.013236747929269217
-0.002616232935407979   -0.2317323739193515   -0.014231984370457647
0.03115210679434268   -0.23122764505627483   -0.014315054573709251
0.031969239640593505   -0.16575722183407296   -0.01356553993606479
0.031174774522657763   -0.23103576993812458   -0.014210019925134924
0.000269039549403072   -0.1658965758860299   -0.013236747929269217
0.031889135034182815   -0.16541325626170209   -0.013709624979070687
0.031174774522657763   -0.23103576993812458   -0.014210019925134924
0.031969239640593505   -0.16575722183407296   -0.01356553993606479
0.000269039549403072   -0.1658965758860299   -0.013236747929269217
0.031174774522657763   -0.23103576993812458   -0.014210019925134924
-0.0025087749637332044   -0.23179064784326497   -0.014076074314853502
-0.002616232935407979   -0.2317323739193515   -0.014231984370457647
0.000269039549403072   -0.1658965758860299   -0.013236747929269217
0.031174774522657763   -0.23103576993812458   -0.014210019925134924
-0.002616232935407979   -0.2317323739193515   -0.014231984370457647
0.031969239640593505   -0.16575722183407296   -0.01356553993606479
0.031846445093167475   -0.16600759897721626   -0.013458952816332782
0.03078265658625682   -0.2314665922770396   -0.014712852898277584
0.0669461750566275   -0.1665210676621224   -0.013632281898939853
0.03197002144324608   -0.16593996920177995   -0.013482720818913094
0.03078265658625682   -0.2314665922770396   -0.014712852898277584
0.06732109348454901   -0.23140032006288627   -0.01507376896329426
0.0669461750566275   -0.1665210676621224   -0.013632281898939853
0.06776165836545148   -0.23110589339680535   -0.014887950211913312
0.03197002144324608   -0.16593996920177995   -0.013482720818913094
0.06686814610216994   -0.166285689869225   -0.013901824202018727
0.06776165836545148   -0.23110589339680535   -0.014887950211913312
0.0669461750566275   -0.1665210676621224   -0.013632281898939853
0.03197002144324608   -0.16593996920177995   -0.013482720818913094
0.06776165836545148   -0.23110589339680535   -0.014887950211913312
0.031005982006156417   -0.23135695290781508   -0.014482224987780786
0.03078265658625682   -0.2314665922770396   -0.014712852898277584
0.03197002144324608   -0.16593996920177995   -0.013482720818913094
0.06776165836545148   -0.23110589339680535   -0.014887950211913312
0.03078265658625682   -0.2314665922770396   -0.014712852898277584
0.0669461750566275   -0.1665210676621224   -0.013632281898939853
0.03197002144324608   -0.16593996920177995   -0.013482720818913094
0.031005982006156417   -0.23135695290781508   -0.014482224987780786
0.06686814610216994   -0.166285689869225   -0.013901824202018727
0.031969239640593505   -0.16575722183407296   -0.01356553993606479
0.031005982006156417   -0.23135695290781508   -0.014482224987780786
0.06776165836545148   -0.23110589339680535   -0.014887950211913312
0.06686814610216994   -0.166285689869225   -0.013901824202018727
0.06798919320778658   -0.23087249628718196   -0.014798453526802527
0.031969239640593505   -0.16575722183407296   -0.01356553993606479
0.06668637991984495   -0.1659867746707055   -0.014267103132260152
0.06798919320778658   -0.23087249628718196   -0.014798453526802527
0.06686814610216994   -0.166285689869225   -0.013901824202018727
0.031969239640593505   -0.16575722183407296   -0.01356553993606479
0.06798919320778658   -0.23087249628718196   -0.014798453526802527
0.03115210679434268   -0.23122764505627483   -0.014315054573709251
0.031005982006156417   -0.23135695290781508   -0.014482224987780786
0.031969239640593505   -0.16575722183407296   -0.01356553993606479
0.06798919320778658   -0.23087249628718196   -0.014798453526802527
0.031005982006156417   -0.23135695290781508   -0.014482224987780786
0.06686814610216994   -0.166285689869225   -0.013901824202018727
0.031969239640593505   -0.16575722183407296   -0.01356553993606479
0.03115210679434268   -0.23122764505627483   -0.014315054573709251
0.06668637991984495   -0.1659867746707055   -0.014267103132260152
0.031889135034182815   -0.16541325626170209   -0.013709624979070687
0.03115210679434268   -0.23122764505627483   -0.014315054573709251
0.06798919320778658   -0.23087249628718196   -0.014798453526802527
0.06668637991984495   -0.1659867746707055   -0.014267103132260152
0.06803229132296733   -0.23049526054603206   -0.014806915875090754
0.031889135034182815   -0.16541325626170209   -0.013709624979070687
0.06621411718826714   -0.1654137584005436   -0.014727425979775319
0.06803229132296733   -0.23049526054603206   -0.014806915875090754
0.06668637991984495   -0.1659867746707055   -0.014267103132260152
0.031889135034182815   -0.16541325626170209   -0.013709624979070687
0.06803229132296733   -0.23049526054603206   -0.014806915875090754
0.031174774522657763   -0.23103576993812458   -0.014210019925134924
0.03115210679434268   -0.23122764505627483   -0.014315054573709251
0.031889135034182815   -0.16541325626170209   -0.013709624979070687
0.06803229132296733   -0.23049526054603206   -0.014806915875090754
0.03115210679434268   -0.23122764505627483   -0.014315054573709251
0.06668637991984495   -0.1659867746707055   -0.014267103132260152
-0.10544405773009315   -0.23222667653823417   -0.01744467965225982
-0.10879123414899952   -0.2984933360053137   -0.01713970767325459
-0.06925530052923823   -0.2318511495266619   -0.01611772525458759
-0.10590623521049505   -0.23303889912478484   -0.016959499795344096
-0.10879123414899952   -0.2984933360053137   -0.01713970767325459
-0.07261452498034655   -0.2986649830962059   -0.016156017619080688
-0.06925530052923823   -0.2318511495266619   -0.01611772525458759
-0.07242510025657635   -0.2991642487202411   -0.016005204044767695
-0.10590623521049505   -0.23303889912478484   -0.016959499795344096
-0.06923605138068689   -0.2324556876729252   -0.015721223902823656
-0.07242510025657635   -0.2991642487202411   -0.016005204044767695
-0.06925530052923823   -0.2318511495266619   -0.01611772525458759
-0.10590623521049505   -0.23303889912478484   -0.016959499795344096
-0.07242510025657635   -0.2991642487202411   -0.016005204044767695
-0.10867447020196011   -0.2991609988225833   -0.017105374155682664
-0.10879123414899952   -0.2984933360053137   -0.01713970767325459
-0.10590623521049505   -0.23303889912478484   -0.016959499795344096
-0.07242510025657635   -0.2991642487202411   -0.016005204044767695
-0.10879123414899952   -0.2984933360053137   -0.01713970767325459
-0.06925530052923823   -0.2318511495266619   -0.01611772525458759
-0.10590623521049505   -0.23303889912478484   -0.016959499795344096
-0.10867447020196011   -0.2991609988225833   -0.017105374155682664
-0.06923605138068689   -0.2324556876729252   -0.015721223902823656
-0.10606022196683068   -0.23370025332157643   -0.016569067652816145
-0.10867447020196011   -0.2991609988225833   -0.017105374155682664
-0.07242510025657635   -0.2991642487202411   -0.016005204044767695
-0.06923605138068689   -0.2324556876729252   -0.015721223902823656
-0.07212632324681907   -0.2997162579355479   -0.01592246292440471
-0.10606022196683068   -0.23370025332157643   -0.016569067652816145
-0.0691515432409419   -0.23301245683364094   -0.015390530940286933
-0.07212632324681907   -0.2997162579355479   -0.01592246292440471
-0.06923605138068689   -0.2324556876729252   -0.015721223902823656
-0.10606022196683068   -0.23370025332157643   -0.016569067652816145
-0.07212632324681907   -0.2997162579355479   -0.01592246292440471
-0.10834858801208026   -0.2998078673471956   -0.017172795442416552
-0.10867447020196011   -0.2991609988225833   -0.017105374155682664
-0.10606022196683068   -0.23370025332157643   -0.016569067652816145
-0.07212632324681907   -0.2997162579355479   -0.01592246292440471
-0.10867447020196011   -0.2991609988225833   -0.017105374155682664
-0.06923605138068689   -0.2324556876729252   -0.015721223902823656
-0.10606022196683068   -0.23370025332157643   -0.016569067652816145
-0.10834858801208026   -0.2998078673471956   -0.017172795442416552
-0.0691515432409419   -0.23301245683364094   -0.015390530940286933
-0.10611936559522311   -0.23441710400964996   -0.016281433128843916
-0.10834858801208026   -0.2998078673471956   -0.017172795442416552
-0.07212632324681907   -0.2997162579355479   -0.01592246292440471
-0.0691515432409419   -0.23301245683364094   -0.015390530940286933
-0.0717374209903436   -0.30035893810268316   -0.0159067743611734
-0.10611936559522311   -0.23441710400964996   -0.016281433128843916
-0.06893068622307101   -0.23356381101128734   -0.015121113435406874
-0.0717374209903436   -0.30035893810268316   -0.0159067743611734
-0.0691515432409419   -0.23301245683364094   -0.015390530940286933
-0.10611936559522311   -0.23441710400964996   -0.016281433128843916
-0.0717374209903436   -0.30035893810268316   -0.0159067743611734
-0.1078152491119761   -0.3006398771517729   -0.0173470095833532
-0.10834858801208026   -0.2998078673471956   -0.017172795442416552
-0.10611936559522311   -0.23441710400964996   -0.016281433128843916
-0.0717374209903436   -0.30035893810268316   -0.0159067743611734
-0.10834858801208026   -0.2998078673471956   -0.017172795442416552
-0.0691515432409419   -0.23301245683364094   -0.015390530940286933
-0.06925530052923823   -0.2318511495266619   -0.01611772525458759
-0.07261452498034655   -0.2986649830962059   -0.016156017619080688
-0.03563652885989804   -0.23163742844249752   -0.0152140631006393
-0.06923605138068689   -0.2324556876729252   -0.015721223902823656
-0.07261452498034655   -0.2986649830962059   -0.016156017619080688
-0.03948152481813176   -0.2987034748531172   -0.015501870194662865
-0.03563652885989804   -0.23163742844249752   -0.0152140631006393
-0.03922583259021437   -0.29899052683763344   -0.015235890689317404
-0.06923605138068689   -0.2324556876729252   -0.015721223902823656
-0.0355190656664208   -0.23200401398963433   -0.014869681351128837
-0.03922583259021437   -0.29899052683763344   -0.015235890689317404
-0.03563652885989804   -0.23163742844249752   -0.0152140631006393
-0.06923605138068689   -0.2324556876729252   -0.015721223902823656
-0.03922583259021437   -0.29899052683763344   -0.015235890689317404
-0.07242510025657635   -0.2991642487202411   -0.016005204044767695
-0.07261452498034655   -0.2986649830962059   -0.016156017619080688
-0.06923605138068689   -0.2324556876729252   -0.015721223902823656
-0.03922583259021437   -0.29899052683763344   -0.015235890689317404
-0.07261452498034655   -0.2986649830962059   -0.016156017619080688
-0.03563652885989804   -0.23163742844249752   -0.0152140631006393
-0.06923605138068689   -0.2324556876729252   -0.015721223902823656
-0.07242510025657635   -0.2991642487202411   -0.016005204044767695
-0.0355190656664208   -0.23200401398963433   -0.014869681351128837
-0.0691515432409419   -0.23301245683364094   -0.015390530940286933
-0.07242510025657635   -0.2991642487202411   -0.016005204044767695
-0.03922583259021437   -0.29899052683763344   -0.015235890689317404
-0.0355190656664208   -0.23200401398963433   -0.014869681351128837
-0.03893612604184775   -0.2993384860098455   -0.015038273103509683
-0.0691515432409419   -0.23301245683364094   -0.015390530940286933
-0.035373059102362873   -0.2323398165522375   -0.014591204578529039
-0.03893612604184775   -0.2993384860098455   -0.015038273103509683
-0.0355190656664208   -0.23200401398963433   -0.014869681351128837
-0.0691515432409419   -0.23301245683364094   -0.015390530940286933
-0.03893612604184775   -0.2993384860098455   -0.015038273103509683
-0.07212632324681907   -0.2997162579355479   -0.01592246292440471
-0.07242510025657635   -0.2991642487202411   -0.016005204044767695
-0.0691515432409419   -0.23301245683364094   -0.015390530940286933
-0.03893612604184775   -0.2993384860098455   -0.015038273103509683
-0.07242510025657635   -0.2991642487202411   -0.016005204044767695
-0.0355190656664208   -0.23200401398963433   -0.014869681351128837
-0.0691515432409419   -0.23301245683364094   -0.015390530940286933
-0.07212632324681907   -0.2997162579355479   -0.01592246292440471
-0.035373059102362873   -0.2323398165522375   -0.014591204578529039
-0.06893068622307101   -0.23356381101128734   -0.015121113435406874
-0.07212632324681907   -0.2997162579355479   -0.01592246292440471
-0.03893612604184775   -0.2993384860098455   -0.015038273103509683
-0.035373059102362873   -0.2323398165522375   -0.014591204578529039
-0.038623588555215776   -0.29974843470010487   -0.014911190536297204
-0.06893068622307101   -0.23356381101128734   -0.015121113435406874
-0.03519611629162862   -0.23264592462081865   -0.014380176543121726
-0.038623588555215776   -0.29974843470010487   -0.014911190536297204
-0.035373059102362873   -0.2323398165522375   -0.014591204578529039
-0.06893068622307101   -0.23356381101128734   -0.015121113435406874
-0.038623588555215776   -0.29974843470010487   -0.014911190536297204
-0.0717374209903436   -0.30035893810268316   -0.0159067743611734
-0.07212632324681907   -0.2997162579355479   -0.01592246292440471
-0.06893068622307101   -0.23356381101128734   -0.015121113435406874
-0.038623588555215776   -0.29974843470010487   -0.014911190536297204
-0.07212632324681907   -0.2997162579355479   -0.01592246292440471
-0.035373059102362873   -0.2323398165522375   -0.014591204578529039
-0.03563652885989804   -0.23163742844249752   -0.0152140631006393
-0.03948152481813176   -0.2987034748531172   -0.015501870194662865
-0.0029269926595752098   -0.23151618385755696   -0.014744515307540687
-0.0355190656664208   -0.23200401398963433   -0.014869681351128837
-0.03948152481813176   -0.2987034748531172   -0.015501870194662865
-0.007286984927261496   -0.2985293076963903   -0.015231986314785836
-0.0029269926595752098   -0.23151618385755696   -0.014744515307540687
-0.006983872145181165   -0.2985973604580514   -0.01485655744575009
-0.0355190656664208   -0.23200401398963433   -0.014869681351128837
-0.0027598984687233806   -0.23164073803377946   -0.014455599008967703
-0.006983872145181165   -0.2985973604580514   -0.01485655744575009
-0.0029269926595752098   -0.23151618385755696   -0.014744515307540687
-0.0355190656664208   -0.23200401398963433   -0.014869681351128837
-0.006983872145181165   -0.2985973604580514   -0.01485655744575009
-0.03922583259021437   -0.29899052683763344   -0.015235890689317404
-0.03948152481813176   -0.2987034748531172   -0.015501870194662865
-0.0355190656664208   -0.23200401398963433   -0.014869681351128837
-0.006983872145181165   -0.2985973604580514   -0.01485655744575009
-0.03948152481813176   -0.2987034748531172   -0.015501870194662865
-0.0029269926595752098   -0.23151618385755696   -0.014744515307540687
-0.0355190656664208   -0.23200401398963433   -0.014869681351128837
-0.03922583259021437   -0.29899052683763344   -0.015235890689317404
-0.0027598984687233806   -0.23164073803377946   -0.014455599008967703
-0.035373059102362873   -0.2323398165522375   -0.014591204578529039
-0.03922583259021437   -0.29899052683763344   -0.015235890689317404
-0.006983872145181165   -0.2985973604580514   -0.01485655744575009
-0.0027598984687233806   -0.23164073803377946   -0.014455599008967703
-0.006697405314090878   -0.2987214520249353   -0.014548971195700965
-0.035373059102362873   -0.2323398165522375   -0.014591204578529039
-0.002616232935407979   -0.2317323739193515   -0.014231984370457647
-0.006697405314090878   -0.2987214520249353   -0.014548971195700965
-0.0027598984687233806   -0.23164073803377946   -0.014455599008967703
-0.035373059102362873   -0.2323398165522375   -0.014591204578529039
-0.006697405314090878   -0.2987214520249353   -0.014548971195700965
-0.03893612604184775   -0.2993384860098455   -0.015038273103509683
-0.03922583259021437   -0.29899052683763344   -0.015235890689317404
-0.035373059102362873   -0.2323398165522375   -0.014591204578529039
-0.006697405314090878   -0.2987214520249353   -0.014548971195700965
-0.03922583259021437   -0.29899052683763344   -0.015235890689317404
-0.0027598984687233806   -0.23164073803377946   -0.014455599008967703
-0.035373059102362873   -0.2323398165522375   -0.014591204578529039
-0.03893612604184775   -0.2993384860098455   -0.015038273103509683
-0.002616232935407979   -0.2317323739193515   -0.014231984370457647
-0.03519611629162862   -0.23264592462081865   -0.014380176543121726
-0.03893612604184775   -0.2993384860098455   -0.015038273103509683
-0.006697405314090878   -0.2987214520249353   -0.014548971195700965
-0.002616232935407979   -0.2317323739193515   -0.014231984370457647
-0.006455198608418124   -0.29890446112533103   -0.014311616470846573
-0.03519611629162862   -0.23264592462081865   -0.014380176543121726
-0.0025087749637332044   -0.23179064784326497   -0.014076074314853502
-0.006455198608418124   -0.29890446112533103   -0.014311616470846573
-0.002616232935407979   -0.2317323739193515   -0.014231984370457647
-0.03519611629162862   -0.23264592462081865   -0.014380176543121726
-0.006455198608418124   -0.29890446112533103   -0.014311616470846573
-0.038623588555215776   -0.29974843470010487   -0.014911190536297204
-0.03893612604184775   -0.2993384860098455   -0.015038273103509683
-0.03519611629162862   -0.23264592462081865   -0.014380176543121726
-0.006455198608418124   -0.29890446112533103   -0.014311616470846573
-0.03893612604184775   -0.2993384860098455   -0.015038273103509683
-0.002616232935407979   -0.2317323739193515   -0.014231984370457647
-0.0029269926595752098   -0.23151618385755696   -0.014744515307540687
-0.007286984927261496   -0.2985293076963903   -0.015231986314785836
0.03078265658625682   -0.2314665922770396   -0.014712852898277584
-0.0027598984687233806   -0.23164073803377946   -0.014455599008967703
-0.007286984927261496   -0.2985293076963903   -0.015231986314785836
0.025881303640397924   -0.2981414706575224   -0.015358873853334233
0.03078265658625682   -0.2314665922770396   -0.014712852898277584
0.026268701101887348   -0.2979899652909131   -0.014876078551020976
-0.0027598984687233806   -0.23164073803377946   -0.014455599008967703
0.031005982006156417   -0.23135695290781508   -0.014482224987780786
0.026268701101887348   -0.2979899652909131   -0.014876078551020976
0.03078265658625682   -0.2314665922770396   -0.014712852898277584
-0.0027598984687233806   -0.23164073803377946   -0.014455599008967703
0.026268701101887348   -0.2979899652909131   -0.014876078551020976
-0.006983872145181165   -0.2985973604580514   -0.01485655744575009
-0.007286984927261496   -0.2985293076963903   -0.015231986314785836
-0.0027598984687233806   -0.23164073803377946   -0.014455599008967703
0.026268701101887348   -0.2979899652909131   -0.014876078551020976
-0.007286984927261496   -0.2985293076963903   -0.015231986314785836
0.03078265658625682   -0.2314665922770396   -0.014712852898277584
-0.0027598984687233806   -0.23164073803377946   -0.014455599008967703
-0.006983872145181165   -0.2985973604580514   -0.01485655744575009
0.031005982006156417   -0.23135695290781508   -0.014482224987780786
-0.002616232935407979   -0.2317323739193515   -0.014231984370457647
-0.006983872145181165   -0.2985973604580514   -0.01485655744575009
0.026268701101887348   -0.2979899652909131   -0.014876078551020976
0.031005982006156417   -0.23135695290781508   -0.014482224987780786
0.026625692768059376   -0.29791129206835826   -0.014460945541507453
-0.002616232935407979   -0.2317323739193515   -0.014231984370457647
0.03115210679434268   -0.23122764505627483   -0.014315054573709251
0.026625692768059376   -0.29791129206835826   -0.014460945541507453
0.031005982006156417   -0.23135695290781508   -0.014482224987780786
-0.002616232935407979   -0.2317323739193515   -0.014231984370457647
0.026625692768059376   -0.29791129206835826   -0.014460945541507453
-0.006697405314090878   -0.2987214520249353   -0.014548971195700965
-0.006983872145181165   -0.2985973604580514   -0.01485655744575009
-0.002616232935407979   -0.2317323739193515   -0.014231984370457647
0.026625692768059376   -0.29791129206835826   -0.014460945541507453
-0.006983872145181165   -0.2985973604580514   -0.01485655744575009
0.031005982006156417   -0.23135695290781508   -0.014482224987780786
-0.002616232935407979   -0.2317323739193515   -0.014231984370457647
-0.006697405314090878   -0.2987214520249353   -0.014548971195700965
0.03115210679434268   -0.23122764505627483   -0.014315054573709251
-0.0025087749637332044   -0.23179064784326497   -0.014076074314853502
-0.006697405314090878   -0.2987214520249353   -0.014548971195700965
0.026625692768059376   -0.29791129206835826   -0.014460945541507453
0.03115210679434268   -0.23122764505627483   -0.014315054573709251
0.026814311233973487   -0.2978667197131171   -0.014109057989172127
-0.0025087749637332044   -0.23179064784326497   -0.014076074314853502
0.031174774522657763   -0.23103576993812458   -0.014210019925134924
0.026814311233973487   -0.2978667197131171   -0.014109057989172127
0.03115210679434268   -0.23122764505627483   -0.014315054573709251
-0.0025087749637332044   -0.23179064784326497   -0.014076074314853502
0.026814311233973487   -0.2978667197131171   -0.014109057989172127
-0.006455198608418124   -0.29890446112533103   -0.014311616470846573
-0.006697405314090878   -0.2987214520249353   -0.014548971195700965
-0.0025087749637332044   -0.23179064784326497   -0.014076074314853502
0.026814311233973487   -0.2978667197131171   -0.014109057989172127
-0.006697405314090878   -0.2987214520249353   -0.014548971195700965
0.03115210679434268   -0.23122764505627483   -0.014315054573709251
0.03078265658625682   -0.2314665922770396   -0.014712852898277584
0.025881303640397924   -0.2981414706575224   -0.015358873853334233
0.06732109348454901   -0.23140032006288627   -0.01507376896329426
0.031005982006156417   -0.23135695290781508   -0.014482224987780786
0.025881303640397924   -0.2981414706575224   -0.015358873853334233
0.06140676024073561   -0.29749108680870906   -0.015902317700711054
0.06732109348454901   -0.23140032006288627   -0.01507376896329426
0.06242258555825443   -0.29714083415852044   -0.015270043066469053
0.031005982006156417   -0.23135695290781508   -0.014482224987780786
0.06776165836545148   -0.23110589339680535   -0.014887950211913312
0.06242258555825443   -0.29714083415852044   -0.015270043066469053
0.06732109348454901   -0.23140032006288627   -0.01507376896329426
0.031005982006156417   -0.23135695290781508   -0.014482224987780786
0.06242258555825443   -0.29714083415852044   -0.015270043066469053
0.026268701101887348   -0.2979899652909131   -0.014876078551020976
0.025881303640397924   -0.2981414706575224   -0.015358873853334233
0.031005982006156417   -0.23135695290781508   -0.014482224987780786
0.06242258555825443   -0.29714083415852044   -0.015270043066469053
0.025881303640397924   -0.2981414706575224   -0.015358873853334233
0.06732109348454901   -0.23140032006288627   -0.01507376896329426
0.031005982006156417   -0.23135695290781508   -0.014482224987780786
0.026268701101887348   -0.2979899652909131   -0.014876078551020976
0.06776165836545148   -0.23110589339680535   -0.014887950211913312
0.03115210679434268   -0.23122764505627483   -0.014315054573709251
0.026268701101887348   -0.2979899652909131   -0.014876078551020976
0.06242258555825443   -0.29714083415852044   -0.015270043066469053
0.06776165836545148   -0.23110589339680535   -0.014887950211913312
0.06311801510112644   -0.2969711326771732   -0.01473402243530387
0.03115210679434268   -0.23122764505627483   -0.014315054573709251
0.06798919320778658   -0.23087249628718196   -0.014798453526802527
0.06311801510112644   -0.2969711326771732   -0.01473402243530387
0.06776165836545148   -0.23110589339680535   -0.014887950211913312
0.03115210679434268   -0.23122764505627483   -0.014315054573709251
0.06311801510112644   -0.2969711326771732   -0.01473402243530387
0.026625692768059376   -0.29791129206835826   -0.014460945541507453
0.026268701101887348   -0.2979899652909131   -0.014876078551020976
0.03115210679434268   -0.23122764505627483   -0.014315054573709251
0.06311801510112644   -0.2969711326771732   -0.01473402243530387
0.026268701101887348   -0.2979899652909131   -0.014876078551020976
0.06776165836545148   -0.23110589339680535   -0.014887950211913312
0.03115210679434268   -0.23122764505627483   -0.014315054573709251
0.026625692768059376   -0.29791129206835826   -0.014460945541507453
0.06798919320778658   -0.23087249628718196   -0.014798453526802527
0.031174774522657763   -0.23103576993812458   -0.014210019925134924
0.026625692768059376   -0.29791129206835826   -0.014460945541507453
0.06311801510112644   -0.2969711326771732   -0.01473402243530387
0.06798919320778658   -0.23087249628718196   -0.014798453526802527
0.06373211344952558   -0.2967846690288607   -0.014298225404856549
0.031174774522657763   -0.23103576993812458   -0.014210019925134924
0.06803229132296733   -0.23049526054603206   -0.014806915875090754
0.06373211344952558   -0.2967846690288607   -0.014298225404856549
0.06798919320778658   -0.23087249628718196   -0.014798453526802527
0.031174774522657763   -0.23103576993812458   -0.014210019925134924
0.06373211344952558   -0.2967846690288607   -0.014298225404856549
0.026814311233973487   -0.2978667197131171   -0.014109057989172127
0.026625692768059376   -0.29791129206835826   -0.014460945541507453
0.031174774522657763   -0.23103576993812458   -0.014210019925134924
0.06373211344952558   -0.2967846690288607   -0.014298225404856549
0.026625692768059376   -0.29791129206835826   -0.014460945541507453
0.06798919320778658   -0.23087249628718196   -0.014798453526802527
-0.10879123414899952   -0.2984933360053137   -0.01713970767325459
-0.10590640325626315   -0.3618321801903003   -0.01637863791715432
-0.07261452498034655   -0.2986649830962059   -0.016156017619080688
-0.10867447020196011   -0.2991609988225833   -0.017105374155682664
-0.10590640325626315   -0.3618321801903003   -0.01637863791715432
-0.07232460237613408   -0.36256257817371573   -0.015784209863888697
-0.07261452498034655   -0.2986649830962059   -0.016156017619080688
-0.07190141498501862   -0.36293598969039487   -0.015873177308668062
-0.10867447020196011   -0.2991609988225833   -0.017105374155682664
-0.07242510025657635   -0.2991642487202411   -0.016005204044767695
-0.07190141498501862   -0.36293598969039487   -0.015873177308668062
-0.07261452498034655   -0.2986649830962059   -0.016156017619080688
-0.10867447020196011   -0.2991609988225833   -0.017105374155682664
-0.07190141498501862   -0.36293598969039487   -0.015873177308668062
-0.10514287093873881   -0.36233624686469584   -0.01679743116302877
-0.10590640325626315   -0.3618321801903003   -0.01637863791715432
-0.10867447020196011   -0.2991609988225833   -0.017105374155682664
-0.07190141498501862   -0.36293598969039487   -0.015873177308668062
-0.10590640325626315   -0.3618321801903003   -0.01637863791715432
-0.07261452498034655   -0.2986649830962059   -0.016156017619080688
-0.10867447020196011   -0.2991609988225833   -0.017105374155682664
-0.10514287093873881   -0.36233624686469584   -0.01679743116302877
-0.07242510025657635   -0.2991642487202411   -0.016005204044767695
-0.10834858801208026   -0.2998078673471956   -0.017172795442416552
-0.10514287093873881   -0.36233624686469584   -0.01679743116302877
-0.07190141498501862   -0.36293598969039487   -0.015873177308668062
-0.07242510025657635   -0.2991642487202411   -0.016005204044767695
-0.0713274216183696   -0.3634661364093075   -0.01603216752249725
-0.10834858801208026   -0.2998078673471956   -0.017172795442416552
-0.07212632324681907   -0.2997162579355479   -0.01592246292440471
-0.0713274216183696   -0.3634661364093075   -0.01603216752249725
-0.07242510025657635   -0.2991642487202411   -0.016005204044767695
-0.10834858801208026   -0.2998078673471956   -0.017172795442416552
-0.0713274216183696   -0.3634661364093075   -0.01603216752249725
-0.1042691320191587   -0.362953031797551   -0.017326390520520814
-0.10514287093873881   -0.36233624686469584   -0.01679743116302877
-0.10834858801208026   -0.2998078673471956   -0.017172795442416552
-0.0713274216183696   -0.3634661364093075   -0.01603216752249725
-0.10514287093873881   -0.36233624686469584   -0.01679743116302877
-0.07242510025657635   -0.2991642487202411   -0.016005204044767695
-0.10834858801208026   -0.2998078673471956   -0.017172795442416552
-0.1042691320191587   -0.362953031797551   -0.017326390520520814
-0.07212632324681907   -0.2997162579355479   -0.01592246292440471
-0.1078152491119761   -0.3006398771517729   -0.0173470095833532
-0.1042691320191587   -0.362953031797551   -0.017326390520520814
-0.0713274216183696   -0.3634661364093075   -0.01603216752249725
-0.07212632324681907   -0.2997162579355479   -0.01592246292440471
-0.07071106195926505   -0.3641852863951733   -0.01626331863830317
-0.1078152491119761   -0.3006398771517729   -0.0173470095833532
-0.0717374209903436   -0.30035893810268316   -0.0159067743611734
-0.07071106195926505   -0.3641852863951733   -0.01626331863830317
-0.07212632324681907   -0.2997162579355479   -0.01592246292440471
-0.1078152491119761   -0.3006398771517729   -0.0173470095833532
-0.07071106195926505   -0.3641852863951733   -0.01626331863830317
-0.10307778056853872   -0.3638909445453208   -0.0179674366571981
-0.1042691320191587   -0.362953031797551   -0.017326390520520814
-0.1078152491119761   -0.3006398771517729   -0.0173470095833532
-0.07071106195926505   -0.3641852863951733   -0.01626331863830317
-0.1042691320191587   -0.362953031797551   -0.017326390520520814
-0.07212632324681907   -0.2997162579355479   -0.01592246292440471
-0.07261452498034655   -0.2986649830962059   -0.016156017619080688
-0.07232460237613408   -0.36256257817371573   -0.015784209863888697
-0.03948152481813176   -0.2987034748531172   -0.015501870194662865
-0.07242510025657635   -0.2991642487202411   -0.016005204044767695
-0.07232460237613408   -0.36256257817371573   -0.015784209863888697
-0.04223429265953393   -0.3628534084685132   -0.015403298902113267
-0.03948152481813176   -0.2987034748531172   -0.015501870194662865
-0.04177287505141832   -0.3630481983697477   -0.015209716795139648
-0.07242510025657635   -0.2991642487202411   -0.016005204044767695
-0.03922583259021437   -0.29899052683763344   -0.015235890689317404
-0.04177287505141832   -0.3630481983697477   -0.015209716795139648
-0.03948152481813176   -0.2987034748531172   -0.015501870194662865
-0.07242510025657635   -0.2991642487202411   -0.016005204044767695
-0.04177287505141832   -0.3630481983697477   -0.015209716795139648
-0.07190141498501862   -0.36293598969039487   -0.015873177308668062
-0.07232460237613408   -0.36256257817371573   -0.015784209863888697
-0.07242510025657635   -0.2991642487202411   -0.016005204044767695
-0.04177287505141832   -0.3630481983697477   -0.015209716795139648
-0.07232460237613408   -0.36256257817371573   -0.015784209863888697
-0.03948152481813176   -0.2987034748531172   -0.015501870194662865
-0.07242510025657635   -0.2991642487202411   -0.016005204044767695
-0.07190141498501862   -0.36293598969039487   -0.015873177308668062
-0.03922583259021437   -0.29899052683763344   -0.015235890689317404
-0.07212632324681907   -0.2997162579355479   -0.01592246292440471
-0.07190141498501862   -0.36293598969039487   -0.015873177308668062
-0.04177287505141832   -0.3630481983697477   -0.015209716795139648
-0.03922583259021437   -0.29899052683763344   -0.015235890689317404
-0.041276298127455105   -0.3633938105890996   -0.015085318088577658
-0.07212632324681907   -0.2997162579355479   -0.01592246292440471
-0.03893612604184775   -0.2993384860098455   -0.015038273103509683
-0.041276298127455105   -0.3633938105890996   -0.015085318088577658
-0.03922583259021437   -0.29899052683763344   -0.015235890689317404
-0.07212632324681907   -0.2997162579355479   -0.01592246292440471
-0.041276298127455105   -0.3633938105890996   -0.015085318088577658
-0.0713274216183696   -0.3634661364093075   -0.01603216752249725
-0.07190141498501862   -0.36293598969039487   -0.015873177308668062
-0.07212632324681907   -0.2997162579355479   -0.01592246292440471
-0.041276298127455105   -0.3633938105890996   -0.015085318088577658
-0.07190141498501862   -0.36293598969039487   -0.015873177308668062
-0.03922583259021437   -0.29899052683763344   -0.015235890689317404
-0.07212632324681907   -0.2997162579355479   -0.01592246292440471
-0.0713274216183696   -0.3634661364093075   -0.01603216752249725
-0.03893612604184775   -0.2993384860098455   -0.015038273103509683
-0.0717374209903436   -0.30035893810268316   -0.0159067743611734
-0.0713274216183696   -0.3634661364093075   -0.01603216752249725
-0.041276298127455105   -0.3633938105890996   -0.015085318088577658
-0.03893612604184775   -0.2993384860098455   -0.015038273103509683
-0.04076586408424988   -0.36389467726261876   -0.01503344022947191
-0.0717374209903436   -0.30035893810268316   -0.0159067743611734
-0.038623588555215776   -0.29974843470010487   -0.014911190536297204
-0.04076586408424988   -0.36389467726261876   -0.01503344022947191
-0.03893612604184775   -0.2993384860098455   -0.015038273103509683
-0.0717374209903436   -0.30035893810268316   -0.0159067743611734
-0.04076586408424988   -0.36389467726261876   -0.01503344022947191
-0.07071106195926505   -0.3641852863951733   -0.01626331863830317
-0.0713274216183696   -0.3634661364093075   -0.01603216752249725
-0.0717374209903436   -0.30035893810268316   -0.0159067743611734
-0.04076586408424988   -0.36389467726261876   -0.01503344022947191
-0.0713274216183696   -0.3634661364093075   -0.01603216752249725
-0.03893612604184775   -0.2993384860098455   -0.015038273103509683
-0.03948152481813176   -0.2987034748531172   -0.015501870194662865
-0.04223429265953393   -0.3628534084685132   -0.015403298902113267
-0.007286984927261496   -0.2985293076963903   -0.015231986314785836
-0.03922583259021437   -0.29899052683763344   -0.015235890689317404
-0.04223429265953393   -0.3628534084685132   -0.015403298902113267
-0.01305726549337563   -0.3626337398632725   -0.0153370865437336
-0.007286984927261496   -0.2985293076963903   -0.015231986314785836
-0.01254681465912396   -0.36263987261845226   -0.014870646873558591
-0.03922583259021437   -0.29899052683763344   -0.015235890689317404
-0.006983872145181165   -0.2985973604580514   -0.01485655744575009
-0.01254681465912396   -0.36263987261845226   -0.014870646873558591
-0.007286984927261496   -0.2985293076963903   -0.015231986314785836
-0.03922583259021437   -0.29899052683763344   -0.015235890689317404
-0.01254681465912396   -0.36263987261845226   -0.014870646873558591
-0.04177287505141832   -0.3630481983697477   -0.015209716795139648
-0.04223429265953393   -0.3628534084685132   -0.015403298902113267
-0.03922583259021437   -0.29899052683763344   -0.015235890689317404
-0.01254681465912396   -0.36263987261845226   -0.014870646873558591
-0.04223429265953393   -0.3628534084685132   -0.015403298902113267
-0.007286984927261496   -0.2985293076963903   -0.015231986314785836
-0.03922583259021437   -0.29899052683763344   -0.015235890689317404
-0.04177287505141832   -0.3630481983697477   -0.015209716795139648
-0.006983872145181165   -0.2985973604580514   -0.01485655744575009
-0.03893612604184775   -0.2993384860098455   -0.015038273103509683
-0.04177287505141832   -0.3630481983697477   -0.015209716795139648
-0.01254681465912396   -0.36263987261845226   -0.014870646873558591
-0.006983872145181165   -0.2985973604580514   -0.01485655744575009
-0.012049892603152371   -0.36278559938869315   -0.014473530705136106
-0.03893612604184775   -0.2993384860098455   -0.015038273103509683
-0.006697405314090878   -0.2987214520249353   -0.014548971195700965
-0.012049892603152371   -0.36278559938869315   -0.014473530705136106
-0.006983872145181165   -0.2985973604580514   -0.01485655744575009
-0.03893612604184775   -0.2993384860098455   -0.015038273103509683
-0.012049892603152371   -0.36278559938869315   -0.014473530705136106
-0.041276298127455105   -0.3633938105890996   -0.015085318088577658
-0.04177287505141832   -0.3630481983697477   -0.015209716795139648
-0.03893612604184775   -0.2993384860098455   -0.015038273103509683
-0.012049892603152371   -0.36278559938869315   -0.014473530705136106
-0.04177287505141832   -0.3630481983697477   -0.015209716795139648
-0.006983872145181165   -0.2985973604580514   -0.01485655744575009
-0.03893612604184775   -0.2993384860098455   -0.015038273103509683
-0.041276298127455105   -0.3633938105890996   -0.015085318088577658
-0.006697405314090878   -0.2987214520249353   -0.014548971195700965
-0.038623588555215776   -0.29974843470010487   -0.014911190536297204
-0.041276298127455105   -0.3633938105890996   -0.015085318088577658
-0.012049892603152371   -0.36278559938869315   -0.014473530705136106
-0.006697405314090878   -0.2987214520249353   -0.014548971195700965
-0.0116069634969703   -0.3630831424533121   -0.014148162107488637
-0.038623588555215776   -0.29974843470010487   -0.014911190536297204
-0.006455198608418124   -0.29890446112533103   -0.014311616470846573
-0.0116069634969703   -0.3630831424533121   -0.014148162107488637
-0.006697405314090878   -0.2987214520249353   -0.014548971195700965
-0.038623588555215776   -0.29974843470010487   -0.014911190536297204
-0.0116069634969703   -0.3630831424533121   -0.014148162107488637
-0.04076586408424988   -0.36389467726261876   -0.01503344022947191
-0.041276298127455105   -0.3633938105890996   -0.015085318088577658
-0.038623588555215776   -0.29974843470010487   -0.014911190536297204
-0.0116069634969703   -0.3630831424533121   -0.014148162107488637
-0.041276298127455105   -0.3633938105890996   -0.015085318088577658
-0.006697405314090878   -0.2987214520249353   -0.014548971195700965
-0.007286984927261496   -0.2985293076963903   -0.015231986314785836
-0.01305726549337563   -0.3626337398632725   -0.0153370865437336
0.025881303640397924   -0.2981414706575224   -0.015358873853334233
-0.006983872145181165   -0.2985973604580514   -0.01485655744575009
-0.01305726549337563   -0.3626337398632725   -0.0153370865437336
0.017134214232430608   -0.36191941933292227   -0.01561033619941588
0.025881303640397924   -0.2981414706575224   -0.015358873853334233
0.01775814009135598   -0.36172420510588144   -0.014873773830315759
-0.006983872145181165   -0.2985973604580514   -0.01485655744575009
0.026268701101887348   -0.2979899652909131   -0.014876078551020976
0.01775814009135598   -0.36172420510588144   -0.014873773830315759
0.025881303640397924   -0.2981414706575224   -0.015358873853334233
-0.006983872145181165   -0.2985973604580514   -0.01485655744575009
0.01775814009135598   -0.36172420510588144   -0.014873773830315759
-0.01254681465912396   -0.36263987261845226   -0.014870646873558591
-0.01305726549337563   -0.3626337398632725   -0.0153370865437336
-0.006983872145181165   -0.2985973604580514   -0.01485655744575009
0.01775814009135598   -0.36172420510588144   -0.014873773830315759
-0.01305726549337563   -0.3626337398632725   -0.0153370865437336
0.025881303640397924   -0.2981414706575224   -0.015358873853334233
-0.006983872145181165   -0.2985973604580514   -0.01485655744575009
-0.01254681465912396   -0.36263987261845226   -0.014870646873558591
0.026268701101887348   -0.2979899652909131   -0.014876078551020976
-0.006697405314090878   -0.2987214520249353   -0.014548971195700965
-0.01254681465912396   -0.36263987261845226   -0.014870646873558591
0.01775814009135598   -0.36172420510588144   -0.014873773830315759
0.026268701101887348   -0.2979899652909131   -0.014876078551020976
0.01839727607532875   -0.36168839103760086   -0.014211018866175195
-0.006697405314090878   -0.2987214520249353   -0.014548971195700965
0.026625692768059376   -0.29791129206835826   -0.014460945541507453
0.01839727607532875   -0.36168839103760086   -0.014211018866175195
0.026268701101887348   -0.2979899652909131   -0.014876078551020976
-0.006697405314090878   -0.2987214520249353   -0.014548971195700965
0.01839727607532875   -0.36168839103760086   -0.014211018866175195
-0.012049892603152371   -0.36278559938869315   -0.014473530705136106
-0.01254681465912396   -0.36263987261845226   -0.014870646873558591
-0.006697405314090878   -0.2987214520249353   -0.014548971195700965
0.01839727607532875   -0.36168839103760086   -0.014211018866175195
-0.01254681465912396   -0.36263987261845226   -0.014870646873558591
0.026268701101887348   -0.2979899652909131   -0.014876078551020976
-0.006697405314090878   -0.2987214520249353   -0.014548971195700965
-0.012049892603152371   -0.36278559938869315   -0.014473530705136106
0.026625692768059376   -0.29791129206835826   -0.014460945541507453
-0.006455198608418124   -0.29890446112533103   -0.014311616470846573
-0.012049892603152371   -0.36278559938869315   -0.014473530705136106
0.01839727607532875   -0.36168839103760086   -0.014211018866175195
0.026625692768059376   -0.29791129206835826   -0.014460945541507453
0.018821227385510633   -0.3617824335502779   -0.013612352068654297
-0.006455198608418124   -0.29890446112533103   -0.014311616470846573
0.026814311233973487   -0.2978667197131171   -0.014109057989172127
0.018821227385510633   -0.3617824335502779   -0.013612352068654297
0.026625692768059376   -0.29791129206835826   -0.014460945541507453
-0.006455198608418124   -0.29890446112533103   -0.014311616470846573
0.018821227385510633   -0.3617824335502779   -0.013612352068654297
-0.0116069634969703   -0.3630831424533121   -0.014148162107488637
-0.012049892603152371   -0.36278559938869315   -0.014473530705136106
-0.006455198608418124   -0.29890446112533103   -0.014311616470846573
0.018821227385510633   -0.3617824335502779   -0.013612352068654297
-0.012049892603152371   -0.36278559938869315   -0.014473530705136106
0.026625692768059376   -0.29791129206835826   -0.014460945541507453
0.025881303640397924   -0.2981414706575224   -0.015358873853334233
0.017134214232430608   -0.36191941933292227   -0.01561033619941588
0.06140676024073561   -0.29749108680870906   -0.015902317700711054
0.026268701101887348   -0.2979899652909131   -0.014876078551020976
0.017134214232430608   -0.36191941933292227   -0.01561033619941588
0.049272233094476536   -0.36069187573106404   -0.01632150541222572
0.06140676024073561   -0.29749108680870906   -0.015902317700711054
0.05093150195611886   -0.36028793342504   -0.01525069767838536
0.026268701101887348   -0.2979899652909131   -0.014876078551020976
0.06242258555825443   -0.29714083415852044   -0.015270043066469053
0.05093150195611886   -0.36028793342504   -0.01525069767838536
0.06140676024073561   -0.29749108680870906   -0.015902317700711054
0.026268701101887348   -0.2979899652909131   -0.014876078551020976
0.05093150195611886   -0.36028793342504   -0.01525069767838536
0.01775814009135598   -0.36172420510588144   -0.014873773830315759
0.017134214232430608   -0.36191941933292227   -0.01561033619941588
0.026268701101887348   -0.2979899652909131   -0.014876078551020976
0.05093150195611886   -0.36028793342504   -0.01525069767838536
0.017134214232430608   -0.36191941933292227   -0.01561033619941588
0.06140676024073561   -0.29749108680870906   -0.015902317700711054
0.026268701101887348   -0.2979899652909131   -0.014876078551020976
0.01775814009135598   -0.36172420510588144   -0.014873773830315759
0.06242258555825443   -0.29714083415852044   -0.015270043066469053
0.026625692768059376   -0.29791129206835826   -0.014460945541507453
0.01775814009135598   -0.36172420510588144   -0.014873773830315759
0.05093150195611886   -0.36028793342504   -0.01525069767838536
0.06242258555825443   -0.29714083415852044   -0.015270043066469053
0.052158786634947545   -0.3601774325588254   -0.014277949602284328
0.026625692768059376   -0.29791129206835826   -0.014460945541507453
0.06311801510112644   -0.2969711326771732   -0.01473402243530387
0.052158786634947545   -0.3601774325588254   -0.014277949602284328
0.06242258555825443   -0.29714083415852044   -0.015270043066469053
0.026625692768059376   -0.29791129206835826   -0.014460945541507453
0.052158786634947545   -0.3601774325588254   -0.014277949602284328
0.01839727607532875   -0.36168839103760086   -0.014211018866175195
0.01775814009135598   -0.36172420510588144   -0.014873773830315759
0.026625692768059376   -0.29791129206835826   -0.014460945541507453
0.052158786634947545   -0.3601774325588254   -0.014277949602284328
0.01775814009135598   -0.36172420510588144   -0.014873773830315759
0.06242258555825443   -0.29714083415852044   -0.015270043066469053
0.026625692768059376   -0.29791129206835826   -0.014460945541507453
0.01839727607532875   -0.36168839103760086   -0.014211018866175195
0.06311801510112644   -0.2969711326771732   -0.01473402243530387
0.026814311233973487   -0.2978667197131171   -0.014109057989172127
0.01839727607532875   -0.36168839103760086   -0.014211018866175195
0.052158786634947545   -0.3601774325588254   -0.014277949602284328
0.06311801510112644   -0.2969711326771732   -0.01473402243530387
0.053400490307135284   -0.36017584720085905   -0.013407660307171557
0.026814311233973487   -0.2978667197131171   -0.014109057989172127
0.06373211344952558   -0.2967846690288607   -0.014298225404856549
0.053400490307135284   -0.36017584720085905   -0.013407660307171557
0.06311801510112644   -0.2969711326771732   -0.01473402243530387
0.026814311233973487   -0.2978667197131171   -0.014109057989172127
0.053400490307135284   -0.36017584720085905   -0.013407660307171557
0.018821227385510633   -0.3617824335502779   -0.013612352068654297
0.01839727607532875   -0.36168839103760086   -0.014211018866175195
0.026814311233973487   -0.2978667197131171   -0.014109057989172127
0.053400490307135284   -0.36017584720085905   -0.013407660307171557
0.01839727607532875   -0.36168839103760086   -0.014211018866175195
0.06311801510112644   -0.2969711326771732   -0.01473402243530387
-0.10590640325626315   -0.3618321801903003   -0.01637863791715432
-0.09664294058833904   -0.4179250841307321   -0.015267205387957311
-0.07232460237613408   -0.36256257817371573   -0.015784209863888697
-0.10514287093873881   -0.36233624686469584   -0.01679743116302877
-0.09664294058833904   -0.4179250841307321   -0.015267205387957311
-0.06836738096277668   -0.41924687380867437   -0.015169963976111655
-0.07232460237613408   -0.36256257817371573   -0.015784209863888697
-0.06765873701303365   -0.4194383291993283   -0.015481929620088514
-0.10514287093873881   -0.36233624686469584   -0.01679743116302877
-0.07190141498501862   -0.36293598969039487   -0.015873177308668062
-0.06765873701303365   -0.4194383291993283   -0.015481929620088514
-0.07232460237613408   -0.36256257817371573   -0.015784209863888697
-0.10514287093873881   -0.36233624686469584   -0.01679743116302877
-0.06765873701303365   -0.4194383291993283   -0.015481929620088514
-0.0951700334395965   -0.41820954730258897   -0.01613913417361261
-0.09664294058833904   -0.4179250841307321   -0.015267205387957311
-0.10514287093873881   -0.36233624686469584   -0.01679743116302877
-0.06765873701303365   -0.4194383291993283   -0.015481929620088514
-0.09664294058833904   -0.4179250841307321   -0.015267205387957311
-0.07232460237613408   -0.36256257817371573   -0.015784209863888697
-0.10514287093873881   -0.36233624686469584   -0.01679743116302877
-0.0951700334395965   -0.41820954730258897   -0.01613913417361261
-0.07190141498501862   -0.36293598969039487   -0.015873177308668062
-0.1042691320191587   -0.362953031797551   -0.017326390520520814
-0.0951700334395965   -0.41820954730258897   -0.01613913417361261
-0.06765873701303365   -0.4194383291993283   -0.015481929620088514
-0.07190141498501862   -0.36293598969039487   -0.015873177308668062
-0.0667687925210039   -0.4198956378962108   -0.015865174500689066
-0.1042691320191587   -0.362953031797551   -0.017326390520520814
-0.0713274216183696   -0.3634661364093075   -0.01603216752249725
-0.0667687925210039   -0.4198956378962108   -0.015865174500689066
-0.07190141498501862   -0.36293598969039487   -0.015873177308668062
-0.1042691320191587   -0.362953031797551   -0.017326390520520814
-0.0667687925210039   -0.4198956378962108   -0.015865174500689066
-0.09369927397612658   -0.4187461702577505   -0.017127146958768026
-0.0951700334395965   -0.41820954730258897   -0.01613913417361261
-0.1042691320191587   -0.362953031797551   -0.017326390520520814
-0.0667687925210039   -0.4198956378962108   -0.015865174500689066
-0.0951700334395965   -0.41820954730258897   -0.01613913417361261
-0.07190141498501862   -0.36293598969039487   -0.015873177308668062
-0.1042691320191587   -0.362953031797551   -0.017326390520520814
-0.09369927397612658   -0.4187461702577505   -0.017127146958768026
-0.0713274216183696   -0.3634661364093075   -0.01603216752249725
-0.10307778056853872   -0.3638909445453208   -0.0179674366571981
-0.09369927397612658   -0.4187461702577505   -0.017127146958768026
-0.0667687925210039   -0.4198956378962108   -0.015865174500689066
-0.0713274216183696   -0.3634661364093075   -0.01603216752249725
-0.06589039717479413   -0.4206447468001831   -0.016319034159427048
-0.10307778056853872   -0.3638909445453208   -0.0179674366571981
-0.07071106195926505   -0.3641852863951733   -0.01626331863830317
-0.06589039717479413   -0.4206447468001831   -0.016319034159427048
-0.0713274216183696   -0.3634661364093075   -0.01603216752249725
-0.10307778056853872   -0.3638909445453208   -0.0179674366571981
-0.06589039717479413   -0.4206447468001831   -0.016319034159427048
-0.09181487211851161   -0.41974679745276794   -0.01822897816722401
-0.09369927397612658   -0.4187461702577505   -0.017127146958768026
-0.10307778056853872   -0.3638909445453208   -0.0179674366571981
-0.06589039717479413   -0.4206447468001831   -0.016319034159427048
-0.09369927397612658   -0.4187461702577505   -0.017127146958768026
-0.0713274216183696   -0.3634661364093075   -0.01603216752249725
-0.07232460237613408   -0.36256257817371573   -0.015784209863888697
-0.06836738096277668   -0.41924687380867437   -0.015169963976111655
-0.04223429265953393   -0.3628534084685132   -0.015403298902113267
-0.07190141498501862   -0.36293598969039487   -0.015873177308668062
-0.06836738096277668   -0.41924687380867437   -0.015169963976111655
-0.04390394769130117   -0.41986908823642677   -0.015130443948039448
-0.04223429265953393   -0.3628534084685132   -0.015403298902113267
-0.043176315691424175   -0.41993234678312324   -0.0149915942099891
-0.07190141498501862   -0.36293598969039487   -0.015873177308668062
-0.04177287505141832   -0.3630481983697477   -0.015209716795139648
-0.043176315691424175   -0.41993234678312324   -0.0149915942099891
-0.04223429265953393   -0.3628534084685132   -0.015403298902113267
-0.07190141498501862   -0.36293598969039487   -0.015873177308668062
-0.043176315691424175   -0.41993234678312324   -0.0149915942099891
-0.06765873701303365   -0.4194383291993283   -0.015481929620088514
-0.06836738096277668   -0.41924687380867437   -0.015169963976111655
-0.07190141498501862   -0.36293598969039487   -0.015873177308668062
-0.043176315691424175   -0.41993234678312324   -0.0149915942099891
-0.06836738096277668   -0.41924687380867437   -0.015169963976111655
-0.04223429265953393   -0.3628534084685132   -0.015403298902113267
-0.07190141498501862   -0.36293598969039487   -0.015873177308668062
-0.06765873701303365   -0.4194383291993283   -0.015481929620088514
-0.04177287505141832   -0.3630481983697477   -0.015209716795139648
-0.0713274216183696   -0.3634661364093075   -0.01603216752249725
-0.06765873701303365   -0.4194383291993283   -0.015481929620088514
-0.043176315691424175   -0.41993234678312324   -0.0149915942099891
-0.04177287505141832   -0.3630481983697477   -0.015209716795139648
-0.04242553652094226   -0.42023286043679864   -0.014921916560494176
-0.0713274216183696   -0.3634661364093075   -0.01603216752249725
-0.041276298127455105   -0.3633938105890996   -0.015085318088577658
-0.04242553652094226   -0.42023286043679864   -0.014921916560494176
-0.04177287505141832   -0.3630481983697477   -0.015209716795139648
-0.0713274216183696   -0.3634661364093075   -0.01603216752249725
-0.04242553652094226   -0.42023286043679864   -0.014921916560494176
-0.0667687925210039   -0.4198956378962108   -0.015865174500689066
-0.06765873701303365   -0.4194383291993283   -0.015481929620088514
-0.0713274216183696   -0.3634661364093075   -0.01603216752249725
-0.04242553652094226   -0.42023286043679864   -0.014921916560494176
-0.06765873701303365   -0.4194383291993283   -0.015481929620088514
-0.04177287505141832   -0.3630481983697477   -0.015209716795139648
-0.0713274216183696   -0.3634661364093075   -0.01603216752249725
-0.0667687925210039   -0.4198956378962108   -0.015865174500689066
-0.041276298127455105   -0.3633938105890996   -0.015085318088577658
-0.07071106195926505   -0.3641852863951733   -0.01626331863830317
-0.0667687925210039   -0.4198956378962108   -0.015865174500689066
-0.04242553652094226   -0.42023286043679864   -0.014921916560494176
-0.041276298127455105   -0.3633938105890996   -0.015085318088577658
-0.041676105152454304   -0.4207848971463874   -0.0149204318643395
-0.07071106195926505   -0.3641852863951733   -0.01626331863830317
-0.04076586408424988   -0.36389467726261876   -0.01503344022947191
-0.041676105152454304   -0.4207848971463874   -0.0149204318643395
-0.041276298127455105   -0.3633938105890996   -0.015085318088577658
-0.07071106195926505   -0.3641852863951733   -0.01626331863830317
-0.041676105152454304   -0.4207848971463874   -0.0149204318643395
-0.06589039717479413   -0.4206447468001831   -0.016319034159427048
-0.0667687925210039   -0.4198956378962108   -0.015865174500689066
-0.07071106195926505   -0.3641852863951733   -0.01626331863830317
-0.041676105152454304   -0.4207848971463874   -0.0149204318643395
-0.0667687925210039   -0.4198956378962108   -0.015865174500689066
-0.041276298127455105   -0.3633938105890996   -0.015085318088577658
-0.04223429265953393   -0.3628534084685132   -0.015403298902113267
-0.04390394769130117   -0.41986908823642677   -0.015130443948039448
-0.01305726549337563   -0.3626337398632725   -0.0153370865437336
-0.04177287505141832   -0.3630481983697477   -0.015209716795139648
-0.04390394769130117   -0.41986908823642677   -0.015130443948039448
-0.02025472748750557   -0.41976217856342796   -0.015303522234499784
-0.01305726549337563   -0.3626337398632725   -0.0153370865437336
-0.019457656262633564   -0.4196816885950591   -0.014729736870471485
-0.04177287505141832   -0.3630481983697477   -0.015209716795139648
-0.01254681465912396   -0.36263987261845226   -0.014870646873558591
-0.019457656262633564   -0.4196816885950591   -0.014729736870471485
-0.01305726549337563   -0.3626337398632725   -0.0153370865437336
-0.04177287505141832   -0.3630481983697477   -0.015209716795139648
-0.019457656262633564   -0.4196816885950591   -0.014729736870471485
-0.043176315691424175   -0.41993234678312324   -0.0149915942099891
-0.04390394769130117   -0.41986908823642677   -0.015130443948039448
-0.04177287505141832   -0.3630481983697477   -0.015209716795139648
-0.019457656262633564   -0.4196816885950591   -0.014729736870471485
-0.04390394769130117   -0.41986908823642677   -0.015130443948039448
-0.01305726549337563   -0.3626337398632725   -0.0153370865437336
-0.04177287505141832   -0.3630481983697477   -0.015209716795139648
-0.043176315691424175   -0.41993234678312324   -0.0149915942099891
-0.01254681465912396   -0.36263987261845226   -0.014870646873558591
-0.041276298127455105   -0.3633938105890996   -0.015085318088577658
-0.043176315691424175   -0.41993234678312324   -0.0149915942099891
-0.019457656262633564   -0.4196816885950591   -0.014729736870471485
-0.01254681465912396   -0.36263987261845226   -0.014870646873558591
-0.018684422784166273   -0.4198153937874579   -0.01422967251401563
-0.041276298127455105   -0.3633938105890996   -0.015085318088577658
-0.012049892603152371   -0.36278559938869315   -0.014473530705136106
-0.018684422784166273   -0.4198153937874579   -0.01422967251401563
-0.01254681465912396   -0.36263987261845226   -0.014870646873558591
-0.041276298127455105   -0.3633938105890996   -0.015085318088577658
-0.018684422784166273   -0.4198153937874579   -0.01422967251401563
-0.04242553652094226   -0.42023286043679864   -0.014921916560494176
-0.043176315691424175   -0.41993234678312324   -0.0149915942099891
-0.041276298127455105   -0.3633938105890996   -0.015085318088577658
-0.018684422784166273   -0.4198153937874579   -0.01422967251401563
-0.043176315691424175   -0.41993234678312324   -0.0149915942099891
-0.01254681465912396   -0.36263987261845226   -0.014870646873558591
-0.041276298127455105   -0.3633938105890996   -0.015085318088577658
-0.04242553652094226   -0.42023286043679864   -0.014921916560494176
-0.012049892603152371   -0.36278559938869315   -0.014473530705136106
-0.04076586408424988   -0.36389467726261876   -0.01503344022947191
-0.04242553652094226   -0.42023286043679864   -0.014921916560494176
-0.018684422784166273   -0.4198153937874579   -0.01422967251401563
-0.012049892603152371   -0.36278559938869315   -0.014473530705136106
-0.017986143190178744   -0.4201949741918004   -0.013796896338382233
-0.04076586408424988   -0.36389467726261876   -0.01503344022947191
-0.0116069634969703   -0.3630831424533121   -0.014148162107488637
-0.017986143190178744   -0.4201949741918004   -0.013796896338382233
-0.012049892603152371   -0.36278559938869315   -0.014473530705136106
-0.04076586408424988   -0.36389467726261876   -0.01503344022947191
-0.017986143190178744   -0.4201949741918004   -0.013796896338382233
-0.041676105152454304   -0.4207848971463874   -0.0149204318643395
-0.04242553652094226   -0.42023286043679864   -0.014921916560494176
-0.04076586408424988   -0.36389467726261876   -0.01503344022947191
-0.017986143190178744   -0.4201949741918004   -0.013796896338382233
-0.04242553652094226   -0.42023286043679864   -0.014921916560494176
-0.012049892603152371   -0.36278559938869315   -0.014473530705136106
-0.01305726549337563   -0.3626337398632725   -0.0153370865437336
-0.02025472748750557   -0.41976217856342796   -0.015303522234499784
0.017134214232430608   -0.36191941933292227   -0.01561033619941588
-0.01254681465912396   -0.36263987261845226   -0.014870646873558591
-0.02025472748750557   -0.41976217856342796   -0.015303522234499784
0.004517408180438295   -0.41890018252890493   -0.015728140567644423
0.017134214232430608   -0.36191941933292227   -0.01561033619941588
0.005486418466910024   -0.4186367158581408   -0.01472109303134803
-0.01254681465912396   -0.36263987261845226   -0.014870646873558591
0.01775814009135598   -0.36172420510588144   -0.014873773830315759
0.005486418466910024   -0.4186367158581408   -0.01472109303134803
0.017134214232430608   -0.36191941933292227   -0.01561033619941588
-0.01254681465912396   -0.36263987261845226   -0.014870646873558591
0.005486418466910024   -0.4186367158581408   -0.01472109303134803
-0.019457656262633564   -0.4196816885950591   -0.014729736870471485
-0.02025472748750557   -0.41976217856342796   -0.015303522234499784
-0.01254681465912396   -0.36263987261845226   -0.014870646873558591
0.005486418466910024   -0.4186367158581408   -0.01472109303134803
-0.02025472748750557   -0.41976217856342796   -0.015303522234499784
0.017134214232430608   -0.36191941933292227   -0.01561033619941588
-0.01254681465912396   -0.36263987261845226   -0.014870646873558591
-0.019457656262633564   -0.4196816885950591   -0.014729736870471485
0.01775814009135598   -0.36172420510588144   -0.014873773830315759
-0.012049892603152371   -0.36278559938869315   -0.014473530705136106
-0.019457656262633564   -0.4196816885950591   -0.014729736870471485
0.005486418466910024   -0.4186367158581408   -0.01472109303134803
0.01775814009135598   -0.36172420510588144   -0.014873773830315759
0.0065065621285844795   -0.4186127761394797   -0.013807581654664183
-0.012049892603152371   -0.36278559938869315   -0.014473530705136106
0.01839727607532875   -0.36168839103760086   -0.014211018866175195
0.0065065621285844795   -0.4186127761394797   -0.013807581654664183
0.01775814009135598   -0.36172420510588144   -0.014873773830315759
-0.012049892603152371   -0.36278559938869315   -0.014473530705136106
0.0065065621285844795   -0.4186127761394797   -0.013807581654664183
-0.018684422784166273   -0.4198153937874579   -0.01422967251401563
-0.019457656262633564   -0.4196816885950591   -0.014729736870471485
-0.012049892603152371   -0.36278559938869315   -0.014473530705136106
0.0065065621285844795   -0.4186127761394797   -0.013807581654664183
-0.019457656262633564   -0.4196816885950591   -0.014729736870471485
0.01775814009135598   -0.36172420510588144   -0.014873773830315759
-0.012049892603152371   -0.36278559938869315   -0.014473530705136106
-0.018684422784166273   -0.4198153937874579   -0.01422967251401563
0.01839727607532875   -0.36168839103760086   -0.014211018866175195
-0.0116069634969703   -0.3630831424533121   -0.014148162107488637
-0.018684422784166273   -0.4198153937874579   -0.01422967251401563
0.0065065621285844795   -0.4186127761394797   -0.013807581654664183
0.01839727607532875   -0.36168839103760086   -0.014211018866175195
0.007252686232925865   -0.4188176155208459   -0.012958515004790415
-0.0116069634969703   -0.3630831424533121   -0.014148162107488637
0.018821227385510633   -0.3617824335502779   -0.013612352068654297
0.007252686232925865   -0.4188176155208459   -0.012958515004790415
0.01839727607532875   -0.36168839103760086   -0.014211018866175195
-0.0116069634969703   -0.3630831424533121   -0.014148162107488637
0.007252686232925865   -0.4188176155208459   -0.012958515004790415
-0.017986143190178744   -0.4201949741918004   -0.013796896338382233
-0.018684422784166273   -0.4198153937874579   -0.01422967251401563
-0.0116069634969703   -0.3630831424533121   -0.014148162107488637
0.007252686232925865   -0.4188176155208459   -0.012958515004790415
-0.018684422784166273   -0.4198153937874579   -0.01422967251401563
0.01839727607532875   -0.36168839103760086   -0.014211018866175195
0.017134214232430608   -0.36191941933292227   -0.01561033619941588
0.004517408180438295   -0.41890018252890493   -0.015728140567644423
0.049272233094476536   -0.36069187573106404   -0.01632150541222572
0.01775814009135598   -0.36172420510588144   -0.014873773830315759
0.004517408180438295   -0.41890018252890493   -0.015728140567644423
0.03095543863437754   -0.41720092061401626   -0.016641041147547535
0.049272233094476536   -0.36069187573106404   -0.01632150541222572
0.033401431373082345   -0.41669440113757295   -0.015100259193473397
0.01775814009135598   -0.36172420510588144   -0.014873773830315759
0.05093150195611886   -0.36028793342504   -0.01525069767838536
0.033401431373082345   -0.41669440113757295   -0.015100259193473397
0.049272233094476536   -0.36069187573106404   -0.01632150541222572
0.01775814009135598   -0.36172420510588144   -0.014873773830315759
0.033401431373082345   -0.41669440113757295   -0.015100259193473397
0.005486418466910024   -0.4186367158581408   -0.01472109303134803
0.004517408180438295   -0.41890018252890493   -0.015728140567644423
0.01775814009135598   -0.36172420510588144   -0.014873773830315759
0.033401431373082345   -0.41669440113757295   -0.015100259193473397
0.004517408180438295   -0.41890018252890493   -0.015728140567644423
0.049272233094476536   -0.36069187573106404   -0.01632150541222572
0.01775814009135598   -0.36172420510588144   -0.014873773830315759
0.005486418466910024   -0.4186367158581408   -0.01472109303134803
0.05093150195611886   -0.36028793342504   -0.01525069767838536
0.01839727607532875   -0.36168839103760086   -0.014211018866175195
0.005486418466910024   -0.4186367158581408   -0.01472109303134803
0.033401431373082345   -0.41669440113757295   -0.015100259193473397
0.05093150195611886   -0.36028793342504   -0.01525069767838536
0.03527622258034539   -0.41660672636722484   -0.013675436479855347
0.01839727607532875   -0.36168839103760086   -0.014211018866175195
0.052158786634947545   -0.3601774325588254   -0.014277949602284328
0.03527622258034539   -0.41660672636722484   -0.013675436479855347
0.05093150195611886   -0.36028793342504   -0.01525069767838536
0.01839727607532875   -0.36168839103760086   -0.014211018866175195
0.03527622258034539   -0.41660672636722484   -0.013675436479855347
0.0065065621285844795   -0.4186127761394797   -0.013807581654664183
0.005486418466910024   -0.4186367158581408   -0.01472109303134803
0.01839727607532875   -0.36168839103760086   -0.014211018866175195
0.03527622258034539   -0.41660672636722484   -0.013675436479855347
0.005486418466910024   -0.4186367158581408   -0.01472109303134803
0.05093150195611886   -0.36028793342504   -0.01525069767838536
0.01839727607532875   -0.36168839103760086   -0.014211018866175195
0.0065065621285844795   -0.4186127761394797   -0.013807581654664183
0.052158786634947545   -0.3601774325588254   -0.014277949602284328
0.018821227385510633   -0.3617824335502779   -0.013612352068654297
0.0065065621285844795   -0.4186127761394797   -0.013807581654664183
0.03527622258034539   -0.41660672636722484   -0.013675436479855347
0.052158786634947545   -0.3601774325588254   -0.014277949602284328
0.03721499085830481   -0.4167556156915374   -0.012378278733134733
0.018821227385510633   -0.3617824335502779   -0.013612352068654297
0.053400490307135284   -0.36017584720085905   -0.013407660307171557
0.03721499085830481   -0.4167556156915374   -0.012378278733134733
0.052158786634947545   -0.3601774325588254   -0.014277949602284328
0.018821227385510633   -0.3617824335502779   -0.013612352068654297
0.03721499085830481   -0.4167556156915374   -0.012378278733134733
0.007252686232925865   -0.4188176155208459   -0.012958515004790415
0.0065065621285844795   -0.4186127761394797   -0.013807581654664183
0.018821227385510633   -0.3617824335502779   -0.013612352068654297
0.03721499085830481   -0.4167556156915374   -0.012378278733134733
0.0065065621285844795   -0.4186127761394797   -0.013807581654664183
0.052158786634947545   -0.3601774325588254   -0.014277949602284328
-0.09664294058833904   -0.4179250841307321   -0.015267205387957311
-0.08086666152910053   -0.4619766374637514   -0.013846019914341265
-0.06836738096277668   -0.41924687380867437   -0.015169963976111655
-0.0951700334395965   -0.41820954730258897   -0.01613913417361261
-0.08086666152910053   -0.4619766374637514   -0.013846019914341265
-0.060752605916264614   -0.463938667826004   -0.014435511882302833
-0.06836738096277668   -0.41924687380867437   -0.015169963976111655
-0.05972727217274458   -0.46383599205574116   -0.014915876311216127
-0.0951700334395965   -0.41820954730258897   -0.01613913417361261
-0.06765873701303365   -0.4194383291993283   -0.015481929620088514
-0.05972727217274458   -0.46383599205574116   -0.014915876311216127
-0.06836738096277668   -0.41924687380867437   -0.015169963976111655
-0.0951700334395965   -0.41820954730258897   -0.01613913417361261
-0.05972727217274458   -0.46383599205574116   -0.014915876311216127
-0.07866328177660599   -0.4619203535696938   -0.015141503114979922
-0.08086666152910053   -0.4619766374637514   -0.013846019914341265
-0.0951700334395965   -0.41820954730258897   -0.01613913417361261
-0.05972727217274458   -0.46383599205574116   -0.014915876311216127
-0.08086666152910053   -0.4619766374637514   -0.013846019914341265
-0.06836738096277668   -0.41924687380867437   -0.015169963976111655
-0.0951700334395965   -0.41820954730258897   -0.01613913417361261
-0.07866328177660599   -0.4619203535696938   -0.015141503114979922
-0.06765873701303365   -0.4194383291993283   -0.015481929620088514
-0.09369927397612658   -0.4187461702577505   -0.017127146958768026
-0.07866328177660599   -0.4619203535696938   -0.015141503114979922
-0.05972727217274458   -0.46383599205574116   -0.014915876311216127
-0.06765873701303365   -0.4194383291993283   -0.015481929620088514
-0.05852241891594393   -0.4641155569753171   -0.015469271381050578
-0.09369927397612658   -0.4187461702577505   -0.017127146958768026
-0.0667687925210039   -0.4198956378962108   -0.015865174500689066
-0.05852241891594393   -0.4641155569753171   -0.015469271381050578
-0.06765873701303365   -0.4194383291993283   -0.015481929620088514
-0.09369927397612658   -0.4187461702577505   -0.017127146958768026
-0.05852241891594393   -0.4641155569753171   -0.015469271381050578
-0.0766311013096434   -0.4622662315966009   -0.01653975790018067
-0.07866328177660599   -0.4619203535696938   -0.015141503114979922
-0.09369927397612658   -0.4187461702577505   -0.017127146958768026
-0.05852241891594393   -0.4641155569753171   -0.015469271381050578
-0.07866328177660599   -0.4619203535696938   -0.015141503114979922
-0.06765873701303365   -0.4194383291993283   -0.015481929620088514
-0.09369927397612658   -0.4187461702577505   -0.017127146958768026
-0.0766311013096434   -0.4622662315966009   -0.01653975790018067
-0.0667687925210039   -0.4198956378962108   -0.015865174500689066
-0.09181487211851161   -0.41974679745276794   -0.01822897816722401
-0.0766311013096434   -0.4622662315966009   -0.01653975790018067
-0.05852241891594393   -0.4641155569753171   -0.015469271381050578
-0.0667687925210039   -0.4198956378962108   -0.015865174500689066
-0.057429319958185135   -0.46478356544629906   -0.016091003152669425
-0.09181487211851161   -0.41974679745276794   -0.01822897816722401
-0.06589039717479413   -0.4206447468001831   -0.016319034159427048
-0.057429319958185135   -0.46478356544629906   -0.016091003152669425
-0.0667687925210039   -0.4198956378962108   -0.015865174500689066
-0.09181487211851161   -0.41974679745276794   -0.01822897816722401
-0.057429319958185135   -0.46478356544629906   -0.016091003152669425
-0.07415330224407693   -0.4631935905596831   -0.01803460344052856
-0.0766311013096434   -0.4622662315966009   -0.01653975790018067
-0.09181487211851161   -0.41974679745276794   -0.01822897816722401
-0.057429319958185135   -0.46478356544629906   -0.016091003152669425
-0.0766311013096434   -0.4622662315966009   -0.01653975790018067
-0.0667687925210039   -0.4198956378962108   -0.015865174500689066
-0.06836738096277668   -0.41924687380867437   -0.015169963976111655
-0.060752605916264614   -0.463938667826004   -0.014435511882302833
-0.04390394769130117   -0.41986908823642677   -0.015130443948039448
-0.06765873701303365   -0.4194383291993283   -0.015481929620088514
-0.060752605916264614   -0.463938667826004   -0.014435511882302833
-0.044343130177006924   -0.46521802098858916   -0.014896584242253269
-0.04390394769130117   -0.41986908823642677   -0.015130443948039448
-0.043289944607993076   -0.46505519471966816   -0.014749454581601098
-0.06765873701303365   -0.4194383291993283   -0.015481929620088514
-0.043176315691424175   -0.41993234678312324   -0.0149915942099891
-0.043289944607993076   -0.46505519471966816   -0.014749454581601098
-0.04390394769130117   -0.41986908823642677   -0.015130443948039448
-0.06765873701303365   -0.4194383291993283   -0.015481929620088514
-0.043289944607993076   -0.46505519471966816   -0.014749454581601098
-0.05972727217274458   -0.46383599205574116   -0.014915876311216127
-0.060752605916264614   -0.463938667826004   -0.014435511882302833
-0.06765873701303365   -0.4194383291993283   -0.015481929620088514
-0.043289944607993076   -0.46505519471966816   -0.014749454581601098
-0.060752605916264614   -0.463938667826004   -0.014435511882302833
-0.04390394769130117   -0.41986908823642677   -0.015130443948039448
-0.06765873701303365   -0.4194383291993283   -0.015481929620088514
-0.05972727217274458   -0.46383599205574116   -0.014915876311216127
-0.043176315691424175   -0.41993234678312324   -0.0149915942099891
-0.0667687925210039   -0.4198956378962108   -0.015865174500689066
-0.05972727217274458   -0.46383599205574116   -0.014915876311216127
-0.043289944607993076   -0.46505519471966816   -0.014749454581601098
-0.043176315691424175   -0.41993234678312324   -0.0149915942099891
-0.042252208703382636   -0.4652219671541603   -0.014673181911443482
-0.0667687925210039   -0.4198956378962108   -0.015865174500689066
-0.04242553652094226   -0.42023286043679864   -0.014921916560494176
-0.042252208703382636   -0.4652219671541603   -0.014673181911443482
-0.043176315691424175   -0.41993234678312324   -0.0149915942099891
-0.0667687925210039   -0.4198956378962108   -0.015865174500689066
-0.042252208703382636   -0.4652219671541603   -0.014673181911443482
-0.05852241891594393   -0.4641155569753171   -0.015469271381050578
-0.05972727217274458   -0.46383599205574116   -0.014915876311216127
-0.0667687925210039   -0.4198956378962108   -0.015865174500689066
-0.042252208703382636   -0.4652219671541603   -0.014673181911443482
-0.05972727217274458   -0.46383599205574116   -0.014915876311216127
-0.043176315691424175   -0.41993234678312324   -0.0149915942099891
-0.0667687925210039   -0.4198956378962108   -0.015865174500689066
-0.05852241891594393   -0.4641155569753171   -0.015469271381050578
-0.04242553652094226   -0.42023286043679864   -0.014921916560494176
-0.06589039717479413   -0.4206447468001831   -0.016319034159427048
-0.05852241891594393   -0.4641155569753171   -0.015469271381050578
-0.042252208703382636   -0.4652219671541603   -0.014673181911443482
-0.04242553652094226   -0.42023286043679864   -0.014921916560494176
-0.041298047872736006   -0.4657295600365479   -0.0146827222410234
-0.06589039717479413   -0.4206447468001831   -0.016319034159427048
-0.041676105152454304   -0.4207848971463874   -0.0149204318643395
-0.041298047872736006   -0.4657295600365479   -0.0146827222410234
-0.04242553652094226   -0.42023286043679864   -0.014921916560494176
-0.06589039717479413   -0.4206447468001831   -0.016319034159427048
-0.041298047872736006   -0.4657295600365479   -0.0146827222410234
-0.057429319958185135   -0.46478356544629906   -0.016091003152669425
-0.05852241891594393   -0.4641155569753171   -0.015469271381050578
-0.06589039717479413   -0.4206447468001831   -0.016319034159427048
-0.041298047872736006   -0.4657295600365479   -0.0146827222410234
-0.05852241891594393   -0.4641155569753171   -0.015469271381050578
-0.04242553652094226   -0.42023286043679864   -0.014921916560494176
-0.04390394769130117   -0.41986908823642677   -0.015130443948039448
-0.044343130177006924   -0.46521802098858916   -0.014896584242253269
-0.02025472748750557   -0.41976217856342796   -0.015303522234499784
-0.043176315691424175   -0.41993234678312324   -0.0149915942099891
-0.044343130177006924   -0.46521802098858916   -0.014896584242253269
-0.02862882845791932   -0.46590205416222297   -0.015438829318644097
-0.02025472748750557   -0.41976217856342796   -0.015303522234499784
-0.02744133072970363   -0.4656686995395976   -0.014700393395568414
-0.043176315691424175   -0.41993234678312324   -0.0149915942099891
-0.019457656262633564   -0.4196816885950591   -0.014729736870471485
-0.02744133072970363   -0.4656686995395976   -0.014700393395568414
-0.02025472748750557   -0.41976217856342796   -0.015303522234499784
-0.043176315691424175   -0.41993234678312324   -0.0149915942099891
-0.02744133072970363   -0.4656686995395976   -0.014700393395568414
-0.043289944607993076   -0.46505519471966816   -0.014749454581601098
-0.044343130177006924   -0.46521802098858916   -0.014896584242253269
-0.043176315691424175   -0.41993234678312324   -0.0149915942099891
-0.02744133072970363   -0.4656686995395976   -0.014700393395568414
-0.044343130177006924   -0.46521802098858916   -0.014896584242253269
-0.02025472748750557   -0.41976217856342796   -0.015303522234499784
-0.043176315691424175   -0.41993234678312324   -0.0149915942099891
-0.043289944607993076   -0.46505519471966816   -0.014749454581601098
-0.019457656262633564   -0.4196816885950591   -0.014729736870471485
-0.04242553652094226   -0.42023286043679864   -0.014921916560494176
-0.043289944607993076   -0.46505519471966816   -0.014749454581601098
-0.02744133072970363   -0.4656686995395976   -0.014700393395568414
-0.019457656262633564   -0.4196816885950591   -0.014729736870471485
-0.02630987948179922   -0.4657245162016964   -0.014024310162970358
-0.04242553652094226   -0.42023286043679864   -0.014921916560494176
-0.018684422784166273   -0.4198153937874579   -0.01422967251401563
-0.02630987948179922   -0.4657245162016964   -0.014024310162970358
-0.019457656262633564   -0.4196816885950591   -0.014729736870471485
-0.04242553652094226   -0.42023286043679864   -0.014921916560494176
-0.02630987948179922   -0.4657245162016964   -0.014024310162970358
-0.042252208703382636   -0.4652219671541603   -0.014673181911443482
-0.043289944607993076   -0.46505519471966816   -0.014749454581601098
-0.04242553652094226   -0.42023286043679864   -0.014921916560494176
-0.02630987948179922   -0.4657245162016964   -0.014024310162970358
-0.043289944607993076   -0.46505519471966816   -0.014749454581601098
-0.019457656262633564   -0.4196816885950591   -0.014729736870471485
-0.04242553652094226   -0.42023286043679864   -0.014921916560494176
-0.042252208703382636   -0.4652219671541603   -0.014673181911443482
-0.018684422784166273   -0.4198153937874579   -0.01422967251401563
-0.041676105152454304   -0.4207848971463874   -0.0149204318643395
-0.042252208703382636   -0.4652219671541603   -0.014673181911443482
-0.02630987948179922   -0.4657245162016964   -0.014024310162970358
-0.018684422784166273   -0.4198153937874579   -0.01422967251401563
-0.025369906187220497   -0.46612705451167147   -0.013450185688262098
-0.041676105152454304   -0.4207848971463874   -0.0149204318643395
-0.017986143190178744   -0.4201949741918004   -0.013796896338382233
-0.025369906187220497   -0.46612705451167147   -0.013450185688262098
-0.018684422784166273   -0.4198153937874579   -0.01422967251401563
-0.041676105152454304   -0.4207848971463874   -0.0149204318643395
-0.025369906187220497   -0.46612705451167147   -0.013450185688262098
-0.041298047872736006   -0.4657295600365479   -0.0146827222410234
-0.042252208703382636   -0.4652219671541603   -0.014673181911443482
-0.041676105152454304   -0.4207848971463874   -0.0149204318643395
-0.025369906187220497   -0.46612705451167147   -0.013450185688262098
-0.042252208703382636   -0.4652219671541603   -0.014673181911443482
-0.018684422784166273   -0.4198153937874579   -0.01422967251401563
-0.02025472748750557   -0.41976217856342796   -0.015303522234499784
-0.02862882845791932   -0.46590205416222297   -0.015438829318644097
0.004517408180438295   -0.41890018252890493   -0.015728140567644423
-0.019457656262633564   -0.4196816885950591   -0.014729736870471485
-0.02862882845791932   -0.46590205416222297   -0.015438829318644097
-0.011899547144678665   -0.4657547073462445   -0.01607534396826066
0.004517408180438295   -0.41890018252890493   -0.015728140567644423
-0.010374937476258126   -0.46538930442182275   -0.014771873279772654
-0.019457656262633564   -0.4196816885950591   -0.014729736870471485
0.005486418466910024   -0.4186367158581408   -0.01472109303134803
-0.010374937476258126   -0.46538930442182275   -0.014771873279772654
0.004517408180438295   -0.41890018252890493   -0.015728140567644423
-0.019457656262633564   -0.4196816885950591   -0.014729736870471485
-0.010374937476258126   -0.46538930442182275   -0.014771873279772654
-0.02744133072970363   -0.4656686995395976   -0.014700393395568414
-0.02862882845791932   -0.46590205416222297   -0.015438829318644097
-0.019457656262633564   -0.4196816885950591   -0.014729736870471485
-0.010374937476258126   -0.46538930442182275   -0.014771873279772654
-0.02862882845791932   -0.46590205416222297   -0.015438829318644097
0.004517408180438295   -0.41890018252890493   -0.015728140567644423
-0.019457656262633564   -0.4196816885950591   -0.014729736870471485
-0.02744133072970363   -0.4656686995395976   -0.014700393395568414
0.005486418466910024   -0.4186367158581408   -0.01472109303134803
-0.018684422784166273   -0.4198153937874579   -0.01422967251401563
-0.02744133072970363   -0.4656686995395976   -0.014700393395568414
-0.010374937476258126   -0.46538930442182275   -0.014771873279772654
0.005486418466910024   -0.4186367158581408   -0.01472109303134803
-0.008818612345999156   -0.46532339143195034   -0.013535273318092376
-0.018684422784166273   -0.4198153937874579   -0.01422967251401563
0.0065065621285844795   -0.4186127761394797   -0.013807581654664183
-0.008818612345999156   -0.46532339143195034   -0.013535273318092376
0.005486418466910024   -0.4186367158581408   -0.01472109303134803
-0.018684422784166273   -0.4198153937874579   -0.01422967251401563
-0.008818612345999156   -0.46532339143195034   -0.013535273318092376
-0.02630987948179922   -0.4657245162016964   -0.014024310162970358
-0.02744133072970363   -0.4656686995395976   -0.014700393395568414
-0.018684422784166273   -0.4198153937874579   -0.01422967251401563
-0.008818612345999156   -0.46532339143195034   -0.013535273318092376
-0.02744133072970363   -0.4656686995395976   -0.014700393395568414
0.005486418466910024   -0.4186367158581408   -0.01472109303134803
-0.018684422784166273   -0.4198153937874579   -0.01422967251401563
-0.02630987948179922   -0.4657245162016964   -0.014024310162970358
0.0065065621285844795   -0.4186127761394797   -0.013807581654664183
-0.017986143190178744   -0.4201949741918004   -0.013796896338382233
-0.02630987948179922   -0.4657245162016964   -0.014024310162970358
-0.008818612345999156   -0.46532339143195034   -0.013535273318092376
0.0065065621285844795   -0.4186127761394797   -0.013807581654664183
-0.007664429507455291   -0.4656225932059258   -0.012413408379914342
-0.017986143190178744   -0.4201949741918004   -0.013796896338382233
0.007252686232925865   -0.4188176155208459   -0.012958515004790415
-0.007664429507455291   -0.4656225932059258   -0.012413408379914342
0.0065065621285844795   -0.4186127761394797   -0.013807581654664183
-0.017986143190178744   -0.4201949741918004   -0.013796896338382233
-0.007664429507455291   -0.4656225932059258   -0.012413408379914342
-0.025369906187220497   -0.46612705451167147   -0.013450185688262098
-0.02630987948179922   -0.4657245162016964   -0.014024310162970358
-0.017986143190178744   -0.4201949741918004   -0.013796896338382233
-0.007664429507455291   -0.4656225932059258   -0.012413408379914342
-0.02630987948179922   -0.4657245162016964   -0.014024310162970358
0.0065065621285844795   -0.4186127761394797   -0.013807581654664183
0.004517408180438295   -0.41890018252890493   -0.015728140567644423
-0.011899547144678665   -0.4657547073462445   -0.01607534396826066
0.03095543863437754   -0.41720092061401626   -0.016641041147547535
0.005486418466910024   -0.4186367158581408   -0.01472109303134803
-0.011899547144678665   -0.4657547073462445   -0.01607534396826066
0.00614327573347387   -0.46415556615445774   -0.017387447770720734
0.03095543863437754   -0.41720092061401626   -0.016641041147547535
0.009678040504139444   -0.46335796096830395   -0.015253941906047112
0.005486418466910024   -0.4186367158581408   -0.01472109303134803
0.033401431373082345   -0.41669440113757295   -0.015100259193473397
0.009678040504139444   -0.46335796096830395   -0.015253941906047112
0.03095543863437754   -0.41720092061401626   -0.016641041147547535
0.005486418466910024   -0.4186367158581408   -0.01472109303134803
0.009678040504139444   -0.46335796096830395   -0.015253941906047112
-0.010374937476258126   -0.46538930442182275   -0.014771873279772654
-0.011899547144678665   -0.4657547073462445   -0.01607534396826066
0.005486418466910024   -0.4186367158581408   -0.01472109303134803
0.009678040504139444   -0.46335796096830395   -0.015253941906047112
-0.011899547144678665   -0.4657547073462445   -0.01607534396826066
0.03095543863437754   -0.41720092061401626   -0.016641041147547535
0.005486418466910024   -0.4186367158581408   -0.01472109303134803
-0.010374937476258126   -0.46538930442182275   -0.014771873279772654
0.033401431373082345   -0.41669440113757295   -0.015100259193473397
0.0065065621285844795   -0.4186127761394797   -0.013807581654664183
-0.010374937476258126   -0.46538930442182275   -0.014771873279772654
0.009678040504139444   -0.46335796096830395   -0.015253941906047112
0.033401431373082345   -0.41669440113757295   -0.015100259193473397
0.012456952926660731   -0.46319522970033034   -0.013252269440084832
0.0065065621285844795   -0.4186127761394797   -0.013807581654664183
0.03527622258034539   -0.41660672636722484   -0.013675436479855347
0.012456952926660731   -0.46319522970033034   -0.013252269440084832
0.033401431373082345   -0.41669440113757295   -0.015100259193473397
0.0065065621285844795   -0.4186127761394797   -0.013807581654664183
0.012456952926660731   -0.46319522970033034   -0.013252269440084832
-0.008818612345999156   -0.46532339143195034   -0.013535273318092376
-0.010374937476258126   -0.46538930442182275   -0.014771873279772654
0.0065065621285844795   -0.4186127761394797   -0.013807581654664183
0.012456952926660731   -0.46319522970033034   -0.013252269440084832
-0.010374937476258126   -0.46538930442182275   -0.014771873279772654
0.033401431373082345   -0.41669440113757295   -0.015100259193473397
0.0065065621285844795   -0.4186127761394797   -0.013807581654664183
-0.008818612345999156   -0.46532339143195034   -0.013535273318092376
0.03527622258034539   -0.41660672636722484   -0.013675436479855347
0.007252686232925865   -0.4188176155208459   -0.012958515004790415
-0.008818612345999156   -0.46532339143195034   -0.013535273318092376
0.012456952926660731   -0.46319522970033034   -0.013252269440084832
0.03527622258034539   -0.41660672636722484   -0.013675436479855347
0.015340134099925995   -0.4633260722522305   -0.011426065182242711
0.007252686232925865   -0.4188176155208459   -0.012958515004790415
0.03721499085830481   -0.4167556156915374   -0.012378278733134733
0.015340134099925995   -0.4633260722522305   -0.011426065182242711
0.03527622258034539   -0.41660672636722484   -0.013675436479855347
0.007252686232925865   -0.4188176155208459   -0.012958515004790415
0.015340134099925995   -0.4633260722522305   -0.011426065182242711
-0.007664429507455291   -0.4656225932059258   -0.012413408379914342
-0.008818612345999156   -0.46532339143195034   -0.013535273318092376
0.007252686232925865   -0.4188176155208459   -0.012958515004790415
0.015340134099925995   -0.4633260722522305   -0.011426065182242711
-0.008818612345999156   -0.46532339143195034   -0.013535273318092376
0.03527622258034539   -0.41660672636722484   -0.013675436479855347
-0.08086666152910053   -0.4619766374637514   -0.013846019914341265
-0.05913439814164642   -0.48812831321788913   -0.012179110136756884
-0.060752605916264614   -0.463938667826004   -0.014435511882302833
-0.07866328177660599   -0.4619203535696938   -0.015141503114979922
-0.05913439814164642   -0.48812831321788913   -0.012179110136756884
-0.049815795476793386   -0.4906134095454635   -0.013677680556725915
-0.060752605916264614   -0.463938667826004   -0.014435511882302833
-0.048518960628975094   -0.4901185920692329   -0.014187468314528717
-0.07866328177660599   -0.4619203535696938   -0.015141503114979922
-0.05972727217274458   -0.46383599205574116   -0.014915876311216127
-0.048518960628975094   -0.4901185920692329   -0.014187468314528717
-0.060752605916264614   -0.463938667826004   -0.014435511882302833
-0.07866328177660599   -0.4619203535696938   -0.015141503114979922
-0.048518960628975094   -0.4901185920692329   -0.014187468314528717
-0.05638392323386467   -0.4875713546387142   -0.013734265396853886
-0.05913439814164642   -0.48812831321788913   -0.012179110136756884
-0.07866328177660599   -0.4619203535696938   -0.015141503114979922
-0.048518960628975094   -0.4901185920692329   -0.014187468314528717
-0.05913439814164642   -0.48812831321788913   -0.012179110136756884
-0.060752605916264614   -0.463938667826004   -0.014435511882302833
-0.07866328177660599   -0.4619203535696938   -0.015141503114979922
-0.05638392323386467   -0.4875713546387142   -0.013734265396853886
-0.05972727217274458   -0.46383599205574116   -0.014915876311216127
-0.0766311013096434   -0.4622662315966009   -0.01653975790018067
-0.05638392323386467   -0.4875713546387142   -0.013734265396853886
-0.048518960628975094   -0.4901185920692329   -0.014187468314528717
-0.05972727217274458   -0.46383599205574116   -0.014915876311216127
-0.04708452143097283   -0.4901380342708297   -0.01470233557578572
-0.0766311013096434   -0.4622662315966009   -0.01653975790018067
-0.05852241891594393   -0.4641155569753171   -0.015469271381050578
-0.04708452143097283   -0.4901380342708297   -0.01470233557578572
-0.05972727217274458   -0.46383599205574116   -0.014915876311216127
-0.0766311013096434   -0.4622662315966009   -0.01653975790018067
-0.04708452143097283   -0.4901380342708297   -0.01470233557578572
-0.054010351633238605   -0.4876133719209068   -0.015282989505210627
-0.05638392323386467   -0.4875713546387142   -0.013734265396853886
-0.0766311013096434   -0.4622662315966009   -0.01653975790018067
-0.04708452143097283   -0.4901380342708297   -0.01470233557578572
-0.05638392323386467   -0.4875713546387142   -0.013734265396853886
-0.05972727217274458   -0.46383599205574116   -0.014915876311216127
-0.0766311013096434   -0.4622662315966009   -0.01653975790018067
-0.054010351633238605   -0.4876133719209068   -0.015282989505210627
-0.05852241891594393   -0.4641155569753171   -0.015469271381050578
-0.07415330224407693   -0.4631935905596831   -0.01803460344052856
-0.054010351633238605   -0.4876133719209068   -0.015282989505210627
-0.04708452143097283   -0.4901380342708297   -0.01470233557578572
-0.05852241891594393   -0.4641155569753171   -0.015469271381050578
-0.04575092847731783   -0.49067388997345895   -0.0152244498629566
-0.07415330224407693   -0.4631935905596831   -0.01803460344052856
-0.057429319958185135   -0.46478356544629906   -0.016091003152669425
-0.04575092847731783   -0.49067388997345895   -0.0152244498629566
-0.05852241891594393   -0.4641155569753171   -0.015469271381050578
-0.07415330224407693   -0.4631935905596831   -0.01803460344052856
-0.04575092847731783   -0.49067388997345895   -0.0152244498629566
-0.05119645113955894   -0.4882882196669186   -0.016865212957007415
-0.054010351633238605   -0.4876133719209068   -0.015282989505210627
-0.07415330224407693   -0.4631935905596831   -0.01803460344052856
-0.04575092847731783   -0.49067388997345895   -0.0152244498629566
-0.054010351633238605   -0.4876133719209068   -0.015282989505210627
-0.05852241891594393   -0.4641155569753171   -0.015469271381050578
-0.060752605916264614   -0.463938667826004   -0.014435511882302833
-0.049815795476793386   -0.4906134095454635   -0.013677680556725915
-0.044343130177006924   -0.46521802098858916   -0.014896584242253269
-0.05972727217274458   -0.46383599205574116   -0.014915876311216127
-0.049815795476793386   -0.4906134095454635   -0.013677680556725915
-0.04301088596143763   -0.49312558372612125   -0.015003383415893941
-0.044343130177006924   -0.46521802098858916   -0.014896584242253269
-0.041640857144787   -0.4926188450434586   -0.014640980122146935
-0.05972727217274458   -0.46383599205574116   -0.014915876311216127
-0.043289944607993076   -0.46505519471966816   -0.014749454581601098
-0.041640857144787   -0.4926188450434586   -0.014640980122146935
-0.044343130177006924   -0.46521802098858916   -0.014896584242253269
-0.05972727217274458   -0.46383599205574116   -0.014915876311216127
-0.041640857144787   -0.4926188450434586   -0.014640980122146935
-0.048518960628975094   -0.4901185920692329   -0.014187468314528717
-0.049815795476793386   -0.4906134095454635   -0.013677680556725915
-0.05972727217274458   -0.46383599205574116   -0.014915876311216127
-0.041640857144787   -0.4926188450434586   -0.014640980122146935
-0.049815795476793386   -0.4906134095454635   -0.013677680556725915
-0.044343130177006924   -0.46521802098858916   -0.014896584242253269
-0.05972727217274458   -0.46383599205574116   -0.014915876311216127
-0.048518960628975094   -0.4901185920692329   -0.014187468314528717
-0.043289944607993076   -0.46505519471966816   -0.014749454581601098
-0.05852241891594393   -0.4641155569753171   -0.015469271381050578
-0.048518960628975094   -0.4901185920692329   -0.014187468314528717
-0.041640857144787   -0.4926188450434586   -0.014640980122146935
-0.043289944607993076   -0.46505519471966816   -0.014749454581601098
-0.04031706644103878   -0.49260602794747665   -0.014273944830094339
-0.05852241891594393   -0.4641155569753171   -0.015469271381050578
-0.042252208703382636   -0.4652219671541603   -0.014673181911443482
-0.04031706644103878   -0.49260602794747665   -0.014273944830094339
-0.043289944607993076   -0.46505519471966816   -0.014749454581601098
-0.05852241891594393   -0.4641155569753171   -0.015469271381050578
-0.04031706644103878   -0.49260602794747665   -0.014273944830094339
-0.04708452143097283   -0.4901380342708297   -0.01470233557578572
-0.048518960628975094   -0.4901185920692329   -0.014187468314528717
-0.05852241891594393   -0.4641155569753171   -0.015469271381050578
-0.04031706644103878   -0.49260602794747665   -0.014273944830094339
-0.048518960628975094   -0.4901185920692329   -0.014187468314528717
-0.043289944607993076   -0.46505519471966816   -0.014749454581601098
-0.05852241891594393   -0.4641155569753171   -0.015469271381050578
-0.04708452143097283   -0.4901380342708297   -0.01470233557578572
-0.042252208703382636   -0.4652219671541603   -0.014673181911443482
-0.057429319958185135   -0.46478356544629906   -0.016091003152669425
-0.04708452143097283   -0.4901380342708297   -0.01470233557578572
-0.04031706644103878   -0.49260602794747665   -0.014273944830094339
-0.042252208703382636   -0.4652219671541603   -0.014673181911443482
-0.03893632221716138   -0.4930765907619281   -0.013921098163279634
-0.057429319958185135   -0.46478356544629906   -0.016091003152669425
-0.041298047872736006   -0.4657295600365479   -0.0146827222410234
-0.03893632221716138   -0.4930765907619281   -0.013921098163279634
-0.042252208703382636   -0.4652219671541603   -0.014673181911443482
-0.057429319958185135   -0.46478356544629906   -0.016091003152669425
-0.03893632221716138   -0.4930765907619281   -0.013921098163279634
-0.04575092847731783   -0.49067388997345895   -0.0152244498629566
-0.04708452143097283   -0.4901380342708297   -0.01470233557578572
-0.057429319958185135   -0.46478356544629906   -0.016091003152669425
-0.03893632221716138   -0.4930765907619281   -0.013921098163279634
-0.04708452143097283   -0.4901380342708297   -0.01470233557578572
-0.042252208703382636   -0.4652219671541603   -0.014673181911443482
-0.044343130177006924   -0.46521802098858916   -0.014896584242253269
-0.04301088596143763   -0.49312558372612125   -0.015003383415893941
-0.02862882845791932   -0.46590205416222297   -0.015438829318644097
-0.043289944607993076   -0.46505519471966816   -0.014749454581601098
-0.04301088596143763   -0.49312558372612125   -0.015003383415893941
-0.036803282737553   -0.49617637394214514   -0.01646067610340112
-0.02862882845791932   -0.46590205416222297   -0.015438829318644097
-0.03512261694086984   -0.4957386018912802   -0.015176769750916625
-0.043289944607993076   -0.46505519471966816   -0.014749454581601098
-0.02744133072970363   -0.4656686995395976   -0.014700393395568414
-0.03512261694086984   -0.4957386018912802   -0.015176769750916625
-0.02862882845791932   -0.46590205416222297   -0.015438829318644097
-0.043289944607993076   -0.46505519471966816   -0.014749454581601098
-0.03512261694086984   -0.4957386018912802   -0.015176769750916625
-0.041640857144787   -0.4926188450434586   -0.014640980122146935
-0.04301088596143763   -0.49312558372612125   -0.015003383415893941
-0.043289944607993076   -0.46505519471966816   -0.014749454581601098
-0.03512261694086984   -0.4957386018912802   -0.015176769750916625
-0.04301088596143763   -0.49312558372612125   -0.015003383415893941
-0.02862882845791932   -0.46590205416222297   -0.015438829318644097
-0.043289944607993076   -0.46505519471966816   -0.014749454581601098
-0.041640857144787   -0.4926188450434586   -0.014640980122146935
-0.02744133072970363   -0.4656686995395976   -0.014700393395568414
-0.042252208703382636   -0.4652219671541603   -0.014673181911443482
-0.041640857144787   -0.4926188450434586   -0.014640980122146935
-0.03512261694086984   -0.4957386018912802   -0.015176769750916625
-0.02744133072970363   -0.4656686995395976   -0.014700393395568414
-0.033566622880948006   -0.4957129965848312   -0.013897974175356088
-0.042252208703382636   -0.4652219671541603   -0.014673181911443482
-0.02630987948179922   -0.4657245162016964   -0.014024310162970358
-0.033566622880948006   -0.4957129965848312   -0.013897974175356088
-0.02744133072970363   -0.4656686995395976   -0.014700393395568414
-0.042252208703382636   -0.4652219671541603   -0.014673181911443482
-0.033566622880948006   -0.4957129965848312   -0.013897974175356088
-0.04031706644103878   -0.49260602794747665   -0.014273944830094339
-0.041640857144787   -0.4926188450434586   -0.014640980122146935
-0.042252208703382636   -0.4652219671541603   -0.014673181911443482
-0.033566622880948006   -0.4957129965848312   -0.013897974175356088
-0.041640857144787   -0.4926188450434586   -0.014640980122146935
-0.02744133072970363   -0.4656686995395976   -0.014700393395568414
-0.042252208703382636   -0.4652219671541603   -0.014673181911443482
-0.04031706644103878   -0.49260602794747665   -0.014273944830094339
-0.02630987948179922   -0.4657245162016964   -0.014024310162970358
-0.041298047872736006   -0.4657295600365479   -0.0146827222410234
-0.04031706644103878   -0.49260602794747665   -0.014273944830094339
-0.033566622880948006   -0.4957129965848312   -0.013897974175356088
-0.02630987948179922   -0.4657245162016964   -0.014024310162970358
-0.031894427409470946   -0.4960767287054862   -0.012615017811726966
-0.041298047872736006   -0.4657295600365479   -0.0146827222410234
-0.025369906187220497   -0.46612705451167147   -0.013450185688262098
-0.031894427409470946   -0.4960767287054862   -0.012615017811726966
-0.02630987948179922   -0.4657245162016964   -0.014024310162970358
-0.041298047872736006   -0.4657295600365479   -0.0146827222410234
-0.031894427409470946   -0.4960767287054862   -0.012615017811726966
-0.03893632221716138   -0.4930765907619281   -0.013921098163279634
-0.04031706644103878   -0.49260602794747665   -0.014273944830094339
-0.041298047872736006   -0.4657295600365479   -0.0146827222410234
-0.031894427409470946   -0.4960767287054862   -0.012615017811726966
-0.04031706644103878   -0.49260602794747665   -0.014273944830094339
-0.02630987948179922   -0.4657245162016964   -0.014024310162970358
-0.02862882845791932   -0.46590205416222297   -0.015438829318644097
-0.036803282737553   -0.49617637394214514   -0.01646067610340112
-0.011899547144678665   -0.4657547073462445   -0.01607534396826066
-0.02744133072970363   -0.4656686995395976   -0.014700393395568414
-0.036803282737553   -0.49617637394214514   -0.01646067610340112
-0.03069395771874729   -0.5   -0.017570152738769357
-0.011899547144678665   -0.4657547073462445   -0.01607534396826066
-0.028582971794071706   -0.5   -0.01562807410687575
-0.02744133072970363   -0.4656686995395976   -0.014700393395568414
-0.010374937476258126   -0.46538930442182275   -0.014771873279772654
-0.028582971794071706   -0.5   -0.01562807410687575
-0.011899547144678665   -0.4657547073462445   -0.01607534396826066
-0.02744133072970363   -0.4656686995395976   -0.014700393395568414
-0.028582971794071706   -0.5   -0.01562807410687575
-0.03512261694086984   -0.4957386018912802   -0.015176769750916625
-0.036803282737553   -0.49617637394214514   -0.01646067610340112
-0.02744133072970363   -0.4656686995395976   -0.014700393395568414
-0.028582971794071706   -0.5   -0.01562807410687575
-0.036803282737553   -0.49617637394214514   -0.01646067610340112
-0.011899547144678665   -0.4657547073462445   -0.01607534396826066
-0.02744133072970363   -0.4656686995395976   -0.014700393395568414
-0.03512261694086984   -0.4957386018912802   -0.015176769750916625
-0.010374937476258126   -0.46538930442182275   -0.014771873279772654
-0.02630987948179922   -0.4657245162016964   -0.014024310162970358
-0.03512261694086984   -0.4957386018912802   -0.015176769750916625
-0.028582971794071706   -0.5   -0.01562807410687575
-0.010374937476258126   -0.46538930442182275   -0.014771873279772654
-0.026464262728256357   -0.5   -0.0136628854797176
-0.02630987948179922   -0.4657245162016964   -0.014024310162970358
-0.008818612345999156   -0.46532339143195034   -0.013535273318092376
-0.026464262728256357   -0.5   -0.0136628854797176
-0.010374937476258126   -0.46538930442182275   -0.014771873279772654
-0.02630987948179922   -0.4657245162016964   -0.014024310162970358
-0.026464262728256357   -0.5   -0.0136628854797176
-0.033566622880948006   -0.4957129965848312   -0.013897974175356088
-0.03512261694086984   -0.4957386018912802   -0.015176769750916625
-0.02630987948179922   -0.4657245162016964   -0.014024310162970358
-0.026464262728256357   -0.5   -0.0136628854797176
-0.03512261694086984   -0.4957386018912802   -0.015176769750916625
-0.010374937476258126   -0.46538930442182275   -0.014771873279772654
-0.02630987948179922   -0.4657245162016964   -0.014024310162970358
-0.033566622880948006   -0.4957129965848312   -0.013897974175356088
-0.008818612345999156   -0.46532339143195034   -0.013535273318092376
-0.025369906187220497   -0.46612705451167147   -0.013450185688262098
-0.033566622880948006   -0.4957129965848312   -0.013897974175356088
-0.026464262728256357   -0.5   -0.0136628854797176
-0.008818612345999156   -0.46532339143195034   -0.013535273318092376
-0.024390276416611907   -0.5   -0.011723478621811995
-0.025369906187220497   -0.46612705451167147   -0.013450185688262098
-0.007664429507455291   -0.4656225932059258   -0.012413408379914342
-0.024390276416611907   -0.5   -0.011723478621811995
-0.008818612345999156   -0.46532339143195034   -0.013535273318092376
-0.025369906187220497   -0.46612705451167147   -0.013450185688262098
-0.024390276416611907   -0.5   -0.011723478621811995
-0.031894427409470946   -0.4960767287054862   -0.012615017811726966
-0.033566622880948006   -0.4957129965848312   -0.013897974175356088
-0.025369906187220497   -0.46612705451167147   -0.013450185688262098
-0.024390276416611907   -0.5   -0.011723478621811995
-0.033566622880948006   -0.4957129965848312   -0.013897974175356088
-0.008818612345999156   -0.46532339143195034   -0.013535273318092376
-0.011899547144678665   -0.4657547073462445   -0.01607534396826066
-0.03069395771874729   -0.5   -0.017570152738769357
0.00614327573347387   -0.46415556615445774   -0.017387447770720734
-0.010374937476258126   -0.46538930442182275   -0.014771873279772654
-0.03069395771874729   -0.5   -0.017570152738769357
-0.026287610870590766   -0.5   -0.018913912164332126
0.00614327573347387   -0.46415556615445774   -0.017387447770720734
-0.021892527973121925   -0.5   -0.01610850565561503
-0.010374937476258126   -0.46538930442182275   -0.014771873279772654
0.009678040504139444   -0.46335796096830395   -0.015253941906047112
-0.021892527973121925   -0.5   -0.01610850565561503
0.00614327573347387   -0.46415556615445774   -0.017387447770720734
-0.010374937476258126   -0.46538930442182275   -0.014771873279772654
-0.021892527973121925   -0.5   -0.01610850565561503
-0.028582971794071706   -0.5   -0.01562807410687575
-0.03069395771874729   -0.5   -0.017570152738769357
-0.010374937476258126   -0.46538930442182275   -0.014771873279772654
-0.021892527973121925   -0.5   -0.01610850565561503
-0.03069395771874729   -0.5   -0.017570152738769357
0.00614327573347387   -0.46415556615445774   -0.017387447770720734
-0.010374937476258126   -0.46538930442182275   -0.014771873279772654
-0.028582971794071706   -0.5   -0.01562807410687575
0.009678040504139444   -0.46335796096830395   -0.015253941906047112
-0.008818612345999156   -0.46532339143195034   -0.013535273318092376
-0.028582971794071706   -0.5   -0.01562807410687575
-0.021892527973121925   -0.5   -0.01610850565561503
0.009678040504139444   -0.46335796096830395   -0.015253941906047112
-0.018387324951055835   -0.5   -0.013424546448680063
-0.008818612345999156   -0.46532339143195034   -0.013535273318092376
0.012456952926660731   -0.46319522970033034   -0.013252269440084832
-0.018387324951055835   -0.5   -0.013424546448680063
0.009678040504139444   -0.46335796096830395   -0.015253941906047112
-0.008818612345999156   -0.46532339143195034   -0.013535273318092376
-0.018387324951055835   -0.5   -0.013424546448680063
-0.026464262728256357   -0.5   -0.0136628854797176
-0.028582971794071706   -0.5   -0.01562807410687575
-0.008818612345999156   -0.46532339143195034   -0.013535273318092376
-0.018387324951055835   -0.5   -0.013424546448680063
-0.028582971794071706   -0.5   -0.01562807410687575
0.009678040504139444   -0.46335796096830395   -0.015253941906047112
-0.008818612345999156   -0.46532339143195034   -0.013535273318092376
-0.026464262728256357   -0.5   -0.0136628854797176
0.012456952926660731   -0.46319522970033034   -0.013252269440084832
-0.007664429507455291   -0.4656225932059258   -0.012413408379914342
-0.026464262728256357   -0.5   -0.0136628854797176
-0.018387324951055835   -0.5   -0.013424546448680063
0.012456952926660731   -0.46319522970033034   -0.013252269440084832
-0.014056572975348958   -0.5   -0.01063850175102029
-0.007664429507455291   -0.4656225932059258   -0.012413408379914342
0.015340134099925995   -0.4633260722522305   -0.011426065182242711
-0.014056572975348958   -0.5   -0.01063850175102029
0.012456952926660731   -0.46319522970033034   -0.013252269440084832
-0.007664429507455291   -0.4656225932059258   -0.012413408379914342
-0.014056572975348958   -0.5   -0.01063850175102029
-0.024390276416611907   -0.5   -0.011723478621811995
-0.026464262728256357   -0.5   -0.0136628854797176
-0.007664429507455291   -0.4656225932059258   -0.012413408379914342
-0.014056572975348958   -0.5   -0.01063850175102029
-0.026464262728256357   -0.5   -0.0136628854797176
0.012456952926660731   -0.46319522970033034   -0.013252269440084832
-0.05913439814164642   -0.48812831321788913   -0.012179110136756884
-0.03509006685324335   -0.4892827405793833   -0.010420688463065219
-0.049815795476793386   -0.4906134095454635   -0.013677680556725915
-0.05638392323386467   -0.4875713546387142   -0.013734265396853886
-0.03509006685324335   -0.4892827405793833   -0.010420688463065219
-0.03732505175718584   -0.4911904373819827   -0.012349708817032626
-0.049815795476793386   -0.4906134095454635   -0.013677680556725915
-0.03634566134190219   -0.4905155507886269   -0.013047809687400406
-0.05638392323386467   -0.4875713546387142   -0.013734265396853886
-0.048518960628975094   -0.4901185920692329   -0.014187468314528717
-0.03634566134190219   -0.4905155507886269   -0.013047809687400406
-0.049815795476793386   -0.4906134095454635   -0.013677680556725915
-0.05638392323386467   -0.4875713546387142   -0.013734265396853886
-0.03634566134190219   -0.4905155507886269   -0.013047809687400406
-0.03260119818601636   -0.48841674967785664   -0.01205410998434874
-0.03509006685324335   -0.4892827405793833   -0.010420688463065219
-0.05638392323386467   -0.4875713546387142   -0.013734265396853886
-0.03634566134190219   -0.4905155507886269   -0.013047809687400406
-0.03509006685324335   -0.4892827405793833   -0.010420688463065219
-0.049815795476793386   -0.4906134095454635   -0.013677680556725915
-0.05638392323386467   -0.4875713546387142   -0.013734265396853886
-0.03260119818601636   -0.48841674967785664   -0.01205410998434874
-0.048518960628975094   -0.4901185920692329   -0.014187468314528717
-0.054010351633238605   -0.4876133719209068   -0.015282989505210627
-0.03260119818601636   -0.48841674967785664   -0.01205410998434874
-0.03634566134190219   -0.4905155507886269   -0.013047809687400406
-0.048518960628975094   -0.4901185920692329   -0.014187468314528717
-0.03519809016539769   -0.49026132942775713   -0.01369105572911225
-0.054010351633238605   -0.4876133719209068   -0.015282989505210627
-0.04708452143097283   -0.4901380342708297   -0.01470233557578572
-0.03519809016539769   -0.49026132942775713   -0.01369105572911225
-0.048518960628975094   -0.4901185920692329   -0.014187468314528717
-0.054010351633238605   -0.4876133719209068   -0.015282989505210627
-0.03519809016539769   -0.49026132942775713   -0.01369105572911225
-0.030529029167621805   -0.48814439783921976   -0.01361941408416484
-0.03260119818601636   -0.48841674967785664   -0.01205410998434874
-0.054010351633238605   -0.4876133719209068   -0.015282989505210627
-0.03519809016539769   -0.49026132942775713   -0.01369105572911225
-0.03260119818601636   -0.48841674967785664   -0.01205410998434874
-0.048518960628975094   -0.4901185920692329   -0.014187468314528717
-0.054010351633238605   -0.4876133719209068   -0.015282989505210627
-0.030529029167621805   -0.48814439783921976   -0.01361941408416484
-0.04708452143097283   -0.4901380342708297   -0.01470233557578572
-0.05119645113955894   -0.4882882196669186   -0.016865212957007415
-0.030529029167621805   -0.48814439783921976   -0.01361941408416484
-0.03519809016539769   -0.49026132942775713   -0.01369105572911225
-0.04708452143097283   -0.4901380342708297   -0.01470233557578572
-0.034214321949582495   -0.490431216889882   -0.014275995144615637
-0.05119645113955894   -0.4882882196669186   -0.016865212957007415
-0.04575092847731783   -0.49067388997345895   -0.0152244498629566
-0.034214321949582495   -0.490431216889882   -0.014275995144615637
-0.04708452143097283   -0.4901380342708297   -0.01470233557578572
-0.05119645113955894   -0.4882882196669186   -0.016865212957007415
-0.034214321949582495   -0.490431216889882   -0.014275995144615637
-0.028187267423035935   -0.4883566010637393   -0.01510946586665656
-0.030529029167621805   -0.48814439783921976   -0.01361941408416484
-0.05119645113955894   -0.4882882196669186   -0.016865212957007415
-0.034214321949582495   -0.490431216889882   -0.014275995144615637
-0.030529029167621805   -0.48814439783921976   -0.01361941408416484
-0.04708452143097283   -0.4901380342708297   -0.01470233557578572
-0.049815795476793386   -0.4906134095454635   -0.013677680556725915
-0.03732505175718584   -0.4911904373819827   -0.012349708817032626
-0.04301088596143763   -0.49312558372612125   -0.015003383415893941
-0.048518960628975094   -0.4901185920692329   -0.014187468314528717
-0.03732505175718584   -0.4911904373819827   -0.012349708817032626
-0.040305871746865146   -0.4923783377642166   -0.013893338692197079
-0.04301088596143763   -0.49312558372612125   -0.015003383415893941
-0.0394383132273921   -0.49177606630613285   -0.013912821693905538
-0.048518960628975094   -0.4901185920692329   -0.014187468314528717
-0.041640857144787   -0.4926188450434586   -0.014640980122146935
-0.0394383132273921   -0.49177606630613285   -0.013912821693905538
-0.04301088596143763   -0.49312558372612125   -0.015003383415893941
-0.048518960628975094   -0.4901185920692329   -0.014187468314528717
-0.0394383132273921   -0.49177606630613285   -0.013912821693905538
-0.03634566134190219   -0.4905155507886269   -0.013047809687400406
-0.03732505175718584   -0.4911904373819827   -0.012349708817032626
-0.048518960628975094   -0.4901185920692329   -0.014187468314528717
-0.0394383132273921   -0.49177606630613285   -0.013912821693905538
-0.03732505175718584   -0.4911904373819827   -0.012349708817032626
-0.04301088596143763   -0.49312558372612125   -0.015003383415893941
-0.048518960628975094   -0.4901185920692329   -0.014187468314528717
-0.03634566134190219   -0.4905155507886269   -0.013047809687400406
-0.041640857144787   -0.4926188450434586   -0.014640980122146935
-0.04708452143097283   -0.4901380342708297   -0.01470233557578572
-0.03634566134190219   -0.4905155507886269   -0.013047809687400406
-0.0394383132273921   -0.49177606630613285   -0.013912821693905538
-0.041640857144787   -0.4926188450434586   -0.014640980122146935
-0.03847235104212291   -0.4915548583159408   -0.01386117557400389
-0.04708452143097283   -0.4901380342708297   -0.01470233557578572
-0.04031706644103878   -0.49260602794747665   -0.014273944830094339
-0.03847235104212291   -0.4915548583159408   -0.01386117557400389
-0.041640857144787   -0.4926188450434586   -0.014640980122146935
-0.04708452143097283   -0.4901380342708297   -0.01470233557578572
-0.03847235104212291   -0.4915548583159408   -0.01386117557400389
-0.03519809016539769   -0.49026132942775713   -0.01369105572911225
-0.03634566134190219   -0.4905155507886269   -0.013047809687400406
-0.04708452143097283   -0.4901380342708297   -0.01470233557578572
-0.03847235104212291   -0.4915548583159408   -0.01386117557400389
-0.03634566134190219   -0.4905155507886269   -0.013047809687400406
-0.041640857144787   -0.4926188450434586   -0.014640980122146935
-0.04708452143097283   -0.4901380342708297   -0.01470233557578572
-0.03519809016539769   -0.49026132942775713   -0.01369105572911225
-0.04031706644103878   -0.49260602794747665   -0.014273944830094339
-0.04575092847731783   -0.49067388997345895   -0.0152244498629566
-0.03519809016539769   -0.49026132942775713   -0.01369105572911225
-0.03847235104212291   -0.4915548583159408   -0.01386117557400389
-0.04031706644103878   -0.49260602794747665   -0.014273944830094339
-0.03748985786683208   -0.4916968670653697   -0.013753734627025147
-0.04575092847731783   -0.49067388997345895   -0.0152244498629566
-0.03893632221716138   -0.4930765907619281   -0.013921098163279634
-0.03748985786683208   -0.4916968670653697   -0.013753734627025147
-0.04031706644103878   -0.49260602794747665   -0.014273944830094339
-0.04575092847731783   -0.49067388997345895   -0.0152244498629566
-0.03748985786683208   -0.4916968670653697   -0.013753734627025147
-0.034214321949582495   -0.490431216889882   -0.014275995144615637
-0.03519809016539769   -0.49026132942775713   -0.01369105572911225
-0.04575092847731783   -0.49067388997345895   -0.0152244498629566
-0.03748985786683208   -0.4916968670653697   -0.013753734627025147
-0.03519809016539769   -0.49026132942775713   -0.01369105572911225
-0.04031706644103878   -0.49260602794747665   -0.014273944830094339
-0.04301088596143763   -0.49312558372612125   -0.015003383415893941
-0.040305871746865146   -0.4923783377642166   -0.013893338692197079
-0.036803282737553   -0.49617637394214514   -0.01646067610340112
-0.041640857144787   -0.4926188450434586   -0.014640980122146935
-0.040305871746865146   -0.4923783377642166   -0.013893338692197079
-0.043495515282524246   -0.49289070775701405   -0.015411262438296871
-0.036803282737553   -0.49617637394214514   -0.01646067610340112
-0.042596867532822665   -0.4923175094836992   -0.01477832678865304
-0.041640857144787   -0.4926188450434586   -0.014640980122146935
-0.03512261694086984   -0.4957386018912802   -0.015176769750916625
-0.042596867532822665   -0.4923175094836992   -0.01477832678865304
-0.036803282737553   -0.49617637394214514   -0.01646067610340112
-0.041640857144787   -0.4926188450434586   -0.014640980122146935
-0.042596867532822665   -0.4923175094836992   -0.01477832678865304
-0.0394383132273921   -0.49177606630613285   -0.013912821693905538
-0.040305871746865146   -0.4923783377642166   -0.013893338692197079
-0.041640857144787   -0.4926188450434586   -0.014640980122146935
-0.042596867532822665   -0.4923175094836992   -0.01477832678865304
-0.040305871746865146   -0.4923783377642166   -0.013893338692197079
-0.036803282737553   -0.49617637394214514   -0.01646067610340112
-0.041640857144787   -0.4926188450434586   -0.014640980122146935
-0.0394383132273921   -0.49177606630613285   -0.013912821693905538
-0.03512261694086984   -0.4957386018912802   -0.015176769750916625
-0.04031706644103878   -0.49260602794747665   -0.014273944830094339
-0.0394383132273921   -0.49177606630613285   -0.013912821693905538
-0.042596867532822665   -0.4923175094836992   -0.01477832678865304
-0.03512261694086984   -0.4957386018912802   -0.015176769750916625
-0.04151803909670167   -0.49213171537551265   -0.01405879377147701
-0.04031706644103878   -0.49260602794747665   -0.014273944830094339
-0.033566622880948006   -0.4957129965848312   -0.013897974175356088
-0.04151803909670167   -0.49213171537551265   -0.01405879377147701
-0.03512261694086984   -0.4957386018912802   -0.015176769750916625
-0.04031706644103878   -0.49260602794747665   -0.014273944830094339
-0.04151803909670167   -0.49213171537551265   -0.01405879377147701
-0.03847235104212291   -0.4915548583159408   -0.01386117557400389
-0.0394383132273921   -0.49177606630613285   -0.013912821693905538
-0.04031706644103878   -0.49260602794747665   -0.014273944830094339
-0.04151803909670167   -0.49213171537551265   -0.01405879377147701
-0.0394383132273921   -0.49177606630613285   -0.013912821693905538
-0.03512261694086984   -0.4957386018912802   -0.015176769750916625
-0.04031706644103878   -0.49260602794747665   -0.014273944830094339
-0.03847235104212291   -0.4915548583159408   -0.01386117557400389
-0.033566622880948006   -0.4957129965848312   -0.013897974175356088
-0.03893632221716138   -0.4930765907619281   -0.013921098163279634
-0.03847235104212291   -0.4915548583159408   -0.01386117557400389
-0.04151803909670167   -0.49213171537551265   -0.01405879377147701
-0.033566622880948006   -0.4957129965848312   -0.013897974175356088
-0.04040801848015564   -0.4922713612305635   -0.01329184729093431
-0.03893632221716138   -0.4930765907619281   -0.013921098163279634
-0.031894427409470946   -0.4960767287054862   -0.012615017811726966
-0.04040801848015564   -0.4922713612305635   -0.01329184729093431
-0.033566622880948006   -0.4957129965848312   -0.013897974175356088
-0.03893632221716138   -0.4930765907619281   -0.013921098163279634
-0.04040801848015564   -0.4922713612305635   -0.01329184729093431
-0.03748985786683208   -0.4916968670653697   -0.013753734627025147
-0.03847235104212291   -0.4915548583159408   -0.01386117557400389
-0.03893632221716138   -0.4930765907619281   -0.013921098163279634
-0.04040801848015564   -0.4922713612305635   -0.01329184729093431
-0.03847235104212291   -0.4915548583159408   -0.01386117557400389
-0.033566622880948006   -0.4957129965848312   -0.013897974175356088
-0.036803282737553   -0.49617637394214514   -0.01646067610340112
-0.043495515282524246   -0.49289070775701405   -0.015411262438296871
-0.03069395771874729   -0.5   -0.017570152738769357
-0.03512261694086984   -0.4957386018912802   -0.015176769750916625
-0.043495515282524246   -0.49289070775701405   -0.015411262438296871
-0.04811115619886444   -0.49237645285638626   -0.016849864222468633
-0.03069395771874729   -0.5   -0.017570152738769357
-0.04693690242253955   -0.49183729568146345   -0.015596595710827213
-0.03512261694086984   -0.4957386018912802   -0.015176769750916625
-0.028582971794071706   -0.5   -0.01562807410687575
-0.04693690242253955   -0.49183729568146345   -0.015596595710827213
-0.03069395771874729   -0.5   -0.017570152738769357
-0.03512261694086984   -0.4957386018912802   -0.015176769750916625
-0.04693690242253955   -0.49183729568146345   -0.015596595710827213
-0.042596867532822665   -0.4923175094836992   -0.01477832678865304
-0.043495515282524246   -0.49289070775701405   -0.015411262438296871
-0.03512261694086984   -0.4957386018912802   -0.015176769750916625
-0.04693690242253955   -0.49183729568146345   -0.015596595710827213
-0.043495515282524246   -0.49289070775701405   -0.015411262438296871
-0.03069395771874729   -0.5   -0.017570152738769357
-0.03512261694086984   -0.4957386018912802   -0.015176769750916625
-0.042596867532822665   -0.4923175094836992   -0.01477832678865304
-0.028582971794071706   -0.5   -0.01562807410687575
-0.033566622880948006   -0.4957129965848312   -0.013897974175356088
-0.042596867532822665   -0.4923175094836992   -0.01477832678865304
-0.04693690242253955   -0.49183729568146345   -0.015596595710827213
-0.028582971794071706   -0.5   -0.01562807410687575
-0.04538974041022198   -0.49171193526809626   -0.014247236238326725
-0.033566622880948006   -0.4957129965848312   -0.013897974175356088
-0.026464262728256357   -0.5   -0.0136628854797176
-0.04538974041022198   -0.49171193526809626   -0.014247236238326725
-0.028582971794071706   -0.5   -0.01562807410687575
-0.033566622880948006   -0.4957129965848312   -0.013897974175356088
-0.04538974041022198   -0.49171193526809626   -0.014247236238326725
-0.04151803909670167   -0.49213171537551265   -0.01405879377147701
-0.042596867532822665   -0.4923175094836992   -0.01477832678865304
-0.033566622880948006   -0.4957129965848312   -0.013897974175356088
-0.04538974041022198   -0.49171193526809626   -0.014247236238326725
-0.042596867532822665   -0.4923175094836992   -0.01477832678865304
-0.028582971794071706   -0.5   -0.01562807410687575
-0.033566622880948006   -0.4957129965848312   -0.013897974175356088
-0.04151803909670167   -0.49213171537551265   -0.01405879377147701
-0.026464262728256357   -0.5   -0.0136628854797176
-0.031894427409470946   -0.4960767287054862   -0.012615017811726966
-0.04151803909670167   -0.49213171537551265   -0.01405879377147701
-0.04538974041022198   -0.49171193526809626   -0.014247236238326725
-0.026464262728256357   -0.5   -0.0136628854797176
-0.04393087948559508   -0.49191970465842644   -0.012845019893378145
-0.031894427409470946   -0.4960767287054862   -0.012615017811726966
-0.024390276416611907   -0.5   -0.011723478621811995
-0.04393087948559508   -0.49191970465842644   -0.012845019893378145
-0.026464262728256357   -0.5   -0.0136628854797176
-0.031894427409470946   -0.4960767287054862   -0.012615017811726966
-0.04393087948559508   -0.49191970465842644   -0.012845019893378145
-0.04040801848015564   -0.4922713612305635   -0.01329184729093431
-0.04151803909670167   -0.49213171537551265   -0.01405879377147701
-0.031894427409470946   -0.4960767287054862   -0.012615017811726966
-0.04393087948559508   -0.49191970465842644   -0.012845019893378145
-0.04151803909670167   -0.49213171537551265   -0.01405879377147701
-0.026464262728256357   -0.5   -0.0136628854797176
-0.03069395771874729   -0.5   -0.017570152738769357
-0.04811115619886444   -0.49237645285638626   -0.016849864222468633
-0.026287610870590766   -0.5   -0.018913912164332126
-0.028582971794071706   -0.5   -0.01562807410687575
-0.04811115619886444   -0.49237645285638626   -0.016849864222468633
-0.057034513434337485   -0.48996245661158555   -0.01836845246574486
-0.026287610870590766   -0.5   -0.018913912164332126
-0.0539369615215277   -0.4895114623997958   -0.01631180880683095
-0.028582971794071706   -0.5   -0.01562807410687575
-0.021892527973121925   -0.5   -0.01610850565561503
-0.0539369615215277   -0.4895114623997958   -0.01631180880683095
-0.026287610870590766   -0.5   -0.018913912164332126
-0.028582971794071706   -0.5   -0.01562807410687575
-0.0539369615215277   -0.4895114623997958   -0.01631180880683095
-0.04693690242253955   -0.49183729568146345   -0.015596595710827213
-0.04811115619886444   -0.49237645285638626   -0.016849864222468633
-0.028582971794071706   -0.5   -0.01562807410687575
-0.0539369615215277   -0.4895114623997958   -0.01631180880683095
-0.04811115619886444   -0.49237645285638626   -0.016849864222468633
-0.026287610870590766   -0.5   -0.018913912164332126
-0.028582971794071706   -0.5   -0.01562807410687575
-0.04693690242253955   -0.49183729568146345   -0.015596595710827213
-0.021892527973121925   -0.5   -0.01610850565561503
-0.026464262728256357   -0.5   -0.0136628854797176
-0.04693690242253955   -0.49183729568146345   -0.015596595710827213
-0.0539369615215277   -0.4895114623997958   -0.01631180880683095
-0.021892527973121925   -0.5   -0.01610850565561503
-0.05108593469662067   -0.4894472551021112   -0.014114298320530084
-0.026464262728256357   -0.5   -0.0136628854797176
-0.018387324951055835   -0.5   -0.013424546448680063
-0.05108593469662067   -0.4894472551021112   -0.014114298320530084
-0.021892527973121925   -0.5   -0.01610850565561503
-0.026464262728256357   -0.5   -0.0136628854797176
-0.05108593469662067   -0.4894472551021112   -0.014114298320530084
-0.04538974041022198   -0.49171193526809626   -0.014247236238326725
-0.04693690242253955   -0.49183729568146345   -0.015596595710827213
-0.026464262728256357   -0.5   -0.0136628854797176
-0.05108593469662067   -0.4894472551021112   -0.014114298320530084
-0.04693690242253955   -0.49183729568146345   -0.015596595710827213
-0.021892527973121925   -0.5   -0.01610850565561503
-0.026464262728256357   -0.5   -0.0136628854797176
-0.04538974041022198   -0.49171193526809626   -0.014247236238326725
-0.018387324951055835   -0.5   -0.013424546448680063
-0.024390276416611907   -0.5   -0.011723478621811995
-0.04538974041022198   -0.49171193526809626   -0.014247236238326725
-0.05108593469662067   -0.4894472551021112   -0.014114298320530084
-0.018387324951055835   -0.5   -0.013424546448680063
-0.04748632189089893   -0.49004006979053893   -0.011814079697986344
-0.024390276416611907   -0.5   -0.011723478621811995
-0.014056572975348958   -0.5   -0.01063850175102029
-0.04748632189089893   -0.49004006979053893   -0.011814079697986344
-0.018387324951055835   -0.5   -0.013424546448680063
-0.024390276416611907   -0.5   -0.011723478621811995
-0.04748632189089893   -0.49004006979053893   -0.011814079697986344
-0.04393087948559508   -0.49191970465842644   -0.012845019893378145
-0.04538974041022198   -0.49171193526809626   -0.014247236238326725
-0.024390276416611907   -0.5   -0.011723478621811995
-0.04748632189089893   -0.49004006979053893   -0.011814079697986344
-0.04538974041022198   -0.49171193526809626   -0.014247236238326725
-0.018387324951055835   -0.5   -0.013424546448680063
-0.03509006685324335   -0.4892827405793833   -0.010420688463065219
-0.013994616499465252   -0.470534585572959   -0.009013704871866235
-0.03732505175718584   -0.4911904373819827   -0.012349708817032626
-0.03260119818601636   -0.48841674967785664   -0.01205410998434874
-0.013994616499465252   -0.470534585572959   -0.009013704871866235
-0.02664482360305973   -0.47196740920174646   -0.011061016986074272
-0.03732505175718584   -0.4911904373819827   -0.012349708817032626
-0.02595036580083682   -0.4711511920498973   -0.011681976981373198
-0.03260119818601636   -0.48841674967785664   -0.01205410998434874
-0.03634566134190219   -0.4905155507886269   -0.013047809687400406
-0.02595036580083682   -0.4711511920498973   -0.011681976981373198
-0.03732505175718584   -0.4911904373819827   -0.012349708817032626
-0.03260119818601636   -0.48841674967785664   -0.01205410998434874
-0.02595036580083682   -0.4711511920498973   -0.011681976981373198
-0.012015804976675473   -0.4695256551897656   -0.010421420340911437
-0.013994616499465252   -0.470534585572959   -0.009013704871866235
-0.03260119818601636   -0.48841674967785664   -0.01205410998434874
-0.02595036580083682   -0.4711511920498973   -0.011681976981373198
-0.013994616499465252   -0.470534585572959   -0.009013704871866235
-0.03732505175718584   -0.4911904373819827   -0.012349708817032626
-0.03260119818601636   -0.48841674967785664   -0.01205410998434874
-0.012015804976675473   -0.4695256551897656   -0.010421420340911437
-0.03634566134190219   -0.4905155507886269   -0.013047809687400406
-0.030529029167621805   -0.48814439783921976   -0.01361941408416484
-0.012015804976675473   -0.4695256551897656   -0.010421420340911437
-0.02595036580083682   -0.4711511920498973   -0.011681976981373198
-0.03634566134190219   -0.4905155507886269   -0.013047809687400406
-0.025170007760666278   -0.47069358705157266   -0.012246164351362042
-0.030529029167621805   -0.48814439783921976   -0.01361941408416484
-0.03519809016539769   -0.49026132942775713   -0.01369105572911225
-0.025170007760666278   -0.47069358705157266   -0.012246164351362042
-0.03634566134190219   -0.4905155507886269   -0.013047809687400406
-0.030529029167621805   -0.48814439783921976   -0.01361941408416484
-0.025170007760666278   -0.47069358705157266   -0.012246164351362042
-0.010458859718143339   -0.4690390188636895   -0.011744936146463486
-0.012015804976675473   -0.4695256551897656   -0.010421420340911437
-0.030529029167621805   -0.48814439783921976   -0.01361941408416484
-0.025170007760666278   -0.47069358705157266   -0.012246164351362042
-0.012015804976675473   -0.4695256551897656   -0.010421420340911437
-0.03634566134190219   -0.4905155507886269   -0.013047809687400406
-0.030529029167621805   -0.48814439783921976   -0.01361941408416484
-0.010458859718143339   -0.4690390188636895   -0.011744936146463486
-0.03519809016539769   -0.49026132942775713   -0.01369105572911225
-0.028187267423035935   -0.4883566010637393   -0.01510946586665656
-0.010458859718143339   -0.4690390188636895   -0.011744936146463486
-0.025170007760666278   -0.47069358705157266   -0.012246164351362042
-0.03519809016539769   -0.49026132942775713   -0.01369105572911225
-0.024571277669989736   -0.4705818785284818   -0.012755342986208252
-0.028187267423035935   -0.4883566010637393   -0.01510946586665656
-0.034214321949582495   -0.490431216889882   -0.014275995144615637
-0.024571277669989736   -0.4705818785284818   -0.012755342986208252
-0.03519809016539769   -0.49026132942775713   -0.01369105572911225
-0.028187267423035935   -0.4883566010637393   -0.01510946586665656
-0.024571277669989736   -0.4705818785284818   -0.012755342986208252
-0.008761853806334742   -0.4689360589335749   -0.012980629675694048
-0.010458859718143339   -0.4690390188636895   -0.011744936146463486
-0.028187267423035935   -0.4883566010637393   -0.01510946586665656
-0.024571277669989736   -0.4705818785284818   -0.012755342986208252
-0.010458859718143339   -0.4690390188636895   -0.011744936146463486
-0.03519809016539769   -0.49026132942775713   -0.01369105572911225
-0.03732505175718584   -0.4911904373819827   -0.012349708817032626
-0.02664482360305973   -0.47196740920174646   -0.011061016986074272
-0.040305871746865146   -0.4923783377642166   -0.013893338692197079
-0.03634566134190219   -0.4905155507886269   -0.013047809687400406
-0.02664482360305973   -0.47196740920174646   -0.011061016986074272
-0.03910827558830165   -0.4724750509505133   -0.012733287345960726
-0.040305871746865146   -0.4923783377642166   -0.013893338692197079
-0.03852345206075116   -0.4717627664845884   -0.012768800732968738
-0.03634566134190219   -0.4905155507886269   -0.013047809687400406
-0.0394383132273921   -0.49177606630613285   -0.013912821693905538
-0.03852345206075116   -0.4717627664845884   -0.012768800732968738
-0.040305871746865146   -0.4923783377642166   -0.013893338692197079
-0.03634566134190219   -0.4905155507886269   -0.013047809687400406
-0.03852345206075116   -0.4717627664845884   -0.012768800732968738
-0.02595036580083682   -0.4711511920498973   -0.011681976981373198
-0.02664482360305973   -0.47196740920174646   -0.011061016986074272
-0.03634566134190219   -0.4905155507886269   -0.013047809687400406
-0.03852345206075116   -0.4717627664845884   -0.012768800732968738
-0.02664482360305973   -0.47196740920174646   -0.011061016986074272
-0.040305871746865146   -0.4923783377642166   -0.013893338692197079
-0.03634566134190219   -0.4905155507886269   -0.013047809687400406
-0.02595036580083682   -0.4711511920498973   -0.011681976981373198
-0.0394383132273921   -0.49177606630613285   -0.013912821693905538
-0.03519809016539769   -0.49026132942775713   -0.01369105572911225
-0.02595036580083682   -0.4711511920498973   -0.011681976981373198
-0.03852345206075116   -0.4717627664845884   -0.012768800732968738
-0.0394383132273921   -0.49177606630613285   -0.013912821693905538
-0.03791874664570235   -0.4713738282704324   -0.01275175766367017
-0.03519809016539769   -0.49026132942775713   -0.01369105572911225
-0.03847235104212291   -0.4915548583159408   -0.01386117557400389
-0.03791874664570235   -0.4713738282704324   -0.01275175766367017
-0.0394383132273921   -0.49177606630613285   -0.013912821693905538
-0.03519809016539769   -0.49026132942775713   -0.01369105572911225
-0.03791874664570235   -0.4713738282704324   -0.01275175766367017
-0.025170007760666278   -0.47069358705157266   -0.012246164351362042
-0.02595036580083682   -0.4711511920498973   -0.011681976981373198
-0.03519809016539769   -0.49026132942775713   -0.01369105572911225
-0.03791874664570235   -0.4713738282704324   -0.01275175766367017
-0.02595036580083682   -0.4711511920498973   -0.011681976981373198
-0.0394383132273921   -0.49177606630613285   -0.013912821693905538
-0.03519809016539769   -0.49026132942775713   -0.01369105572911225
-0.025170007760666278   -0.47069358705157266   -0.012246164351362042
-0.03847235104212291   -0.4915548583159408   -0.01386117557400389
-0.034214321949582495   -0.490431216889882   -0.014275995144615637
-0.025170007760666278   -0.47069358705157266   -0.012246164351362042
-0.03791874664570235   -0.4713738282704324   -0.01275175766367017
-0.03847235104212291   -0.4915548583159408   -0.01386117557400389
-0.03733536732008135   -0.4712922858987104   -0.012681566552309733
-0.034214321949582495   -0.490431216889882   -0.014275995144615637
-0.03748985786683208   -0.4916968670653697   -0.013753734627025147
-0.03733536732008135   -0.4712922858987104   -0.012681566552309733
-0.03847235104212291   -0.4915548583159408   -0.01386117557400389
-0.034214321949582495   -0.490431216889882   -0.014275995144615637
-0.03733536732008135   -0.4712922858987104   -0.012681566552309733
-0.024571277669989736   -0.4705818785284818   -0.012755342986208252
-0.025170007760666278   -0.47069358705157266   -0.012246164351362042
-0.034214321949582495   -0.490431216889882   -0.014275995144615637
-0.03733536732008135   -0.4712922858987104   -0.012681566552309733
-0.025170007760666278   -0.47069358705157266   -0.012246164351362042
-0.03847235104212291   -0.4915548583159408   -0.01386117557400389
-0.040305871746865146   -0.4923783377642166   -0.013893338692197079
-0.03910827558830165   -0.4724750509505133   -0.012733287345960726
-0.043495515282524246   -0.49289070775701405   -0.015411262438296871
-0.0394383132273921   -0.49177606630613285   -0.013912821693905538
-0.03910827558830165   -0.4724750509505133   -0.012733287345960726
-0.05148194354118909   -0.47202839020473397   -0.01429777581511056
-0.043495515282524246   -0.49289070775701405   -0.015411262438296871
-0.050901730876773146   -0.47139632031335055   -0.013772143419231024
-0.0394383132273921   -0.49177606630613285   -0.013912821693905538
-0.042596867532822665   -0.4923175094836992   -0.01477832678865304
-0.050901730876773146   -0.47139632031335055   -0.013772143419231024
-0.043495515282524246   -0.49289070775701405   -0.015411262438296871
-0.0394383132273921   -0.49177606630613285   -0.013912821693905538
-0.050901730876773146   -0.47139632031335055   -0.013772143419231024
-0.03852345206075116   -0.4717627664845884   -0.012768800732968738
-0.03910827558830165   -0.4724750509505133   -0.012733287345960726
-0.0394383132273921   -0.49177606630613285   -0.013912821693905538
-0.050901730876773146   -0.47139632031335055   -0.013772143419231024
-0.03910827558830165   -0.4724750509505133   -0.012733287345960726
-0.043495515282524246   -0.49289070775701405   -0.015411262438296871
-0.0394383132273921   -0.49177606630613285   -0.013912821693905538
-0.03852345206075116   -0.4717627664845884   -0.012768800732968738
-0.042596867532822665   -0.4923175094836992   -0.01477832678865304
-0.03847235104212291   -0.4915548583159408   -0.01386117557400389
-0.03852345206075116   -0.4717627664845884   -0.012768800732968738
-0.050901730876773146   -0.47139632031335055   -0.013772143419231024
-0.042596867532822665   -0.4923175094836992   -0.01477832678865304
-0.0502505679342043   -0.47108205811532927   -0.013194687960517568
-0.03847235104212291   -0.4915548583159408   -0.01386117557400389
-0.04151803909670167   -0.49213171537551265   -0.01405879377147701
-0.0502505679342043   -0.47108205811532927   -0.013194687960517568
-0.042596867532822665   -0.4923175094836992   -0.01477832678865304
-0.03847235104212291   -0.4915548583159408   -0.01386117557400389
-0.0502505679342043   -0.47108205811532927   -0.013194687960517568
-0.03791874664570235   -0.4713738282704324   -0.01275175766367017
-0.03852345206075116   -0.4717627664845884   -0.012768800732968738
-0.03847235104212291   -0.4915548583159408   -0.01386117557400389
-0.0502505679342043   -0.47108205811532927   -0.013194687960517568
-0.03852345206075116   -0.4717627664845884   -0.012768800732968738
-0.042596867532822665   -0.4923175094836992   -0.01477832678865304
-0.03847235104212291   -0.4915548583159408   -0.01386117557400389
-0.03791874664570235   -0.4713738282704324   -0.01275175766367017
-0.04151803909670167   -0.49213171537551265   -0.01405879377147701
-0.03748985786683208   -0.4916968670653697   -0.013753734627025147
-0.03791874664570235   -0.4713738282704324   -0.01275175766367017
-0.0502505679342043   -0.47108205811532927   -0.013194687960517568
-0.04151803909670167   -0.49213171537551265   -0.01405879377147701
-0.04959621320271177   -0.47105446986114846   -0.01255908734769119
-0.03748985786683208   -0.4916968670653697   -0.013753734627025147
-0.04040801848015564   -0.4922713612305635   -0.01329184729093431
-0.04959621320271177   -0.47105446986114846   -0.01255908734769119
-0.04151803909670167   -0.49213171537551265   -0.01405879377147701
-0.03748985786683208   -0.4916968670653697   -0.013753734627025147
-0.04959621320271177   -0.47105446986114846   -0.01255908734769119
-0.03733536732008135   -0.4712922858987104   -0.012681566552309733
-0.03791874664570235   -0.4713738282704324   -0.01275175766367017
-0.03748985786683208   -0.4916968670653697   -0.013753734627025147
-0.04959621320271177   -0.47105446986114846   -0.01255908734769119
-0.03791874664570235   -0.4713738282704324   -0.01275175766367017
-0.04151803909670167   -0.49213171537551265   -0.01405879377147701
-0.043495515282524246   -0.49289070775701405   -0.015411262438296871
-0.05148194354118909   -0.47202839020473397   -0.01429777581511056
-0.04811115619886444   -0.49237645285638626   -0.016849864222468633
-0.042596867532822665   -0.4923175094836992   -0.01477832678865304
-0.05148194354118909   -0.47202839020473397   -0.01429777581511056
-0.0650862036511701   -0.470567442162667   -0.01573287730737343
-0.04811115619886444   -0.49237645285638626   -0.016849864222468633
-0.06437732874416191   -0.4700161591188767   -0.014659126001052862
-0.042596867532822665   -0.4923175094836992   -0.01477832678865304
-0.04693690242253955   -0.49183729568146345   -0.015596595710827213
-0.06437732874416191   -0.4700161591188767   -0.014659126001052862
-0.04811115619886444   -0.49237645285638626   -0.016849864222468633
-0.042596867532822665   -0.4923175094836992   -0.01477832678865304
-0.06437732874416191   -0.4700161591188767   -0.014659126001052862
-0.050901730876773146   -0.47139632031335055   -0.013772143419231024
-0.05148194354118909   -0.47202839020473397   -0.01429777581511056
-0.042596867532822665   -0.4923175094836992   -0.01477832678865304
-0.06437732874416191   -0.4700161591188767   -0.014659126001052862
-0.05148194354118909   -0.47202839020473397   -0.01429777581511056
-0.04811115619886444   -0.49237645285638626   -0.016849864222468633
-0.042596867532822665   -0.4923175094836992   -0.01477832678865304
-0.050901730876773146   -0.47139632031335055   -0.013772143419231024
-0.04693690242253955   -0.49183729568146345   -0.015596595710827213
-0.04151803909670167   -0.49213171537551265   -0.01405879377147701
-0.050901730876773146   -0.47139632031335055   -0.013772143419231024
-0.06437732874416191   -0.4700161591188767   -0.014659126001052862
-0.04693690242253955   -0.49183729568146345   -0.015596595710827213
-0.06339994149402495   -0.4697762719054095   -0.013537215890906
-0.04151803909670167   -0.49213171537551265   -0.01405879377147701
-0.04538974041022198   -0.49171193526809626   -0.014247236238326725
-0.06339994149402495   -0.4697762719054095   -0.013537215890906
-0.04693690242253955   -0.49183729568146345   -0.015596595710827213
-0.04151803909670167   -0.49213171537551265   -0.01405879377147701
-0.06339994149402495   -0.4697762719054095   -0.013537215890906
-0.0502505679342043   -0.47108205811532927   -0.013194687960517568
-0.050901730876773146   -0.47139632031335055   -0.013772143419231024
-0.04151803909670167   -0.49213171537551265   -0.01405879377147701
-0.06339994149402495   -0.4697762719054095   -0.013537215890906
-0.050901730876773146   -0.47139632031335055   -0.013772143419231024
-0.04693690242253955   -0.49183729568146345   -0.015596595710827213
-0.04151803909670167   -0.49213171537551265   -0.01405879377147701
-0.0502505679342043   -0.47108205811532927   -0.013194687960517568
-0.04538974041022198   -0.49171193526809626   -0.014247236238326725
-0.04040801848015564   -0.4922713612305635   -0.01329184729093431
-0.0502505679342043   -0.47108205811532927   -0.013194687960517568
-0.06339994149402495   -0.4697762719054095   -0.013537215890906
-0.04538974041022198   -0.49171193526809626   -0.014247236238326725
-0.06254456745135717   -0.46984827790560163   -0.012335517648968872
-0.04040801848015564   -0.4922713612305635   -0.01329184729093431
-0.04393087948559508   -0.49191970465842644   -0.012845019893378145
-0.06254456745135717   -0.46984827790560163   -0.012335517648968872
-0.04538974041022198   -0.49171193526809626   -0.014247236238326725
-0.04040801848015564   -0.4922713612305635   -0.01329184729093431
-0.06254456745135717   -0.46984827790560163   -0.012335517648968872
-0.04959621320271177   -0.47105446986114846   -0.01255908734769119
-0.0502505679342043   -0.47108205811532927   -0.013194687960517568
-0.04040801848015564   -0.4922713612305635   -0.01329184729093431
-0.06254456745135717   -0.46984827790560163   -0.012335517648968872
-0.0502505679342043   -0.47108205811532927   -0.013194687960517568
-0.04538974041022198   -0.49171193526809626   -0.014247236238326725
-0.04811115619886444   -0.49237645285638626   -0.016849864222468633
-0.0650862036511701   -0.470567442162667   -0.01573287730737343
-0.057034513434337485   -0.48996245661158555   -0.01836845246574486
-0.04693690242253955   -0.49183729568146345   -0.015596595710827213
-0.0650862036511701   -0.470567442162667   -0.01573287730737343
-0.08260727529511716   -0.46819148296795843   -0.017104329305738023
-0.057034513434337485   -0.48996245661158555   -0.01836845246574486
-0.08034421174849121   -0.4675963426410326   -0.01540969734141296
-0.04693690242253955   -0.49183729568146345   -0.015596595710827213
-0.0539369615215277   -0.4895114623997958   -0.01631180880683095
-0.08034421174849121   -0.4675963426410326   -0.01540969734141296
-0.057034513434337485   -0.48996245661158555   -0.01836845246574486
-0.04693690242253955   -0.49183729568146345   -0.015596595710827213
-0.08034421174849121   -0.4675963426410326   -0.01540969734141296
-0.06437732874416191   -0.4700161591188767   -0.014659126001052862
-0.0650862036511701   -0.470567442162667   -0.01573287730737343
-0.04693690242253955   -0.49183729568146345   -0.015596595710827213
-0.08034421174849121   -0.4675963426410326   -0.01540969734141296
-0.0650862036511701   -0.470567442162667   -0.01573287730737343
-0.057034513434337485   -0.48996245661158555   -0.01836845246574486
-0.04693690242253955   -0.49183729568146345   -0.015596595710827213
-0.06437732874416191   -0.4700161591188767   -0.014659126001052862
-0.0539369615215277   -0.4895114623997958   -0.01631180880683095
-0.04538974041022198   -0.49171193526809626   -0.014247236238326725
-0.06437732874416191   -0.4700161591188767   -0.014659126001052862
-0.08034421174849121   -0.4675963426410326   -0.01540969734141296
-0.0539369615215277   -0.4895114623997958   -0.01631180880683095
-0.07831159106784753   -0.4673744533752291   -0.013614381111061578
-0.04538974041022198   -0.49171193526809626   -0.014247236238326725
-0.05108593469662067   -0.4894472551021112   -0.014114298320530084
-0.07831159106784753   -0.4673744533752291   -0.013614381111061578
-0.0539369615215277   -0.4895114623997958   -0.01631180880683095
-0.04538974041022198   -0.49171193526809626   -0.014247236238326725
-0.07831159106784753   -0.4673744533752291   -0.013614381111061578
-0.06339994149402495   -0.4697762719054095   -0.013537215890906
-0.06437732874416191   -0.4700161591188767   -0.014659126001052862
-0.04538974041022198   -0.49171193526809626   -0.014247236238326725
-0.07831159106784753   -0.4673744533752291   -0.013614381111061578
-0.06437732874416191   -0.4700161591188767   -0.014659126001052862
-0.0539369615215277   -0.4895114623997958   -0.01631180880683095
-0.04538974041022198   -0.49171193526809626   -0.014247236238326725
-0.06339994149402495   -0.4697762719054095   -0.013537215890906
-0.05108593469662067   -0.4894472551021112   -0.014114298320530084
-0.04393087948559508   -0.49191970465842644   -0.012845019893378145
-0.06339994149402495   -0.4697762719054095   -0.013537215890906
-0.07831159106784753   -0.4673744533752291   -0.013614381111061578
-0.05108593469662067   -0.4894472551021112   -0.014114298320530084
-0.07567668553309766   -0.4676389599808338   -0.011735601788918743
-0.04393087948559508   -0.49191970465842644   -0.012845019893378145
-0.04748632189089893   -0.49004006979053893   -0.011814079697986344
-0.07567668553309766   -0.4676389599808338   -0.011735601788918743
-0.05108593469662067   -0.4894472551021112   -0.014114298320530084
-0.04393087948559508   -0.49191970465842644   -0.012845019893378145
-0.07567668553309766   -0.4676389599808338   -0.011735601788918743
-0.06254456745135717   -0.46984827790560163   -0.012335517648968872
-0.06339994149402495   -0.4697762719054095   -0.013537215890906
-0.04393087948559508   -0.49191970465842644   -0.012845019893378145
-0.07567668553309766   -0.4676389599808338   -0.011735601788918743
-0.06339994149402495   -0.4697762719054095   -0.013537215890906
-0.05108593469662067   -0.4894472551021112   -0.014114298320530084
-0.013994616499465252   -0.470534585572959   -0.009013704871866235
0.003056102832421971   -0.4362458575026979   -0.007464367726487858
-0.02664482360305973   -0.47196740920174646   -0.011061016986074272
-0.012015804976675473   -0.4695256551897656   -0.010421420340911437
0.003056102832421971   -0.4362458575026979   -0.007464367726487858
-0.018194128220405687   -0.4372917309327826   -0.00947281770198726
-0.02664482360305973   -0.47196740920174646   -0.011061016986074272
-0.017827721350273856   -0.4364366859531991   -0.009963649428097356
-0.012015804976675473   -0.4695256551897656   -0.010421420340911437
-0.02595036580083682   -0.4711511920498973   -0.011681976981373198
-0.017827721350273856   -0.4364366859531991   -0.009963649428097356
-0.02664482360305973   -0.47196740920174646   -0.011061016986074272
-0.012015804976675473   -0.4695256551897656   -0.010421420340911437
-0.017827721350273856   -0.4364366859531991   -0.009963649428097356
0.00443116127467968   -0.4352217407081651   -0.008580860985494047
0.003056102832421971   -0.4362458575026979   -0.007464367726487858
-0.012015804976675473   -0.4695256551897656   -0.010421420340911437
-0.017827721350273856   -0.4364366859531991   -0.009963649428097356
0.003056102832421971   -0.4362458575026979   -0.007464367726487858
-0.02664482360305973   -0.47196740920174646   -0.011061016986074272
-0.012015804976675473   -0.4695256551897656   -0.010421420340911437
0.00443116127467968   -0.4352217407081651   -0.008580860985494047
-0.02595036580083682   -0.4711511920498973   -0.011681976981373198
-0.010458859718143339   -0.4690390188636895   -0.011744936146463486
0.00443116127467968   -0.4352217407081651   -0.008580860985494047
-0.017827721350273856   -0.4364366859531991   -0.009963649428097356
-0.02595036580083682   -0.4711511920498973   -0.011681976981373198
-0.017411627165365522   -0.4358729535326819   -0.010396475170327178
-0.010458859718143339   -0.4690390188636895   -0.011744936146463486
-0.025170007760666278   -0.47069358705157266   -0.012246164351362042
-0.017411627165365522   -0.4358729535326819   -0.010396475170327178
-0.02595036580083682   -0.4711511920498973   -0.011681976981373198
-0.010458859718143339   -0.4690390188636895   -0.011744936146463486
-0.017411627165365522   -0.4358729535326819   -0.010396475170327178
0.005441938756942365   -0.43462377746768316   -0.009616171413456378
0.00443116127467968   -0.4352217407081651   -0.008580860985494047
-0.010458859718143339   -0.4690390188636895   -0.011744936146463486
-0.017411627165365522   -0.4358729535326819   -0.010396475170327178
0.00443116127467968   -0.4352217407081651   -0.008580860985494047
-0.02595036580083682   -0.4711511920498973   -0.011681976981373198
-0.010458859718143339   -0.4690390188636895   -0.011744936146463486
0.005441938756942365   -0.43462377746768316   -0.009616171413456378
-0.025170007760666278   -0.47069358705157266   -0.012246164351362042
-0.008761853806334742   -0.4689360589335749   -0.012980629675694048
0.005441938756942365   -0.43462377746768316   -0.009616171413456378
-0.017411627165365522   -0.4358729535326819   -0.010396475170327178
-0.025170007760666278   -0.47069358705157266   -0.012246164351362042
-0.01716300018581441   -0.43558403664089457   -0.010777014194252504
-0.008761853806334742   -0.4689360589335749   -0.012980629675694048
-0.024571277669989736   -0.4705818785284818   -0.012755342986208252
-0.01716300018581441   -0.43558403664089457   -0.010777014194252504
-0.025170007760666278   -0.47069358705157266   -0.012246164351362042
-0.008761853806334742   -0.4689360589335749   -0.012980629675694048
-0.01716300018581441   -0.43558403664089457   -0.010777014194252504
0.006520882470120188   -0.4343196733550562   -0.010569850489030625
0.005441938756942365   -0.43462377746768316   -0.009616171413456378
-0.008761853806334742   -0.4689360589335749   -0.012980629675694048
-0.01716300018581441   -0.43558403664089457   -0.010777014194252504
0.005441938756942365   -0.43462377746768316   -0.009616171413456378
-0.025170007760666278   -0.47069358705157266   -0.012246164351362042
-0.02664482360305973   -0.47196740920174646   -0.011061016986074272
-0.018194128220405687   -0.4372917309327826   -0.00947281770198726
-0.03910827558830165   -0.4724750509505133   -0.012733287345960726
-0.02595036580083682   -0.4711511920498973   -0.011681976981373198
-0.018194128220405687   -0.4372917309327826   -0.00947281770198726
-0.038729554670326356   -0.43749124083772833   -0.01113115641403257
-0.03910827558830165   -0.4724750509505133   -0.012733287345960726
-0.038459372324187335   -0.4367564216955889   -0.011144752894483892
-0.02595036580083682   -0.4711511920498973   -0.011681976981373198
-0.03852345206075116   -0.4717627664845884   -0.012768800732968738
-0.038459372324187335   -0.4367564216955889   -0.011144752894483892
-0.03910827558830165   -0.4724750509505133   -0.012733287345960726
-0.02595036580083682   -0.4711511920498973   -0.011681976981373198
-0.038459372324187335   -0.4367564216955889   -0.011144752894483892
-0.017827721350273856   -0.4364366859531991   -0.009963649428097356
-0.018194128220405687   -0.4372917309327826   -0.00947281770198726
-0.02595036580083682   -0.4711511920498973   -0.011681976981373198
-0.038459372324187335   -0.4367564216955889   -0.011144752894483892
-0.018194128220405687   -0.4372917309327826   -0.00947281770198726
-0.03910827558830165   -0.4724750509505133   -0.012733287345960726
-0.02595036580083682   -0.4711511920498973   -0.011681976981373198
-0.017827721350273856   -0.4364366859531991   -0.009963649428097356
-0.03852345206075116   -0.4717627664845884   -0.012768800732968738
-0.025170007760666278   -0.47069358705157266   -0.012246164351362042
-0.017827721350273856   -0.4364366859531991   -0.009963649428097356
-0.038459372324187335   -0.4367564216955889   -0.011144752894483892
-0.03852345206075116   -0.4717627664845884   -0.012768800732968738
-0.03818169578068444   -0.4362824262349143   -0.011102822319886546
-0.025170007760666278   -0.47069358705157266   -0.012246164351362042
-0.03791874664570235   -0.4713738282704324   -0.01275175766367017
-0.03818169578068444   -0.4362824262349143   -0.011102822319886546
-0.03852345206075116   -0.4717627664845884   -0.012768800732968738
-0.025170007760666278   -0.47069358705157266   -0.012246164351362042
-0.03818169578068444   -0.4362824262349143   -0.011102822319886546
-0.017411627165365522   -0.4358729535326819   -0.010396475170327178
-0.017827721350273856   -0.4364366859531991   -0.009963649428097356
-0.025170007760666278   -0.47069358705157266   -0.012246164351362042
-0.03818169578068444   -0.4362824262349143   -0.011102822319886546
-0.017827721350273856   -0.4364366859531991   -0.009963649428097356
-0.03852345206075116   -0.4717627664845884   -0.012768800732968738
-0.025170007760666278   -0.47069358705157266   -0.012246164351362042
-0.017411627165365522   -0.4358729535326819   -0.010396475170327178
-0.03791874664570235   -0.4713738282704324   -0.01275175766367017
-0.024571277669989736   -0.4705818785284818   -0.012755342986208252
-0.017411627165365522   -0.4358729535326819   -0.010396475170327178
-0.03818169578068444   -0.4362824262349143   -0.011102822319886546
-0.03791874664570235   -0.4713738282704324   -0.01275175766367017
-0.037938768573723   -0.43606481257134844   -0.0110089867773729
-0.024571277669989736   -0.4705818785284818   -0.012755342986208252
-0.03733536732008135   -0.4712922858987104   -0.012681566552309733
-0.037938768573723   -0.43606481257134844   -0.0110089867773729
-0.03791874664570235   -0.4713738282704324   -0.01275175766367017
-0.024571277669989736   -0.4705818785284818   -0.012755342986208252
-0.037938768573723   -0.43606481257134844   -0.0110089867773729
-0.01716300018581441   -0.43558403664089457   -0.010777014194252504
-0.017411627165365522   -0.4358729535326819   -0.010396475170327178
-0.024571277669989736   -0.4705818785284818   -0.012755342986208252
-0.037938768573723   -0.43606481257134844   -0.0110089867773729
-0.017411627165365522   -0.4358729535326819   -0.010396475170327178
-0.03791874664570235   -0.4713738282704324   -0.01275175766367017
-0.03910827558830165   -0.4724750509505133   -0.012733287345960726
-0.038729554670326356   -0.43749124083772833   -0.01113115641403257
-0.05148194354118909   -0.47202839020473397   -0.01429777581511056
-0.03852345206075116   -0.4717627664845884   -0.012768800732968738
-0.038729554670326356   -0.43749124083772833   -0.01113115641403257
-0.05893750111707847   -0.43683946165759174   -0.012628435240315507
-0.05148194354118909   -0.47202839020473397   -0.01429777581511056
-0.058685876722164625   -0.436205178234008   -0.012176365547201676
-0.03852345206075116   -0.4717627664845884   -0.012768800732968738
-0.050901730876773146   -0.47139632031335055   -0.013772143419231024
-0.058685876722164625   -0.436205178234008   -0.012176365547201676
-0.05148194354118909   -0.47202839020473397   -0.01429777581511056
-0.03852345206075116   -0.4717627664845884   -0.012768800732968738
-0.058685876722164625   -0.436205178234008   -0.012176365547201676
-0.038459372324187335   -0.4367564216955889   -0.011144752894483892
-0.038729554670326356   -0.43749124083772833   -0.01113115641403257
-0.03852345206075116   -0.4717627664845884   -0.012768800732968738
-0.058685876722164625   -0.436205178234008   -0.012176365547201676
-0.038729554670326356   -0.43749124083772833   -0.01113115641403257
-0.05148194354118909   -0.47202839020473397   -0.01429777581511056
-0.03852345206075116   -0.4717627664845884   -0.012768800732968738
-0.038459372324187335   -0.4367564216955889   -0.011144752894483892
-0.050901730876773146   -0.47139632031335055   -0.013772143419231024
-0.03791874664570235   -0.4713738282704324   -0.01275175766367017
-0.038459372324187335   -0.4367564216955889   -0.011144752894483892
-0.058685876722164625   -0.436205178234008   -0.012176365547201676
-0.050901730876773146   -0.47139632031335055   -0.013772143419231024
-0.05838191135702951   -0.43582882516427107   -0.011669931789781898
-0.03791874664570235   -0.4713738282704324   -0.01275175766367017
-0.0502505679342043   -0.47108205811532927   -0.013194687960517568
-0.05838191135702951   -0.43582882516427107   -0.011669931789781898
-0.050901730876773146   -0.47139632031335055   -0.013772143419231024
-0.03791874664570235   -0.4713738282704324   -0.01275175766367017
-0.05838191135702951   -0.43582882516427107   -0.011669931789781898
-0.03818169578068444   -0.4362824262349143   -0.011102822319886546
-0.038459372324187335   -0.4367564216955889   -0.011144752894483892
-0.03791874664570235   -0.4713738282704324   -0.01275175766367017
-0.05838191135702951   -0.43582882516427107   -0.011669931789781898
-0.038459372324187335   -0.4367564216955889   -0.011144752894483892
-0.050901730876773146   -0.47139632031335055   -0.013772143419231024
-0.03791874664570235   -0.4713738282704324   -0.01275175766367017
-0.03818169578068444   -0.4362824262349143   -0.011102822319886546
-0.0502505679342043   -0.47108205811532927   -0.013194687960517568
-0.03733536732008135   -0.4712922858987104   -0.012681566552309733
-0.03818169578068444   -0.4362824262349143   -0.011102822319886546
-0.05838191135702951   -0.43582882516427107   -0.011669931789781898
-0.0502505679342043   -0.47108205811532927   -0.013194687960517568
-0.058085959015411935   -0.4356981558670821   -0.011110818276742514
-0.03733536732008135   -0.4712922858987104   -0.012681566552309733
-0.04959621320271177   -0.47105446986114846   -0.01255908734769119
-0.058085959015411935   -0.4356981558670821   -0.011110818276742514
-0.0502505679342043   -0.47108205811532927   -0.013194687960517568
-0.03733536732008135   -0.4712922858987104   -0.012681566552309733
-0.058085959015411935   -0.4356981558670821   -0.011110818276742514
-0.037938768573723   -0.43606481257134844   -0.0110089867773729
-0.03818169578068444   -0.4362824262349143   -0.011102822319886546
-0.03733536732008135   -0.4712922858987104   -0.012681566552309733
-0.058085959015411935   -0.4356981558670821   -0.011110818276742514
-0.03818169578068444   -0.4362824262349143   -0.011102822319886546
-0.0502505679342043   -0.47108205811532927   -0.013194687960517568
-0.05148194354118909   -0.47202839020473397   -0.01429777581511056
-0.05893750111707847   -0.43683946165759174   -0.012628435240315507
-0.0650862036511701   -0.470567442162667   -0.01573287730737343
-0.050901730876773146   -0.47139632031335055   -0.013772143419231024
-0.05893750111707847   -0.43683946165759174   -0.012628435240315507
-0.08012090331875633   -0.43536014059042366   -0.013958060184897071
-0.0650862036511701   -0.470567442162667   -0.01573287730737343
-0.07979360438719606   -0.4348223019488595   -0.013039963945705132
-0.050901730876773146   -0.47139632031335055   -0.013772143419231024
-0.06437732874416191   -0.4700161591188767   -0.014659126001052862
-0.07979360438719606   -0.4348223019488595   -0.013039963945705132
-0.0650862036511701   -0.470567442162667   -0.01573287730737343
-0.050901730876773146   -0.47139632031335055   -0.013772143419231024
-0.07979360438719606   -0.4348223019488595   -0.013039963945705132
-0.058685876722164625   -0.436205178234008   -0.012176365547201676
-0.05893750111707847   -0.43683946165759174   -0.012628435240315507
-0.050901730876773146   -0.47139632031335055   -0.013772143419231024
-0.07979360438719606   -0.4348223019488595   -0.013039963945705132
-0.05893750111707847   -0.43683946165759174   -0.012628435240315507
-0.0650862036511701   -0.470567442162667   -0.01573287730737343
-0.050901730876773146   -0.47139632031335055   -0.013772143419231024
-0.058685876722164625   -0.436205178234008   -0.012176365547201676
-0.06437732874416191   -0.4700161591188767   -0.014659126001052862
-0.0502505679342043   -0.47108205811532927   -0.013194687960517568
-0.058685876722164625   -0.436205178234008   -0.012176365547201676
-0.07979360438719606   -0.4348223019488595   -0.013039963945705132
-0.06437732874416191   -0.4700161591188767   -0.014659126001052862
-0.07923952875997088   -0.4345344809519292   -0.012075791610880314
-0.0502505679342043   -0.47108205811532927   -0.013194687960517568
-0.06339994149402495   -0.4697762719054095   -0.013537215890906
-0.07923952875997088   -0.4345344809519292   -0.012075791610880314
-0.06437732874416191   -0.4700161591188767   -0.014659126001052862
-0.0502505679342043   -0.47108205811532927   -0.013194687960517568
-0.07923952875997088   -0.4345344809519292   -0.012075791610880314
-0.05838191135702951   -0.43582882516427107   -0.011669931789781898
-0.058685876722164625   -0.436205178234008   -0.012176365547201676
-0.0502505679342043   -0.47108205811532927   -0.013194687960517568
-0.07923952875997088   -0.4345344809519292   -0.012075791610880314
-0.058685876722164625   -0.436205178234008   -0.012176365547201676
-0.06437732874416191   -0.4700161591188767   -0.014659126001052862
-0.0502505679342043   -0.47108205811532927   -0.013194687960517568
-0.05838191135702951   -0.43582882516427107   -0.011669931789781898
-0.06339994149402495   -0.4697762719054095   -0.013537215890906
-0.04959621320271177   -0.47105446986114846   -0.01255908734769119
-0.05838191135702951   -0.43582882516427107   -0.011669931789781898
-0.07923952875997088   -0.4345344809519292   -0.012075791610880314
-0.06339994149402495   -0.4697762719054095   -0.013537215890906
-0.07878783100354167   -0.4345115858101736   -0.011051315042137012
-0.04959621320271177   -0.47105446986114846   -0.01255908734769119
-0.06254456745135717   -0.46984827790560163   -0.012335517648968872
-0.07878783100354167   -0.4345115858101736   -0.011051315042137012
-0.06339994149402495   -0.4697762719054095   -0.013537215890906
-0.04959621320271177   -0.47105446986114846   -0.01255908734769119
-0.07878783100354167   -0.4345115858101736   -0.011051315042137012
-0.058085959015411935   -0.4356981558670821   -0.011110818276742514
-0.05838191135702951   -0.43582882516427107   -0.011669931789781898
-0.04959621320271177   -0.47105446986114846   -0.01255908734769119
-0.07878783100354167   -0.4345115858101736   -0.011051315042137012
-0.05838191135702951   -0.43582882516427107   -0.011669931789781898
-0.06339994149402495   -0.4697762719054095   -0.013537215890906
-0.0650862036511701   -0.470567442162667   -0.01573287730737343
-0.08012090331875633   -0.43536014059042366   -0.013958060184897071
-0.08260727529511716   -0.46819148296795843   -0.017104329305738023
-0.06437732874416191   -0.4700161591188767   -0.014659126001052862
-0.08012090331875633   -0.43536014059042366   -0.013958060184897071
-0.10482883144663106   -0.4332346223141457   -0.01519355712958764
-0.08260727529511716   -0.46819148296795843   -0.017104329305738023
-0.10316648792936133   -0.43267564326784347   -0.013757489935800104
-0.06437732874416191   -0.4700161591188767   -0.014659126001052862
-0.08034421174849121   -0.4675963426410326   -0.01540969734141296
-0.10316648792936133   -0.43267564326784347   -0.013757489935800104
-0.08260727529511716   -0.46819148296795843   -0.017104329305738023
-0.06437732874416191   -0.4700161591188767   -0.014659126001052862
-0.10316648792936133   -0.43267564326784347   -0.013757489935800104
-0.07979360438719606   -0.4348223019488595   -0.013039963945705132
-0.08012090331875633   -0.43536014059042366   -0.013958060184897071
-0.06437732874416191   -0.4700161591188767   -0.014659126001052862
-0.10316648792936133   -0.43267564326784347   -0.013757489935800104
-0.08012090331875633   -0.43536014059042366   -0.013958060184897071
-0.08260727529511716   -0.46819148296795843   -0.017104329305738023
-0.06437732874416191   -0.4700161591188767   -0.014659126001052862
-0.07979360438719606   -0.4348223019488595   -0.013039963945705132
-0.08034421174849121   -0.4675963426410326   -0.01540969734141296
-0.06339994149402495   -0.4697762719054095   -0.013537215890906
-0.07979360438719606   -0.4348223019488595   -0.013039963945705132
-0.10316648792936133   -0.43267564326784347   -0.013757489935800104
-0.08034421174849121   -0.4675963426410326   -0.01540969734141296
-0.10172104182386113   -0.4324118424881136   -0.012245647501450851
-0.06339994149402495   -0.4697762719054095   -0.013537215890906
-0.07831159106784753   -0.4673744533752291   -0.013614381111061578
-0.10172104182386113   -0.4324118424881136   -0.012245647501450851
-0.08034421174849121   -0.4675963426410326   -0.01540969734141296
-0.06339994149402495   -0.4697762719054095   -0.013537215890906
-0.10172104182386113   -0.4324118424881136   -0.012245647501450851
-0.07923952875997088   -0.4345344809519292   -0.012075791610880314
-0.07979360438719606   -0.4348223019488595   -0.013039963945705132
-0.06339994149402495   -0.4697762719054095   -0.013537215890906
-0.10172104182386113   -0.4324118424881136   -0.012245647501450851
-0.07979360438719606   -0.4348223019488595   -0.013039963945705132
-0.08034421174849121   -0.4675963426410326   -0.01540969734141296
-0.06339994149402495   -0.4697762719054095   -0.013537215890906
-0.07923952875997088   -0.4345344809519292   -0.012075791610880314
-0.07831159106784753   -0.4673744533752291   -0.013614381111061578
-0.06254456745135717   -0.46984827790560163   -0.012335517648968872
-0.07923952875997088   -0.4345344809519292   -0.012075791610880314
-0.10172104182386113   -0.4324118424881136   -0.012245647501450851
-0.07831159106784753   -0.4673744533752291   -0.013614381111061578
-0.09977249170731156   -0.43255362008378895   -0.010667700629138643
-0.06254456745135717   -0.46984827790560163   -0.012335517648968872
-0.07567668553309766   -0.4676389599808338   -0.011735601788918743
-0.09977249170731156   -0.43255362008378895   -0.010667700629138643
-0.07831159106784753   -0.4673744533752291   -0.013614381111061578
-0.06254456745135717   -0.46984827790560163   -0.012335517648968872
-0.09977249170731156   -0.43255362008378895   -0.010667700629138643
-0.07878783100354167   -0.4345115858101736   -0.011051315042137012
-0.07923952875997088   -0.4345344809519292   -0.012075791610880314
-0.06254456745135717   -0.46984827790560163   -0.012335517648968872
-0.09977249170731156   -0.43255362008378895   -0.010667700629138643
-0.07923952875997088   -0.4345344809519292   -0.012075791610880314
-0.07831159106784753   -0.4673744533752291   -0.013614381111061578
0.003056102832421971   -0.4362458575026979   -0.007464367726487858
0.015943822246678122   -0.38984400128573377   -0.005691068278797963
-0.018194128220405687   -0.4372917309327826   -0.00947281770198726
0.00443116127467968   -0.4352217407081651   -0.008580860985494047
0.015943822246678122   -0.38984400128573377   -0.005691068278797963
-0.012121862577775356   -0.3905310326766791   -0.007607440808896459
-0.018194128220405687   -0.4372917309327826   -0.00947281770198726
-0.012047970608047234   -0.3896806392105251   -0.007945788802647976
0.00443116127467968   -0.4352217407081651   -0.008580860985494047
-0.017827721350273856   -0.4364366859531991   -0.009963649428097356
-0.012047970608047234   -0.3896806392105251   -0.007945788802647976
-0.018194128220405687   -0.4372917309327826   -0.00947281770198726
0.00443116127467968   -0.4352217407081651   -0.008580860985494047
-0.012047970608047234   -0.3896806392105251   -0.007945788802647976
0.01675332078901997   -0.3888452380157472   -0.006512638779456535
0.015943822246678122   -0.38984400128573377   -0.005691068278797963
0.00443116127467968   -0.4352217407081651   -0.008580860985494047
-0.012047970608047234   -0.3896806392105251   -0.007945788802647976
0.015943822246678122   -0.38984400128573377   -0.005691068278797963
-0.018194128220405687   -0.4372917309327826   -0.00947281770198726
0.00443116127467968   -0.4352217407081651   -0.008580860985494047
0.01675332078901997   -0.3888452380157472   -0.006512638779456535
-0.017827721350273856   -0.4364366859531991   -0.009963649428097356
0.005441938756942365   -0.43462377746768316   -0.009616171413456378
0.01675332078901997   -0.3888452380157472   -0.006512638779456535
-0.012047970608047234   -0.3896806392105251   -0.007945788802647976
-0.017827721350273856   -0.4364366859531991   -0.009963649428097356
-0.011954353344533798   -0.38905909656456666   -0.00823133425733368
0.005441938756942365   -0.43462377746768316   -0.009616171413456378
-0.017411627165365522   -0.4358729535326819   -0.010396475170327178
-0.011954353344533798   -0.38905909656456666   -0.00823133425733368
-0.017827721350273856   -0.4364366859531991   -0.009963649428097356
0.005441938756942365   -0.43462377746768316   -0.009616171413456378
-0.011954353344533798   -0.38905909656456666   -0.00823133425733368
0.017268937675166976   -0.38818382987328304   -0.007259639037088767
0.01675332078901997   -0.3888452380157472   -0.006512638779456535
0.005441938756942365   -0.43462377746768316   -0.009616171413456378
-0.011954353344533798   -0.38905909656456666   -0.00823133425733368
0.01675332078901997   -0.3888452380157472   -0.006512638779456535
-0.017827721350273856   -0.4364366859531991   -0.009963649428097356
0.005441938756942365   -0.43462377746768316   -0.009616171413456378
0.017268937675166976   -0.38818382987328304   -0.007259639037088767
-0.017411627165365522   -0.4358729535326819   -0.010396475170327178
0.006520882470120188   -0.4343196733550562   -0.010569850489030625
0.017268937675166976   -0.38818382987328304   -0.007259639037088767
-0.011954353344533798   -0.38905909656456666   -0.00823133425733368
-0.017411627165365522   -0.4358729535326819   -0.010396475170327178
-0.012003271452430894   -0.3886467989555408   -0.0084679368056946
0.006520882470120188   -0.4343196733550562   -0.010569850489030625
-0.01716300018581441   -0.43558403664089457   -0.010777014194252504
-0.012003271452430894   -0.3886467989555408   -0.0084679368056946
-0.017411627165365522   -0.4358729535326819   -0.010396475170327178
0.006520882470120188   -0.4343196733550562   -0.010569850489030625
-0.012003271452430894   -0.3886467989555408   -0.0084679368056946
0.01779536111048297   -0.3877332148658813   -0.007933588438272514
0.017268937675166976   -0.38818382987328304   -0.007259639037088767
0.006520882470120188   -0.4343196733550562   -0.010569850489030625
-0.012003271452430894   -0.3886467989555408   -0.0084679368056946
0.017268937675166976   -0.38818382987328304   -0.007259639037088767
-0.017411627165365522   -0.4358729535326819   -0.010396475170327178
-0.018194128220405687   -0.4372917309327826   -0.00947281770198726
-0.012121862577775356   -0.3905310326766791   -0.007607440808896459
-0.038729554670326356   -0.43749124083772833   -0.01113115641403257
-0.017827721350273856   -0.4364366859531991   -0.009963649428097356
-0.012121862577775356   -0.3905310326766791   -0.007607440808896459
-0.03911110983494305   -0.39053235917560175   -0.00919233953717185
-0.038729554670326356   -0.43749124083772833   -0.01113115641403257
-0.039115715142164935   -0.38981142374797156   -0.009160527633275873
-0.017827721350273856   -0.4364366859531991   -0.009963649428097356
-0.038459372324187335   -0.4367564216955889   -0.011144752894483892
-0.039115715142164935   -0.38981142374797156   -0.009160527633275873
-0.038729554670326356   -0.43749124083772833   -0.01113115641403257
-0.017827721350273856   -0.4364366859531991   -0.009963649428097356
-0.039115715142164935   -0.38981142374797156   -0.009160527633275873
-0.012047970608047234   -0.3896806392105251   -0.007945788802647976
-0.012121862577775356   -0.3905310326766791   -0.007607440808896459
-0.017827721350273856   -0.4364366859531991   -0.009963649428097356
-0.039115715142164935   -0.38981142374797156   -0.009160527633275873
-0.012121862577775356   -0.3905310326766791   -0.007607440808896459
-0.038729554670326356   -0.43749124083772833   -0.01113115641403257
-0.017827721350273856   -0.4364366859531991   -0.009963649428097356
-0.012047970608047234   -0.3896806392105251   -0.007945788802647976
-0.038459372324187335   -0.4367564216955889   -0.011144752894483892
-0.017411627165365522   -0.4358729535326819   -0.010396475170327178
-0.012047970608047234   -0.3896806392105251   -0.007945788802647976
-0.039115715142164935   -0.38981142374797156   -0.009160527633275873
-0.038459372324187335   -0.4367564216955889   -0.011144752894483892
-0.03911858384989161   -0.38929231381126195   -0.009076171973142606
-0.017411627165365522   -0.4358729535326819   -0.010396475170327178
-0.03818169578068444   -0.4362824262349143   -0.011102822319886546
-0.03911858384989161   -0.38929231381126195   -0.009076171973142606
-0.038459372324187335   -0.4367564216955889   -0.011144752894483892
-0.017411627165365522   -0.4358729535326819   -0.010396475170327178
-0.03911858384989161   -0.38929231381126195   -0.009076171973142606
-0.011954353344533798   -0.38905909656456666   -0.00823133425733368
-0.012047970608047234   -0.3896806392105251   -0.007945788802647976
-0.017411627165365522   -0.4358729535326819   -0.010396475170327178
-0.03911858384989161   -0.38929231381126195   -0.009076171973142606
-0.012047970608047234   -0.3896806392105251   -0.007945788802647976
-0.038459372324187335   -0.4367564216955889   -0.011144752894483892
-0.017411627165365522   -0.4358729535326819   -0.010396475170327178
-0.011954353344533798   -0.38905909656456666   -0.00823133425733368
-0.03818169578068444   -0.4362824262349143   -0.011102822319886546
-0.01716300018581441   -0.43558403664089457   -0.010777014194252504
-0.011954353344533798   -0.38905909656456666   -0.00823133425733368
-0.03911858384989161   -0.38929231381126195   -0.009076171973142606
-0.03818169578068444   -0.4362824262349143   -0.011102822319886546
-0.03915766950864906   -0.3889753636585919   -0.008941928964437048
-0.01716300018581441   -0.43558403664089457   -0.010777014194252504
-0.037938768573723   -0.43606481257134844   -0.0110089867773729
-0.03915766950864906   -0.3889753636585919   -0.008941928964437048
-0.03818169578068444   -0.4362824262349143   -0.011102822319886546
-0.01716300018581441   -0.43558403664089457   -0.010777014194252504
-0.03915766950864906   -0.3889753636585919   -0.008941928964437048
-0.012003271452430894   -0.3886467989555408   -0.0084679368056946
-0.011954353344533798   -0.38905909656456666   -0.00823133425733368
-0.01716300018581441   -0.43558403664089457   -0.010777014194252504
-0.03915766950864906   -0.3889753636585919   -0.008941928964437048
-0.011954353344533798   -0.38905909656456666   -0.00823133425733368
-0.03818169578068444   -0.4362824262349143   -0.011102822319886546
-0.038729554670326356   -0.43749124083772833   -0.01113115641403257
-0.03911110983494305   -0.39053235917560175   -0.00919233953717185
-0.05893750111707847   -0.43683946165759174   -0.012628435240315507
-0.038459372324187335   -0.4367564216955889   -0.011144752894483892
-0.03911110983494305   -0.39053235917560175   -0.00919233953717185
-0.06563756145770261   -0.38986235143038267   -0.010582053195071184
-0.05893750111707847   -0.43683946165759174   -0.012628435240315507
-0.06566198566260631   -0.38925560300689077   -0.010184488986683922
-0.038459372324187335   -0.4367564216955889   -0.011144752894483892
-0.058685876722164625   -0.436205178234008   -0.012176365547201676
-0.06566198566260631   -0.38925560300689077   -0.010184488986683922
-0.05893750111707847   -0.43683946165759174   -0.012628435240315507
-0.038459372324187335   -0.4367564216955889   -0.011144752894483892
-0.06566198566260631   -0.38925560300689077   -0.010184488986683922
-0.039115715142164935   -0.38981142374797156   -0.009160527633275873
-0.03911110983494305   -0.39053235917560175   -0.00919233953717185
-0.038459372324187335   -0.4367564216955889   -0.011144752894483892
-0.06566198566260631   -0.38925560300689077   -0.010184488986683922
-0.03911110983494305   -0.39053235917560175   -0.00919233953717185
-0.05893750111707847   -0.43683946165759174   -0.012628435240315507
-0.038459372324187335   -0.4367564216955889   -0.011144752894483892
-0.039115715142164935   -0.38981142374797156   -0.009160527633275873
-0.058685876722164625   -0.436205178234008   -0.012176365547201676
-0.03818169578068444   -0.4362824262349143   -0.011102822319886546
-0.039115715142164935   -0.38981142374797156   -0.009160527633275873
-0.06566198566260631   -0.38925560300689077   -0.010184488986683922
-0.058685876722164625   -0.436205178234008   -0.012176365547201676
-0.0656410810700245   -0.38884888807762674   -0.009735364176835154
-0.03818169578068444   -0.4362824262349143   -0.011102822319886546
-0.05838191135702951   -0.43582882516427107   -0.011669931789781898
-0.0656410810700245   -0.38884888807762674   -0.009735364176835154
-0.058685876722164625   -0.436205178234008   -0.012176365547201676
-0.03818169578068444   -0.4362824262349143   -0.011102822319886546
-0.0656410810700245   -0.38884888807762674   -0.009735364176835154
-0.03911858384989161   -0.38929231381126195   -0.009076171973142606
-0.039115715142164935   -0.38981142374797156   -0.009160527633275873
-0.03818169578068444   -0.4362824262349143   -0.011102822319886546
-0.0656410810700245   -0.38884888807762674   -0.009735364176835154
-0.039115715142164935   -0.38981142374797156   -0.009160527633275873
-0.058685876722164625   -0.436205178234008   -0.012176365547201676
-0.03818169578068444   -0.4362824262349143   -0.011102822319886546
-0.03911858384989161   -0.38929231381126195   -0.009076171973142606
-0.05838191135702951   -0.43582882516427107   -0.011669931789781898
-0.037938768573723   -0.43606481257134844   -0.0110089867773729
-0.03911858384989161   -0.38929231381126195   -0.009076171973142606
-0.0656410810700245   -0.38884888807762674   -0.009735364176835154
-0.05838191135702951   -0.43582882516427107   -0.011669931789781898
-0.06562818538103193   -0.3886386249579763   -0.009236200171226196
-0.037938768573723   -0.43606481257134844   -0.0110089867773729
-0.058085959015411935   -0.4356981558670821   -0.011110818276742514
-0.06562818538103193   -0.3886386249579763   -0.009236200171226196
-0.05838191135702951   -0.43582882516427107   -0.011669931789781898
-0.037938768573723   -0.43606481257134844   -0.0110089867773729
-0.06562818538103193   -0.3886386249579763   -0.009236200171226196
-0.03915766950864906   -0.3889753636585919   -0.008941928964437048
-0.03911858384989161   -0.38929231381126195   -0.009076171973142606
-0.037938768573723   -0.43606481257134844   -0.0110089867773729
-0.06562818538103193   -0.3886386249579763   -0.009236200171226196
-0.03911858384989161   -0.38929231381126195   -0.009076171973142606
-0.05838191135702951   -0.43582882516427107   -0.011669931789781898
-0.05893750111707847   -0.43683946165759174   -0.012628435240315507
-0.06563756145770261   -0.38986235143038267   -0.010582053195071184
-0.08012090331875633   -0.43536014059042366   -0.013958060184897071
-0.058685876722164625   -0.436205178234008   -0.012176365547201676
-0.06563756145770261   -0.38986235143038267   -0.010582053195071184
-0.09299372466084237   -0.38854691658508833   -0.011778536096324645
-0.08012090331875633   -0.43536014059042366   -0.013958060184897071
-0.09296327473447308   -0.38804990254154553   -0.011010993223592565
-0.058685876722164625   -0.436205178234008   -0.012176365547201676
-0.07979360438719606   -0.4348223019488595   -0.013039963945705132
-0.09296327473447308   -0.38804990254154553   -0.011010993223592565
-0.08012090331875633   -0.43536014059042366   -0.013958060184897071
-0.058685876722164625   -0.436205178234008   -0.012176365547201676
-0.09296327473447308   -0.38804990254154553   -0.011010993223592565
-0.06566198566260631   -0.38925560300689077   -0.010184488986683922
-0.06563756145770261   -0.38986235143038267   -0.010582053195071184
-0.058685876722164625   -0.436205178234008   -0.012176365547201676
-0.09296327473447308   -0.38804990254154553   -0.011010993223592565
-0.06563756145770261   -0.38986235143038267   -0.010582053195071184
-0.08012090331875633   -0.43536014059042366   -0.013958060184897071
-0.058685876722164625   -0.436205178234008   -0.012176365547201676
-0.06566198566260631   -0.38925560300689077   -0.010184488986683922
-0.07979360438719606   -0.4348223019488595   -0.013039963945705132
-0.05838191135702951   -0.43582882516427107   -0.011669931789781898
-0.06566198566260631   -0.38925560300689077   -0.010184488986683922
-0.09296327473447308   -0.38804990254154553   -0.011010993223592565
-0.07979360438719606   -0.4348223019488595   -0.013039963945705132
-0.0927362825390383   -0.38774507875358455   -0.010199637620865393
-0.05838191135702951   -0.43582882516427107   -0.011669931789781898
-0.07923952875997088   -0.4345344809519292   -0.012075791610880314
-0.0927362825390383   -0.38774507875358455   -0.010199637620865393
-0.07979360438719606   -0.4348223019488595   -0.013039963945705132
-0.05838191135702951   -0.43582882516427107   -0.011669931789781898
-0.0927362825390383   -0.38774507875358455   -0.010199637620865393
-0.0656410810700245   -0.38884888807762674   -0.009735364176835154
-0.06566198566260631   -0.38925560300689077   -0.010184488986683922
-0.05838191135702951   -0.43582882516427107   -0.011669931789781898
-0.0927362825390383   -0.38774507875358455   -0.010199637620865393
-0.06566198566260631   -0.38925560300689077   -0.010184488986683922
-0.07979360438719606   -0.4348223019488595   -0.013039963945705132
-0.05838191135702951   -0.43582882516427107   -0.011669931789781898
-0.0656410810700245   -0.38884888807762674   -0.009735364176835154
-0.07923952875997088   -0.4345344809519292   -0.012075791610880314
-0.058085959015411935   -0.4356981558670821   -0.011110818276742514
-0.0656410810700245   -0.38884888807762674   -0.009735364176835154
-0.0927362825390383   -0.38774507875358455   -0.010199637620865393
-0.07923952875997088   -0.4345344809519292   -0.012075791610880314
-0.09258400961132442   -0.38765314326620093   -0.009334261137378766
-0.058085959015411935   -0.4356981558670821   -0.011110818276742514
-0.07878783100354167   -0.4345115858101736   -0.011051315042137012
-0.09258400961132442   -0.38765314326620093   -0.009334261137378766
-0.07923952875997088   -0.4345344809519292   -0.012075791610880314
-0.058085959015411935   -0.4356981558670821   -0.011110818276742514
-0.09258400961132442   -0.38765314326620093   -0.009334261137378766
-0.06562818538103193   -0.3886386249579763   -0.009236200171226196
-0.0656410810700245   -0.38884888807762674   -0.009735364176835154
-0.058085959015411935   -0.4356981558670821   -0.011110818276742514
-0.09258400961132442   -0.38765314326620093   -0.009334261137378766
-0.0656410810700245   -0.38884888807762674   -0.009735364176835154
-0.07923952875997088   -0.4345344809519292   -0.012075791610880314
-0.08012090331875633   -0.43536014059042366   -0.013958060184897071
-0.09299372466084237   -0.38854691658508833   -0.011778536096324645
-0.10482883144663106   -0.4332346223141457   -0.01519355712958764
-0.07979360438719606   -0.4348223019488595   -0.013039963945705132
-0.09299372466084237   -0.38854691658508833   -0.011778536096324645
-0.12354903743918594   -0.3867387009714424   -0.012855061154125269
-0.10482883144663106   -0.4332346223141457   -0.01519355712958764
-0.12241947769579684   -0.38625210294803547   -0.011682304064027866
-0.07979360438719606   -0.4348223019488595   -0.013039963945705132
-0.10316648792936133   -0.43267564326784347   -0.013757489935800104
-0.12241947769579684   -0.38625210294803547   -0.011682304064027866
-0.10482883144663106   -0.4332346223141457   -0.01519355712958764
-0.07979360438719606   -0.4348223019488595   -0.013039963945705132
-0.12241947769579684   -0.38625210294803547   -0.011682304064027866
-0.09296327473447308   -0.38804990254154553   -0.011010993223592565
-0.09299372466084237   -0.38854691658508833   -0.011778536096324645
-0.07979360438719606   -0.4348223019488595   -0.013039963945705132
-0.12241947769579684   -0.38625210294803547   -0.011682304064027866
-0.09299372466084237   -0.38854691658508833   -0.011778536096324645
-0.10482883144663106   -0.4332346223141457   -0.01519355712958764
-0.07979360438719606   -0.4348223019488595   -0.013039963945705132
-0.09296327473447308   -0.38804990254154553   -0.011010993223592565
-0.10316648792936133   -0.43267564326784347   -0.013757489935800104
-0.07923952875997088   -0.4345344809519292   -0.012075791610880314
-0.09296327473447308   -0.38804990254154553   -0.011010993223592565
-0.12241947769579684   -0.38625210294803547   -0.011682304064027866
-0.10316648792936133   -0.43267564326784347   -0.013757489935800104
-0.12145171961693838   -0.38598437195770385   -0.010436068749434669
-0.07923952875997088   -0.4345344809519292   -0.012075791610880314
-0.10172104182386113   -0.4324118424881136   -0.012245647501450851
-0.12145171961693838   -0.38598437195770385   -0.010436068749434669
-0.10316648792936133   -0.43267564326784347   -0.013757489935800104
-0.07923952875997088   -0.4345344809519292   -0.012075791610880314
-0.12145171961693838   -0.38598437195770385   -0.010436068749434669
-0.0927362825390383   -0.38774507875358455   -0.010199637620865393
-0.09296327473447308   -0.38804990254154553   -0.011010993223592565
-0.07923952875997088   -0.4345344809519292   -0.012075791610880314
-0.12145171961693838   -0.38598437195770385   -0.010436068749434669
-0.09296327473447308   -0.38804990254154553   -0.011010993223592565
-0.10316648792936133   -0.43267564326784347   -0.013757489935800104
-0.07923952875997088   -0.4345344809519292   -0.012075791610880314
-0.0927362825390383   -0.38774507875358455   -0.010199637620865393
-0.10172104182386113   -0.4324118424881136   -0.012245647501450851
-0.07878783100354167   -0.4345115858101736   -0.011051315042137012
-0.0927362825390383   -0.38774507875358455   -0.010199637620865393
-0.12145171961693838   -0.38598437195770385   -0.010436068749434669
-0.10172104182386113   -0.4324118424881136   -0.012245647501450851
-0.1200526882530311   -0.38605496150685237   -0.009126350249721847
-0.07878783100354167   -0.4345115858101736   -0.011051315042137012
-0.09977249170731156   -0.43255362008378895   -0.010667700629138643
-0.1200526882530311   -0.38605496150685237   -0.009126350249721847
-0.10172104182386113   -0.4324118424881136   -0.012245647501450851
-0.07878783100354167   -0.4345115858101736   -0.011051315042137012
-0.1200526882530311   -0.38605496150685237   -0.009126350249721847
-0.09258400961132442   -0.38765314326620093   -0.009334261137378766
-0.0927362825390383   -0.38774507875358455   -0.010199637620865393
-0.07878783100354167   -0.4345115858101736   -0.011051315042137012
-0.1200526882530311   -0.38605496150685237   -0.009126350249721847
-0.0927362825390383   -0.38774507875358455   -0.010199637620865393
-0.10172104182386113   -0.4324118424881136   -0.012245647501450851
0.015943822246678122   -0.38984400128573377   -0.005691068278797963
0.024769611846288814   -0.33416193323992305   -0.0037883769102111404
-0.012121862577775356   -0.3905310326766791   -0.007607440808896459
0.01675332078901997   -0.3888452380157472   -0.006512638779456535
0.024769611846288814   -0.33416193323992305   -0.0037883769102111404
-0.008463054935065202   -0.33449505301757415   -0.005591771835644633
-0.012121862577775356   -0.3905310326766791   -0.007607440808896459
-0.008623745125272907   -0.3336650641423209   -0.005771970338361342
0.01675332078901997   -0.3888452380157472   -0.006512638779456535
-0.012047970608047234   -0.3896806392105251   -0.007945788802647976
-0.008623745125272907   -0.3336650641423209   -0.005771970338361342
-0.012121862577775356   -0.3905310326766791   -0.007607440808896459
0.01675332078901997   -0.3888452380157472   -0.006512638779456535
-0.008623745125272907   -0.3336650641423209   -0.005771970338361342
0.025080659223847838   -0.33319975165276466   -0.004322461134898984
0.024769611846288814   -0.33416193323992305   -0.0037883769102111404
0.01675332078901997   -0.3888452380157472   -0.006512638779456535
-0.008623745125272907   -0.3336650641423209   -0.005771970338361342
0.024769611846288814   -0.33416193323992305   -0.0037883769102111404
-0.012121862577775356   -0.3905310326766791   -0.007607440808896459
0.01675332078901997   -0.3888452380157472   -0.006512638779456535
0.025080659223847838   -0.33319975165276466   -0.004322461134898984
-0.012047970608047234   -0.3896806392105251   -0.007945788802647976
0.017268937675166976   -0.38818382987328304   -0.007259639037088767
0.025080659223847838   -0.33319975165276466   -0.004322461134898984
-0.008623745125272907   -0.3336650641423209   -0.005771970338361342
-0.012047970608047234   -0.3896806392105251   -0.007945788802647976
-0.008793155933415198   -0.3330038108199004   -0.005905247347726697
0.017268937675166976   -0.38818382987328304   -0.007259639037088767
-0.011954353344533798   -0.38905909656456666   -0.00823133425733368
-0.008793155933415198   -0.3330038108199004   -0.005905247347726697
-0.012047970608047234   -0.3896806392105251   -0.007945788802647976
0.017268937675166976   -0.38818382987328304   -0.007259639037088767
-0.008793155933415198   -0.3330038108199004   -0.005905247347726697
0.025168843092131937   -0.33249271023700366   -0.004787375061627277
0.025080659223847838   -0.33319975165276466   -0.004322461134898984
0.017268937675166976   -0.38818382987328304   -0.007259639037088767
-0.008793155933415198   -0.3330038108199004   -0.005905247347726697
0.025080659223847838   -0.33319975165276466   -0.004322461134898984
-0.012047970608047234   -0.3896806392105251   -0.007945788802647976
0.017268937675166976   -0.38818382987328304   -0.007259639037088767
0.025168843092131937   -0.33249271023700366   -0.004787375061627277
-0.011954353344533798   -0.38905909656456666   -0.00823133425733368
0.01779536111048297   -0.3877332148658813   -0.007933588438272514
0.025168843092131937   -0.33249271023700366   -0.004787375061627277
-0.008793155933415198   -0.3330038108199004   -0.005905247347726697
-0.011954353344533798   -0.38905909656456666   -0.00823133425733368
-0.00907766458605074   -0.3324908702930974   -0.005993201447399137
0.01779536111048297   -0.3877332148658813   -0.007933588438272514
-0.012003271452430894   -0.3886467989555408   -0.0084679368056946
-0.00907766458605074   -0.3324908702930974   -0.005993201447399137
-0.011954353344533798   -0.38905909656456666   -0.00823133425733368
0.01779536111048297   -0.3877332148658813   -0.007933588438272514
-0.00907766458605074   -0.3324908702930974   -0.005993201447399137
0.025211237680551314   -0.33191833879517735   -0.005186364920815077
0.025168843092131937   -0.33249271023700366   -0.004787375061627277
0.01779536111048297   -0.3877332148658813   -0.007933588438272514
-0.00907766458605074   -0.3324908702930974   -0.005993201447399137
0.025168843092131937   -0.33249271023700366   -0.004787375061627277
-0.011954353344533798   -0.38905909656456666   -0.00823133425733368
-0.012121862577775356   -0.3905310326766791   -0.007607440808896459
-0.008463054935065202   -0.33449505301757415   -0.005591771835644633
-0.03911110983494305   -0.39053235917560175   -0.00919233953717185
-0.012047970608047234   -0.3896806392105251   -0.007945788802647976
-0.008463054935065202   -0.33449505301757415   -0.005591771835644633
-0.04030503659053919   -0.33431747778164633   -0.007082075247677615
-0.03911110983494305   -0.39053235917560175   -0.00919233953717185
-0.0405249971374943   -0.3336218130263503   -0.006996045834121808
-0.012047970608047234   -0.3896806392105251   -0.007945788802647976
-0.039115715142164935   -0.38981142374797156   -0.009160527633275873
-0.0405249971374943   -0.3336218130263503   -0.006996045834121808
-0.03911110983494305   -0.39053235917560175   -0.00919233953717185
-0.012047970608047234   -0.3896806392105251   -0.007945788802647976
-0.0405249971374943   -0.3336218130263503   -0.006996045834121808
-0.008623745125272907   -0.3336650641423209   -0.005771970338361342
-0.008463054935065202   -0.33449505301757415   -0.005591771835644633
-0.012047970608047234   -0.3896806392105251   -0.007945788802647976
-0.0405249971374943   -0.3336218130263503   -0.006996045834121808
-0.008463054935065202   -0.33449505301757415   -0.005591771835644633
-0.03911110983494305   -0.39053235917560175   -0.00919233953717185
-0.012047970608047234   -0.3896806392105251   -0.007945788802647976
-0.008623745125272907   -0.3336650641423209   -0.005771970338361342
-0.039115715142164935   -0.38981142374797156   -0.009160527633275873
-0.011954353344533798   -0.38905909656456666   -0.00823133425733368
-0.008623745125272907   -0.3336650641423209   -0.005771970338361342
-0.0405249971374943   -0.3336218130263503   -0.006996045834121808
-0.039115715142164935   -0.38981142374797156   -0.009160527633275873
-0.04074795112397958   -0.3330708435112491   -0.0068617631864063625
-0.011954353344533798   -0.38905909656456666   -0.00823133425733368
-0.03911858384989161   -0.38929231381126195   -0.009076171973142606
-0.04074795112397958   -0.3330708435112491   -0.0068617631864063625
-0.039115715142164935   -0.38981142374797156   -0.009160527633275873
-0.011954353344533798   -0.38905909656456666   -0.00823133425733368
-0.04074795112397958   -0.3330708435112491   -0.0068617631864063625
-0.008793155933415198   -0.3330038108199004   -0.005905247347726697
-0.008623745125272907   -0.3336650641423209   -0.005771970338361342
-0.011954353344533798   -0.38905909656456666   -0.00823133425733368
-0.04074795112397958   -0.3330708435112491   -0.0068617631864063625
-0.008623745125272907   -0.3336650641423209   -0.005771970338361342
-0.039115715142164935   -0.38981142374797156   -0.009160527633275873
-0.011954353344533798   -0.38905909656456666   -0.00823133425733368
-0.008793155933415198   -0.3330038108199004   -0.005905247347726697
-0.03911858384989161   -0.38929231381126195   -0.009076171973142606
-0.012003271452430894   -0.3886467989555408   -0.0084679368056946
-0.008793155933415198   -0.3330038108199004   -0.005905247347726697
-0.04074795112397958   -0.3330708435112491   -0.0068617631864063625
-0.03911858384989161   -0.38929231381126195   -0.009076171973142606
-0.041005197090494876   -0.33266705306557376   -0.006681488828080065
-0.012003271452430894   -0.3886467989555408   -0.0084679368056946
-0.03915766950864906   -0.3889753636585919   -0.008941928964437048
-0.041005197090494876   -0.33266705306557376   -0.006681488828080065
-0.03911858384989161   -0.38929231381126195   -0.009076171973142606
-0.012003271452430894   -0.3886467989555408   -0.0084679368056946
-0.041005197090494876   -0.33266705306557376   -0.006681488828080065
-0.00907766458605074   -0.3324908702930974   -0.005993201447399137
-0.008793155933415198   -0.3330038108199004   -0.005905247347726697
-0.012003271452430894   -0.3886467989555408   -0.0084679368056946
-0.041005197090494876   -0.33266705306557376   -0.006681488828080065
-0.008793155933415198   -0.3330038108199004   -0.005905247347726697
-0.03911858384989161   -0.38929231381126195   -0.009076171973142606
-0.03911110983494305   -0.39053235917560175   -0.00919233953717185
-0.04030503659053919   -0.33431747778164633   -0.007082075247677615
-0.06563756145770261   -0.38986235143038267   -0.010582053195071184
-0.039115715142164935   -0.38981142374797156   -0.009160527633275873
-0.04030503659053919   -0.33431747778164633   -0.007082075247677615
-0.07160583793238016   -0.33365939593036503   -0.008359693300101478
-0.06563756145770261   -0.38986235143038267   -0.010582053195071184
-0.07184250972585879   -0.33308620401665057   -0.008008593469667886
-0.039115715142164935   -0.38981142374797156   -0.009160527633275873
-0.06566198566260631   -0.38925560300689077   -0.010184488986683922
-0.07184250972585879   -0.33308620401665057   -0.008008593469667886
-0.06563756145770261   -0.38986235143038267   -0.010582053195071184
-0.039115715142164935   -0.38981142374797156   -0.009160527633275873
-0.07184250972585879   -0.33308620401665057   -0.008008593469667886
-0.0405249971374943   -0.3336218130263503   -0.006996045834121808
-0.04030503659053919   -0.33431747778164633   -0.007082075247677615
-0.039115715142164935   -0.38981142374797156   -0.009160527633275873
-0.07184250972585879   -0.33308620401665057   -0.008008593469667886
-0.04030503659053919   -0.33431747778164633   -0.007082075247677615
-0.06563756145770261   -0.38986235143038267   -0.010582053195071184
-0.039115715142164935   -0.38981142374797156   -0.009160527633275873
-0.0405249971374943   -0.3336218130263503   -0.006996045834121808
-0.06566198566260631   -0.38925560300689077   -0.010184488986683922
-0.03911858384989161   -0.38929231381126195   -0.009076171973142606
-0.0405249971374943   -0.3336218130263503   -0.006996045834121808
-0.07184250972585879   -0.33308620401665057   -0.008008593469667886
-0.06566198566260631   -0.38925560300689077   -0.010184488986683922
-0.07203904633721805   -0.3326563155319304   -0.007610062809178813
-0.03911858384989161   -0.38929231381126195   -0.009076171973142606
-0.0656410810700245   -0.38884888807762674   -0.009735364176835154
-0.07203904633721805   -0.3326563155319304   -0.007610062809178813
-0.06566198566260631   -0.38925560300689077   -0.010184488986683922
-0.03911858384989161   -0.38929231381126195   -0.009076171973142606
-0.07203904633721805   -0.3326563155319304   -0.007610062809178813
-0.04074795112397958   -0.3330708435112491   -0.0068617631864063625
-0.0405249971374943   -0.3336218130263503   -0.006996045834121808
-0.03911858384989161   -0.38929231381126195   -0.009076171973142606
-0.07203904633721805   -0.3326563155319304   -0.007610062809178813
-0.0405249971374943   -0.3336218130263503   -0.006996045834121808
-0.06566198566260631   -0.38925560300689077   -0.010184488986683922
-0.03911858384989161   -0.38929231381126195   -0.009076171973142606
-0.04074795112397958   -0.3330708435112491   -0.0068617631864063625
-0.0656410810700245   -0.38884888807762674   -0.009735364176835154
-0.03915766950864906   -0.3889753636585919   -0.008941928964437048
-0.04074795112397958   -0.3330708435112491   -0.0068617631864063625
-0.07203904633721805   -0.3326563155319304   -0.007610062809178813
-0.0656410810700245   -0.38884888807762674   -0.009735364176835154
-0.07224114928156128   -0.33236915321773924   -0.007165518384887379
-0.03915766950864906   -0.3889753636585919   -0.008941928964437048
-0.06562818538103193   -0.3886386249579763   -0.009236200171226196
-0.07224114928156128   -0.33236915321773924   -0.007165518384887379
-0.0656410810700245   -0.38884888807762674   -0.009735364176835154
-0.03915766950864906   -0.3889753636585919   -0.008941928964437048
-0.07224114928156128   -0.33236915321773924   -0.007165518384887379
-0.041005197090494876   -0.33266705306557376   -0.006681488828080065
-0.04074795112397958   -0.3330708435112491   -0.0068617631864063625
-0.03915766950864906   -0.3889753636585919   -0.008941928964437048
-0.07224114928156128   -0.33236915321773924   -0.007165518384887379
-0.04074795112397958   -0.3330708435112491   -0.0068617631864063625
-0.0656410810700245   -0.38884888807762674   -0.009735364176835154
-0.06563756145770261   -0.38986235143038267   -0.010582053195071184
-0.07160583793238016   -0.33365939593036503   -0.008359693300101478
-0.09299372466084237   -0.38854691658508833   -0.011778536096324645
-0.06566198566260631   -0.38925560300689077   -0.010184488986683922
-0.07160583793238016   -0.33365939593036503   -0.008359693300101478
-0.10365148522386539   -0.33253417760043774   -0.009428946103842206
-0.09299372466084237   -0.38854691658508833   -0.011778536096324645
-0.10384844695281563   -0.3320809202530105   -0.008809229874118226
-0.06566198566260631   -0.38925560300689077   -0.010184488986683922
-0.09296327473447308   -0.38804990254154553   -0.011010993223592565
-0.10384844695281563   -0.3320809202530105   -0.008809229874118226
-0.09299372466084237   -0.38854691658508833   -0.011778536096324645
-0.06566198566260631   -0.38925560300689077   -0.010184488986683922
-0.10384844695281563   -0.3320809202530105   -0.008809229874118226
-0.07184250972585879   -0.33308620401665057   -0.008008593469667886
-0.07160583793238016   -0.33365939593036503   -0.008359693300101478
-0.06566198566260631   -0.38925560300689077   -0.010184488986683922
-0.10384844695281563   -0.3320809202530105   -0.008809229874118226
-0.07160583793238016   -0.33365939593036503   -0.008359693300101478
-0.09299372466084237   -0.38854691658508833   -0.011778536096324645
-0.06566198566260631   -0.38925560300689077   -0.010184488986683922
-0.07184250972585879   -0.33308620401665057   -0.008008593469667886
-0.09296327473447308   -0.38804990254154553   -0.011010993223592565
-0.0656410810700245   -0.38884888807762674   -0.009735364176835154
-0.07184250972585879   -0.33308620401665057   -0.008008593469667886
-0.10384844695281563   -0.3320809202530105   -0.008809229874118226
-0.09296327473447308   -0.38804990254154553   -0.011010993223592565
-0.10387763220116779   -0.33176169524905086   -0.008148656718977873
-0.0656410810700245   -0.38884888807762674   -0.009735364176835154
-0.0927362825390383   -0.38774507875358455   -0.010199637620865393
-0.10387763220116779   -0.33176169524905086   -0.008148656718977873
-0.09296327473447308   -0.38804990254154553   -0.011010993223592565
-0.0656410810700245   -0.38884888807762674   -0.009735364176835154
-0.10387763220116779   -0.33176169524905086   -0.008148656718977873
-0.07203904633721805   -0.3326563155319304   -0.007610062809178813
-0.07184250972585879   -0.33308620401665057   -0.008008593469667886
-0.0656410810700245   -0.38884888807762674   -0.009735364176835154
-0.10387763220116779   -0.33176169524905086   -0.008148656718977873
-0.07184250972585879   -0.33308620401665057   -0.008008593469667886
-0.09296327473447308   -0.38804990254154553   -0.011010993223592565
-0.0656410810700245   -0.38884888807762674   -0.009735364176835154
-0.07203904633721805   -0.3326563155319304   -0.007610062809178813
-0.0927362825390383   -0.38774507875358455   -0.010199637620865393
-0.06562818538103193   -0.3886386249579763   -0.009236200171226196
-0.07203904633721805   -0.3326563155319304   -0.007610062809178813
-0.10387763220116779   -0.33176169524905086   -0.008148656718977873
-0.0927362825390383   -0.38774507875358455   -0.010199637620865393
-0.1039535105533312   -0.33159793301008467   -0.007438606983392304
-0.06562818538103193   -0.3886386249579763   -0.009236200171226196
-0.09258400961132442   -0.38765314326620093   -0.009334261137378766
-0.1039535105533312   -0.33159793301008467   -0.007438606983392304
-0.0927362825390383   -0.38774507875358455   -0.010199637620865393
-0.06562818538103193   -0.3886386249579763   -0.009236200171226196
-0.1039535105533312   -0.33159793301008467   -0.007438606983392304
-0.07224114928156128   -0.33236915321773924   -0.007165518384887379
-0.07203904633721805   -0.3326563155319304   -0.007610062809178813
-0.06562818538103193   -0.3886386249579763   -0.009236200171226196
-0.1039535105533312   -0.33159793301008467   -0.007438606983392304
-0.07203904633721805   -0.3326563155319304   -0.007610062809178813
-0.0927362825390383   -0.38774507875358455   -0.010199637620865393
-0.09299372466084237   -0.38854691658508833   -0.011778536096324645
-0.10365148522386539   -0.33253417760043774   -0.009428946103842206
-0.12354903743918594   -0.3867387009714424   -0.012855061154125269
-0.09296327473447308   -0.38804990254154553   -0.011010993223592565
-0.10365148522386539   -0.33253417760043774   -0.009428946103842206
-0.13859002000924384   -0.3310627946561479   -0.010342088510784468
-0.12354903743918594   -0.3867387009714424   -0.012855061154125269
-0.13793494041159196   -0.33064881451669037   -0.009439780101922188
-0.09296327473447308   -0.38804990254154553   -0.011010993223592565
-0.12241947769579684   -0.38625210294803547   -0.011682304064027866
-0.13793494041159196   -0.33064881451669037   -0.009439780101922188
-0.12354903743918594   -0.3867387009714424   -0.012855061154125269
-0.09296327473447308   -0.38804990254154553   -0.011010993223592565
-0.13793494041159196   -0.33064881451669037   -0.009439780101922188
-0.10384844695281563   -0.3320809202530105   -0.008809229874118226
-0.10365148522386539   -0.33253417760043774   -0.009428946103842206
-0.09296327473447308   -0.38804990254154553   -0.011010993223592565
-0.13793494041159196   -0.33064881451669037   -0.009439780101922188
-0.10365148522386539   -0.33253417760043774   -0.009428946103842206
-0.12354903743918594   -0.3867387009714424   -0.012855061154125269
-0.09296327473447308   -0.38804990254154553   -0.011010993223592565
-0.10384844695281563   -0.3320809202530105   -0.008809229874118226
-0.12241947769579684   -0.38625210294803547   -0.011682304064027866
-0.0927362825390383   -0.38774507875358455   -0.010199637620865393
-0.10384844695281563   -0.3320809202530105   -0.008809229874118226
-0.13793494041159196   -0.33064881451669037   -0.009439780101922188
-0.12241947769579684   -0.38625210294803547   -0.011682304064027866
-0.13738182774964391   -0.33037643381295356   -0.008466233592591549
-0.0927362825390383   -0.38774507875358455   -0.010199637620865393
-0.12145171961693838   -0.38598437195770385   -0.010436068749434669
-0.13738182774964391   -0.33037643381295356   -0.008466233592591549
-0.12241947769579684   -0.38625210294803547   -0.011682304064027866
-0.0927362825390383   -0.38774507875358455   -0.010199637620865393
-0.13738182774964391   -0.33037643381295356   -0.008466233592591549
-0.10387763220116779   -0.33176169524905086   -0.008148656718977873
-0.10384844695281563   -0.3320809202530105   -0.008809229874118226
-0.0927362825390383   -0.38774507875358455   -0.010199637620865393
-0.13738182774964391   -0.33037643381295356   -0.008466233592591549
-0.10384844695281563   -0.3320809202530105   -0.008809229874118226
-0.12241947769579684   -0.38625210294803547   -0.011682304064027866
-0.0927362825390383   -0.38774507875358455   -0.010199637620865393
-0.10387763220116779   -0.33176169524905086   -0.008148656718977873
-0.12145171961693838   -0.38598437195770385   -0.010436068749434669
-0.09258400961132442   -0.38765314326620093   -0.009334261137378766
-0.10387763220116779   -0.33176169524905086   -0.008148656718977873
-0.13738182774964391   -0.33037643381295356   -0.008466233592591549
-0.12145171961693838   -0.38598437195770385   -0.010436068749434669
-0.13646436847785423   -0.330368961007854   -0.0074303003879096375
-0.09258400961132442   -0.38765314326620093   -0.009334261137378766
-0.1200526882530311   -0.38605496150685237   -0.009126350249721847
-0.13646436847785423   -0.330368961007854   -0.0074303003879096375
-0.12145171961693838   -0.38598437195770385   -0.010436068749434669
-0.09258400961132442   -0.38765314326620093   -0.009334261137378766
-0.13646436847785423   -0.330368961007854   -0.0074303003879096375
-0.1039535105533312   -0.33159793301008467   -0.007438606983392304
-0.10387763220116779   -0.33176169524905086   -0.008148656718977873
-0.09258400961132442   -0.38765314326620093   -0.009334261137378766
-0.13646436847785423   -0.330368961007854   -0.0074303003879096375
-0.10387763220116779   -0.33176169524905086   -0.008148656718977873
-0.12145171961693838   -0.38598437195770385   -0.010436068749434669
0.024769611846288814   -0.33416193323992305   -0.0037883769102111404
0.029612644267990804   -0.2717998938863718   -0.0019214552064722677
-0.008463054935065202   -0.33449505301757415   -0.005591771835644633
0.025080659223847838   -0.33319975165276466   -0.004322461134898984
0.029612644267990804   -0.2717998938863718   -0.0019214552064722677
-0.007219345791337287   -0.27178429960516204   -0.0035955250533001794
-0.008463054935065202   -0.33449505301757415   -0.005591771835644633
-0.007554563713001013   -0.27098072933384393   -0.0036163236549012693
0.025080659223847838   -0.33319975165276466   -0.004322461134898984
-0.008623745125272907   -0.3336650641423209   -0.005771970338361342
-0.007554563713001013   -0.27098072933384393   -0.0036163236549012693
-0.008463054935065202   -0.33449505301757415   -0.005591771835644633
0.025080659223847838   -0.33319975165276466   -0.004322461134898984
-0.007554563713001013   -0.27098072933384393   -0.0036163236549012693
0.029492963318011135   -0.27087820761774256   -0.0021726039256008615
0.029612644267990804   -0.2717998938863718   -0.0019214552064722677
0.025080659223847838   -0.33319975165276466   -0.004322461134898984
-0.007554563713001013   -0.27098072933384393   -0.0036163236549012693
0.029612644267990804   -0.2717998938863718   -0.0019214552064722677
-0.008463054935065202   -0.33449505301757415   -0.005591771835644633
0.025080659223847838   -0.33319975165276466   -0.004322461134898984
0.029492963318011135   -0.27087820761774256   -0.0021726039256008615
-0.008623745125272907   -0.3336650641423209   -0.005771970338361342
0.025168843092131937   -0.33249271023700366   -0.004787375061627277
0.029492963318011135   -0.27087820761774256   -0.0021726039256008615
-0.007554563713001013   -0.27098072933384393   -0.0036163236549012693
-0.008623745125272907   -0.3336650641423209   -0.005771970338361342
-0.007926943680822885   -0.27028502773769614   -0.0035957308382855322
0.025168843092131937   -0.33249271023700366   -0.004787375061627277
-0.008793155933415198   -0.3330038108199004   -0.005905247347726697
-0.007926943680822885   -0.27028502773769614   -0.0035957308382855322
-0.008623745125272907   -0.3336650641423209   -0.005771970338361342
0.025168843092131937   -0.33249271023700366   -0.004787375061627277
-0.007926943680822885   -0.27028502773769614   -0.0035957308382855322
0.029216949278169785   -0.2701311777950404   -0.0023574110582652535
0.029492963318011135   -0.27087820761774256   -0.0021726039256008615
0.025168843092131937   -0.33249271023700366   -0.004787375061627277
-0.007926943680822885   -0.27028502773769614   -0.0035957308382855322
0.029492963318011135   -0.27087820761774256   -0.0021726039256008615
-0.008623745125272907   -0.3336650641423209   -0.005771970338361342
0.025168843092131937   -0.33249271023700366   -0.004787375061627277
0.029216949278169785   -0.2701311777950404   -0.0023574110582652535
-0.008793155933415198   -0.3330038108199004   -0.005905247347726697
0.025211237680551314   -0.33191833879517735   -0.005186364920815077
0.029216949278169785   -0.2701311777950404   -0.0023574110582652535
-0.007926943680822885   -0.27028502773769614   -0.0035957308382855322
-0.008793155933415198   -0.3330038108199004   -0.005905247347726697
-0.008387084216948235   -0.26967950171927546   -0.0035321148490851683
0.025211237680551314   -0.33191833879517735   -0.005186364920815077
-0.00907766458605074   -0.3324908702930974   -0.005993201447399137
-0.008387084216948235   -0.26967950171927546   -0.0035321148490851683
-0.008793155933415198   -0.3330038108199004   -0.005905247347726697
0.025211237680551314   -0.33191833879517735   -0.005186364920815077
-0.008387084216948235   -0.26967950171927546   -0.0035321148490851683
0.02883357861903329   -0.2694393940289769   -0.002480507407543954
0.029216949278169785   -0.2701311777950404   -0.0023574110582652535
0.025211237680551314   -0.33191833879517735   -0.005186364920815077
-0.008387084216948235   -0.26967950171927546   -0.0035321148490851683
0.029216949278169785   -0.2701311777950404   -0.0023574110582652535
-0.008793155933415198   -0.3330038108199004   -0.005905247347726697
-0.008463054935065202   -0.33449505301757415   -0.005591771835644633
-0.007219345791337287   -0.27178429960516204   -0.0035955250533001794
-0.04030503659053919   -0.33431747778164633   -0.007082075247677615
-0.008623745125272907   -0.3336650641423209   -0.005771970338361342
-0.007219345791337287   -0.27178429960516204   -0.0035955250533001794
-0.042344288270246846   -0.2714496490297761   -0.004983162777531446
-0.04030503659053919   -0.33431747778164633   -0.007082075247677615
-0.04271733130117606   -0.27078008468733805   -0.00483868854959288
-0.008623745125272907   -0.3336650641423209   -0.005771970338361342
-0.0405249971374943   -0.3336218130263503   -0.006996045834121808
-0.04271733130117606   -0.27078008468733805   -0.00483868854959288
-0.04030503659053919   -0.33431747778164633   -0.007082075247677615
-0.008623745125272907   -0.3336650641423209   -0.005771970338361342
-0.04271733130117606   -0.27078008468733805   -0.00483868854959288
-0.007554563713001013   -0.27098072933384393   -0.0036163236549012693
-0.007219345791337287   -0.27178429960516204   -0.0035955250533001794
-0.008623745125272907   -0.3336650641423209   -0.005771970338361342
-0.04271733130117606   -0.27078008468733805   -0.00483868854959288
-0.007219345791337287   -0.27178429960516204   -0.0035955250533001794
-0.04030503659053919   -0.33431747778164633   -0.007082075247677615
-0.008623745125272907   -0.3336650641423209   -0.005771970338361342
-0.007554563713001013   -0.27098072933384393   -0.0036163236549012693
-0.0405249971374943   -0.3336218130263503   -0.006996045834121808
-0.008793155933415198   -0.3330038108199004   -0.005905247347726697
-0.007554563713001013   -0.27098072933384393   -0.0036163236549012693
-0.04271733130117606   -0.27078008468733805   -0.00483868854959288
-0.0405249971374943   -0.3336218130263503   -0.006996045834121808
-0.04309773888368022   -0.2701983478888598   -0.004651153822563223
-0.008793155933415198   -0.3330038108199004   -0.005905247347726697
-0.04074795112397958   -0.3330708435112491   -0.0068617631864063625
-0.04309773888368022   -0.2701983478888598   -0.004651153822563223
-0.0405249971374943   -0.3336218130263503   -0.006996045834121808
-0.008793155933415198   -0.3330038108199004   -0.005905247347726697
-0.04309773888368022   -0.2701983478888598   -0.004651153822563223
-0.007926943680822885   -0.27028502773769614   -0.0035957308382855322
-0.007554563713001013   -0.27098072933384393   -0.0036163236549012693
-0.008793155933415198   -0.3330038108199004   -0.005905247347726697
-0.04309773888368022   -0.2701983478888598   -0.004651153822563223
-0.007554563713001013   -0.27098072933384393   -0.0036163236549012693
-0.0405249971374943   -0.3336218130263503   -0.006996045834121808
-0.008793155933415198   -0.3330038108199004   -0.005905247347726697
-0.007926943680822885   -0.27028502773769614   -0.0035957308382855322
-0.04074795112397958   -0.3330708435112491   -0.0068617631864063625
-0.00907766458605074   -0.3324908702930974   -0.005993201447399137
-0.007926943680822885   -0.27028502773769614   -0.0035957308382855322
-0.04309773888368022   -0.2701983478888598   -0.004651153822563223
-0.04074795112397958   -0.3330708435112491   -0.0068617631864063625
-0.04350997620482542   -0.2697097683015299   -0.004422514435917511
-0.00907766458605074   -0.3324908702930974   -0.005993201447399137
-0.041005197090494876   -0.33266705306557376   -0.006681488828080065
-0.04350997620482542   -0.2697097683015299   -0.004422514435917511
-0.04074795112397958   -0.3330708435112491   -0.0068617631864063625
-0.00907766458605074   -0.3324908702930974   -0.005993201447399137
-0.04350997620482542   -0.2697097683015299   -0.004422514435917511
-0.008387084216948235   -0.26967950171927546   -0.0035321148490851683
-0.007926943680822885   -0.27028502773769614   -0.0035957308382855322
-0.00907766458605074   -0.3324908702930974   -0.005993201447399137
-0.04350997620482542   -0.2697097683015299   -0.004422514435917511
-0.007926943680822885   -0.27028502773769614   -0.0035957308382855322
-0.04074795112397958   -0.3330708435112491   -0.0068617631864063625
-0.04030503659053919   -0.33431747778164633   -0.007082075247677615
-0.042344288270246846   -0.2714496490297761   -0.004983162777531446
-0.07160583793238016   -0.33365939593036503   -0.008359693300101478
-0.0405249971374943   -0.3336218130263503   -0.006996045834121808
-0.042344288270246846   -0.2714496490297761   -0.004983162777531446
-0.0768750068219632   -0.27083055082315344   -0.006157180572576259
-0.07160583793238016   -0.33365939593036503   -0.008359693300101478
-0.07725834852999769   -0.27028493402978926   -0.005847543073966961
-0.0405249971374943   -0.3336218130263503   -0.006996045834121808
-0.07184250972585879   -0.33308620401665057   -0.008008593469667886
-0.07725834852999769   -0.27028493402978926   -0.005847543073966961
-0.07160583793238016   -0.33365939593036503   -0.008359693300101478
-0.0405249971374943   -0.3336218130263503   -0.006996045834121808
-0.07725834852999769   -0.27028493402978926   -0.005847543073966961
-0.04271733130117606   -0.27078008468733805   -0.00483868854959288
-0.042344288270246846   -0.2714496490297761   -0.004983162777531446
-0.0405249971374943   -0.3336218130263503   -0.006996045834121808
-0.07725834852999769   -0.27028493402978926   -0.005847543073966961
-0.042344288270246846   -0.2714496490297761   -0.004983162777531446
-0.07160583793238016   -0.33365939593036503   -0.008359693300101478
-0.0405249971374943   -0.3336218130263503   -0.006996045834121808
-0.04271733130117606   -0.27078008468733805   -0.00483868854959288
-0.07184250972585879   -0.33308620401665057   -0.008008593469667886
-0.04074795112397958   -0.3330708435112491   -0.0068617631864063625
-0.04271733130117606   -0.27078008468733805   -0.00483868854959288
-0.07725834852999769   -0.27028493402978926   -0.005847543073966961
-0.07184250972585879   -0.33308620401665057   -0.008008593469667886
-0.07760644561961857   -0.2698265220215363   -0.005495828415980707
-0.04074795112397958   -0.3330708435112491   -0.0068617631864063625
-0.07203904633721805   -0.3326563155319304   -0.007610062809178813
-0.07760644561961857   -0.2698265220215363   -0.005495828415980707
-0.07184250972585879   -0.33308620401665057   -0.008008593469667886
-0.04074795112397958   -0.3330708435112491   -0.0068617631864063625
-0.07760644561961857   -0.2698265220215363   -0.005495828415980707
-0.04309773888368022   -0.2701983478888598   -0.004651153822563223
-0.04271733130117606   -0.27078008468733805   -0.00483868854959288
-0.04074795112397958   -0.3330708435112491   -0.0068617631864063625
-0.07760644561961857   -0.2698265220215363   -0.005495828415980707
-0.04271733130117606   -0.27078008468733805   -0.00483868854959288
-0.07184250972585879   -0.33308620401665057   -0.008008593469667886
-0.04074795112397958   -0.3330708435112491   -0.0068617631864063625
-0.04309773888368022   -0.2701983478888598   -0.004651153822563223
-0.07203904633721805   -0.3326563155319304   -0.007610062809178813
-0.041005197090494876   -0.33266705306557376   -0.006681488828080065
-0.04309773888368022   -0.2701983478888598   -0.004651153822563223
-0.07760644561961857   -0.2698265220215363   -0.005495828415980707
-0.07203904633721805   -0.3326563155319304   -0.007610062809178813
-0.07795779759480832   -0.2694561352584989   -0.005103665120813444
-0.041005197090494876   -0.33266705306557376   -0.006681488828080065
-0.07224114928156128   -0.33236915321773924   -0.007165518384887379
-0.07795779759480832   -0.2694561352584989   -0.005103665120813444
-0.07203904633721805   -0.3326563155319304   -0.007610062809178813
-0.041005197090494876   -0.33266705306557376   -0.006681488828080065
-0.07795779759480832   -0.2694561352584989   -0.005103665120813444
-0.04350997620482542   -0.2697097683015299   -0.004422514435917511
-0.04309773888368022   -0.2701983478888598   -0.004651153822563223
-0.041005197090494876   -0.33266705306557376   -0.006681488828080065
-0.07795779759480832   -0.2694561352584989   -0.005103665120813444
-0.04309773888368022   -0.2701983478888598   -0.004651153822563223
-0.07203904633721805   -0.3326563155319304   -0.007610062809178813
-0.07160583793238016   -0.33365939593036503   -0.008359693300101478
-0.0768750068219632   -0.27083055082315344   -0.006157180572576259
-0.10365148522386539   -0.33253417760043774   -0.009428946103842206
-0.07184250972585879   -0.33308620401665057   -0.008008593469667886
-0.0768750068219632   -0.27083055082315344   -0.006157180572576259
-0.1120881468544402   -0.2699137270864993   -0.007119822369444158
-0.10365148522386539   -0.33253417760043774   -0.009428946103842206
-0.11244474120831237   -0.26949329644854286   -0.006643793092160762
-0.07184250972585879   -0.33308620401665057   -0.008008593469667886
-0.10384844695281563   -0.3320809202530105   -0.008809229874118226
-0.11244474120831237   -0.26949329644854286   -0.006643793092160762
-0.10365148522386539   -0.33253417760043774   -0.009428946103842206
-0.07184250972585879   -0.33308620401665057   -0.008008593469667886
-0.11244474120831237   -0.26949329644854286   -0.006643793092160762
-0.07725834852999769   -0.27028493402978926   -0.005847543073966961
-0.0768750068219632   -0.27083055082315344   -0.006157180572576259
-0.07184250972585879   -0.33308620401665057   -0.008008593469667886
-0.11244474120831237   -0.26949329644854286   -0.006643793092160762
-0.0768750068219632   -0.27083055082315344   -0.006157180572576259
-0.10365148522386539   -0.33253417760043774   -0.009428946103842206
-0.07184250972585879   -0.33308620401665057   -0.008008593469667886
-0.07725834852999769   -0.27028493402978926   -0.005847543073966961
-0.10384844695281563   -0.3320809202530105   -0.008809229874118226
-0.07203904633721805   -0.3326563155319304   -0.007610062809178813
-0.07725834852999769   -0.27028493402978926   -0.005847543073966961
-0.11244474120831237   -0.26949329644854286   -0.006643793092160762
-0.10384844695281563   -0.3320809202530105   -0.008809229874118226
-0.11266325800391974   -0.26914842880744055   -0.006131418483584831
-0.07203904633721805   -0.3326563155319304   -0.007610062809178813
-0.10387763220116779   -0.33176169524905086   -0.008148656718977873
-0.11266325800391974   -0.26914842880744055   -0.006131418483584831
-0.10384844695281563   -0.3320809202530105   -0.008809229874118226
-0.07203904633721805   -0.3326563155319304   -0.007610062809178813
-0.11266325800391974   -0.26914842880744055   -0.006131418483584831
-0.07760644561961857   -0.2698265220215363   -0.005495828415980707
-0.07725834852999769   -0.27028493402978926   -0.005847543073966961
-0.07203904633721805   -0.3326563155319304   -0.007610062809178813
-0.11266325800391974   -0.26914842880744055   -0.006131418483584831
-0.07725834852999769   -0.27028493402978926   -0.005847543073966961
-0.10384844695281563   -0.3320809202530105   -0.008809229874118226
-0.07203904633721805   -0.3326563155319304   -0.007610062809178813
-0.07760644561961857   -0.2698265220215363   -0.005495828415980707
-0.10387763220116779   -0.33176169524905086   -0.008148656718977873
-0.07224114928156128   -0.33236915321773924   -0.007165518384887379
-0.07760644561961857   -0.2698265220215363   -0.005495828415980707
-0.11266325800391974   -0.26914842880744055   -0.006131418483584831
-0.10387763220116779   -0.33176169524905086   -0.008148656718977873
-0.11290196156587737   -0.2688990962301479   -0.005575157747284441
-0.07224114928156128   -0.33236915321773924   -0.007165518384887379
-0.1039535105533312   -0.33159793301008467   -0.007438606983392304
-0.11290196156587737   -0.2688990962301479   -0.005575157747284441
-0.10387763220116779   -0.33176169524905086   -0.008148656718977873
-0.07224114928156128   -0.33236915321773924   -0.007165518384887379
-0.11290196156587737   -0.2688990962301479   -0.005575157747284441
-0.07795779759480832   -0.2694561352584989   -0.005103665120813444
-0.07760644561961857   -0.2698265220215363   -0.005495828415980707
-0.07224114928156128   -0.33236915321773924   -0.007165518384887379
-0.11290196156587737   -0.2688990962301479   -0.005575157747284441
-0.07760644561961857   -0.2698265220215363   -0.005495828415980707
-0.10387763220116779   -0.33176169524905086   -0.008148656718977873
-0.10365148522386539   -0.33253417760043774   -0.009428946103842206
-0.1120881468544402   -0.2699137270864993   -0.007119822369444158
-0.13859002000924384   -0.3310627946561479   -0.010342088510784468
-0.10384844695281563   -0.3320809202530105   -0.008809229874118226
-0.1120881468544402   -0.2699137270864993   -0.007119822369444158
-0.14986880550680814   -0.2687902027034949   -0.007887457315993654
-0.13859002000924384   -0.3310627946561479   -0.010342088510784468
-0.14962232882862286   -0.2684343960483925   -0.007255959591415651
-0.10384844695281563   -0.3320809202530105   -0.008809229874118226
-0.13793494041159196   -0.33064881451669037   -0.009439780101922188
-0.14962232882862286   -0.2684343960483925   -0.007255959591415651
-0.13859002000924384   -0.3310627946561479   -0.010342088510784468
-0.10384844695281563   -0.3320809202530105   -0.008809229874118226
-0.14962232882862286   -0.2684343960483925   -0.007255959591415651
-0.11244474120831237   -0.26949329644854286   -0.006643793092160762
-0.1120881468544402   -0.2699137270864993   -0.007119822369444158
-0.10384844695281563   -0.3320809202530105   -0.008809229874118226
-0.14962232882862286   -0.2684343960483925   -0.007255959591415651
-0.1120881468544402   -0.2699137270864993   -0.007119822369444158
-0.13859002000924384   -0.3310627946561479   -0.010342088510784468
-0.10384844695281563   -0.3320809202530105   -0.008809229874118226
-0.11244474120831237   -0.26949329644854286   -0.006643793092160762
-0.13793494041159196   -0.33064881451669037   -0.009439780101922188
-0.10387763220116779   -0.33176169524905086   -0.008148656718977873
-0.11244474120831237   -0.26949329644854286   -0.006643793092160762
-0.14962232882862286   -0.2684343960483925   -0.007255959591415651
-0.13793494041159196   -0.33064881451669037   -0.009439780101922188
-0.1494216564486611   -0.26814296664178006   -0.00655777948581878
-0.10387763220116779   -0.33176169524905086   -0.008148656718977873
-0.13738182774964391   -0.33037643381295356   -0.008466233592591549
-0.1494216564486611   -0.26814296664178006   -0.00655777948581878
-0.13793494041159196   -0.33064881451669037   -0.009439780101922188
-0.10387763220116779   -0.33176169524905086   -0.008148656718977873
-0.1494216564486611   -0.26814296664178006   -0.00655777948581878
-0.11266325800391974   -0.26914842880744055   -0.006131418483584831
-0.11244474120831237   -0.26949329644854286   -0.006643793092160762
-0.10387763220116779   -0.33176169524905086   -0.008148656718977873
-0.1494216564486611   -0.26814296664178006   -0.00655777948581878
-0.11244474120831237   -0.26949329644854286   -0.006643793092160762
-0.13793494041159196   -0.33064881451669037   -0.009439780101922188
-0.10387763220116779   -0.33176169524905086   -0.008148656718977873
-0.11266325800391974   -0.26914842880744055   -0.006131418483584831
-0.13738182774964391   -0.33037643381295356   -0.008466233592591549
-0.1039535105533312   -0.33159793301008467   -0.007438606983392304
-0.11266325800391974   -0.26914842880744055   -0.006131418483584831
-0.1494216564486611   -0.26814296664178006   -0.00655777948581878
-0.13738182774964391   -0.33037643381295356   -0.008466233592591549
-0.1489267212720378   -0.2680380744614661   -0.005800539636956905
-0.1039535105533312   -0.33159793301008467   -0.007438606983392304
-0.13646436847785423   -0.330368961007854   -0.0074303003879096375
-0.1489267212720378   -0.2680380744614661   -0.005800539636956905
-0.13738182774964391   -0.33037643381295356   -0.008466233592591549
-0.1039535105533312   -0.33159793301008467   -0.007438606983392304
-0.1489267212720378   -0.2680380744614661   -0.005800539636956905
-0.11290196156587737   -0.2688990962301479   -0.005575157747284441
-0.11266325800391974   -0.26914842880744055   -0.006131418483584831
-0.1039535105533312   -0.33159793301008467   -0.007438606983392304
-0.1489267212720378   -0.2680380744614661   -0.005800539636956905
-0.11266325800391974   -0.26914842880744055   -0.006131418483584831
-0.13738182774964391   -0.33037643381295356   -0.008466233592591549
0.029612644267990804   -0.2717998938863718   -0.0019214552064722677
0.030492796553382658   -0.20524036955702596   -0.00028474423366980374
-0.007219345791337287   -0.27178429960516204   -0.0035955250533001794
0.029492963318011135   -0.27087820761774256   -0.0021726039256008615
0.030492796553382658   -0.20524036955702596   -0.00028474423366980374
-0.008371749592940571   -0.2048913303470587   -0.0017933826724750729
-0.007219345791337287   -0.27178429960516204   -0.0035955250533001794
-0.008829190157132433   -0.20412107097554733   -0.0016556291895268105
0.029492963318011135   -0.27087820761774256   -0.0021726039256008615
-0.007554563713001013   -0.27098072933384393   -0.0036163236549012693
-0.008829190157132433   -0.20412107097554733   -0.0016556291895268105
-0.007219345791337287   -0.27178429960516204   -0.0035955250533001794
0.029492963318011135   -0.27087820761774256   -0.0021726039256008615
-0.008829190157132433   -0.20412107097554733   -0.0016556291895268105
0.03000000890020938   -0.20435997958026975   -0.00024922347456295525
0.030492796553382658   -0.20524036955702596   -0.00028474423366980374
0.029492963318011135   -0.27087820761774256   -0.0021726039256008615
-0.008829190157132433   -0.20412107097554733   -0.0016556291895268105
0.030492796553382658   -0.20524036955702596   -0.00028474423366980374
-0.007219345791337287   -0.27178429960516204   -0.0035955250533001794
0.029492963318011135   -0.27087820761774256   -0.0021726039256008615
0.03000000890020938   -0.20435997958026975   -0.00024922347456295525
-0.007554563713001013   -0.27098072933384393   -0.0036163236549012693
0.029216949278169785   -0.2701311777950404   -0.0023574110582652535
0.03000000890020938   -0.20435997958026975   -0.00024922347456295525
-0.008829190157132433   -0.20412107097554733   -0.0016556291895268105
-0.007554563713001013   -0.27098072933384393   -0.0036163236549012693
-0.009352322080894707   -0.20339116254038866   -0.0014805359964101036
0.029216949278169785   -0.2701311777950404   -0.0023574110582652535
-0.007926943680822885   -0.27028502773769614   -0.0035957308382855322
-0.009352322080894707   -0.20339116254038866   -0.0014805359964101036
-0.007554563713001013   -0.27098072933384393   -0.0036163236549012693
0.029216949278169785   -0.2701311777950404   -0.0023574110582652535
-0.009352322080894707   -0.20339116254038866   -0.0014805359964101036
0.029400840152748044   -0.20356887639495105   -0.00013727693523945799
0.03000000890020938   -0.20435997958026975   -0.00024922347456295525
0.029216949278169785   -0.2701311777950404   -0.0023574110582652535
-0.009352322080894707   -0.20339116254038866   -0.0014805359964101036
0.03000000890020938   -0.20435997958026975   -0.00024922347456295525
-0.007554563713001013   -0.27098072933384393   -0.0036163236549012693
0.029216949278169785   -0.2701311777950404   -0.0023574110582652535
0.029400840152748044   -0.20356887639495105   -0.00013727693523945799
-0.007926943680822885   -0.27028502773769614   -0.0035957308382855322
0.02883357861903329   -0.2694393940289769   -0.002480507407543954
0.029400840152748044   -0.20356887639495105   -0.00013727693523945799
-0.009352322080894707   -0.20339116254038866   -0.0014805359964101036
-0.007926943680822885   -0.27028502773769614   -0.0035957308382855322
-0.009938062478384767   -0.20269176520168086   -0.0012587174535090772
0.02883357861903329   -0.2694393940289769   -0.002480507407543954
-0.008387084216948235   -0.26967950171927546   -0.0035321148490851683
-0.009938062478384767   -0.20269176520168086   -0.0012587174535090772
-0.007926943680822885   -0.27028502773769614   -0.0035957308382855322
0.02883357861903329   -0.2694393940289769   -0.002480507407543954
-0.009938062478384767   -0.20269176520168086   -0.0012587174535090772
0.028612529199947973   -0.20273913389879936   4.7596559737674196e-05
0.029400840152748044   -0.20356887639495105   -0.00013727693523945799
0.02883357861903329   -0.2694393940289769   -0.002480507407543954
-0.009938062478384767   -0.20269176520168086   -0.0012587174535090772
0.029400840152748044   -0.20356887639495105   -0.00013727693523945799
-0.007926943680822885   -0.27028502773769614   -0.0035957308382855322
-0.007219345791337287   -0.27178429960516204   -0.0035955250533001794
-0.008371749592940571   -0.2048913303470587   -0.0017933826724750729
-0.042344288270246846   -0.2714496490297761   -0.004983162777531446
-0.007554563713001013   -0.27098072933384393   -0.0036163236549012693
-0.008371749592940571   -0.2048913303470587   -0.0017933826724750729
-0.045199853785805495   -0.20449198219902964   -0.0030763063049418344
-0.042344288270246846   -0.2714496490297761   -0.004983162777531446
-0.045664584186671305   -0.2038450190714621   -0.002870073456447771
-0.007554563713001013   -0.27098072933384393   -0.0036163236549012693
-0.04271733130117606   -0.27078008468733805   -0.00483868854959288
-0.045664584186671305   -0.2038450190714621   -0.002870073456447771
-0.042344288270246846   -0.2714496490297761   -0.004983162777531446
-0.007554563713001013   -0.27098072933384393   -0.0036163236549012693
-0.045664584186671305   -0.2038450190714621   -0.002870073456447771
-0.008829190157132433   -0.20412107097554733   -0.0016556291895268105
-0.008371749592940571   -0.2048913303470587   -0.0017933826724750729
-0.007554563713001013   -0.27098072933384393   -0.0036163236549012693
-0.045664584186671305   -0.2038450190714621   -0.002870073456447771
-0.008371749592940571   -0.2048913303470587   -0.0017933826724750729
-0.042344288270246846   -0.2714496490297761   -0.004983162777531446
-0.007554563713001013   -0.27098072933384393   -0.0036163236549012693
-0.008829190157132433   -0.20412107097554733   -0.0016556291895268105
-0.04271733130117606   -0.27078008468733805   -0.00483868854959288
-0.007926943680822885   -0.27028502773769614   -0.0035957308382855322
-0.008829190157132433   -0.20412107097554733   -0.0016556291895268105
-0.045664584186671305   -0.2038450190714621   -0.002870073456447771
-0.04271733130117606   -0.27078008468733805   -0.00483868854959288
-0.04613949218589355   -0.20322944220830616   -0.0026283621553228396
-0.007926943680822885   -0.27028502773769614   -0.0035957308382855322
-0.04309773888368022   -0.2701983478888598   -0.004651153822563223
-0.04613949218589355   -0.20322944220830616   -0.0026283621553228396
-0.04271733130117606   -0.27078008468733805   -0.00483868854959288
-0.007926943680822885   -0.27028502773769614   -0.0035957308382855322
-0.04613949218589355   -0.20322944220830616   -0.0026283621553228396
-0.009352322080894707   -0.20339116254038866   -0.0014805359964101036
-0.008829190157132433   -0.20412107097554733   -0.0016556291895268105
-0.007926943680822885   -0.27028502773769614   -0.0035957308382855322
-0.04613949218589355   -0.20322944220830616   -0.0026283621553228396
-0.008829190157132433   -0.20412107097554733   -0.0016556291895268105
-0.04271733130117606   -0.27078008468733805   -0.00483868854959288
-0.007926943680822885   -0.27028502773769614   -0.0035957308382855322
-0.009352322080894707   -0.20339116254038866   -0.0014805359964101036
-0.04309773888368022   -0.2701983478888598   -0.004651153822563223
-0.008387084216948235   -0.26967950171927546   -0.0035321148490851683
-0.009352322080894707   -0.20339116254038866   -0.0014805359964101036
-0.04613949218589355   -0.20322944220830616   -0.0026283621553228396
-0.04309773888368022   -0.2701983478888598   -0.004651153822563223
-0.0466442447582077   -0.20265445955110215   -0.002350707194823097
-0.008387084216948235   -0.26967950171927546   -0.0035321148490851683
-0.04350997620482542   -0.2697097683015299   -0.004422514435917511
-0.0466442447582077   -0.20265445955110215   -0.002350707194823097
-0.04309773888368022   -0.2701983478888598   -0.004651153822563223
-0.008387084216948235   -0.26967950171927546   -0.0035321148490851683
-0.0466442447582077   -0.20265445955110215   -0.002350707194823097
-0.009938062478384767   -0.20269176520168086   -0.0012587174535090772
-0.009352322080894707   -0.20339116254038866   -0.0014805359964101036
-0.008387084216948235   -0.26967950171927546   -0.0035321148490851683
-0.0466442447582077   -0.20265445955110215   -0.002350707194823097
-0.009352322080894707   -0.20339116254038866   -0.0014805359964101036
-0.04309773888368022   -0.2701983478888598   -0.004651153822563223
-0.042344288270246846   -0.2714496490297761   -0.004983162777531446
-0.045199853785805495   -0.20449198219902964   -0.0030763063049418344
-0.0768750068219632   -0.27083055082315344   -0.006157180572576259
-0.04271733130117606   -0.27078008468733805   -0.00483868854959288
-0.045199853785805495   -0.20449198219902964   -0.0030763063049418344
-0.08143271707000924   -0.20401650676129823   -0.004169490712303684
-0.0768750068219632   -0.27083055082315344   -0.006157180572576259
-0.08189333619918887   -0.20348421231101596   -0.003894531858632654
-0.04271733130117606   -0.27078008468733805   -0.00483868854959288
-0.07725834852999769   -0.27028493402978926   -0.005847543073966961
-0.08189333619918887   -0.20348421231101596   -0.003894531858632654
-0.0768750068219632   -0.27083055082315344   -0.006157180572576259
-0.04271733130117606   -0.27078008468733805   -0.00483868854959288
-0.08189333619918887   -0.20348421231101596   -0.003894531858632654
-0.045664584186671305   -0.2038450190714621   -0.002870073456447771
-0.045199853785805495   -0.20449198219902964   -0.0030763063049418344
-0.04271733130117606   -0.27078008468733805   -0.00483868854959288
-0.08189333619918887   -0.20348421231101596   -0.003894531858632654
-0.045199853785805495   -0.20449198219902964   -0.0030763063049418344
-0.0768750068219632   -0.27083055082315344   -0.006157180572576259
-0.04271733130117606   -0.27078008468733805   -0.00483868854959288
-0.045664584186671305   -0.2038450190714621   -0.002870073456447771
-0.07725834852999769   -0.27028493402978926   -0.005847543073966961
-0.04309773888368022   -0.2701983478888598   -0.004651153822563223
-0.045664584186671305   -0.2038450190714621   -0.002870073456447771
-0.08189333619918887   -0.20348421231101596   -0.003894531858632654
-0.07725834852999769   -0.27028493402978926   -0.005847543073966961
-0.08232436594945475   -0.20298522147663683   -0.0035853126014525447
-0.04309773888368022   -0.2701983478888598   -0.004651153822563223
-0.07760644561961857   -0.2698265220215363   -0.005495828415980707
-0.08232436594945475   -0.20298522147663683   -0.0035853126014525447
-0.07725834852999769   -0.27028493402978926   -0.005847543073966961
-0.04309773888368022   -0.2701983478888598   -0.004651153822563223
-0.08232436594945475   -0.20298522147663683   -0.0035853126014525447
-0.04613949218589355   -0.20322944220830616   -0.0026283621553228396
-0.045664584186671305   -0.2038450190714621   -0.002870073456447771
-0.04309773888368022   -0.2701983478888598   -0.004651153822563223
-0.08232436594945475   -0.20298522147663683   -0.0035853126014525447
-0.045664584186671305   -0.2038450190714621   -0.002870073456447771
-0.07725834852999769   -0.27028493402978926   -0.005847543073966961
-0.04309773888368022   -0.2701983478888598   -0.004651153822563223
-0.04613949218589355   -0.20322944220830616   -0.0026283621553228396
-0.07760644561961857   -0.2698265220215363   -0.005495828415980707
-0.04350997620482542   -0.2697097683015299   -0.004422514435917511
-0.04613949218589355   -0.20322944220830616   -0.0026283621553228396
-0.08232436594945475   -0.20298522147663683   -0.0035853126014525447
-0.07760644561961857   -0.2698265220215363   -0.005495828415980707
-0.08275693047708521   -0.20252096702569464   -0.0032435542549186357
-0.04350997620482542   -0.2697097683015299   -0.004422514435917511
-0.07795779759480832   -0.2694561352584989   -0.005103665120813444
-0.08275693047708521   -0.20252096702569464   -0.0032435542549186357
-0.07760644561961857   -0.2698265220215363   -0.005495828415980707
-0.04350997620482542   -0.2697097683015299   -0.004422514435917511
-0.08275693047708521   -0.20252096702569464   -0.0032435542549186357
-0.0466442447582077   -0.20265445955110215   -0.002350707194823097
-0.04613949218589355   -0.20322944220830616   -0.0026283621553228396
-0.04350997620482542   -0.2697097683015299   -0.004422514435917511
-0.08275693047708521   -0.20252096702569464   -0.0032435542549186357
-0.04613949218589355   -0.20322944220830616   -0.0026283621553228396
-0.07760644561961857   -0.2698265220215363   -0.005495828415980707
-0.0768750068219632   -0.27083055082315344   -0.006157180572576259
-0.08143271707000924   -0.20401650676129823   -0.004169490712303684
-0.1120881468544402   -0.2699137270864993   -0.007119822369444158
-0.07725834852999769   -0.27028493402978926   -0.005847543073966961
-0.08143271707000924   -0.20401650676129823   -0.004169490712303684
-0.11831770193760051   -0.20337592901186893   -0.0050636502728804945
-0.1120881468544402   -0.2699137270864993   -0.007119822369444158
-0.1187590970226685   -0.2029643256197937   -0.004720766330739411
-0.07725834852999769   -0.27028493402978926   -0.005847543073966961
-0.11244474120831237   -0.26949329644854286   -0.006643793092160762
-0.1187590970226685   -0.2029643256197937   -0.004720766330739411
-0.1120881468544402   -0.2699137270864993   -0.007119822369444158
-0.07725834852999769   -0.27028493402978926   -0.005847543073966961
-0.1187590970226685   -0.2029643256197937   -0.004720766330739411
-0.08189333619918887   -0.20348421231101596   -0.003894531858632654
-0.08143271707000924   -0.20401650676129823   -0.004169490712303684
-0.07725834852999769   -0.27028493402978926   -0.005847543073966961
-0.1187590970226685   -0.2029643256197937   -0.004720766330739411
-0.08143271707000924   -0.20401650676129823   -0.004169490712303684
-0.1120881468544402   -0.2699137270864993   -0.007119822369444158
-0.07725834852999769   -0.27028493402978926   -0.005847543073966961
-0.08189333619918887   -0.20348421231101596   -0.003894531858632654
-0.11244474120831237   -0.26949329644854286   -0.006643793092160762
-0.07760644561961857   -0.2698265220215363   -0.005495828415980707
-0.08189333619918887   -0.20348421231101596   -0.003894531858632654
-0.1187590970226685   -0.2029643256197937   -0.004720766330739411
-0.11244474120831237   -0.26949329644854286   -0.006643793092160762
-0.11909546111774452   -0.2025724962162143   -0.004349390652168752
-0.07760644561961857   -0.2698265220215363   -0.005495828415980707
-0.11266325800391974   -0.26914842880744055   -0.006131418483584831
-0.11909546111774452   -0.2025724962162143   -0.004349390652168752
-0.11244474120831237   -0.26949329644854286   -0.006643793092160762
-0.07760644561961857   -0.2698265220215363   -0.005495828415980707
-0.11909546111774452   -0.2025724962162143   -0.004349390652168752
-0.08232436594945475   -0.20298522147663683   -0.0035853126014525447
-0.08189333619918887   -0.20348421231101596   -0.003894531858632654
-0.07760644561961857   -0.2698265220215363   -0.005495828415980707
-0.11909546111774452   -0.2025724962162143   -0.004349390652168752
-0.08189333619918887   -0.20348421231101596   -0.003894531858632654
-0.11244474120831237   -0.26949329644854286   -0.006643793092160762
-0.07760644561961857   -0.2698265220215363   -0.005495828415980707
-0.08232436594945475   -0.20298522147663683   -0.0035853126014525447
-0.11266325800391974   -0.26914842880744055   -0.006131418483584831
-0.07795779759480832   -0.2694561352584989   -0.005103665120813444
-0.08232436594945475   -0.20298522147663683   -0.0035853126014525447
-0.11909546111774452   -0.2025724962162143   -0.004349390652168752
-0.11266325800391974   -0.26914842880744055   -0.006131418483584831
-0.11942879225876397   -0.20221718389754417   -0.003941989161334809
-0.07795779759480832   -0.2694561352584989   -0.005103665120813444
-0.11290196156587737   -0.2688990962301479   -0.005575157747284441
-0.11942879225876397   -0.20221718389754417   -0.003941989161334809
-0.11266325800391974   -0.26914842880744055   -0.006131418483584831
-0.07795779759480832   -0.2694561352584989   -0.005103665120813444
-0.11942879225876397   -0.20221718389754417   -0.003941989161334809
-0.08275693047708521   -0.20252096702569464   -0.0032435542549186357
-0.08232436594945475   -0.20298522147663683   -0.0035853126014525447
-0.07795779759480832   -0.2694561352584989   -0.005103665120813444
-0.11942879225876397   -0.20221718389754417   -0.003941989161334809
-0.08232436594945475   -0.20298522147663683   -0.0035853126014525447
-0.11266325800391974   -0.26914842880744055   -0.006131418483584831
-0.1120881468544402   -0.2699137270864993   -0.007119822369444158
-0.11831770193760051   -0.20337592901186893   -0.0050636502728804945
-0.14986880550680814   -0.2687902027034949   -0.007887457315993654
-0.11244474120831237   -0.26949329644854286   -0.006643793092160762
-0.11831770193760051   -0.20337592901186893   -0.0050636502728804945
-0.15739368481332328   -0.2026229564250836   -0.005732092740390877
-0.14986880550680814   -0.2687902027034949   -0.007887457315993654
-0.15747119270780002   -0.2022917223261026   -0.0053564557503244774
-0.11244474120831237   -0.26949329644854286   -0.006643793092160762
-0.14962232882862286   -0.2684343960483925   -0.007255959591415651
-0.15747119270780002   -0.2022917223261026   -0.0053564557503244774
-0.14986880550680814   -0.2687902027034949   -0.007887457315993654
-0.11244474120831237   -0.26949329644854286   -0.006643793092160762
-0.15747119270780002   -0.2022917223261026   -0.0053564557503244774
-0.1187590970226685   -0.2029643256197937   -0.004720766330739411
-0.11831770193760051   -0.20337592901186893   -0.0050636502728804945
-0.11244474120831237   -0.26949329644854286   -0.006643793092160762
-0.15747119270780002   -0.2022917223261026   -0.0053564557503244774
-0.11831770193760051   -0.20337592901186893   -0.0050636502728804945
-0.14986880550680814   -0.2687902027034949   -0.007887457315993654
-0.11244474120831237   -0.26949329644854286   -0.006643793092160762
-0.1187590970226685   -0.2029643256197937   -0.004720766330739411
-0.14962232882862286   -0.2684343960483925   -0.007255959591415651
-0.11266325800391974   -0.26914842880744055   -0.006131418483584831
-0.1187590970226685   -0.2029643256197937   -0.004720766330739411
-0.15747119270780002   -0.2022917223261026   -0.0053564557503244774
-0.14962232882862286   -0.2684343960483925   -0.007255959591415651
-0.15754917121522158   -0.20195488911122886   -0.004923322712410749
-0.11266325800391974   -0.26914842880744055   -0.006131418483584831
-0.1494216564486611   -0.26814296664178006   -0.00655777948581878
-0.15754917121522158   -0.20195488911122886   -0.004923322712410749
-0.14962232882862286   -0.2684343960483925   -0.007255959591415651
-0.11266325800391974   -0.26914842880744055   -0.006131418483584831
-0.15754917121522158   -0.20195488911122886   -0.004923322712410749
-0.11909546111774452   -0.2025724962162143   -0.004349390652168752
-0.1187590970226685   -0.2029643256197937   -0.004720766330739411
-0.11266325800391974   -0.26914842880744055   -0.006131418483584831
-0.15754917121522158   -0.20195488911122886   -0.004923322712410749
-0.1187590970226685   -0.2029643256197937   -0.004720766330739411
-0.14962232882862286   -0.2684343960483925   -0.007255959591415651
-0.11266325800391974   -0.26914842880744055   -0.006131418483584831
-0.11909546111774452   -0.2025724962162143   -0.004349390652168752
-0.1494216564486611   -0.26814296664178006   -0.00655777948581878
-0.11290196156587737   -0.2688990962301479   -0.005575157747284441
-0.11909546111774452   -0.2025724962162143   -0.004349390652168752
-0.15754917121522158   -0.20195488911122886   -0.004923322712410749
-0.1494216564486611   -0.26814296664178006   -0.00655777948581878
-0.15741014867673933   -0.20172488189386686   -0.004439588934240778
-0.11290196156587737   -0.2688990962301479   -0.005575157747284441
-0.1489267212720378   -0.2680380744614661   -0.005800539636956905
-0.15741014867673933   -0.20172488189386686   -0.004439588934240778
-0.1494216564486611   -0.26814296664178006   -0.00655777948581878
-0.11290196156587737   -0.2688990962301479   -0.005575157747284441
-0.15741014867673933   -0.20172488189386686   -0.004439588934240778
-0.11942879225876397   -0.20221718389754417   -0.003941989161334809
-0.11909546111774452   -0.2025724962162143   -0.004349390652168752
-0.11290196156587737   -0.2688990962301479   -0.005575157747284441
-0.15741014867673933   -0.20172488189386686   -0.004439588934240778
-0.11909546111774452   -0.2025724962162143   -0.004349390652168752
-0.1494216564486611   -0.26814296664178006   -0.00655777948581878
0.030492796553382658   -0.20524036955702596   -0.00028474423366980374
0.027254304569393584   -0.1368059377958732   0.000843839010794535
-0.008371749592940571   -0.2048913303470587   -0.0017933826724750729
0.03000000890020938   -0.20435997958026975   -0.00024922347456295525
0.027254304569393584   -0.1368059377958732   0.000843839010794535
-0.011844383807461088   -0.13615421032282982   -0.0003623236095897218
-0.008371749592940571   -0.2048913303470587   -0.0017933826724750729
-0.012387666943891385   -0.13545501328696016   -7.958657211910476e-05
0.03000000890020938   -0.20435997958026975   -0.00024922347456295525
-0.008829190157132433   -0.20412107097554733   -0.0016556291895268105
-0.012387666943891385   -0.13545501328696016   -7.958657211910476e-05
-0.008371749592940571   -0.2048913303470587   -0.0017933826724750729
0.03000000890020938   -0.20435997958026975   -0.00024922347456295525
-0.012387666943891385   -0.13545501328696016   -7.958657211910476e-05
0.0263934348509149   -0.1359656881656583   0.0012001592380165213
0.027254304569393584   -0.1368059377958732   0.000843839010794535
0.03000000890020938   -0.20435997958026975   -0.00024922347456295525
-0.012387666943891385   -0.13545501328696016   -7.958657211910476e-05
0.027254304569393584   -0.1368059377958732   0.000843839010794535
-0.008371749592940571   -0.2048913303470587   -0.0017933826724750729
0.03000000890020938   -0.20435997958026975   -0.00024922347456295525
0.0263934348509149   -0.1359656881656583   0.0012001592380165213
-0.008829190157132433   -0.20412107097554733   -0.0016556291895268105
0.029400840152748044   -0.20356887639495105   -0.00013727693523945799
0.0263934348509149   -0.1359656881656583   0.0012001592380165213
-0.012387666943891385   -0.13545501328696016   -7.958657211910476e-05
-0.008829190157132433   -0.20412107097554733   -0.0016556291895268105
-0.013022347247850305   -0.1347159521880197   0.0002527662724817325
0.029400840152748044   -0.20356887639495105   -0.00013727693523945799
-0.009352322080894707   -0.20339116254038866   -0.0014805359964101036
-0.013022347247850305   -0.1347159521880197   0.0002527662724817325
-0.008829190157132433   -0.20412107097554733   -0.0016556291895268105
0.029400840152748044   -0.20356887639495105   -0.00013727693523945799
-0.013022347247850305   -0.1347159521880197   0.0002527662724817325
0.02543707280816946   -0.13512852518058588   0.0017079573052238871
0.0263934348509149   -0.1359656881656583   0.0012001592380165213
0.029400840152748044   -0.20356887639495105   -0.00013727693523945799
-0.013022347247850305   -0.1347159521880197   0.0002527662724817325
0.0263934348509149   -0.1359656881656583   0.0012001592380165213
-0.008829190157132433   -0.20412107097554733   -0.0016556291895268105
0.029400840152748044   -0.20356887639495105   -0.00013727693523945799
0.02543707280816946   -0.13512852518058588   0.0017079573052238871
-0.009352322080894707   -0.20339116254038866   -0.0014805359964101036
0.028612529199947973   -0.20273913389879936   4.7596559737674196e-05
0.02543707280816946   -0.13512852518058588   0.0017079573052238871
-0.013022347247850305   -0.1347159521880197   0.0002527662724817325
-0.009352322080894707   -0.20339116254038866   -0.0014805359964101036
-0.013677826362469406   -0.1339302154122815   0.0006339342855929613
0.028612529199947973   -0.20273913389879936   4.7596559737674196e-05
-0.009938062478384767   -0.20269176520168086   -0.0012587174535090772
-0.013677826362469406   -0.1339302154122815   0.0006339342855929613
-0.009352322080894707   -0.20339116254038866   -0.0014805359964101036
0.028612529199947973   -0.20273913389879936   4.7596559737674196e-05
-0.013677826362469406   -0.1339302154122815   0.0006339342855929613
0.02426895539503285   -0.13410117007884298   0.0022660277831154175
0.02543707280816946   -0.13512852518058588   0.0017079573052238871
0.028612529199947973   -0.20273913389879936   4.7596559737674196e-05
-0.013677826362469406   -0.1339302154122815   0.0006339342855929613
0.02543707280816946   -0.13512852518058588   0.0017079573052238871
-0.009352322080894707   -0.20339116254038866   -0.0014805359964101036
-0.008371749592940571   -0.2048913303470587   -0.0017933826724750729
-0.011844383807461088   -0.13615421032282982   -0.0003623236095897218
-0.045199853785805495   -0.20449198219902964   -0.0030763063049418344
-0.008829190157132433   -0.20412107097554733   -0.0016556291895268105
-0.011844383807461088   -0.13615421032282982   -0.0003623236095897218
-0.04867766280581678   -0.13598590048442163   -0.0015281150215724433
-0.045199853785805495   -0.20449198219902964   -0.0030763063049418344
-0.04916706528711288   -0.13537320954712312   -0.0012671950578249937
-0.008829190157132433   -0.20412107097554733   -0.0016556291895268105
-0.045664584186671305   -0.2038450190714621   -0.002870073456447771
-0.04916706528711288   -0.13537320954712312   -0.0012671950578249937
-0.045199853785805495   -0.20449198219902964   -0.0030763063049418344
-0.008829190157132433   -0.20412107097554733   -0.0016556291895268105
-0.04916706528711288   -0.13537320954712312   -0.0012671950578249937
-0.012387666943891385   -0.13545501328696016   -7.958657211910476e-05
-0.011844383807461088   -0.13615421032282982   -0.0003623236095897218
-0.008829190157132433   -0.20412107097554733   -0.0016556291895268105
-0.04916706528711288   -0.13537320954712312   -0.0012671950578249937
-0.011844383807461088   -0.13615421032282982   -0.0003623236095897218
-0.045199853785805495   -0.20449198219902964   -0.0030763063049418344
-0.008829190157132433   -0.20412107097554733   -0.0016556291895268105
-0.012387666943891385   -0.13545501328696016   -7.958657211910476e-05
-0.045664584186671305   -0.2038450190714621   -0.002870073456447771
-0.009352322080894707   -0.20339116254038866   -0.0014805359964101036
-0.012387666943891385   -0.13545501328696016   -7.958657211910476e-05
-0.04916706528711288   -0.13537320954712312   -0.0012671950578249937
-0.045664584186671305   -0.2038450190714621   -0.002870073456447771
-0.04967290631831787   -0.13473546029114705   -0.0009808005092474083
-0.009352322080894707   -0.20339116254038866   -0.0014805359964101036
-0.04613949218589355   -0.20322944220830616   -0.0026283621553228396
-0.04967290631831787   -0.13473546029114705   -0.0009808005092474083
-0.045664584186671305   -0.2038450190714621   -0.002870073456447771
-0.009352322080894707   -0.20339116254038866   -0.0014805359964101036
-0.04967290631831787   -0.13473546029114705   -0.0009808005092474083
-0.013022347247850305   -0.1347159521880197   0.0002527662724817325
-0.012387666943891385   -0.13545501328696016   -7.958657211910476e-05
-0.009352322080894707   -0.20339116254038866   -0.0014805359964101036
-0.04967290631831787   -0.13473546029114705   -0.0009808005092474083
-0.012387666943891385   -0.13545501328696016   -7.958657211910476e-05
-0.045664584186671305   -0.2038450190714621   -0.002870073456447771
-0.009352322080894707   -0.20339116254038866   -0.0014805359964101036
-0.013022347247850305   -0.1347159521880197   0.0002527662724817325
-0.04613949218589355   -0.20322944220830616   -0.0026283621553228396
-0.009938062478384767   -0.20269176520168086   -0.0012587174535090772
-0.013022347247850305   -0.1347159521880197   0.0002527662724817325
-0.04967290631831787   -0.13473546029114705   -0.0009808005092474083
-0.04613949218589355   -0.20322944220830616   -0.0026283621553228396
-0.050199104216005194   -0.13408347221264533   -0.0006637459610937382
-0.009938062478384767   -0.20269176520168086   -0.0012587174535090772
-0.0466442447582077   -0.20265445955110215   -0.002350707194823097
-0.050199104216005194   -0.13408347221264533   -0.0006637459610937382
-0.04613949218589355   -0.20322944220830616   -0.0026283621553228396
-0.009938062478384767   -0.20269176520168086   -0.0012587174535090772
-0.050199104216005194   -0.13408347221264533   -0.0006637459610937382
-0.013677826362469406   -0.1339302154122815   0.0006339342855929613
-0.013022347247850305   -0.1347159521880197   0.0002527662724817325
-0.009938062478384767   -0.20269176520168086   -0.0012587174535090772
-0.050199104216005194   -0.13408347221264533   -0.0006637459610937382
-0.013022347247850305   -0.1347159521880197   0.0002527662724817325
-0.04613949218589355   -0.20322944220830616   -0.0026283621553228396
-0.045199853785805495   -0.20449198219902964   -0.0030763063049418344
-0.04867766280581678   -0.13598590048442163   -0.0015281150215724433
-0.08143271707000924   -0.20401650676129823   -0.004169490712303684
-0.045664584186671305   -0.2038450190714621   -0.002870073456447771
-0.04867766280581678   -0.13598590048442163   -0.0015281150215724433
-0.08514399598623794   -0.13593961877258645   -0.0025838570650159637
-0.08143271707000924   -0.20401650676129823   -0.004169490712303684
-0.08561103701416362   -0.13540062037022632   -0.002336780599399059
-0.045664584186671305   -0.2038450190714621   -0.002870073456447771
-0.08189333619918887   -0.20348421231101596   -0.003894531858632654
-0.08561103701416362   -0.13540062037022632   -0.002336780599399059
-0.08143271707000924   -0.20401650676129823   -0.004169490712303684
-0.045664584186671305   -0.2038450190714621   -0.002870073456447771
-0.08561103701416362   -0.13540062037022632   -0.002336780599399059
-0.04916706528711288   -0.13537320954712312   -0.0012671950578249937
-0.04867766280581678   -0.13598590048442163   -0.0015281150215724433
-0.045664584186671305   -0.2038450190714621   -0.002870073456447771
-0.08561103701416362   -0.13540062037022632   -0.002336780599399059
-0.04867766280581678   -0.13598590048442163   -0.0015281150215724433
-0.08143271707000924   -0.20401650676129823   -0.004169490712303684
-0.045664584186671305   -0.2038450190714621   -0.002870073456447771
-0.04916706528711288   -0.13537320954712312   -0.0012671950578249937
-0.08189333619918887   -0.20348421231101596   -0.003894531858632654
-0.04613949218589355   -0.20322944220830616   -0.0026283621553228396
-0.04916706528711288   -0.13537320954712312   -0.0012671950578249937
-0.08561103701416362   -0.13540062037022632   -0.002336780599399059
-0.08189333619918887   -0.20348421231101596   -0.003894531858632654
-0.08605589440638858   -0.1348511624771242   -0.002067498125487904
-0.04613949218589355   -0.20322944220830616   -0.0026283621553228396
-0.08232436594945475   -0.20298522147663683   -0.0035853126014525447
-0.08605589440638858   -0.1348511624771242   -0.002067498125487904
-0.08189333619918887   -0.20348421231101596   -0.003894531858632654
-0.04613949218589355   -0.20322944220830616   -0.0026283621553228396
-0.08605589440638858   -0.1348511624771242   -0.002067498125487904
-0.04967290631831787   -0.13473546029114705   -0.0009808005092474083
-0.04916706528711288   -0.13537320954712312   -0.0012671950578249937
-0.04613949218589355   -0.20322944220830616   -0.0026283621553228396
-0.08605589440638858   -0.1348511624771242   -0.002067498125487904
-0.04916706528711288   -0.13537320954712312   -0.0012671950578249937
-0.08189333619918887   -0.20348421231101596   -0.003894531858632654
-0.04613949218589355   -0.20322944220830616   -0.0026283621553228396
-0.04967290631831787   -0.13473546029114705   -0.0009808005092474083
-0.08232436594945475   -0.20298522147663683   -0.0035853126014525447
-0.0466442447582077   -0.20265445955110215   -0.002350707194823097
-0.04967290631831787   -0.13473546029114705   -0.0009808005092474083
-0.08605589440638858   -0.1348511624771242   -0.002067498125487904
-0.08232436594945475   -0.20298522147663683   -0.0035853126014525447
-0.0864962305604445   -0.134288221754284   -0.0017773336943021545
-0.0466442447582077   -0.20265445955110215   -0.002350707194823097
-0.08275693047708521   -0.20252096702569464   -0.0032435542549186357
-0.0864962305604445   -0.134288221754284   -0.0017773336943021545
-0.08232436594945475   -0.20298522147663683   -0.0035853126014525447
-0.0466442447582077   -0.20265445955110215   -0.002350707194823097
-0.0864962305604445   -0.134288221754284   -0.0017773336943021545
-0.050199104216005194   -0.13408347221264533   -0.0006637459610937382
-0.04967290631831787   -0.13473546029114705   -0.0009808005092474083
-0.0466442447582077   -0.20265445955110215   -0.002350707194823097
-0.0864962305604445   -0.134288221754284   -0.0017773336943021545
-0.04967290631831787   -0.13473546029114705   -0.0009808005092474083
-0.08232436594945475   -0.20298522147663683   -0.0035853126014525447
-0.08143271707000924   -0.20401650676129823   -0.004169490712303684
-0.08514399598623794   -0.13593961877258645   -0.0025838570650159637
-0.11831770193760051   -0.20337592901186893   -0.0050636502728804945
-0.08189333619918887   -0.20348421231101596   -0.003894531858632654
-0.08514399598623794   -0.13593961877258645   -0.0025838570650159637
-0.12238123307189225   -0.13573033055793382   -0.003474601727498432
-0.11831770193760051   -0.20337592901186893   -0.0050636502728804945
-0.12282650312712184   -0.1352882084082936   -0.0032423830710193624
-0.08189333619918887   -0.20348421231101596   -0.003894531858632654
-0.1187590970226685   -0.2029643256197937   -0.004720766330739411
-0.12282650312712184   -0.1352882084082936   -0.0032423830710193624
-0.11831770193760051   -0.20337592901186893   -0.0050636502728804945
-0.08189333619918887   -0.20348421231101596   -0.003894531858632654
-0.12282650312712184   -0.1352882084082936   -0.0032423830710193624
-0.08561103701416362   -0.13540062037022632   -0.002336780599399059
-0.08514399598623794   -0.13593961877258645   -0.0025838570650159637
-0.08189333619918887   -0.20348421231101596   -0.003894531858632654
-0.12282650312712184   -0.1352882084082936   -0.0032423830710193624
-0.08514399598623794   -0.13593961877258645   -0.0025838570650159637
-0.11831770193760051   -0.20337592901186893   -0.0050636502728804945
-0.08189333619918887   -0.20348421231101596   -0.003894531858632654
-0.08561103701416362   -0.13540062037022632   -0.002336780599399059
-0.1187590970226685   -0.2029643256197937   -0.004720766330739411
-0.08232436594945475   -0.20298522147663683   -0.0035853126014525447
-0.08561103701416362   -0.13540062037022632   -0.002336780599399059
-0.12282650312712184   -0.1352882084082936   -0.0032423830710193624
-0.1187590970226685   -0.2029643256197937   -0.004720766330739411
-0.12320470131187065   -0.13482158384924747   -0.0029945995201918776
-0.08232436594945475   -0.20298522147663683   -0.0035853126014525447
-0.11909546111774452   -0.2025724962162143   -0.004349390652168752
-0.12320470131187065   -0.13482158384924747   -0.0029945995201918776
-0.1187590970226685   -0.2029643256197937   -0.004720766330739411
-0.08232436594945475   -0.20298522147663683   -0.0035853126014525447
-0.12320470131187065   -0.13482158384924747   -0.0029945995201918776
-0.08605589440638858   -0.1348511624771242   -0.002067498125487904
-0.08561103701416362   -0.13540062037022632   -0.002336780599399059
-0.08232436594945475   -0.20298522147663683   -0.0035853126014525447
-0.12320470131187065   -0.13482158384924747   -0.0029945995201918776
-0.08561103701416362   -0.13540062037022632   -0.002336780599399059
-0.1187590970226685   -0.2029643256197937   -0.004720766330739411
-0.08232436594945475   -0.20298522147663683   -0.0035853126014525447
-0.08605589440638858   -0.1348511624771242   -0.002067498125487904
-0.11909546111774452   -0.2025724962162143   -0.004349390652168752
-0.08275693047708521   -0.20252096702569464   -0.0032435542549186357
-0.08605589440638858   -0.1348511624771242   -0.002067498125487904
-0.12320470131187065   -0.13482158384924747   -0.0029945995201918776
-0.11909546111774452   -0.2025724962162143   -0.004349390652168752
-0.12356220683146686   -0.13434206583137484   -0.0027242772550360424
-0.08275693047708521   -0.20252096702569464   -0.0032435542549186357
-0.11942879225876397   -0.20221718389754417   -0.003941989161334809
-0.12356220683146686   -0.13434206583137484   -0.0027242772550360424
-0.11909546111774452   -0.2025724962162143   -0.004349390652168752
-0.08275693047708521   -0.20252096702569464   -0.0032435542549186357
-0.12356220683146686   -0.13434206583137484   -0.0027242772550360424
-0.0864962305604445   -0.134288221754284   -0.0017773336943021545
-0.08605589440638858   -0.1348511624771242   -0.002067498125487904
-0.08275693047708521   -0.20252096702569464   -0.0032435542549186357
-0.12356220683146686   -0.13434206583137484   -0.0027242772550360424
-0.08605589440638858   -0.1348511624771242   -0.002067498125487904
-0.11909546111774452   -0.2025724962162143   -0.004349390652168752
-0.11831770193760051   -0.20337592901186893   -0.0050636502728804945
-0.12238123307189225   -0.13573033055793382   -0.003474601727498432
-0.15739368481332328   -0.2026229564250836   -0.005732092740390877
-0.1187590970226685   -0.2029643256197937   -0.004720766330739411
-0.12238123307189225   -0.13573033055793382   -0.003474601727498432
-0.16136748953577273   -0.13538818399934596   -0.004140013108102452
-0.15739368481332328   -0.2026229564250836   -0.005732092740390877
-0.16164914371829925   -0.13501426661459978   -0.003968785398991455
-0.1187590970226685   -0.2029643256197937   -0.004720766330739411
-0.15747119270780002   -0.2022917223261026   -0.0053564557503244774
-0.16164914371829925   -0.13501426661459978   -0.003968785398991455
-0.15739368481332328   -0.2026229564250836   -0.005732092740390877
-0.1187590970226685   -0.2029643256197937   -0.004720766330739411
-0.16164914371829925   -0.13501426661459978   -0.003968785398991455
-0.12282650312712184   -0.1352882084082936   -0.0032423830710193624
-0.12238123307189225   -0.13573033055793382   -0.003474601727498432
-0.1187590970226685   -0.2029643256197937   -0.004720766330739411
-0.16164914371829925   -0.13501426661459978   -0.003968785398991455
-0.12238123307189225   -0.13573033055793382   -0.003474601727498432
-0.15739368481332328   -0.2026229564250836   -0.005732092740390877
-0.1187590970226685   -0.2029643256197937   -0.004720766330739411
-0.12282650312712184   -0.1352882084082936   -0.0032423830710193624
-0.15747119270780002   -0.2022917223261026   -0.0053564557503244774
-0.11909546111774452   -0.2025724962162143   -0.004349390652168752
-0.12282650312712184   -0.1352882084082936   -0.0032423830710193624
-0.16164914371829925   -0.13501426661459978   -0.003968785398991455
-0.15747119270780002   -0.2022917223261026   -0.0053564557503244774
-0.1619066807381068   -0.13459232869305565   -0.003758957856165881
-0.11909546111774452   -0.2025724962162143   -0.004349390652168752
-0.15754917121522158   -0.20195488911122886   -0.004923322712410749
-0.1619066807381068   -0.13459232869305565   -0.003758957856165881
-0.15747119270780002   -0.2022917223261026   -0.0053564557503244774
-0.11909546111774452   -0.2025724962162143   -0.004349390652168752
-0.1619066807381068   -0.13459232869305565   -0.003758957856165881
-0.12320470131187065   -0.13482158384924747   -0.0029945995201918776
-0.12282650312712184   -0.1352882084082936   -0.0032423830710193624
-0.11909546111774452   -0.2025724962162143   -0.004349390652168752
-0.1619066807381068   -0.13459232869305565   -0.003758957856165881
-0.12282650312712184   -0.1352882084082936   -0.0032423830710193624
-0.15747119270780002   -0.2022917223261026   -0.0053564557503244774
-0.11909546111774452   -0.2025724962162143   -0.004349390652168752
-0.12320470131187065   -0.13482158384924747   -0.0029945995201918776
-0.15754917121522158   -0.20195488911122886   -0.004923322712410749
-0.11942879225876397   -0.20221718389754417   -0.003941989161334809
-0.12320470131187065   -0.13482158384924747   -0.0029945995201918776
-0.1619066807381068   -0.13459232869305565   -0.003758957856165881
-0.15754917121522158   -0.20195488911122886   -0.004923322712410749
-0.16203701124521203   -0.13420165416831828   -0.0035204120557404
-0.11942879225876397   -0.20221718389754417   -0.003941989161334809
-0.15741014867673933   -0.20172488189386686   -0.004439588934240778
-0.16203701124521203   -0.13420165416831828   -0.0035204120557404
-0.15754917121522158   -0.20195488911122886   -0.004923322712410749
-0.11942879225876397   -0.20221718389754417   -0.003941989161334809
-0.16203701124521203   -0.13420165416831828   -0.0035204120557404
-0.12356220683146686   -0.13434206583137484   -0.0027242772550360424
-0.12320470131187065   -0.13482158384924747   -0.0029945995201918776
-0.11942879225876397   -0.20221718389754417   -0.003941989161334809
-0.16203701124521203   -0.13420165416831828   -0.0035204120557404
-0.12320470131187065   -0.13482158384924747   -0.0029945995201918776
-0.15754917121522158   -0.20195488911122886   -0.004923322712410749
0.027254304569393584   -0.1368059377958732   0.000843839010794535
0.019044929353208076   -0.06860523942072506   0.0009006764086215235
-0.011844383807461088   -0.13615421032282982   -0.0003623236095897218
0.0263934348509149   -0.1359656881656583   0.0012001592380165213
0.019044929353208076   -0.06860523942072506   0.0009006764086215235
-0.017353560734387825   -0.06770036536107026   0.0004328752438080379
-0.011844383807461088   -0.13615421032282982   -0.0003623236095897218
-0.01789189825973506   -0.06733964958717115   0.0008225054888316687
0.0263934348509149   -0.1359656881656583   0.0012001592380165213
-0.012387666943891385   -0.13545501328696016   -7.958657211910476e-05
-0.01789189825973506   -0.06733964958717115   0.0008225054888316687
-0.011844383807461088   -0.13615421032282982   -0.0003623236095897218
0.0263934348509149   -0.1359656881656583   0.0012001592380165213
-0.01789189825973506   -0.06733964958717115   0.0008225054888316687
0.01736934866202068   -0.06771621079476114   0.0018682832797639116
0.019044929353208076   -0.06860523942072506   0.0009006764086215235
0.0263934348509149   -0.1359656881656583   0.0012001592380165213
-0.01789189825973506   -0.06733964958717115   0.0008225054888316687
0.019044929353208076   -0.06860523942072506   0.0009006764086215235
-0.011844383807461088   -0.13615421032282982   -0.0003623236095897218
0.0263934348509149   -0.1359656881656583   0.0012001592380165213
0.01736934866202068   -0.06771621079476114   0.0018682832797639116
-0.012387666943891385   -0.13545501328696016   -7.958657211910476e-05
0.02543707280816946   -0.13512852518058588   0.0017079573052238871
0.01736934866202068   -0.06771621079476114   0.0018682832797639116
-0.01789189825973506   -0.06733964958717115   0.0008225054888316687
-0.012387666943891385   -0.13545501328696016   -7.958657211910476e-05
-0.01859579346411423   -0.06670947897930701   0.0012945864394178972
0.02543707280816946   -0.13512852518058588   0.0017079573052238871
-0.013022347247850305   -0.1347159521880197   0.0002527662724817325
-0.01859579346411423   -0.06670947897930701   0.0012945864394178972
-0.012387666943891385   -0.13545501328696016   -7.958657211910476e-05
0.02543707280816946   -0.13512852518058588   0.0017079573052238871
-0.01859579346411423   -0.06670947897930701   0.0012945864394178972
0.01638654923692493   -0.06698323818557585   0.0025923878043151776
0.01736934866202068   -0.06771621079476114   0.0018682832797639116
0.02543707280816946   -0.13512852518058588   0.0017079573052238871
-0.01859579346411423   -0.06670947897930701   0.0012945864394178972
0.01736934866202068   -0.06771621079476114   0.0018682832797639116
-0.012387666943891385   -0.13545501328696016   -7.958657211910476e-05
0.02543707280816946   -0.13512852518058588   0.0017079573052238871
0.01638654923692493   -0.06698323818557585   0.0025923878043151776
-0.013022347247850305   -0.1347159521880197   0.0002527662724817325
0.02426895539503285   -0.13410117007884298   0.0022660277831154175
0.01638654923692493   -0.06698323818557585   0.0025923878043151776
-0.01859579346411423   -0.06670947897930701   0.0012945864394178972
-0.013022347247850305   -0.1347159521880197   0.0002527662724817325
-0.019185994291071352   -0.06602970655980941   0.0017103722748816074
0.02426895539503285   -0.13410117007884298   0.0022660277831154175
-0.013677826362469406   -0.1339302154122815   0.0006339342855929613
-0.019185994291071352   -0.06602970655980941   0.0017103722748816074
-0.013022347247850305   -0.1347159521880197   0.0002527662724817325
0.02426895539503285   -0.13410117007884298   0.0022660277831154175
-0.019185994291071352   -0.06602970655980941   0.0017103722748816074
0.015129661596584817   -0.0658683833257173   0.0034205699720492983
0.01638654923692493   -0.06698323818557585   0.0025923878043151776
0.02426895539503285   -0.13410117007884298   0.0022660277831154175
-0.019185994291071352   -0.06602970655980941   0.0017103722748816074
0.01638654923692493   -0.06698323818557585   0.0025923878043151776
-0.013022347247850305   -0.1347159521880197   0.0002527662724817325
-0.011844383807461088   -0.13615421032282982   -0.0003623236095897218
-0.017353560734387825   -0.06770036536107026   0.0004328752438080379
-0.04867766280581678   -0.13598590048442163   -0.0015281150215724433
-0.012387666943891385   -0.13545501328696016   -7.958657211910476e-05
-0.017353560734387825   -0.06770036536107026   0.0004328752438080379
-0.052042132666805296   -0.06869003604631113   -0.0005028648920314104
-0.04867766280581678   -0.13598590048442163   -0.0015281150215724433
-0.05253461667861832   -0.0681470447036825   -0.00022818062971955184
-0.012387666943891385   -0.13545501328696016   -7.958657211910476e-05
-0.04916706528711288   -0.13537320954712312   -0.0012671950578249937
-0.05253461667861832   -0.0681470447036825   -0.00022818062971955184
-0.04867766280581678   -0.13598590048442163   -0.0015281150215724433
-0.012387666943891385   -0.13545501328696016   -7.958657211910476e-05
-0.05253461667861832   -0.0681470447036825   -0.00022818062971955184
-0.01789189825973506   -0.06733964958717115   0.0008225054888316687
-0.017353560734387825   -0.06770036536107026   0.0004328752438080379
-0.012387666943891385   -0.13545501328696016   -7.958657211910476e-05
-0.05253461667861832   -0.0681470447036825   -0.00022818062971955184
-0.017353560734387825   -0.06770036536107026   0.0004328752438080379
-0.04867766280581678   -0.13598590048442163   -0.0015281150215724433
-0.012387666943891385   -0.13545501328696016   -7.958657211910476e-05
-0.01789189825973506   -0.06733964958717115   0.0008225054888316687
-0.04916706528711288   -0.13537320954712312   -0.0012671950578249937
-0.013022347247850305   -0.1347159521880197   0.0002527662724817325
-0.01789189825973506   -0.06733964958717115   0.0008225054888316687
-0.05253461667861832   -0.0681470447036825   -0.00022818062971955184
-0.04916706528711288   -0.13537320954712312   -0.0012671950578249937
-0.05304837247304368   -0.06753618053027184   6.164663371517372e-05
-0.013022347247850305   -0.1347159521880197   0.0002527662724817325
-0.04967290631831787   -0.13473546029114705   -0.0009808005092474083
-0.05304837247304368   -0.06753618053027184   6.164663371517372e-05
-0.04916706528711288   -0.13537320954712312   -0.0012671950578249937
-0.013022347247850305   -0.1347159521880197   0.0002527662724817325
-0.05304837247304368   -0.06753618053027184   6.164663371517372e-05
-0.01859579346411423   -0.06670947897930701   0.0012945864394178972
-0.01789189825973506   -0.06733964958717115   0.0008225054888316687
-0.013022347247850305   -0.1347159521880197   0.0002527662724817325
-0.05304837247304368   -0.06753618053027184   6.164663371517372e-05
-0.01789189825973506   -0.06733964958717115   0.0008225054888316687
-0.04916706528711288   -0.13537320954712312   -0.0012671950578249937
-0.013022347247850305   -0.1347159521880197   0.0002527662724817325
-0.01859579346411423   -0.06670947897930701   0.0012945864394178972
-0.04967290631831787   -0.13473546029114705   -0.0009808005092474083
-0.013677826362469406   -0.1339302154122815   0.0006339342855929613
-0.01859579346411423   -0.06670947897930701   0.0012945864394178972
-0.05304837247304368   -0.06753618053027184   6.164663371517372e-05
-0.04967290631831787   -0.13473546029114705   -0.0009808005092474083
-0.05353524780275597   -0.06686670000450022   0.00038076003359476093
-0.013677826362469406   -0.1339302154122815   0.0006339342855929613
-0.050199104216005194   -0.13408347221264533   -0.0006637459610937382
-0.05353524780275597   -0.06686670000450022   0.00038076003359476093
-0.04967290631831787   -0.13473546029114705   -0.0009808005092474083
-0.013677826362469406   -0.1339302154122815   0.0006339342855929613
-0.05353524780275597   -0.06686670000450022   0.00038076003359476093
-0.019185994291071352   -0.06602970655980941   0.0017103722748816074
-0.01859579346411423   -0.06670947897930701   0.0012945864394178972
-0.013677826362469406   -0.1339302154122815   0.0006339342855929613
-0.05353524780275597   -0.06686670000450022   0.00038076003359476093
-0.01859579346411423   -0.06670947897930701   0.0012945864394178972
-0.04967290631831787   -0.13473546029114705   -0.0009808005092474083
-0.04867766280581678   -0.13598590048442163   -0.0015281150215724433
-0.052042132666805296   -0.06869003604631113   -0.0005028648920314104
-0.08514399598623794   -0.13593961877258645   -0.0025838570650159637
-0.04916706528711288   -0.13537320954712312   -0.0012671950578249937
-0.052042132666805296   -0.06869003604631113   -0.0005028648920314104
-0.08760124736269727   -0.06946283582841169   -0.001534375187413134
-0.08514399598623794   -0.13593961877258645   -0.0025838570650159637
-0.08804215995360753   -0.06890601049272005   -0.0013226144153635944
-0.04916706528711288   -0.13537320954712312   -0.0012671950578249937
-0.08561103701416362   -0.13540062037022632   -0.002336780599399059
-0.08804215995360753   -0.06890601049272005   -0.0013226144153635944
-0.08514399598623794   -0.13593961877258645   -0.0025838570650159637
-0.04916706528711288   -0.13537320954712312   -0.0012671950578249937
-0.08804215995360753   -0.06890601049272005   -0.0013226144153635944
-0.05253461667861832   -0.0681470447036825   -0.00022818062971955184
-0.052042132666805296   -0.06869003604631113   -0.0005028648920314104
-0.04916706528711288   -0.13537320954712312   -0.0012671950578249937
-0.08804215995360753   -0.06890601049272005   -0.0013226144153635944
-0.052042132666805296   -0.06869003604631113   -0.0005028648920314104
-0.08514399598623794   -0.13593961877258645   -0.0025838570650159637
-0.04916706528711288   -0.13537320954712312   -0.0012671950578249937
-0.05253461667861832   -0.0681470447036825   -0.00022818062971955184
-0.08561103701416362   -0.13540062037022632   -0.002336780599399059
-0.04967290631831787   -0.13473546029114705   -0.0009808005092474083
-0.05253461667861832   -0.0681470447036825   -0.00022818062971955184
-0.08804215995360753   -0.06890601049272005   -0.0013226144153635944
-0.08561103701416362   -0.13540062037022632   -0.002336780599399059
-0.08846319844100511   -0.06831889542710116   -0.0011121736232669493
-0.04967290631831787   -0.13473546029114705   -0.0009808005092474083
-0.08605589440638858   -0.1348511624771242   -0.002067498125487904
-0.08846319844100511   -0.06831889542710116   -0.0011121736232669493
-0.08561103701416362   -0.13540062037022632   -0.002336780599399059
-0.04967290631831787   -0.13473546029114705   -0.0009808005092474083
-0.08846319844100511   -0.06831889542710116   -0.0011121736232669493
-0.05304837247304368   -0.06753618053027184   6.164663371517372e-05
-0.05253461667861832   -0.0681470447036825   -0.00022818062971955184
-0.04967290631831787   -0.13473546029114705   -0.0009808005092474083
-0.08846319844100511   -0.06831889542710116   -0.0011121736232669493
-0.05253461667861832   -0.0681470447036825   -0.00022818062971955184
-0.08561103701416362   -0.13540062037022632   -0.002336780599399059
-0.04967290631831787   -0.13473546029114705   -0.0009808005092474083
-0.05304837247304368   -0.06753618053027184   6.164663371517372e-05
-0.08605589440638858   -0.1348511624771242   -0.002067498125487904
-0.050199104216005194   -0.13408347221264533   -0.0006637459610937382
-0.05304837247304368   -0.06753618053027184   6.164663371517372e-05
-0.08846319844100511   -0.06831889542710116   -0.0011121736232669493
-0.08605589440638858   -0.1348511624771242   -0.002067498125487904
-0.08885047395777419   -0.06768399833776156   -0.0008837364063085255
-0.050199104216005194   -0.13408347221264533   -0.0006637459610937382
-0.0864962305604445   -0.134288221754284   -0.0017773336943021545
-0.08885047395777419   -0.06768399833776156   -0.0008837364063085255
-0.08605589440638858   -0.1348511624771242   -0.002067498125487904
-0.050199104216005194   -0.13408347221264533   -0.0006637459610937382
-0.08885047395777419   -0.06768399833776156   -0.0008837364063085255
-0.05353524780275597   -0.06686670000450022   0.00038076003359476093
-0.05304837247304368   -0.06753618053027184   6.164663371517372e-05
-0.050199104216005194   -0.13408347221264533   -0.0006637459610937382
-0.08885047395777419   -0.06768399833776156   -0.0008837364063085255
-0.05304837247304368   -0.06753618053027184   6.164663371517372e-05
-0.08605589440638858   -0.1348511624771242   -0.002067498125487904
-0.08514399598623794   -0.13593961877258645   -0.0025838570650159637
-0.08760124736269727   -0.06946283582841169   -0.001534375187413134
-0.12238123307189225   -0.13573033055793382   -0.003474601727498432
-0.08561103701416362   -0.13540062037022632   -0.002336780599399059
-0.08760124736269727   -0.06946283582841169   -0.001534375187413134
-0.12440881732268277   -0.06977885349510381   -0.00248798119974358
-0.12238123307189225   -0.13573033055793382   -0.003474601727498432
-0.12480573275527992   -0.06927695793350773   -0.002334531642846162
-0.08561103701416362   -0.13540062037022632   -0.002336780599399059
-0.12282650312712184   -0.1352882084082936   -0.0032423830710193624
-0.12480573275527992   -0.06927695793350773   -0.002334531642846162
-0.12238123307189225   -0.13573033055793382   -0.003474601727498432
-0.08561103701416362   -0.13540062037022632   -0.002336780599399059
-0.12480573275527992   -0.06927695793350773   -0.002334531642846162
-0.08804215995360753   -0.06890601049272005   -0.0013226144153635944
-0.08760124736269727   -0.06946283582841169   -0.001534375187413134
-0.08561103701416362   -0.13540062037022632   -0.002336780599399059
-0.12480573275527992   -0.06927695793350773   -0.002334531642846162
-0.08760124736269727   -0.06946283582841169   -0.001534375187413134
-0.12238123307189225   -0.13573033055793382   -0.003474601727498432
-0.08561103701416362   -0.13540062037022632   -0.002336780599399059
-0.08804215995360753   -0.06890601049272005   -0.0013226144153635944
-0.12282650312712184   -0.1352882084082936   -0.0032423830710193624
-0.08605589440638858   -0.1348511624771242   -0.002067498125487904
-0.08804215995360753   -0.06890601049272005   -0.0013226144153635944
-0.12480573275527992   -0.06927695793350773   -0.002334531642846162
-0.12282650312712184   -0.1352882084082936   -0.0032423830710193624
-0.1251593645567421   -0.06873167116172912   -0.0021860411359276343
-0.08605589440638858   -0.1348511624771242   -0.002067498125487904
-0.12320470131187065   -0.13482158384924747   -0.0029945995201918776
-0.1251593645567421   -0.06873167116172912   -0.0021860411359276343
-0.12282650312712184   -0.1352882084082936   -0.0032423830710193624
-0.08605589440638858   -0.1348511624771242   -0.002067498125487904
-0.1251593645567421   -0.06873167116172912   -0.0021860411359276343
-0.08846319844100511   -0.06831889542710116   -0.0011121736232669493
-0.08804215995360753   -0.06890601049272005   -0.0013226144153635944
-0.08605589440638858   -0.1348511624771242   -0.002067498125487904
-0.1251593645567421   -0.06873167116172912   -0.0021860411359276343
-0.08804215995360753   -0.06890601049272005   -0.0013226144153635944
-0.12282650312712184   -0.1352882084082936   -0.0032423830710193624
-0.08605589440638858   -0.1348511624771242   -0.002067498125487904
-0.08846319844100511   -0.06831889542710116   -0.0011121736232669493
-0.12320470131187065   -0.13482158384924747   -0.0029945995201918776
-0.0864962305604445   -0.134288221754284   -0.0017773336943021545
-0.08846319844100511   -0.06831889542710116   -0.0011121736232669493
-0.1251593645567421   -0.06873167116172912   -0.0021860411359276343
-0.12320470131187065   -0.13482158384924747   -0.0029945995201918776
-0.12547934041431663   -0.06815188808411833   -0.0020338246252996715
-0.0864962305604445   -0.134288221754284   -0.0017773336943021545
-0.12356220683146686   -0.13434206583137484   -0.0027242772550360424
-0.12547934041431663   -0.06815188808411833   -0.0020338246252996715
-0.12320470131187065   -0.13482158384924747   -0.0029945995201918776
-0.0864962305604445   -0.134288221754284   -0.0017773336943021545
-0.12547934041431663   -0.06815188808411833   -0.0020338246252996715
-0.08885047395777419   -0.06768399833776156   -0.0008837364063085255
-0.08846319844100511   -0.06831889542710116   -0.0011121736232669493
-0.0864962305604445   -0.134288221754284   -0.0017773336943021545
-0.12547934041431663   -0.06815188808411833   -0.0020338246252996715
-0.08846319844100511   -0.06831889542710116   -0.0011121736232669493
-0.12320470131187065   -0.13482158384924747   -0.0029945995201918776
-0.12238123307189225   -0.13573033055793382   -0.003474601727498432
-0.12440881732268277   -0.06977885349510381   -0.00248798119974358
-0.16136748953577273   -0.13538818399934596   -0.004140013108102452
-0.12282650312712184   -0.1352882084082936   -0.0032423830710193624
-0.12440881732268277   -0.06977885349510381   -0.00248798119974358
-0.16250740711311498   -0.06981598655260075   -0.003284183154925571
-0.16136748953577273   -0.13538818399934596   -0.004140013108102452
-0.16285003553373775   -0.06932798947607564   -0.003220087772344902
-0.12282650312712184   -0.1352882084082936   -0.0032423830710193624
-0.16164914371829925   -0.13501426661459978   -0.003968785398991455
-0.16285003553373775   -0.06932798947607564   -0.003220087772344902
-0.16136748953577273   -0.13538818399934596   -0.004140013108102452
-0.12282650312712184   -0.1352882084082936   -0.0032423830710193624
-0.16285003553373775   -0.06932798947607564   -0.003220087772344902
-0.12480573275527992   -0.06927695793350773   -0.002334531642846162
-0.12440881732268277   -0.06977885349510381   -0.00248798119974358
-0.12282650312712184   -0.1352882084082936   -0.0032423830710193624
-0.16285003553373775   -0.06932798947607564   -0.003220087772344902
-0.12440881732268277   -0.06977885349510381   -0.00248798119974358
-0.16136748953577273   -0.13538818399934596   -0.004140013108102452
-0.12282650312712184   -0.1352882084082936   -0.0032423830710193624
-0.12480573275527992   -0.06927695793350773   -0.002334531642846162
-0.16164914371829925   -0.13501426661459978   -0.003968785398991455
-0.12320470131187065   -0.13482158384924747   -0.0029945995201918776
-0.12480573275527992   -0.06927695793350773   -0.002334531642846162
-0.16285003553373775   -0.06932798947607564   -0.003220087772344902
-0.16164914371829925   -0.13501426661459978   -0.003968785398991455
-0.1631569985839087   -0.06880176379383444   -0.003145455429127485
-0.12320470131187065   -0.13482158384924747   -0.0029945995201918776
-0.1619066807381068   -0.13459232869305565   -0.003758957856165881
-0.1631569985839087   -0.06880176379383444   -0.003145455429127485
-0.16164914371829925   -0.13501426661459978   -0.003968785398991455
-0.12320470131187065   -0.13482158384924747   -0.0029945995201918776
-0.1631569985839087   -0.06880176379383444   -0.003145455429127485
-0.1251593645567421   -0.06873167116172912   -0.0021860411359276343
-0.12480573275527992   -0.06927695793350773   -0.002334531642846162
-0.12320470131187065   -0.13482158384924747   -0.0029945995201918776
-0.1631569985839087   -0.06880176379383444   -0.003145455429127485
-0.12480573275527992   -0.06927695793350773   -0.002334531642846162
-0.16164914371829925   -0.13501426661459978   -0.003968785398991455
-0.12320470131187065   -0.13482158384924747   -0.0029945995201918776
-0.1251593645567421   -0.06873167116172912   -0.0021860411359276343
-0.1619066807381068   -0.13459232869305565   -0.003758957856165881
-0.12356220683146686   -0.13434206583137484   -0.0027242772550360424
-0.1251593645567421   -0.06873167116172912   -0.0021860411359276343
-0.1631569985839087   -0.06880176379383444   -0.003145455429127485
-0.1619066807381068   -0.13459232869305565   -0.003758957856165881
-0.16341718979923697   -0.06824427584005842   -0.00307717976324558
-0.12356220683146686   -0.13434206583137484   -0.0027242772550360424
-0.16203701124521203   -0.13420165416831828   -0.0035204120557404
-0.16341718979923697   -0.06824427584005842   -0.00307717976324558
-0.1619066807381068   -0.13459232869305565   -0.003758957856165881
-0.12356220683146686   -0.13434206583137484   -0.0027242772550360424
-0.16341718979923697   -0.06824427584005842   -0.00307717976324558
-0.12547934041431663   -0.06815188808411833   -0.0020338246252996715
-0.1251593645567421   -0.06873167116172912   -0.0021860411359276343
-0.12356220683146686   -0.13434206583137484   -0.0027242772550360424
-0.16341718979923697   -0.06824427584005842   -0.00307717976324558
-0.1251593645567421   -0.06873167116172912   -0.0021860411359276343
-0.1619066807381068   -0.13459232869305565   -0.003758957856165881
0.019044929353208076   -0.06860523942072506   0.0009006764086215235
0.0   0.0   0.0
-0.017353560734387825   -0.06770036536107026   0.0004328752438080379
0.01736934866202068   -0.06771621079476114   0.0018682832797639116
0.0   0.0   0.0
-0.021856184528734224   -0.00542182575588426   -0.00021251455090434774
-0.017353560734387825   -0.06770036536107026   0.0004328752438080379
-0.023159475470129455   -0.004189643042760078   0.0005281950250365959
0.01736934866202068   -0.06771621079476114   0.0018682832797639116
-0.01789189825973506   -0.06733964958717115   0.0008225054888316687
-0.023159475470129455   -0.004189643042760078   0.0005281950250365959
-0.017353560734387825   -0.06770036536107026   0.0004328752438080379
0.01736934866202068   -0.06771621079476114   0.0018682832797639116
-0.023159475470129455   -0.004189643042760078   0.0005281950250365959
0.0   0.0   0.0
0.0   0.0   0.0
0.01736934866202068   -0.06771621079476114   0.0018682832797639116
-0.023159475470129455   -0.004189643042760078   0.0005281950250365959
0.0   0.0   0.0
-0.017353560734387825   -0.06770036536107026   0.0004328752438080379
0.01736934866202068   -0.06771621079476114   0.0018682832797639116
0.0   0.0   0.0
-0.01789189825973506   -0.06733964958717115   0.0008225054888316687
0.01638654923692493   -0.06698323818557585   0.0025923878043151776
0.0   0.0   0.0
-0.023159475470129455   -0.004189643042760078   0.0005281950250365959
-0.01789189825973506   -0.06733964958717115   0.0008225054888316687
-0.023973806962294873   -0.0035926453438706106   0.0009517689779863632
0.01638654923692493   -0.06698323818557585   0.0025923878043151776
-0.01859579346411423   -0.06670947897930701   0.0012945864394178972
-0.023973806962294873   -0.0035926453438706106   0.0009517689779863632
-0.01789189825973506   -0.06733964958717115   0.0008225054888316687
0.01638654923692493   -0.06698323818557585   0.0025923878043151776
-0.023973806962294873   -0.0035926453438706106   0.0009517689779863632
0.0   0.0   0.0
0.0   0.0   0.0
0.01638654923692493   -0.06698323818557585   0.0025923878043151776
-0.023973806962294873   -0.0035926453438706106   0.0009517689779863632
0.0   0.0   0.0
-0.01789189825973506   -0.06733964958717115   0.0008225054888316687
0.01638654923692493   -0.06698323818557585   0.0025923878043151776
0.0   0.0   0.0
-0.01859579346411423   -0.06670947897930701   0.0012945864394178972
0.015129661596584817   -0.0658683833257173   0.0034205699720492983
0.0   0.0   0.0
-0.023973806962294873   -0.0035926453438706106   0.0009517689779863632
-0.01859579346411423   -0.06670947897930701   0.0012945864394178972
-0.025059309599512834   -0.002801929541177017   0.0014371940416946897
0.015129661596584817   -0.0658683833257173   0.0034205699720492983
-0.019185994291071352   -0.06602970655980941   0.0017103722748816074
-0.025059309599512834   -0.002801929541177017   0.0014371940416946897
-0.01859579346411423   -0.06670947897930701   0.0012945864394178972
0.015129661596584817   -0.0658683833257173   0.0034205699720492983
-0.025059309599512834   -0.002801929541177017   0.0014371940416946897
0.0   0.0   0.0
0.0   0.0   0.0
0.015129661596584817   -0.0658683833257173   0.0034205699720492983
-0.025059309599512834   -0.002801929541177017   0.0014371940416946897
0.0   0.0   0.0
-0.01859579346411423   -0.06670947897930701   0.0012945864394178972
-0.017353560734387825   -0.06770036536107026   0.0004328752438080379
-0.021856184528734224   -0.00542182575588426   -0.00021251455090434774
-0.052042132666805296   -0.06869003604631113   -0.0005028648920314104
-0.01789189825973506   -0.06733964958717115   0.0008225054888316687
-0.021856184528734224   -0.00542182575588426   -0.00021251455090434774
-0.05361800266496841   -0.0070578322665200005   -0.00024194605894919653
-0.052042132666805296   -0.06869003604631113   -0.0005028648920314104
-0.05428482307958949   -0.006377406707332943   -5.766445387038611e-05
-0.01789189825973506   -0.06733964958717115   0.0008225054888316687
-0.05253461667861832   -0.0681470447036825   -0.00022818062971955184
-0.05428482307958949   -0.006377406707332943   -5.766445387038611e-05
-0.052042132666805296   -0.06869003604631113   -0.0005028648920314104
-0.01789189825973506   -0.06733964958717115   0.0008225054888316687
-0.05428482307958949   -0.006377406707332943   -5.766445387038611e-05
-0.023159475470129455   -0.004189643042760078   0.0005281950250365959
-0.021856184528734224   -0.00542182575588426   -0.00021251455090434774
-0.01789189825973506   -0.06733964958717115   0.0008225054888316687
-0.05428482307958949   -0.006377406707332943   -5.766445387038611e-05
-0.021856184528734224   -0.00542182575588426   -0.00021251455090434774
-0.052042132666805296   -0.06869003604631113   -0.0005028648920314104
-0.01789189825973506   -0.06733964958717115   0.0008225054888316687
-0.023159475470129455   -0.004189643042760078   0.0005281950250365959
-0.05253461667861832   -0.0681470447036825   -0.00022818062971955184
-0.01859579346411423   -0.06670947897930701   0.0012945864394178972
-0.023159475470129455   -0.004189643042760078   0.0005281950250365959
-0.05428482307958949   -0.006377406707332943   -5.766445387038611e-05
-0.05253461667861832   -0.0681470447036825   -0.00022818062971955184
-0.05494715833508106   -0.0055831476027173345   0.00027667501194302935
-0.01859579346411423   -0.06670947897930701   0.0012945864394178972
-0.05304837247304368   -0.06753618053027184   6.164663371517372e-05
-0.05494715833508106   -0.0055831476027173345   0.00027667501194302935
-0.05253461667861832   -0.0681470447036825   -0.00022818062971955184
-0.01859579346411423   -0.06670947897930701   0.0012945864394178972
-0.05494715833508106   -0.0055831476027173345   0.00027667501194302935
-0.023973806962294873   -0.0035926453438706106   0.0009517689779863632
-0.023159475470129455   -0.004189643042760078   0.0005281950250365959
-0.01859579346411423   -0.06670947897930701   0.0012945864394178972
-0.05494715833508106   -0.0055831476027173345   0.00027667501194302935
-0.023159475470129455   -0.004189643042760078   0.0005281950250365959
-0.05253461667861832   -0.0681470447036825   -0.00022818062971955184
-0.01859579346411423   -0.06670947897930701   0.0012945864394178972
-0.023973806962294873   -0.0035926453438706106   0.0009517689779863632
-0.05304837247304368   -0.06753618053027184   6.164663371517372e-05
-0.019185994291071352   -0.06602970655980941   0.0017103722748816074
-0.023973806962294873   -0.0035926453438706106   0.0009517689779863632
-0.05494715833508106   -0.0055831476027173345   0.00027667501194302935
-0.05304837247304368   -0.06753618053027184   6.164663371517372e-05
-0.05567401695222278   -0.004669112797657024   0.000594153707927681
-0.019185994291071352   -0.06602970655980941   0.0017103722748816074
-0.05353524780275597   -0.06686670000450022   0.00038076003359476093
-0.05567401695222278   -0.004669112797657024   0.000594153707927681
-0.05304837247304368   -0.06753618053027184   6.164663371517372e-05
-0.019185994291071352   -0.06602970655980941   0.0017103722748816074
-0.05567401695222278   -0.004669112797657024   0.000594153707927681
-0.025059309599512834   -0.002801929541177017   0.0014371940416946897
-0.023973806962294873   -0.0035926453438706106   0.0009517689779863632
-0.019185994291071352   -0.06602970655980941   0.0017103722748816074
-0.05567401695222278   -0.004669112797657024   0.000594153707927681
-0.023973806962294873   -0.0035926453438706106   0.0009517689779863632
-0.05304837247304368   -0.06753618053027184   6.164663371517372e-05
-0.052042132666805296   -0.06869003604631113   -0.0005028648920314104
-0.05361800266496841   -0.0070578322665200005   -0.00024194605894919653
-0.08760124736269727   -0.06946283582841169   -0.001534375187413134
-0.05253461667861832   -0.0681470447036825   -0.00022818062971955184
-0.05361800266496841   -0.0070578322665200005   -0.00024194605894919653
-0.08847587399435217   -0.007489597365819252   -0.000910391563535841
-0.08760124736269727   -0.06946283582841169   -0.001534375187413134
-0.08887756654254449   -0.006950879935091766   -0.0008621386621858558
-0.05253461667861832   -0.0681470447036825   -0.00022818062971955184
-0.08804215995360753   -0.06890601049272005   -0.0013226144153635944
-0.08887756654254449   -0.006950879935091766   -0.0008621386621858558
-0.08760124736269727   -0.06946283582841169   -0.001534375187413134
-0.05253461667861832   -0.0681470447036825   -0.00022818062971955184
-0.08887756654254449   -0.006950879935091766   -0.0008621386621858558
-0.05428482307958949   -0.006377406707332943   -5.766445387038611e-05
-0.05361800266496841   -0.0070578322665200005   -0.00024194605894919653
-0.05253461667861832   -0.0681470447036825   -0.00022818062971955184
-0.08887756654254449   -0.006950879935091766   -0.0008621386621858558
-0.05361800266496841   -0.0070578322665200005   -0.00024194605894919653
-0.08760124736269727   -0.06946283582841169   -0.001534375187413134
-0.05253461667861832   -0.0681470447036825   -0.00022818062971955184
-0.05428482307958949   -0.006377406707332943   -5.766445387038611e-05
-0.08804215995360753   -0.06890601049272005   -0.0013226144153635944
-0.05304837247304368   -0.06753618053027184   6.164663371517372e-05
-0.05428482307958949   -0.006377406707332943   -5.766445387038611e-05
-0.08887756654254449   -0.006950879935091766   -0.0008621386621858558
-0.08804215995360753   -0.06890601049272005   -0.0013226144153635944
-0.08929473061719206   -0.006329666781307527   -0.0007758550270001888
-0.05304837247304368   -0.06753618053027184   6.164663371517372e-05
-0.08846319844100511   -0.06831889542710116   -0.0011121736232669493
-0.08929473061719206   -0.006329666781307527   -0.0007758550270001888
-0.08804215995360753   -0.06890601049272005   -0.0013226144153635944
-0.05304837247304368   -0.06753618053027184   6.164663371517372e-05
-0.08929473061719206   -0.006329666781307527   -0.0007758550270001888
-0.05494715833508106   -0.0055831476027173345   0.00027667501194302935
-0.05428482307958949   -0.006377406707332943   -5.766445387038611e-05
-0.05304837247304368   -0.06753618053027184   6.164663371517372e-05
-0.08929473061719206   -0.006329666781307527   -0.0007758550270001888
-0.05428482307958949   -0.006377406707332943   -5.766445387038611e-05
-0.08804215995360753   -0.06890601049272005   -0.0013226144153635944
-0.05304837247304368   -0.06753618053027184   6.164663371517372e-05
-0.05494715833508106   -0.0055831476027173345   0.00027667501194302935
-0.08846319844100511   -0.06831889542710116   -0.0011121736232669493
-0.05353524780275597   -0.06686670000450022   0.00038076003359476093
-0.05494715833508106   -0.0055831476027173345   0.00027667501194302935
-0.08929473061719206   -0.006329666781307527   -0.0007758550270001888
-0.08846319844100511   -0.06831889542710116   -0.0011121736232669493
-0.08968511094311149   -0.005580567280517087   -0.0006617095913902263
-0.05353524780275597   -0.06686670000450022   0.00038076003359476093
-0.08885047395777419   -0.06768399833776156   -0.0008837364063085255
-0.08968511094311149   -0.005580567280517087   -0.0006617095913902263
-0.08846319844100511   -0.06831889542710116   -0.0011121736232669493
-0.05353524780275597   -0.06686670000450022   0.00038076003359476093
-0.08968511094311149   -0.005580567280517087   -0.0006617095913902263
-0.05567401695222278   -0.004669112797657024   0.000594153707927681
-0.05494715833508106   -0.0055831476027173345   0.00027667501194302935
-0.05353524780275597   -0.06686670000450022   0.00038076003359476093
-0.08968511094311149   -0.005580567280517087   -0.0006617095913902263
-0.05494715833508106   -0.0055831476027173345   0.00027667501194302935
-0.08846319844100511   -0.06831889542710116   -0.0011121736232669493
-0.08760124736269727   -0.06946283582841169   -0.001534375187413134
-0.08847587399435217   -0.007489597365819252   -0.000910391563535841
-0.12440881732268277   -0.06977885349510381   -0.00248798119974358
-0.08804215995360753   -0.06890601049272005   -0.0013226144153635944
-0.08847587399435217   -0.007489597365819252   -0.000910391563535841
-0.12504824469648243   -0.007386406241148531   -0.0018509269280358128
-0.12440881732268277   -0.06977885349510381   -0.00248798119974358
-0.12531880395905337   -0.006896238424529387   -0.0018306901033547564
-0.08804215995360753   -0.06890601049272005   -0.0013226144153635944
-0.12480573275527992   -0.06927695793350773   -0.002334531642846162
-0.12531880395905337   -0.006896238424529387   -0.0018306901033547564
-0.12440881732268277   -0.06977885349510381   -0.00248798119974358
-0.08804215995360753   -0.06890601049272005   -0.0013226144153635944
-0.12531880395905337   -0.006896238424529387   -0.0018306901033547564
-0.08887756654254449   -0.006950879935091766   -0.0008621386621858558
-0.08847587399435217   -0.007489597365819252   -0.000910391563535841
-0.08804215995360753   -0.06890601049272005   -0.0013226144153635944
-0.12531880395905337   -0.006896238424529387   -0.0018306901033547564
-0.08847587399435217   -0.007489597365819252   -0.000910391563535841
-0.12440881732268277   -0.06977885349510381   -0.00248798119974358
-0.08804215995360753   -0.06890601049272005   -0.0013226144153635944
-0.08887756654254449   -0.006950879935091766   -0.0008621386621858558
-0.12480573275527992   -0.06927695793350773   -0.002334531642846162
-0.08846319844100511   -0.06831889542710116   -0.0011121736232669493
-0.08887756654254449   -0.006950879935091766   -0.0008621386621858558
-0.12531880395905337   -0.006896238424529387   -0.0018306901033547564
-0.12480573275527992   -0.06927695793350773   -0.002334531642846162
-0.12560125285388746   -0.006354558479184384   -0.001818969266063867
-0.08846319844100511   -0.06831889542710116   -0.0011121736232669493
-0.1251593645567421   -0.06873167116172912   -0.0021860411359276343
-0.12560125285388746   -0.006354558479184384   -0.001818969266063867
-0.12480573275527992   -0.06927695793350773   -0.002334531642846162
-0.08846319844100511   -0.06831889542710116   -0.0011121736232669493
-0.12560125285388746   -0.006354558479184384   -0.001818969266063867
-0.08929473061719206   -0.006329666781307527   -0.0007758550270001888
-0.08887756654254449   -0.006950879935091766   -0.0008621386621858558
-0.08846319844100511   -0.06831889542710116   -0.0011121736232669493
-0.12560125285388746   -0.006354558479184384   -0.001818969266063867
-0.08887756654254449   -0.006950879935091766   -0.0008621386621858558
-0.12480573275527992   -0.06927695793350773   -0.002334531642846162
-0.08846319844100511   -0.06831889542710116   -0.0011121736232669493
-0.08929473061719206   -0.006329666781307527   -0.0007758550270001888
-0.1251593645567421   -0.06873167116172912   -0.0021860411359276343
-0.08885047395777419   -0.06768399833776156   -0.0008837364063085255
-0.08929473061719206   -0.006329666781307527   -0.0007758550270001888
-0.12560125285388746   -0.006354558479184384   -0.001818969266063867
-0.1251593645567421   -0.06873167116172912   -0.0021860411359276343
-0.12581177605340796   -0.0057720275417550235   -0.0018171895861464923
-0.08885047395777419   -0.06768399833776156   -0.0008837364063085255
-0.12547934041431663   -0.06815188808411833   -0.0020338246252996715
-0.12581177605340796   -0.0057720275417550235   -0.0018171895861464923
-0.1251593645567421   -0.06873167116172912   -0.0021860411359276343
-0.08885047395777419   -0.06768399833776156   -0.0008837364063085255
-0.12581177605340796   -0.0057720275417550235   -0.0018171895861464923
-0.08968511094311149   -0.005580567280517087   -0.0006617095913902263
-0.08929473061719206   -0.006329666781307527   -0.0007758550270001888
-0.08885047395777419   -0.06768399833776156   -0.0008837364063085255
-0.12581177605340796   -0.0057720275417550235   -0.0018171895861464923
-0.08929473061719206   -0.006329666781307527   -0.0007758550270001888
-0.1251593645567421   -0.06873167116172912   -0.0021860411359276343
-0.12440881732268277   -0.06977885349510381   -0.00248798119974358
-0.12504824469648243   -0.007386406241148531   -0.0018509269280358128
-0.16250740711311498   -0.06981598655260075   -0.003284183154925571
-0.12480573275527992   -0.06927695793350773   -0.002334531642846162
-0.12504824469648243   -0.007386406241148531   -0.0018509269280358128
-0.162615703947167   -0.007328903345283473   -0.00277489965554545
-0.16250740711311498   -0.06981598655260075   -0.003284183154925571
-0.1628338616505242   -0.006795741716960658   -0.0027757769484734757
-0.12480573275527992   -0.06927695793350773   -0.002334531642846162
-0.16285003553373775   -0.06932798947607564   -0.003220087772344902
-0.1628338616505242   -0.006795741716960658   -0.0027757769484734757
-0.16250740711311498   -0.06981598655260075   -0.003284183154925571
-0.12480573275527992   -0.06927695793350773   -0.002334531642846162
-0.1628338616505242   -0.006795741716960658   -0.0027757769484734757
-0.12531880395905337   -0.006896238424529387   -0.0018306901033547564
-0.12504824469648243   -0.007386406241148531   -0.0018509269280358128
-0.12480573275527992   -0.06927695793350773   -0.002334531642846162
-0.1628338616505242   -0.006795741716960658   -0.0027757769484734757
-0.12504824469648243   -0.007386406241148531   -0.0018509269280358128
-0.16250740711311498   -0.06981598655260075   -0.003284183154925571
-0.12480573275527992   -0.06927695793350773   -0.002334531642846162
-0.12531880395905337   -0.006896238424529387   -0.0018306901033547564
-0.16285003553373775   -0.06932798947607564   -0.003220087772344902
-0.1251593645567421   -0.06873167116172912   -0.0021860411359276343
-0.12531880395905337   -0.006896238424529387   -0.0018306901033547564
-0.1628338616505242   -0.006795741716960658   -0.0027757769484734757
-0.16285003553373775   -0.06932798947607564   -0.003220087772344902
-0.1630736912275002   -0.006265745920451253   -0.0028181171395591405
-0.1251593645567421   -0.06873167116172912   -0.0021860411359276343
-0.1631569985839087   -0.06880176379383444   -0.003145455429127485
-0.1630736912275002   -0.006265745920451253   -0.0028181171395591405
-0.16285003553373775   -0.06932798947607564   -0.003220087772344902
-0.1251593645567421   -0.06873167116172912   -0.0021860411359276343
-0.1630736912275002   -0.006265745920451253   -0.0028181171395591405
-0.12560125285388746   -0.006354558479184384   -0.001818969266063867
-0.12531880395905337   -0.006896238424529387   -0.0018306901033547564
-0.1251593645567421   -0.06873167116172912   -0.0021860411359276343
-0.1630736912275002   -0.006265745920451253   -0.0028181171395591405
-0.12531880395905337   -0.006896238424529387   -0.0018306901033547564
-0.16285003553373775   -0.06932798947607564   -0.003220087772344902
-0.1251593645567421   -0.06873167116172912   -0.0021860411359276343
-0.12560125285388746   -0.006354558479184384   -0.001818969266063867
-0.1631569985839087   -0.06880176379383444   -0.003145455429127485
-0.12547934041431663   -0.06815188808411833   -0.0020338246252996715
-0.12560125285388746   -0.006354558479184384   -0.001818969266063867
-0.1630736912275002   -0.006265745920451253   -0.0028181171395591405
-0.1631569985839087   -0.06880176379383444   -0.003145455429127485
-0.1632490688550803   -0.0056905759692900066   -0.0028637564584265526
-0.12547934041431663   -0.06815188808411833   -0.0020338246252996715
-0.16341718979923697   -0.06824427584005842   -0.00307717976324558
-0.1632490688550803   -0.0056905759692900066   -0.0028637564584265526
-0.1631569985839087   -0.06880176379383444   -0.003145455429127485
-0.12547934041431663   -0.06815188808411833   -0.0020338246252996715
-0.1632490688550803   -0.0056905759692900066   -0.0028637564584265526
-0.12581177605340796   -0.0057720275417550235   -0.0018171895861464923
-0.12560125285388746   -0.006354558479184384   -0.001818969266063867
-0.12547934041431663   -0.06815188808411833   -0.0020338246252996715
-0.1632490688550803   -0.0056905759692900066   -0.0028637564584265526
-0.12560125285388746   -0.006354558479184384   -0.001818969266063867
-0.1631569985839087   -0.06880176379383444   -0.003145455429127485
              </DataArray>   
          </PointData>  
       </Piece>  
   </UnstructuredGrid> 
</VTKFile> 
