<?xml version="1.0"?> 
<VTKFile type="UnstructuredGrid"> 
   <UnstructuredGrid> 
      <Piece NumberOfPoints="6000"  NumberOfCells="1500">  
          <Points>  
             <DataArray type="Float64" NumberOfComponents="3" format="ascii">   
-500.0   0.0   0.0
-450.0   0.0   0.0
-500.0   30.0   0.0
-500.0   0.0   16.666666666666668
-450.0   0.0   0.0
-450.0   30.0   0.0
-500.0   30.0   0.0
-450.0   30.0   16.666666666666668
-500.0   0.0   16.666666666666668
-500.0   30.0   16.666666666666668
-450.0   30.0   16.666666666666668
-500.0   30.0   0.0
-500.0   0.0   16.666666666666668
-450.0   30.0   16.666666666666668
-450.0   0.0   16.666666666666668
-450.0   0.0   0.0
-500.0   0.0   16.666666666666668
-450.0   30.0   16.666666666666668
-450.0   0.0   0.0
-500.0   30.0   0.0
-500.0   0.0   16.666666666666668
-450.0   0.0   16.666666666666668
-500.0   30.0   16.666666666666668
-500.0   0.0   33.333333333333336
-450.0   0.0   16.666666666666668
-450.0   30.0   16.666666666666668
-500.0   30.0   16.666666666666668
-450.0   30.0   33.333333333333336
-500.0   0.0   33.333333333333336
-500.0   30.0   33.333333333333336
-450.0   30.0   33.333333333333336
-500.0   30.0   16.666666666666668
-500.0   0.0   33.333333333333336
-450.0   30.0   33.333333333333336
-450.0   0.0   33.333333333333336
-450.0   0.0   16.666666666666668
-500.0   0.0   33.333333333333336
-450.0   30.0   33.333333333333336
-450.0   0.0   16.666666666666668
-500.0   30.0   16.666666666666668
-500.0   0.0   33.333333333333336
-450.0   0.0   33.333333333333336
-500.0   30.0   33.333333333333336
-500.0   0.0   50.0
-450.0   0.0   33.333333333333336
-450.0   30.0   33.333333333333336
-500.0   30.0   33.333333333333336
-450.0   30.0   50.0
-500.0   0.0   50.0
-500.0   30.0   50.0
-450.0   30.0   50.0
-500.0   30.0   33.333333333333336
-500.0   0.0   50.0
-450.0   30.0   50.0
-450.0   0.0   50.0
-450.0   0.0   33.333333333333336
-500.0   0.0   50.0
-450.0   30.0   50.0
-450.0   0.0   33.333333333333336
-500.0   30.0   33.333333333333336
-500.0   30.0   0.0
-450.0   30.0   0.0
-500.0   60.0   0.0
-500.0   30.0   16.666666666666668
-450.0   30.0   0.0
-450.0   60.0   0.0
-500.0   60.0   0.0
-450.0   60.0   16.666666666666668
-500.0   30.0   16.666666666666668
-500.0   60.0   16.666666666666668
-450.0   60.0   16.666666666666668
-500.0   60.0   0.0
-500.0   30.0   16.666666666666668
-450.0   60.0   16.666666666666668
-450.0   30.0   16.666666666666668
-450.0   30.0   0.0
-500.0   30.0   16.666666666666668
-450.0   60.0   16.666666666666668
-450.0   30.0   0.0
-500.0   60.0   0.0
-500.0   30.0   16.666666666666668
-450.0   30.0   16.666666666666668
-500.0   60.0   16.666666666666668
-500.0   30.0   33.333333333333336
-450.0   30.0   16.666666666666668
-450.0   60.0   16.666666666666668
-500.0   60.0   16.666666666666668
-450.0   60.0   33.333333333333336
-500.0   30.0   33.333333333333336
-500.0   60.0   33.333333333333336
-450.0   60.0   33.333333333333336
-500.0   60.0   16.666666666666668
-500.0   30.0   33.333333333333336
-450.0   60.0   33.333333333333336
-450.0   30.0   33.333333333333336
-450.0   30.0   16.666666666666668
-500.0   30.0   33.333333333333336
-450.0   60.0   33.333333333333336
-450.0   30.0   16.666666666666668
-500.0   60.0   16.666666666666668
-500.0   30.0   33.333333333333336
-450.0   30.0   33.333333333333336
-500.0   60.0   33.333333333333336
-500.0   30.0   50.0
-450.0   30.0   33.333333333333336
-450.0   60.0   33.333333333333336
-500.0   60.0   33.333333333333336
-450.0   60.0   50.0
-500.0   30.0   50.0
-500.0   60.0   50.0
-450.0   60.0   50.0
-500.0   60.0   33.333333333333336
-500.0   30.0   50.0
-450.0   60.0   50.0
-450.0   30.0   50.0
-450.0   30.0   33.333333333333336
-500.0   30.0   50.0
-450.0   60.0   50.0
-450.0   30.0   33.333333333333336
-500.0   60.0   33.333333333333336
-500.0   60.0   0.0
-450.0   60.0   0.0
-500.0   90.0   0.0
-500.0   60.0   16.666666666666668
-450.0   60.0   0.0
-450.0   90.0   0.0
-500.0   90.0   0.0
-450.0   90.0   16.666666666666668
-500.0   60.0   16.666666666666668
-500.0   90.0   16.666666666666668
-450.0   90.0   16.666666666666668
-500.0   90.0   0.0
-500.0   60.0   16.666666666666668
-450.0   90.0   16.666666666666668
-450.0   60.0   16.666666666666668
-450.0   60.0   0.0
-500.0   60.0   16.666666666666668
-450.0   90.0   16.666666666666668
-450.0   60.0   0.0
-500.0   90.0   0.0
-500.0   60.0   16.666666666666668
-450.0   60.0   16.666666666666668
-500.0   90.0   16.666666666666668
-500.0   60.0   33.333333333333336
-450.0   60.0   16.666666666666668
-450.0   90.0   16.666666666666668
-500.0   90.0   16.666666666666668
-450.0   90.0   33.333333333333336
-500.0   60.0   33.333333333333336
-500.0   90.0   33.333333333333336
-450.0   90.0   33.333333333333336
-500.0   90.0   16.666666666666668
-500.0   60.0   33.333333333333336
-450.0   90.0   33.333333333333336
-450.0   60.0   33.333333333333336
-450.0   60.0   16.666666666666668
-500.0   60.0   33.333333333333336
-450.0   90.0   33.333333333333336
-450.0   60.0   16.666666666666668
-500.0   90.0   16.666666666666668
-500.0   60.0   33.333333333333336
-450.0   60.0   33.333333333333336
-500.0   90.0   33.333333333333336
-500.0   60.0   50.0
-450.0   60.0   33.333333333333336
-450.0   90.0   33.333333333333336
-500.0   90.0   33.333333333333336
-450.0   90.0   50.0
-500.0   60.0   50.0
-500.0   90.0   50.0
-450.0   90.0   50.0
-500.0   90.0   33.333333333333336
-500.0   60.0   50.0
-450.0   90.0   50.0
-450.0   60.0   50.0
-450.0   60.0   33.333333333333336
-500.0   60.0   50.0
-450.0   90.0   50.0
-450.0   60.0   33.333333333333336
-500.0   90.0   33.333333333333336
-500.0   90.0   0.0
-450.0   90.0   0.0
-500.0   120.0   0.0
-500.0   90.0   16.666666666666668
-450.0   90.0   0.0
-450.0   120.0   0.0
-500.0   120.0   0.0
-450.0   120.0   16.666666666666668
-500.0   90.0   16.666666666666668
-500.0   120.0   16.666666666666668
-450.0   120.0   16.666666666666668
-500.0   120.0   0.0
-500.0   90.0   16.666666666666668
-450.0   120.0   16.666666666666668
-450.0   90.0   16.666666666666668
-450.0   90.0   0.0
-500.0   90.0   16.666666666666668
-450.0   120.0   16.666666666666668
-450.0   90.0   0.0
-500.0   120.0   0.0
-500.0   90.0   16.666666666666668
-450.0   90.0   16.666666666666668
-500.0   120.0   16.666666666666668
-500.0   90.0   33.333333333333336
-450.0   90.0   16.666666666666668
-450.0   120.0   16.666666666666668
-500.0   120.0   16.666666666666668
-450.0   120.0   33.333333333333336
-500.0   90.0   33.333333333333336
-500.0   120.0   33.333333333333336
-450.0   120.0   33.333333333333336
-500.0   120.0   16.666666666666668
-500.0   90.0   33.333333333333336
-450.0   120.0   33.333333333333336
-450.0   90.0   33.333333333333336
-450.0   90.0   16.666666666666668
-500.0   90.0   33.333333333333336
-450.0   120.0   33.333333333333336
-450.0   90.0   16.666666666666668
-500.0   120.0   16.666666666666668
-500.0   90.0   33.333333333333336
-450.0   90.0   33.333333333333336
-500.0   120.0   33.333333333333336
-500.0   90.0   50.0
-450.0   90.0   33.333333333333336
-450.0   120.0   33.333333333333336
-500.0   120.0   33.333333333333336
-450.0   120.0   50.0
-500.0   90.0   50.0
-500.0   120.0   50.0
-450.0   120.0   50.0
-500.0   120.0   33.333333333333336
-500.0   90.0   50.0
-450.0   120.0   50.0
-450.0   90.0   50.0
-450.0   90.0   33.333333333333336
-500.0   90.0   50.0
-450.0   120.0   50.0
-450.0   90.0   33.333333333333336
-500.0   120.0   33.333333333333336
-500.0   120.0   0.0
-450.0   120.0   0.0
-500.0   150.0   0.0
-500.0   120.0   16.666666666666668
-450.0   120.0   0.0
-450.0   150.0   0.0
-500.0   150.0   0.0
-450.0   150.0   16.666666666666668
-500.0   120.0   16.666666666666668
-500.0   150.0   16.666666666666668
-450.0   150.0   16.666666666666668
-500.0   150.0   0.0
-500.0   120.0   16.666666666666668
-450.0   150.0   16.666666666666668
-450.0   120.0   16.666666666666668
-450.0   120.0   0.0
-500.0   120.0   16.666666666666668
-450.0   150.0   16.666666666666668
-450.0   120.0   0.0
-500.0   150.0   0.0
-500.0   120.0   16.666666666666668
-450.0   120.0   16.666666666666668
-500.0   150.0   16.666666666666668
-500.0   120.0   33.333333333333336
-450.0   120.0   16.666666666666668
-450.0   150.0   16.666666666666668
-500.0   150.0   16.666666666666668
-450.0   150.0   33.333333333333336
-500.0   120.0   33.333333333333336
-500.0   150.0   33.333333333333336
-450.0   150.0   33.333333333333336
-500.0   150.0   16.666666666666668
-500.0   120.0   33.333333333333336
-450.0   150.0   33.333333333333336
-450.0   120.0   33.333333333333336
-450.0   120.0   16.666666666666668
-500.0   120.0   33.333333333333336
-450.0   150.0   33.333333333333336
-450.0   120.0   16.666666666666668
-500.0   150.0   16.666666666666668
-500.0   120.0   33.333333333333336
-450.0   120.0   33.333333333333336
-500.0   150.0   33.333333333333336
-500.0   120.0   50.0
-450.0   120.0   33.333333333333336
-450.0   150.0   33.333333333333336
-500.0   150.0   33.333333333333336
-450.0   150.0   50.0
-500.0   120.0   50.0
-500.0   150.0   50.0
-450.0   150.0   50.0
-500.0   150.0   33.333333333333336
-500.0   120.0   50.0
-450.0   150.0   50.0
-450.0   120.0   50.0
-450.0   120.0   33.333333333333336
-500.0   120.0   50.0
-450.0   150.0   50.0
-450.0   120.0   33.333333333333336
-500.0   150.0   33.333333333333336
-450.0   0.0   0.0
-400.0   0.0   0.0
-450.0   30.0   0.0
-450.0   0.0   16.666666666666668
-400.0   0.0   0.0
-400.0   30.0   0.0
-450.0   30.0   0.0
-400.0   30.0   16.666666666666668
-450.0   0.0   16.666666666666668
-450.0   30.0   16.666666666666668
-400.0   30.0   16.666666666666668
-450.0   30.0   0.0
-450.0   0.0   16.666666666666668
-400.0   30.0   16.666666666666668
-400.0   0.0   16.666666666666668
-400.0   0.0   0.0
-450.0   0.0   16.666666666666668
-400.0   30.0   16.666666666666668
-400.0   0.0   0.0
-450.0   30.0   0.0
-450.0   0.0   16.666666666666668
-400.0   0.0   16.666666666666668
-450.0   30.0   16.666666666666668
-450.0   0.0   33.333333333333336
-400.0   0.0   16.666666666666668
-400.0   30.0   16.666666666666668
-450.0   30.0   16.666666666666668
-400.0   30.0   33.333333333333336
-450.0   0.0   33.333333333333336
-450.0   30.0   33.333333333333336
-400.0   30.0   33.333333333333336
-450.0   30.0   16.666666666666668
-450.0   0.0   33.333333333333336
-400.0   30.0   33.333333333333336
-400.0   0.0   33.333333333333336
-400.0   0.0   16.666666666666668
-450.0   0.0   33.333333333333336
-400.0   30.0   33.333333333333336
-400.0   0.0   16.666666666666668
-450.0   30.0   16.666666666666668
-450.0   0.0   33.333333333333336
-400.0   0.0   33.333333333333336
-450.0   30.0   33.333333333333336
-450.0   0.0   50.0
-400.0   0.0   33.333333333333336
-400.0   30.0   33.333333333333336
-450.0   30.0   33.333333333333336
-400.0   30.0   50.0
-450.0   0.0   50.0
-450.0   30.0   50.0
-400.0   30.0   50.0
-450.0   30.0   33.333333333333336
-450.0   0.0   50.0
-400.0   30.0   50.0
-400.0   0.0   50.0
-400.0   0.0   33.333333333333336
-450.0   0.0   50.0
-400.0   30.0   50.0
-400.0   0.0   33.333333333333336
-450.0   30.0   33.333333333333336
-450.0   30.0   0.0
-400.0   30.0   0.0
-450.0   60.0   0.0
-450.0   30.0   16.666666666666668
-400.0   30.0   0.0
-400.0   60.0   0.0
-450.0   60.0   0.0
-400.0   60.0   16.666666666666668
-450.0   30.0   16.666666666666668
-450.0   60.0   16.666666666666668
-400.0   60.0   16.666666666666668
-450.0   60.0   0.0
-450.0   30.0   16.666666666666668
-400.0   60.0   16.666666666666668
-400.0   30.0   16.666666666666668
-400.0   30.0   0.0
-450.0   30.0   16.666666666666668
-400.0   60.0   16.666666666666668
-400.0   30.0   0.0
-450.0   60.0   0.0
-450.0   30.0   16.666666666666668
-400.0   30.0   16.666666666666668
-450.0   60.0   16.666666666666668
-450.0   30.0   33.333333333333336
-400.0   30.0   16.666666666666668
-400.0   60.0   16.666666666666668
-450.0   60.0   16.666666666666668
-400.0   60.0   33.333333333333336
-450.0   30.0   33.333333333333336
-450.0   60.0   33.333333333333336
-400.0   60.0   33.333333333333336
-450.0   60.0   16.666666666666668
-450.0   30.0   33.333333333333336
-400.0   60.0   33.333333333333336
-400.0   30.0   33.333333333333336
-400.0   30.0   16.666666666666668
-450.0   30.0   33.333333333333336
-400.0   60.0   33.333333333333336
-400.0   30.0   16.666666666666668
-450.0   60.0   16.666666666666668
-450.0   30.0   33.333333333333336
-400.0   30.0   33.333333333333336
-450.0   60.0   33.333333333333336
-450.0   30.0   50.0
-400.0   30.0   33.333333333333336
-400.0   60.0   33.333333333333336
-450.0   60.0   33.333333333333336
-400.0   60.0   50.0
-450.0   30.0   50.0
-450.0   60.0   50.0
-400.0   60.0   50.0
-450.0   60.0   33.333333333333336
-450.0   30.0   50.0
-400.0   60.0   50.0
-400.0   30.0   50.0
-400.0   30.0   33.333333333333336
-450.0   30.0   50.0
-400.0   60.0   50.0
-400.0   30.0   33.333333333333336
-450.0   60.0   33.333333333333336
-450.0   60.0   0.0
-400.0   60.0   0.0
-450.0   90.0   0.0
-450.0   60.0   16.666666666666668
-400.0   60.0   0.0
-400.0   90.0   0.0
-450.0   90.0   0.0
-400.0   90.0   16.666666666666668
-450.0   60.0   16.666666666666668
-450.0   90.0   16.666666666666668
-400.0   90.0   16.666666666666668
-450.0   90.0   0.0
-450.0   60.0   16.666666666666668
-400.0   90.0   16.666666666666668
-400.0   60.0   16.666666666666668
-400.0   60.0   0.0
-450.0   60.0   16.666666666666668
-400.0   90.0   16.666666666666668
-400.0   60.0   0.0
-450.0   90.0   0.0
-450.0   60.0   16.666666666666668
-400.0   60.0   16.666666666666668
-450.0   90.0   16.666666666666668
-450.0   60.0   33.333333333333336
-400.0   60.0   16.666666666666668
-400.0   90.0   16.666666666666668
-450.0   90.0   16.666666666666668
-400.0   90.0   33.333333333333336
-450.0   60.0   33.333333333333336
-450.0   90.0   33.333333333333336
-400.0   90.0   33.333333333333336
-450.0   90.0   16.666666666666668
-450.0   60.0   33.333333333333336
-400.0   90.0   33.333333333333336
-400.0   60.0   33.333333333333336
-400.0   60.0   16.666666666666668
-450.0   60.0   33.333333333333336
-400.0   90.0   33.333333333333336
-400.0   60.0   16.666666666666668
-450.0   90.0   16.666666666666668
-450.0   60.0   33.333333333333336
-400.0   60.0   33.333333333333336
-450.0   90.0   33.333333333333336
-450.0   60.0   50.0
-400.0   60.0   33.333333333333336
-400.0   90.0   33.333333333333336
-450.0   90.0   33.333333333333336
-400.0   90.0   50.0
-450.0   60.0   50.0
-450.0   90.0   50.0
-400.0   90.0   50.0
-450.0   90.0   33.333333333333336
-450.0   60.0   50.0
-400.0   90.0   50.0
-400.0   60.0   50.0
-400.0   60.0   33.333333333333336
-450.0   60.0   50.0
-400.0   90.0   50.0
-400.0   60.0   33.333333333333336
-450.0   90.0   33.333333333333336
-450.0   90.0   0.0
-400.0   90.0   0.0
-450.0   120.0   0.0
-450.0   90.0   16.666666666666668
-400.0   90.0   0.0
-400.0   120.0   0.0
-450.0   120.0   0.0
-400.0   120.0   16.666666666666668
-450.0   90.0   16.666666666666668
-450.0   120.0   16.666666666666668
-400.0   120.0   16.666666666666668
-450.0   120.0   0.0
-450.0   90.0   16.666666666666668
-400.0   120.0   16.666666666666668
-400.0   90.0   16.666666666666668
-400.0   90.0   0.0
-450.0   90.0   16.666666666666668
-400.0   120.0   16.666666666666668
-400.0   90.0   0.0
-450.0   120.0   0.0
-450.0   90.0   16.666666666666668
-400.0   90.0   16.666666666666668
-450.0   120.0   16.666666666666668
-450.0   90.0   33.333333333333336
-400.0   90.0   16.666666666666668
-400.0   120.0   16.666666666666668
-450.0   120.0   16.666666666666668
-400.0   120.0   33.333333333333336
-450.0   90.0   33.333333333333336
-450.0   120.0   33.333333333333336
-400.0   120.0   33.333333333333336
-450.0   120.0   16.666666666666668
-450.0   90.0   33.333333333333336
-400.0   120.0   33.333333333333336
-400.0   90.0   33.333333333333336
-400.0   90.0   16.666666666666668
-450.0   90.0   33.333333333333336
-400.0   120.0   33.333333333333336
-400.0   90.0   16.666666666666668
-450.0   120.0   16.666666666666668
-450.0   90.0   33.333333333333336
-400.0   90.0   33.333333333333336
-450.0   120.0   33.333333333333336
-450.0   90.0   50.0
-400.0   90.0   33.333333333333336
-400.0   120.0   33.333333333333336
-450.0   120.0   33.333333333333336
-400.0   120.0   50.0
-450.0   90.0   50.0
-450.0   120.0   50.0
-400.0   120.0   50.0
-450.0   120.0   33.333333333333336
-450.0   90.0   50.0
-400.0   120.0   50.0
-400.0   90.0   50.0
-400.0   90.0   33.333333333333336
-450.0   90.0   50.0
-400.0   120.0   50.0
-400.0   90.0   33.333333333333336
-450.0   120.0   33.333333333333336
-450.0   120.0   0.0
-400.0   120.0   0.0
-450.0   150.0   0.0
-450.0   120.0   16.666666666666668
-400.0   120.0   0.0
-400.0   150.0   0.0
-450.0   150.0   0.0
-400.0   150.0   16.666666666666668
-450.0   120.0   16.666666666666668
-450.0   150.0   16.666666666666668
-400.0   150.0   16.666666666666668
-450.0   150.0   0.0
-450.0   120.0   16.666666666666668
-400.0   150.0   16.666666666666668
-400.0   120.0   16.666666666666668
-400.0   120.0   0.0
-450.0   120.0   16.666666666666668
-400.0   150.0   16.666666666666668
-400.0   120.0   0.0
-450.0   150.0   0.0
-450.0   120.0   16.666666666666668
-400.0   120.0   16.666666666666668
-450.0   150.0   16.666666666666668
-450.0   120.0   33.333333333333336
-400.0   120.0   16.666666666666668
-400.0   150.0   16.666666666666668
-450.0   150.0   16.666666666666668
-400.0   150.0   33.333333333333336
-450.0   120.0   33.333333333333336
-450.0   150.0   33.333333333333336
-400.0   150.0   33.333333333333336
-450.0   150.0   16.666666666666668
-450.0   120.0   33.333333333333336
-400.0   150.0   33.333333333333336
-400.0   120.0   33.333333333333336
-400.0   120.0   16.666666666666668
-450.0   120.0   33.333333333333336
-400.0   150.0   33.333333333333336
-400.0   120.0   16.666666666666668
-450.0   150.0   16.666666666666668
-450.0   120.0   33.333333333333336
-400.0   120.0   33.333333333333336
-450.0   150.0   33.333333333333336
-450.0   120.0   50.0
-400.0   120.0   33.333333333333336
-400.0   150.0   33.333333333333336
-450.0   150.0   33.333333333333336
-400.0   150.0   50.0
-450.0   120.0   50.0
-450.0   150.0   50.0
-400.0   150.0   50.0
-450.0   150.0   33.333333333333336
-450.0   120.0   50.0
-400.0   150.0   50.0
-400.0   120.0   50.0
-400.0   120.0   33.333333333333336
-450.0   120.0   50.0
-400.0   150.0   50.0
-400.0   120.0   33.333333333333336
-450.0   150.0   33.333333333333336
-400.0   0.0   0.0
-350.0   0.0   0.0
-400.0   30.0   0.0
-400.0   0.0   16.666666666666668
-350.0   0.0   0.0
-350.0   30.0   0.0
-400.0   30.0   0.0
-350.0   30.0   16.666666666666668
-400.0   0.0   16.666666666666668
-400.0   30.0   16.666666666666668
-350.0   30.0   16.666666666666668
-400.0   30.0   0.0
-400.0   0.0   16.666666666666668
-350.0   30.0   16.666666666666668
-350.0   0.0   16.666666666666668
-350.0   0.0   0.0
-400.0   0.0   16.666666666666668
-350.0   30.0   16.666666666666668
-350.0   0.0   0.0
-400.0   30.0   0.0
-400.0   0.0   16.666666666666668
-350.0   0.0   16.666666666666668
-400.0   30.0   16.666666666666668
-400.0   0.0   33.333333333333336
-350.0   0.0   16.666666666666668
-350.0   30.0   16.666666666666668
-400.0   30.0   16.666666666666668
-350.0   30.0   33.333333333333336
-400.0   0.0   33.333333333333336
-400.0   30.0   33.333333333333336
-350.0   30.0   33.333333333333336
-400.0   30.0   16.666666666666668
-400.0   0.0   33.333333333333336
-350.0   30.0   33.333333333333336
-350.0   0.0   33.333333333333336
-350.0   0.0   16.666666666666668
-400.0   0.0   33.333333333333336
-350.0   30.0   33.333333333333336
-350.0   0.0   16.666666666666668
-400.0   30.0   16.666666666666668
-400.0   0.0   33.333333333333336
-350.0   0.0   33.333333333333336
-400.0   30.0   33.333333333333336
-400.0   0.0   50.0
-350.0   0.0   33.333333333333336
-350.0   30.0   33.333333333333336
-400.0   30.0   33.333333333333336
-350.0   30.0   50.0
-400.0   0.0   50.0
-400.0   30.0   50.0
-350.0   30.0   50.0
-400.0   30.0   33.333333333333336
-400.0   0.0   50.0
-350.0   30.0   50.0
-350.0   0.0   50.0
-350.0   0.0   33.333333333333336
-400.0   0.0   50.0
-350.0   30.0   50.0
-350.0   0.0   33.333333333333336
-400.0   30.0   33.333333333333336
-400.0   30.0   0.0
-350.0   30.0   0.0
-400.0   60.0   0.0
-400.0   30.0   16.666666666666668
-350.0   30.0   0.0
-350.0   60.0   0.0
-400.0   60.0   0.0
-350.0   60.0   16.666666666666668
-400.0   30.0   16.666666666666668
-400.0   60.0   16.666666666666668
-350.0   60.0   16.666666666666668
-400.0   60.0   0.0
-400.0   30.0   16.666666666666668
-350.0   60.0   16.666666666666668
-350.0   30.0   16.666666666666668
-350.0   30.0   0.0
-400.0   30.0   16.666666666666668
-350.0   60.0   16.666666666666668
-350.0   30.0   0.0
-400.0   60.0   0.0
-400.0   30.0   16.666666666666668
-350.0   30.0   16.666666666666668
-400.0   60.0   16.666666666666668
-400.0   30.0   33.333333333333336
-350.0   30.0   16.666666666666668
-350.0   60.0   16.666666666666668
-400.0   60.0   16.666666666666668
-350.0   60.0   33.333333333333336
-400.0   30.0   33.333333333333336
-400.0   60.0   33.333333333333336
-350.0   60.0   33.333333333333336
-400.0   60.0   16.666666666666668
-400.0   30.0   33.333333333333336
-350.0   60.0   33.333333333333336
-350.0   30.0   33.333333333333336
-350.0   30.0   16.666666666666668
-400.0   30.0   33.333333333333336
-350.0   60.0   33.333333333333336
-350.0   30.0   16.666666666666668
-400.0   60.0   16.666666666666668
-400.0   30.0   33.333333333333336
-350.0   30.0   33.333333333333336
-400.0   60.0   33.333333333333336
-400.0   30.0   50.0
-350.0   30.0   33.333333333333336
-350.0   60.0   33.333333333333336
-400.0   60.0   33.333333333333336
-350.0   60.0   50.0
-400.0   30.0   50.0
-400.0   60.0   50.0
-350.0   60.0   50.0
-400.0   60.0   33.333333333333336
-400.0   30.0   50.0
-350.0   60.0   50.0
-350.0   30.0   50.0
-350.0   30.0   33.333333333333336
-400.0   30.0   50.0
-350.0   60.0   50.0
-350.0   30.0   33.333333333333336
-400.0   60.0   33.333333333333336
-400.0   60.0   0.0
-350.0   60.0   0.0
-400.0   90.0   0.0
-400.0   60.0   16.666666666666668
-350.0   60.0   0.0
-350.0   90.0   0.0
-400.0   90.0   0.0
-350.0   90.0   16.666666666666668
-400.0   60.0   16.666666666666668
-400.0   90.0   16.666666666666668
-350.0   90.0   16.666666666666668
-400.0   90.0   0.0
-400.0   60.0   16.666666666666668
-350.0   90.0   16.666666666666668
-350.0   60.0   16.666666666666668
-350.0   60.0   0.0
-400.0   60.0   16.666666666666668
-350.0   90.0   16.666666666666668
-350.0   60.0   0.0
-400.0   90.0   0.0
-400.0   60.0   16.666666666666668
-350.0   60.0   16.666666666666668
-400.0   90.0   16.666666666666668
-400.0   60.0   33.333333333333336
-350.0   60.0   16.666666666666668
-350.0   90.0   16.666666666666668
-400.0   90.0   16.666666666666668
-350.0   90.0   33.333333333333336
-400.0   60.0   33.333333333333336
-400.0   90.0   33.333333333333336
-350.0   90.0   33.333333333333336
-400.0   90.0   16.666666666666668
-400.0   60.0   33.333333333333336
-350.0   90.0   33.333333333333336
-350.0   60.0   33.333333333333336
-350.0   60.0   16.666666666666668
-400.0   60.0   33.333333333333336
-350.0   90.0   33.333333333333336
-350.0   60.0   16.666666666666668
-400.0   90.0   16.666666666666668
-400.0   60.0   33.333333333333336
-350.0   60.0   33.333333333333336
-400.0   90.0   33.333333333333336
-400.0   60.0   50.0
-350.0   60.0   33.333333333333336
-350.0   90.0   33.333333333333336
-400.0   90.0   33.333333333333336
-350.0   90.0   50.0
-400.0   60.0   50.0
-400.0   90.0   50.0
-350.0   90.0   50.0
-400.0   90.0   33.333333333333336
-400.0   60.0   50.0
-350.0   90.0   50.0
-350.0   60.0   50.0
-350.0   60.0   33.333333333333336
-400.0   60.0   50.0
-350.0   90.0   50.0
-350.0   60.0   33.333333333333336
-400.0   90.0   33.333333333333336
-400.0   90.0   0.0
-350.0   90.0   0.0
-400.0   120.0   0.0
-400.0   90.0   16.666666666666668
-350.0   90.0   0.0
-350.0   120.0   0.0
-400.0   120.0   0.0
-350.0   120.0   16.666666666666668
-400.0   90.0   16.666666666666668
-400.0   120.0   16.666666666666668
-350.0   120.0   16.666666666666668
-400.0   120.0   0.0
-400.0   90.0   16.666666666666668
-350.0   120.0   16.666666666666668
-350.0   90.0   16.666666666666668
-350.0   90.0   0.0
-400.0   90.0   16.666666666666668
-350.0   120.0   16.666666666666668
-350.0   90.0   0.0
-400.0   120.0   0.0
-400.0   90.0   16.666666666666668
-350.0   90.0   16.666666666666668
-400.0   120.0   16.666666666666668
-400.0   90.0   33.333333333333336
-350.0   90.0   16.666666666666668
-350.0   120.0   16.666666666666668
-400.0   120.0   16.666666666666668
-350.0   120.0   33.333333333333336
-400.0   90.0   33.333333333333336
-400.0   120.0   33.333333333333336
-350.0   120.0   33.333333333333336
-400.0   120.0   16.666666666666668
-400.0   90.0   33.333333333333336
-350.0   120.0   33.333333333333336
-350.0   90.0   33.333333333333336
-350.0   90.0   16.666666666666668
-400.0   90.0   33.333333333333336
-350.0   120.0   33.333333333333336
-350.0   90.0   16.666666666666668
-400.0   120.0   16.666666666666668
-400.0   90.0   33.333333333333336
-350.0   90.0   33.333333333333336
-400.0   120.0   33.333333333333336
-400.0   90.0   50.0
-350.0   90.0   33.333333333333336
-350.0   120.0   33.333333333333336
-400.0   120.0   33.333333333333336
-350.0   120.0   50.0
-400.0   90.0   50.0
-400.0   120.0   50.0
-350.0   120.0   50.0
-400.0   120.0   33.333333333333336
-400.0   90.0   50.0
-350.0   120.0   50.0
-350.0   90.0   50.0
-350.0   90.0   33.333333333333336
-400.0   90.0   50.0
-350.0   120.0   50.0
-350.0   90.0   33.333333333333336
-400.0   120.0   33.333333333333336
-400.0   120.0   0.0
-350.0   120.0   0.0
-400.0   150.0   0.0
-400.0   120.0   16.666666666666668
-350.0   120.0   0.0
-350.0   150.0   0.0
-400.0   150.0   0.0
-350.0   150.0   16.666666666666668
-400.0   120.0   16.666666666666668
-400.0   150.0   16.666666666666668
-350.0   150.0   16.666666666666668
-400.0   150.0   0.0
-400.0   120.0   16.666666666666668
-350.0   150.0   16.666666666666668
-350.0   120.0   16.666666666666668
-350.0   120.0   0.0
-400.0   120.0   16.666666666666668
-350.0   150.0   16.666666666666668
-350.0   120.0   0.0
-400.0   150.0   0.0
-400.0   120.0   16.666666666666668
-350.0   120.0   16.666666666666668
-400.0   150.0   16.666666666666668
-400.0   120.0   33.333333333333336
-350.0   120.0   16.666666666666668
-350.0   150.0   16.666666666666668
-400.0   150.0   16.666666666666668
-350.0   150.0   33.333333333333336
-400.0   120.0   33.333333333333336
-400.0   150.0   33.333333333333336
-350.0   150.0   33.333333333333336
-400.0   150.0   16.666666666666668
-400.0   120.0   33.333333333333336
-350.0   150.0   33.333333333333336
-350.0   120.0   33.333333333333336
-350.0   120.0   16.666666666666668
-400.0   120.0   33.333333333333336
-350.0   150.0   33.333333333333336
-350.0   120.0   16.666666666666668
-400.0   150.0   16.666666666666668
-400.0   120.0   33.333333333333336
-350.0   120.0   33.333333333333336
-400.0   150.0   33.333333333333336
-400.0   120.0   50.0
-350.0   120.0   33.333333333333336
-350.0   150.0   33.333333333333336
-400.0   150.0   33.333333333333336
-350.0   150.0   50.0
-400.0   120.0   50.0
-400.0   150.0   50.0
-350.0   150.0   50.0
-400.0   150.0   33.333333333333336
-400.0   120.0   50.0
-350.0   150.0   50.0
-350.0   120.0   50.0
-350.0   120.0   33.333333333333336
-400.0   120.0   50.0
-350.0   150.0   50.0
-350.0   120.0   33.333333333333336
-400.0   150.0   33.333333333333336
-350.0   0.0   0.0
-300.0   0.0   0.0
-350.0   30.0   0.0
-350.0   0.0   16.666666666666668
-300.0   0.0   0.0
-300.0   30.0   0.0
-350.0   30.0   0.0
-300.0   30.0   16.666666666666668
-350.0   0.0   16.666666666666668
-350.0   30.0   16.666666666666668
-300.0   30.0   16.666666666666668
-350.0   30.0   0.0
-350.0   0.0   16.666666666666668
-300.0   30.0   16.666666666666668
-300.0   0.0   16.666666666666668
-300.0   0.0   0.0
-350.0   0.0   16.666666666666668
-300.0   30.0   16.666666666666668
-300.0   0.0   0.0
-350.0   30.0   0.0
-350.0   0.0   16.666666666666668
-300.0   0.0   16.666666666666668
-350.0   30.0   16.666666666666668
-350.0   0.0   33.333333333333336
-300.0   0.0   16.666666666666668
-300.0   30.0   16.666666666666668
-350.0   30.0   16.666666666666668
-300.0   30.0   33.333333333333336
-350.0   0.0   33.333333333333336
-350.0   30.0   33.333333333333336
-300.0   30.0   33.333333333333336
-350.0   30.0   16.666666666666668
-350.0   0.0   33.333333333333336
-300.0   30.0   33.333333333333336
-300.0   0.0   33.333333333333336
-300.0   0.0   16.666666666666668
-350.0   0.0   33.333333333333336
-300.0   30.0   33.333333333333336
-300.0   0.0   16.666666666666668
-350.0   30.0   16.666666666666668
-350.0   0.0   33.333333333333336
-300.0   0.0   33.333333333333336
-350.0   30.0   33.333333333333336
-350.0   0.0   50.0
-300.0   0.0   33.333333333333336
-300.0   30.0   33.333333333333336
-350.0   30.0   33.333333333333336
-300.0   30.0   50.0
-350.0   0.0   50.0
-350.0   30.0   50.0
-300.0   30.0   50.0
-350.0   30.0   33.333333333333336
-350.0   0.0   50.0
-300.0   30.0   50.0
-300.0   0.0   50.0
-300.0   0.0   33.333333333333336
-350.0   0.0   50.0
-300.0   30.0   50.0
-300.0   0.0   33.333333333333336
-350.0   30.0   33.333333333333336
-350.0   30.0   0.0
-300.0   30.0   0.0
-350.0   60.0   0.0
-350.0   30.0   16.666666666666668
-300.0   30.0   0.0
-300.0   60.0   0.0
-350.0   60.0   0.0
-300.0   60.0   16.666666666666668
-350.0   30.0   16.666666666666668
-350.0   60.0   16.666666666666668
-300.0   60.0   16.666666666666668
-350.0   60.0   0.0
-350.0   30.0   16.666666666666668
-300.0   60.0   16.666666666666668
-300.0   30.0   16.666666666666668
-300.0   30.0   0.0
-350.0   30.0   16.666666666666668
-300.0   60.0   16.666666666666668
-300.0   30.0   0.0
-350.0   60.0   0.0
-350.0   30.0   16.666666666666668
-300.0   30.0   16.666666666666668
-350.0   60.0   16.666666666666668
-350.0   30.0   33.333333333333336
-300.0   30.0   16.666666666666668
-300.0   60.0   16.666666666666668
-350.0   60.0   16.666666666666668
-300.0   60.0   33.333333333333336
-350.0   30.0   33.333333333333336
-350.0   60.0   33.333333333333336
-300.0   60.0   33.333333333333336
-350.0   60.0   16.666666666666668
-350.0   30.0   33.333333333333336
-300.0   60.0   33.333333333333336
-300.0   30.0   33.333333333333336
-300.0   30.0   16.666666666666668
-350.0   30.0   33.333333333333336
-300.0   60.0   33.333333333333336
-300.0   30.0   16.666666666666668
-350.0   60.0   16.666666666666668
-350.0   30.0   33.333333333333336
-300.0   30.0   33.333333333333336
-350.0   60.0   33.333333333333336
-350.0   30.0   50.0
-300.0   30.0   33.333333333333336
-300.0   60.0   33.333333333333336
-350.0   60.0   33.333333333333336
-300.0   60.0   50.0
-350.0   30.0   50.0
-350.0   60.0   50.0
-300.0   60.0   50.0
-350.0   60.0   33.333333333333336
-350.0   30.0   50.0
-300.0   60.0   50.0
-300.0   30.0   50.0
-300.0   30.0   33.333333333333336
-350.0   30.0   50.0
-300.0   60.0   50.0
-300.0   30.0   33.333333333333336
-350.0   60.0   33.333333333333336
-350.0   60.0   0.0
-300.0   60.0   0.0
-350.0   90.0   0.0
-350.0   60.0   16.666666666666668
-300.0   60.0   0.0
-300.0   90.0   0.0
-350.0   90.0   0.0
-300.0   90.0   16.666666666666668
-350.0   60.0   16.666666666666668
-350.0   90.0   16.666666666666668
-300.0   90.0   16.666666666666668
-350.0   90.0   0.0
-350.0   60.0   16.666666666666668
-300.0   90.0   16.666666666666668
-300.0   60.0   16.666666666666668
-300.0   60.0   0.0
-350.0   60.0   16.666666666666668
-300.0   90.0   16.666666666666668
-300.0   60.0   0.0
-350.0   90.0   0.0
-350.0   60.0   16.666666666666668
-300.0   60.0   16.666666666666668
-350.0   90.0   16.666666666666668
-350.0   60.0   33.333333333333336
-300.0   60.0   16.666666666666668
-300.0   90.0   16.666666666666668
-350.0   90.0   16.666666666666668
-300.0   90.0   33.333333333333336
-350.0   60.0   33.333333333333336
-350.0   90.0   33.333333333333336
-300.0   90.0   33.333333333333336
-350.0   90.0   16.666666666666668
-350.0   60.0   33.333333333333336
-300.0   90.0   33.333333333333336
-300.0   60.0   33.333333333333336
-300.0   60.0   16.666666666666668
-350.0   60.0   33.333333333333336
-300.0   90.0   33.333333333333336
-300.0   60.0   16.666666666666668
-350.0   90.0   16.666666666666668
-350.0   60.0   33.333333333333336
-300.0   60.0   33.333333333333336
-350.0   90.0   33.333333333333336
-350.0   60.0   50.0
-300.0   60.0   33.333333333333336
-300.0   90.0   33.333333333333336
-350.0   90.0   33.333333333333336
-300.0   90.0   50.0
-350.0   60.0   50.0
-350.0   90.0   50.0
-300.0   90.0   50.0
-350.0   90.0   33.333333333333336
-350.0   60.0   50.0
-300.0   90.0   50.0
-300.0   60.0   50.0
-300.0   60.0   33.333333333333336
-350.0   60.0   50.0
-300.0   90.0   50.0
-300.0   60.0   33.333333333333336
-350.0   90.0   33.333333333333336
-350.0   90.0   0.0
-300.0   90.0   0.0
-350.0   120.0   0.0
-350.0   90.0   16.666666666666668
-300.0   90.0   0.0
-300.0   120.0   0.0
-350.0   120.0   0.0
-300.0   120.0   16.666666666666668
-350.0   90.0   16.666666666666668
-350.0   120.0   16.666666666666668
-300.0   120.0   16.666666666666668
-350.0   120.0   0.0
-350.0   90.0   16.666666666666668
-300.0   120.0   16.666666666666668
-300.0   90.0   16.666666666666668
-300.0   90.0   0.0
-350.0   90.0   16.666666666666668
-300.0   120.0   16.666666666666668
-300.0   90.0   0.0
-350.0   120.0   0.0
-350.0   90.0   16.666666666666668
-300.0   90.0   16.666666666666668
-350.0   120.0   16.666666666666668
-350.0   90.0   33.333333333333336
-300.0   90.0   16.666666666666668
-300.0   120.0   16.666666666666668
-350.0   120.0   16.666666666666668
-300.0   120.0   33.333333333333336
-350.0   90.0   33.333333333333336
-350.0   120.0   33.333333333333336
-300.0   120.0   33.333333333333336
-350.0   120.0   16.666666666666668
-350.0   90.0   33.333333333333336
-300.0   120.0   33.333333333333336
-300.0   90.0   33.333333333333336
-300.0   90.0   16.666666666666668
-350.0   90.0   33.333333333333336
-300.0   120.0   33.333333333333336
-300.0   90.0   16.666666666666668
-350.0   120.0   16.666666666666668
-350.0   90.0   33.333333333333336
-300.0   90.0   33.333333333333336
-350.0   120.0   33.333333333333336
-350.0   90.0   50.0
-300.0   90.0   33.333333333333336
-300.0   120.0   33.333333333333336
-350.0   120.0   33.333333333333336
-300.0   120.0   50.0
-350.0   90.0   50.0
-350.0   120.0   50.0
-300.0   120.0   50.0
-350.0   120.0   33.333333333333336
-350.0   90.0   50.0
-300.0   120.0   50.0
-300.0   90.0   50.0
-300.0   90.0   33.333333333333336
-350.0   90.0   50.0
-300.0   120.0   50.0
-300.0   90.0   33.333333333333336
-350.0   120.0   33.333333333333336
-350.0   120.0   0.0
-300.0   120.0   0.0
-350.0   150.0   0.0
-350.0   120.0   16.666666666666668
-300.0   120.0   0.0
-300.0   150.0   0.0
-350.0   150.0   0.0
-300.0   150.0   16.666666666666668
-350.0   120.0   16.666666666666668
-350.0   150.0   16.666666666666668
-300.0   150.0   16.666666666666668
-350.0   150.0   0.0
-350.0   120.0   16.666666666666668
-300.0   150.0   16.666666666666668
-300.0   120.0   16.666666666666668
-300.0   120.0   0.0
-350.0   120.0   16.666666666666668
-300.0   150.0   16.666666666666668
-300.0   120.0   0.0
-350.0   150.0   0.0
-350.0   120.0   16.666666666666668
-300.0   120.0   16.666666666666668
-350.0   150.0   16.666666666666668
-350.0   120.0   33.333333333333336
-300.0   120.0   16.666666666666668
-300.0   150.0   16.666666666666668
-350.0   150.0   16.666666666666668
-300.0   150.0   33.333333333333336
-350.0   120.0   33.333333333333336
-350.0   150.0   33.333333333333336
-300.0   150.0   33.333333333333336
-350.0   150.0   16.666666666666668
-350.0   120.0   33.333333333333336
-300.0   150.0   33.333333333333336
-300.0   120.0   33.333333333333336
-300.0   120.0   16.666666666666668
-350.0   120.0   33.333333333333336
-300.0   150.0   33.333333333333336
-300.0   120.0   16.666666666666668
-350.0   150.0   16.666666666666668
-350.0   120.0   33.333333333333336
-300.0   120.0   33.333333333333336
-350.0   150.0   33.333333333333336
-350.0   120.0   50.0
-300.0   120.0   33.333333333333336
-300.0   150.0   33.333333333333336
-350.0   150.0   33.333333333333336
-300.0   150.0   50.0
-350.0   120.0   50.0
-350.0   150.0   50.0
-300.0   150.0   50.0
-350.0   150.0   33.333333333333336
-350.0   120.0   50.0
-300.0   150.0   50.0
-300.0   120.0   50.0
-300.0   120.0   33.333333333333336
-350.0   120.0   50.0
-300.0   150.0   50.0
-300.0   120.0   33.333333333333336
-350.0   150.0   33.333333333333336
-300.0   0.0   0.0
-250.0   0.0   0.0
-300.0   30.0   0.0
-300.0   0.0   16.666666666666668
-250.0   0.0   0.0
-250.0   30.0   0.0
-300.0   30.0   0.0
-250.0   30.0   16.666666666666668
-300.0   0.0   16.666666666666668
-300.0   30.0   16.666666666666668
-250.0   30.0   16.666666666666668
-300.0   30.0   0.0
-300.0   0.0   16.666666666666668
-250.0   30.0   16.666666666666668
-250.0   0.0   16.666666666666668
-250.0   0.0   0.0
-300.0   0.0   16.666666666666668
-250.0   30.0   16.666666666666668
-250.0   0.0   0.0
-300.0   30.0   0.0
-300.0   0.0   16.666666666666668
-250.0   0.0   16.666666666666668
-300.0   30.0   16.666666666666668
-300.0   0.0   33.333333333333336
-250.0   0.0   16.666666666666668
-250.0   30.0   16.666666666666668
-300.0   30.0   16.666666666666668
-250.0   30.0   33.333333333333336
-300.0   0.0   33.333333333333336
-300.0   30.0   33.333333333333336
-250.0   30.0   33.333333333333336
-300.0   30.0   16.666666666666668
-300.0   0.0   33.333333333333336
-250.0   30.0   33.333333333333336
-250.0   0.0   33.333333333333336
-250.0   0.0   16.666666666666668
-300.0   0.0   33.333333333333336
-250.0   30.0   33.333333333333336
-250.0   0.0   16.666666666666668
-300.0   30.0   16.666666666666668
-300.0   0.0   33.333333333333336
-250.0   0.0   33.333333333333336
-300.0   30.0   33.333333333333336
-300.0   0.0   50.0
-250.0   0.0   33.333333333333336
-250.0   30.0   33.333333333333336
-300.0   30.0   33.333333333333336
-250.0   30.0   50.0
-300.0   0.0   50.0
-300.0   30.0   50.0
-250.0   30.0   50.0
-300.0   30.0   33.333333333333336
-300.0   0.0   50.0
-250.0   30.0   50.0
-250.0   0.0   50.0
-250.0   0.0   33.333333333333336
-300.0   0.0   50.0
-250.0   30.0   50.0
-250.0   0.0   33.333333333333336
-300.0   30.0   33.333333333333336
-300.0   30.0   0.0
-250.0   30.0   0.0
-300.0   60.0   0.0
-300.0   30.0   16.666666666666668
-250.0   30.0   0.0
-250.0   60.0   0.0
-300.0   60.0   0.0
-250.0   60.0   16.666666666666668
-300.0   30.0   16.666666666666668
-300.0   60.0   16.666666666666668
-250.0   60.0   16.666666666666668
-300.0   60.0   0.0
-300.0   30.0   16.666666666666668
-250.0   60.0   16.666666666666668
-250.0   30.0   16.666666666666668
-250.0   30.0   0.0
-300.0   30.0   16.666666666666668
-250.0   60.0   16.666666666666668
-250.0   30.0   0.0
-300.0   60.0   0.0
-300.0   30.0   16.666666666666668
-250.0   30.0   16.666666666666668
-300.0   60.0   16.666666666666668
-300.0   30.0   33.333333333333336
-250.0   30.0   16.666666666666668
-250.0   60.0   16.666666666666668
-300.0   60.0   16.666666666666668
-250.0   60.0   33.333333333333336
-300.0   30.0   33.333333333333336
-300.0   60.0   33.333333333333336
-250.0   60.0   33.333333333333336
-300.0   60.0   16.666666666666668
-300.0   30.0   33.333333333333336
-250.0   60.0   33.333333333333336
-250.0   30.0   33.333333333333336
-250.0   30.0   16.666666666666668
-300.0   30.0   33.333333333333336
-250.0   60.0   33.333333333333336
-250.0   30.0   16.666666666666668
-300.0   60.0   16.666666666666668
-300.0   30.0   33.333333333333336
-250.0   30.0   33.333333333333336
-300.0   60.0   33.333333333333336
-300.0   30.0   50.0
-250.0   30.0   33.333333333333336
-250.0   60.0   33.333333333333336
-300.0   60.0   33.333333333333336
-250.0   60.0   50.0
-300.0   30.0   50.0
-300.0   60.0   50.0
-250.0   60.0   50.0
-300.0   60.0   33.333333333333336
-300.0   30.0   50.0
-250.0   60.0   50.0
-250.0   30.0   50.0
-250.0   30.0   33.333333333333336
-300.0   30.0   50.0
-250.0   60.0   50.0
-250.0   30.0   33.333333333333336
-300.0   60.0   33.333333333333336
-300.0   60.0   0.0
-250.0   60.0   0.0
-300.0   90.0   0.0
-300.0   60.0   16.666666666666668
-250.0   60.0   0.0
-250.0   90.0   0.0
-300.0   90.0   0.0
-250.0   90.0   16.666666666666668
-300.0   60.0   16.666666666666668
-300.0   90.0   16.666666666666668
-250.0   90.0   16.666666666666668
-300.0   90.0   0.0
-300.0   60.0   16.666666666666668
-250.0   90.0   16.666666666666668
-250.0   60.0   16.666666666666668
-250.0   60.0   0.0
-300.0   60.0   16.666666666666668
-250.0   90.0   16.666666666666668
-250.0   60.0   0.0
-300.0   90.0   0.0
-300.0   60.0   16.666666666666668
-250.0   60.0   16.666666666666668
-300.0   90.0   16.666666666666668
-300.0   60.0   33.333333333333336
-250.0   60.0   16.666666666666668
-250.0   90.0   16.666666666666668
-300.0   90.0   16.666666666666668
-250.0   90.0   33.333333333333336
-300.0   60.0   33.333333333333336
-300.0   90.0   33.333333333333336
-250.0   90.0   33.333333333333336
-300.0   90.0   16.666666666666668
-300.0   60.0   33.333333333333336
-250.0   90.0   33.333333333333336
-250.0   60.0   33.333333333333336
-250.0   60.0   16.666666666666668
-300.0   60.0   33.333333333333336
-250.0   90.0   33.333333333333336
-250.0   60.0   16.666666666666668
-300.0   90.0   16.666666666666668
-300.0   60.0   33.333333333333336
-250.0   60.0   33.333333333333336
-300.0   90.0   33.333333333333336
-300.0   60.0   50.0
-250.0   60.0   33.333333333333336
-250.0   90.0   33.333333333333336
-300.0   90.0   33.333333333333336
-250.0   90.0   50.0
-300.0   60.0   50.0
-300.0   90.0   50.0
-250.0   90.0   50.0
-300.0   90.0   33.333333333333336
-300.0   60.0   50.0
-250.0   90.0   50.0
-250.0   60.0   50.0
-250.0   60.0   33.333333333333336
-300.0   60.0   50.0
-250.0   90.0   50.0
-250.0   60.0   33.333333333333336
-300.0   90.0   33.333333333333336
-300.0   90.0   0.0
-250.0   90.0   0.0
-300.0   120.0   0.0
-300.0   90.0   16.666666666666668
-250.0   90.0   0.0
-250.0   120.0   0.0
-300.0   120.0   0.0
-250.0   120.0   16.666666666666668
-300.0   90.0   16.666666666666668
-300.0   120.0   16.666666666666668
-250.0   120.0   16.666666666666668
-300.0   120.0   0.0
-300.0   90.0   16.666666666666668
-250.0   120.0   16.666666666666668
-250.0   90.0   16.666666666666668
-250.0   90.0   0.0
-300.0   90.0   16.666666666666668
-250.0   120.0   16.666666666666668
-250.0   90.0   0.0
-300.0   120.0   0.0
-300.0   90.0   16.666666666666668
-250.0   90.0   16.666666666666668
-300.0   120.0   16.666666666666668
-300.0   90.0   33.333333333333336
-250.0   90.0   16.666666666666668
-250.0   120.0   16.666666666666668
-300.0   120.0   16.666666666666668
-250.0   120.0   33.333333333333336
-300.0   90.0   33.333333333333336
-300.0   120.0   33.333333333333336
-250.0   120.0   33.333333333333336
-300.0   120.0   16.666666666666668
-300.0   90.0   33.333333333333336
-250.0   120.0   33.333333333333336
-250.0   90.0   33.333333333333336
-250.0   90.0   16.666666666666668
-300.0   90.0   33.333333333333336
-250.0   120.0   33.333333333333336
-250.0   90.0   16.666666666666668
-300.0   120.0   16.666666666666668
-300.0   90.0   33.333333333333336
-250.0   90.0   33.333333333333336
-300.0   120.0   33.333333333333336
-300.0   90.0   50.0
-250.0   90.0   33.333333333333336
-250.0   120.0   33.333333333333336
-300.0   120.0   33.333333333333336
-250.0   120.0   50.0
-300.0   90.0   50.0
-300.0   120.0   50.0
-250.0   120.0   50.0
-300.0   120.0   33.333333333333336
-300.0   90.0   50.0
-250.0   120.0   50.0
-250.0   90.0   50.0
-250.0   90.0   33.333333333333336
-300.0   90.0   50.0
-250.0   120.0   50.0
-250.0   90.0   33.333333333333336
-300.0   120.0   33.333333333333336
-300.0   120.0   0.0
-250.0   120.0   0.0
-300.0   150.0   0.0
-300.0   120.0   16.666666666666668
-250.0   120.0   0.0
-250.0   150.0   0.0
-300.0   150.0   0.0
-250.0   150.0   16.666666666666668
-300.0   120.0   16.666666666666668
-300.0   150.0   16.666666666666668
-250.0   150.0   16.666666666666668
-300.0   150.0   0.0
-300.0   120.0   16.666666666666668
-250.0   150.0   16.666666666666668
-250.0   120.0   16.666666666666668
-250.0   120.0   0.0
-300.0   120.0   16.666666666666668
-250.0   150.0   16.666666666666668
-250.0   120.0   0.0
-300.0   150.0   0.0
-300.0   120.0   16.666666666666668
-250.0   120.0   16.666666666666668
-300.0   150.0   16.666666666666668
-300.0   120.0   33.333333333333336
-250.0   120.0   16.666666666666668
-250.0   150.0   16.666666666666668
-300.0   150.0   16.666666666666668
-250.0   150.0   33.333333333333336
-300.0   120.0   33.333333333333336
-300.0   150.0   33.333333333333336
-250.0   150.0   33.333333333333336
-300.0   150.0   16.666666666666668
-300.0   120.0   33.333333333333336
-250.0   150.0   33.333333333333336
-250.0   120.0   33.333333333333336
-250.0   120.0   16.666666666666668
-300.0   120.0   33.333333333333336
-250.0   150.0   33.333333333333336
-250.0   120.0   16.666666666666668
-300.0   150.0   16.666666666666668
-300.0   120.0   33.333333333333336
-250.0   120.0   33.333333333333336
-300.0   150.0   33.333333333333336
-300.0   120.0   50.0
-250.0   120.0   33.333333333333336
-250.0   150.0   33.333333333333336
-300.0   150.0   33.333333333333336
-250.0   150.0   50.0
-300.0   120.0   50.0
-300.0   150.0   50.0
-250.0   150.0   50.0
-300.0   150.0   33.333333333333336
-300.0   120.0   50.0
-250.0   150.0   50.0
-250.0   120.0   50.0
-250.0   120.0   33.333333333333336
-300.0   120.0   50.0
-250.0   150.0   50.0
-250.0   120.0   33.333333333333336
-300.0   150.0   33.333333333333336
-250.0   0.0   0.0
-200.0   0.0   0.0
-250.0   30.0   0.0
-250.0   0.0   16.666666666666668
-200.0   0.0   0.0
-200.0   30.0   0.0
-250.0   30.0   0.0
-200.0   30.0   16.666666666666668
-250.0   0.0   16.666666666666668
-250.0   30.0   16.666666666666668
-200.0   30.0   16.666666666666668
-250.0   30.0   0.0
-250.0   0.0   16.666666666666668
-200.0   30.0   16.666666666666668
-200.0   0.0   16.666666666666668
-200.0   0.0   0.0
-250.0   0.0   16.666666666666668
-200.0   30.0   16.666666666666668
-200.0   0.0   0.0
-250.0   30.0   0.0
-250.0   0.0   16.666666666666668
-200.0   0.0   16.666666666666668
-250.0   30.0   16.666666666666668
-250.0   0.0   33.333333333333336
-200.0   0.0   16.666666666666668
-200.0   30.0   16.666666666666668
-250.0   30.0   16.666666666666668
-200.0   30.0   33.333333333333336
-250.0   0.0   33.333333333333336
-250.0   30.0   33.333333333333336
-200.0   30.0   33.333333333333336
-250.0   30.0   16.666666666666668
-250.0   0.0   33.333333333333336
-200.0   30.0   33.333333333333336
-200.0   0.0   33.333333333333336
-200.0   0.0   16.666666666666668
-250.0   0.0   33.333333333333336
-200.0   30.0   33.333333333333336
-200.0   0.0   16.666666666666668
-250.0   30.0   16.666666666666668
-250.0   0.0   33.333333333333336
-200.0   0.0   33.333333333333336
-250.0   30.0   33.333333333333336
-250.0   0.0   50.0
-200.0   0.0   33.333333333333336
-200.0   30.0   33.333333333333336
-250.0   30.0   33.333333333333336
-200.0   30.0   50.0
-250.0   0.0   50.0
-250.0   30.0   50.0
-200.0   30.0   50.0
-250.0   30.0   33.333333333333336
-250.0   0.0   50.0
-200.0   30.0   50.0
-200.0   0.0   50.0
-200.0   0.0   33.333333333333336
-250.0   0.0   50.0
-200.0   30.0   50.0
-200.0   0.0   33.333333333333336
-250.0   30.0   33.333333333333336
-250.0   30.0   0.0
-200.0   30.0   0.0
-250.0   60.0   0.0
-250.0   30.0   16.666666666666668
-200.0   30.0   0.0
-200.0   60.0   0.0
-250.0   60.0   0.0
-200.0   60.0   16.666666666666668
-250.0   30.0   16.666666666666668
-250.0   60.0   16.666666666666668
-200.0   60.0   16.666666666666668
-250.0   60.0   0.0
-250.0   30.0   16.666666666666668
-200.0   60.0   16.666666666666668
-200.0   30.0   16.666666666666668
-200.0   30.0   0.0
-250.0   30.0   16.666666666666668
-200.0   60.0   16.666666666666668
-200.0   30.0   0.0
-250.0   60.0   0.0
-250.0   30.0   16.666666666666668
-200.0   30.0   16.666666666666668
-250.0   60.0   16.666666666666668
-250.0   30.0   33.333333333333336
-200.0   30.0   16.666666666666668
-200.0   60.0   16.666666666666668
-250.0   60.0   16.666666666666668
-200.0   60.0   33.333333333333336
-250.0   30.0   33.333333333333336
-250.0   60.0   33.333333333333336
-200.0   60.0   33.333333333333336
-250.0   60.0   16.666666666666668
-250.0   30.0   33.333333333333336
-200.0   60.0   33.333333333333336
-200.0   30.0   33.333333333333336
-200.0   30.0   16.666666666666668
-250.0   30.0   33.333333333333336
-200.0   60.0   33.333333333333336
-200.0   30.0   16.666666666666668
-250.0   60.0   16.666666666666668
-250.0   30.0   33.333333333333336
-200.0   30.0   33.333333333333336
-250.0   60.0   33.333333333333336
-250.0   30.0   50.0
-200.0   30.0   33.333333333333336
-200.0   60.0   33.333333333333336
-250.0   60.0   33.333333333333336
-200.0   60.0   50.0
-250.0   30.0   50.0
-250.0   60.0   50.0
-200.0   60.0   50.0
-250.0   60.0   33.333333333333336
-250.0   30.0   50.0
-200.0   60.0   50.0
-200.0   30.0   50.0
-200.0   30.0   33.333333333333336
-250.0   30.0   50.0
-200.0   60.0   50.0
-200.0   30.0   33.333333333333336
-250.0   60.0   33.333333333333336
-250.0   60.0   0.0
-200.0   60.0   0.0
-250.0   90.0   0.0
-250.0   60.0   16.666666666666668
-200.0   60.0   0.0
-200.0   90.0   0.0
-250.0   90.0   0.0
-200.0   90.0   16.666666666666668
-250.0   60.0   16.666666666666668
-250.0   90.0   16.666666666666668
-200.0   90.0   16.666666666666668
-250.0   90.0   0.0
-250.0   60.0   16.666666666666668
-200.0   90.0   16.666666666666668
-200.0   60.0   16.666666666666668
-200.0   60.0   0.0
-250.0   60.0   16.666666666666668
-200.0   90.0   16.666666666666668
-200.0   60.0   0.0
-250.0   90.0   0.0
-250.0   60.0   16.666666666666668
-200.0   60.0   16.666666666666668
-250.0   90.0   16.666666666666668
-250.0   60.0   33.333333333333336
-200.0   60.0   16.666666666666668
-200.0   90.0   16.666666666666668
-250.0   90.0   16.666666666666668
-200.0   90.0   33.333333333333336
-250.0   60.0   33.333333333333336
-250.0   90.0   33.333333333333336
-200.0   90.0   33.333333333333336
-250.0   90.0   16.666666666666668
-250.0   60.0   33.333333333333336
-200.0   90.0   33.333333333333336
-200.0   60.0   33.333333333333336
-200.0   60.0   16.666666666666668
-250.0   60.0   33.333333333333336
-200.0   90.0   33.333333333333336
-200.0   60.0   16.666666666666668
-250.0   90.0   16.666666666666668
-250.0   60.0   33.333333333333336
-200.0   60.0   33.333333333333336
-250.0   90.0   33.333333333333336
-250.0   60.0   50.0
-200.0   60.0   33.333333333333336
-200.0   90.0   33.333333333333336
-250.0   90.0   33.333333333333336
-200.0   90.0   50.0
-250.0   60.0   50.0
-250.0   90.0   50.0
-200.0   90.0   50.0
-250.0   90.0   33.333333333333336
-250.0   60.0   50.0
-200.0   90.0   50.0
-200.0   60.0   50.0
-200.0   60.0   33.333333333333336
-250.0   60.0   50.0
-200.0   90.0   50.0
-200.0   60.0   33.333333333333336
-250.0   90.0   33.333333333333336
-250.0   90.0   0.0
-200.0   90.0   0.0
-250.0   120.0   0.0
-250.0   90.0   16.666666666666668
-200.0   90.0   0.0
-200.0   120.0   0.0
-250.0   120.0   0.0
-200.0   120.0   16.666666666666668
-250.0   90.0   16.666666666666668
-250.0   120.0   16.666666666666668
-200.0   120.0   16.666666666666668
-250.0   120.0   0.0
-250.0   90.0   16.666666666666668
-200.0   120.0   16.666666666666668
-200.0   90.0   16.666666666666668
-200.0   90.0   0.0
-250.0   90.0   16.666666666666668
-200.0   120.0   16.666666666666668
-200.0   90.0   0.0
-250.0   120.0   0.0
-250.0   90.0   16.666666666666668
-200.0   90.0   16.666666666666668
-250.0   120.0   16.666666666666668
-250.0   90.0   33.333333333333336
-200.0   90.0   16.666666666666668
-200.0   120.0   16.666666666666668
-250.0   120.0   16.666666666666668
-200.0   120.0   33.333333333333336
-250.0   90.0   33.333333333333336
-250.0   120.0   33.333333333333336
-200.0   120.0   33.333333333333336
-250.0   120.0   16.666666666666668
-250.0   90.0   33.333333333333336
-200.0   120.0   33.333333333333336
-200.0   90.0   33.333333333333336
-200.0   90.0   16.666666666666668
-250.0   90.0   33.333333333333336
-200.0   120.0   33.333333333333336
-200.0   90.0   16.666666666666668
-250.0   120.0   16.666666666666668
-250.0   90.0   33.333333333333336
-200.0   90.0   33.333333333333336
-250.0   120.0   33.333333333333336
-250.0   90.0   50.0
-200.0   90.0   33.333333333333336
-200.0   120.0   33.333333333333336
-250.0   120.0   33.333333333333336
-200.0   120.0   50.0
-250.0   90.0   50.0
-250.0   120.0   50.0
-200.0   120.0   50.0
-250.0   120.0   33.333333333333336
-250.0   90.0   50.0
-200.0   120.0   50.0
-200.0   90.0   50.0
-200.0   90.0   33.333333333333336
-250.0   90.0   50.0
-200.0   120.0   50.0
-200.0   90.0   33.333333333333336
-250.0   120.0   33.333333333333336
-250.0   120.0   0.0
-200.0   120.0   0.0
-250.0   150.0   0.0
-250.0   120.0   16.666666666666668
-200.0   120.0   0.0
-200.0   150.0   0.0
-250.0   150.0   0.0
-200.0   150.0   16.666666666666668
-250.0   120.0   16.666666666666668
-250.0   150.0   16.666666666666668
-200.0   150.0   16.666666666666668
-250.0   150.0   0.0
-250.0   120.0   16.666666666666668
-200.0   150.0   16.666666666666668
-200.0   120.0   16.666666666666668
-200.0   120.0   0.0
-250.0   120.0   16.666666666666668
-200.0   150.0   16.666666666666668
-200.0   120.0   0.0
-250.0   150.0   0.0
-250.0   120.0   16.666666666666668
-200.0   120.0   16.666666666666668
-250.0   150.0   16.666666666666668
-250.0   120.0   33.333333333333336
-200.0   120.0   16.666666666666668
-200.0   150.0   16.666666666666668
-250.0   150.0   16.666666666666668
-200.0   150.0   33.333333333333336
-250.0   120.0   33.333333333333336
-250.0   150.0   33.333333333333336
-200.0   150.0   33.333333333333336
-250.0   150.0   16.666666666666668
-250.0   120.0   33.333333333333336
-200.0   150.0   33.333333333333336
-200.0   120.0   33.333333333333336
-200.0   120.0   16.666666666666668
-250.0   120.0   33.333333333333336
-200.0   150.0   33.333333333333336
-200.0   120.0   16.666666666666668
-250.0   150.0   16.666666666666668
-250.0   120.0   33.333333333333336
-200.0   120.0   33.333333333333336
-250.0   150.0   33.333333333333336
-250.0   120.0   50.0
-200.0   120.0   33.333333333333336
-200.0   150.0   33.333333333333336
-250.0   150.0   33.333333333333336
-200.0   150.0   50.0
-250.0   120.0   50.0
-250.0   150.0   50.0
-200.0   150.0   50.0
-250.0   150.0   33.333333333333336
-250.0   120.0   50.0
-200.0   150.0   50.0
-200.0   120.0   50.0
-200.0   120.0   33.333333333333336
-250.0   120.0   50.0
-200.0   150.0   50.0
-200.0   120.0   33.333333333333336
-250.0   150.0   33.333333333333336
-200.0   0.0   0.0
-150.0   0.0   0.0
-200.0   30.0   0.0
-200.0   0.0   16.666666666666668
-150.0   0.0   0.0
-150.0   30.0   0.0
-200.0   30.0   0.0
-150.0   30.0   16.666666666666668
-200.0   0.0   16.666666666666668
-200.0   30.0   16.666666666666668
-150.0   30.0   16.666666666666668
-200.0   30.0   0.0
-200.0   0.0   16.666666666666668
-150.0   30.0   16.666666666666668
-150.0   0.0   16.666666666666668
-150.0   0.0   0.0
-200.0   0.0   16.666666666666668
-150.0   30.0   16.666666666666668
-150.0   0.0   0.0
-200.0   30.0   0.0
-200.0   0.0   16.666666666666668
-150.0   0.0   16.666666666666668
-200.0   30.0   16.666666666666668
-200.0   0.0   33.333333333333336
-150.0   0.0   16.666666666666668
-150.0   30.0   16.666666666666668
-200.0   30.0   16.666666666666668
-150.0   30.0   33.333333333333336
-200.0   0.0   33.333333333333336
-200.0   30.0   33.333333333333336
-150.0   30.0   33.333333333333336
-200.0   30.0   16.666666666666668
-200.0   0.0   33.333333333333336
-150.0   30.0   33.333333333333336
-150.0   0.0   33.333333333333336
-150.0   0.0   16.666666666666668
-200.0   0.0   33.333333333333336
-150.0   30.0   33.333333333333336
-150.0   0.0   16.666666666666668
-200.0   30.0   16.666666666666668
-200.0   0.0   33.333333333333336
-150.0   0.0   33.333333333333336
-200.0   30.0   33.333333333333336
-200.0   0.0   50.0
-150.0   0.0   33.333333333333336
-150.0   30.0   33.333333333333336
-200.0   30.0   33.333333333333336
-150.0   30.0   50.0
-200.0   0.0   50.0
-200.0   30.0   50.0
-150.0   30.0   50.0
-200.0   30.0   33.333333333333336
-200.0   0.0   50.0
-150.0   30.0   50.0
-150.0   0.0   50.0
-150.0   0.0   33.333333333333336
-200.0   0.0   50.0
-150.0   30.0   50.0
-150.0   0.0   33.333333333333336
-200.0   30.0   33.333333333333336
-200.0   30.0   0.0
-150.0   30.0   0.0
-200.0   60.0   0.0
-200.0   30.0   16.666666666666668
-150.0   30.0   0.0
-150.0   60.0   0.0
-200.0   60.0   0.0
-150.0   60.0   16.666666666666668
-200.0   30.0   16.666666666666668
-200.0   60.0   16.666666666666668
-150.0   60.0   16.666666666666668
-200.0   60.0   0.0
-200.0   30.0   16.666666666666668
-150.0   60.0   16.666666666666668
-150.0   30.0   16.666666666666668
-150.0   30.0   0.0
-200.0   30.0   16.666666666666668
-150.0   60.0   16.666666666666668
-150.0   30.0   0.0
-200.0   60.0   0.0
-200.0   30.0   16.666666666666668
-150.0   30.0   16.666666666666668
-200.0   60.0   16.666666666666668
-200.0   30.0   33.333333333333336
-150.0   30.0   16.666666666666668
-150.0   60.0   16.666666666666668
-200.0   60.0   16.666666666666668
-150.0   60.0   33.333333333333336
-200.0   30.0   33.333333333333336
-200.0   60.0   33.333333333333336
-150.0   60.0   33.333333333333336
-200.0   60.0   16.666666666666668
-200.0   30.0   33.333333333333336
-150.0   60.0   33.333333333333336
-150.0   30.0   33.333333333333336
-150.0   30.0   16.666666666666668
-200.0   30.0   33.333333333333336
-150.0   60.0   33.333333333333336
-150.0   30.0   16.666666666666668
-200.0   60.0   16.666666666666668
-200.0   30.0   33.333333333333336
-150.0   30.0   33.333333333333336
-200.0   60.0   33.333333333333336
-200.0   30.0   50.0
-150.0   30.0   33.333333333333336
-150.0   60.0   33.333333333333336
-200.0   60.0   33.333333333333336
-150.0   60.0   50.0
-200.0   30.0   50.0
-200.0   60.0   50.0
-150.0   60.0   50.0
-200.0   60.0   33.333333333333336
-200.0   30.0   50.0
-150.0   60.0   50.0
-150.0   30.0   50.0
-150.0   30.0   33.333333333333336
-200.0   30.0   50.0
-150.0   60.0   50.0
-150.0   30.0   33.333333333333336
-200.0   60.0   33.333333333333336
-200.0   60.0   0.0
-150.0   60.0   0.0
-200.0   90.0   0.0
-200.0   60.0   16.666666666666668
-150.0   60.0   0.0
-150.0   90.0   0.0
-200.0   90.0   0.0
-150.0   90.0   16.666666666666668
-200.0   60.0   16.666666666666668
-200.0   90.0   16.666666666666668
-150.0   90.0   16.666666666666668
-200.0   90.0   0.0
-200.0   60.0   16.666666666666668
-150.0   90.0   16.666666666666668
-150.0   60.0   16.666666666666668
-150.0   60.0   0.0
-200.0   60.0   16.666666666666668
-150.0   90.0   16.666666666666668
-150.0   60.0   0.0
-200.0   90.0   0.0
-200.0   60.0   16.666666666666668
-150.0   60.0   16.666666666666668
-200.0   90.0   16.666666666666668
-200.0   60.0   33.333333333333336
-150.0   60.0   16.666666666666668
-150.0   90.0   16.666666666666668
-200.0   90.0   16.666666666666668
-150.0   90.0   33.333333333333336
-200.0   60.0   33.333333333333336
-200.0   90.0   33.333333333333336
-150.0   90.0   33.333333333333336
-200.0   90.0   16.666666666666668
-200.0   60.0   33.333333333333336
-150.0   90.0   33.333333333333336
-150.0   60.0   33.333333333333336
-150.0   60.0   16.666666666666668
-200.0   60.0   33.333333333333336
-150.0   90.0   33.333333333333336
-150.0   60.0   16.666666666666668
-200.0   90.0   16.666666666666668
-200.0   60.0   33.333333333333336
-150.0   60.0   33.333333333333336
-200.0   90.0   33.333333333333336
-200.0   60.0   50.0
-150.0   60.0   33.333333333333336
-150.0   90.0   33.333333333333336
-200.0   90.0   33.333333333333336
-150.0   90.0   50.0
-200.0   60.0   50.0
-200.0   90.0   50.0
-150.0   90.0   50.0
-200.0   90.0   33.333333333333336
-200.0   60.0   50.0
-150.0   90.0   50.0
-150.0   60.0   50.0
-150.0   60.0   33.333333333333336
-200.0   60.0   50.0
-150.0   90.0   50.0
-150.0   60.0   33.333333333333336
-200.0   90.0   33.333333333333336
-200.0   90.0   0.0
-150.0   90.0   0.0
-200.0   120.0   0.0
-200.0   90.0   16.666666666666668
-150.0   90.0   0.0
-150.0   120.0   0.0
-200.0   120.0   0.0
-150.0   120.0   16.666666666666668
-200.0   90.0   16.666666666666668
-200.0   120.0   16.666666666666668
-150.0   120.0   16.666666666666668
-200.0   120.0   0.0
-200.0   90.0   16.666666666666668
-150.0   120.0   16.666666666666668
-150.0   90.0   16.666666666666668
-150.0   90.0   0.0
-200.0   90.0   16.666666666666668
-150.0   120.0   16.666666666666668
-150.0   90.0   0.0
-200.0   120.0   0.0
-200.0   90.0   16.666666666666668
-150.0   90.0   16.666666666666668
-200.0   120.0   16.666666666666668
-200.0   90.0   33.333333333333336
-150.0   90.0   16.666666666666668
-150.0   120.0   16.666666666666668
-200.0   120.0   16.666666666666668
-150.0   120.0   33.333333333333336
-200.0   90.0   33.333333333333336
-200.0   120.0   33.333333333333336
-150.0   120.0   33.333333333333336
-200.0   120.0   16.666666666666668
-200.0   90.0   33.333333333333336
-150.0   120.0   33.333333333333336
-150.0   90.0   33.333333333333336
-150.0   90.0   16.666666666666668
-200.0   90.0   33.333333333333336
-150.0   120.0   33.333333333333336
-150.0   90.0   16.666666666666668
-200.0   120.0   16.666666666666668
-200.0   90.0   33.333333333333336
-150.0   90.0   33.333333333333336
-200.0   120.0   33.333333333333336
-200.0   90.0   50.0
-150.0   90.0   33.333333333333336
-150.0   120.0   33.333333333333336
-200.0   120.0   33.333333333333336
-150.0   120.0   50.0
-200.0   90.0   50.0
-200.0   120.0   50.0
-150.0   120.0   50.0
-200.0   120.0   33.333333333333336
-200.0   90.0   50.0
-150.0   120.0   50.0
-150.0   90.0   50.0
-150.0   90.0   33.333333333333336
-200.0   90.0   50.0
-150.0   120.0   50.0
-150.0   90.0   33.333333333333336
-200.0   120.0   33.333333333333336
-200.0   120.0   0.0
-150.0   120.0   0.0
-200.0   150.0   0.0
-200.0   120.0   16.666666666666668
-150.0   120.0   0.0
-150.0   150.0   0.0
-200.0   150.0   0.0
-150.0   150.0   16.666666666666668
-200.0   120.0   16.666666666666668
-200.0   150.0   16.666666666666668
-150.0   150.0   16.666666666666668
-200.0   150.0   0.0
-200.0   120.0   16.666666666666668
-150.0   150.0   16.666666666666668
-150.0   120.0   16.666666666666668
-150.0   120.0   0.0
-200.0   120.0   16.666666666666668
-150.0   150.0   16.666666666666668
-150.0   120.0   0.0
-200.0   150.0   0.0
-200.0   120.0   16.666666666666668
-150.0   120.0   16.666666666666668
-200.0   150.0   16.666666666666668
-200.0   120.0   33.333333333333336
-150.0   120.0   16.666666666666668
-150.0   150.0   16.666666666666668
-200.0   150.0   16.666666666666668
-150.0   150.0   33.333333333333336
-200.0   120.0   33.333333333333336
-200.0   150.0   33.333333333333336
-150.0   150.0   33.333333333333336
-200.0   150.0   16.666666666666668
-200.0   120.0   33.333333333333336
-150.0   150.0   33.333333333333336
-150.0   120.0   33.333333333333336
-150.0   120.0   16.666666666666668
-200.0   120.0   33.333333333333336
-150.0   150.0   33.333333333333336
-150.0   120.0   16.666666666666668
-200.0   150.0   16.666666666666668
-200.0   120.0   33.333333333333336
-150.0   120.0   33.333333333333336
-200.0   150.0   33.333333333333336
-200.0   120.0   50.0
-150.0   120.0   33.333333333333336
-150.0   150.0   33.333333333333336
-200.0   150.0   33.333333333333336
-150.0   150.0   50.0
-200.0   120.0   50.0
-200.0   150.0   50.0
-150.0   150.0   50.0
-200.0   150.0   33.333333333333336
-200.0   120.0   50.0
-150.0   150.0   50.0
-150.0   120.0   50.0
-150.0   120.0   33.333333333333336
-200.0   120.0   50.0
-150.0   150.0   50.0
-150.0   120.0   33.333333333333336
-200.0   150.0   33.333333333333336
-150.0   0.0   0.0
-100.0   0.0   0.0
-150.0   30.0   0.0
-150.0   0.0   16.666666666666668
-100.0   0.0   0.0
-100.0   30.0   0.0
-150.0   30.0   0.0
-100.0   30.0   16.666666666666668
-150.0   0.0   16.666666666666668
-150.0   30.0   16.666666666666668
-100.0   30.0   16.666666666666668
-150.0   30.0   0.0
-150.0   0.0   16.666666666666668
-100.0   30.0   16.666666666666668
-100.0   0.0   16.666666666666668
-100.0   0.0   0.0
-150.0   0.0   16.666666666666668
-100.0   30.0   16.666666666666668
-100.0   0.0   0.0
-150.0   30.0   0.0
-150.0   0.0   16.666666666666668
-100.0   0.0   16.666666666666668
-150.0   30.0   16.666666666666668
-150.0   0.0   33.333333333333336
-100.0   0.0   16.666666666666668
-100.0   30.0   16.666666666666668
-150.0   30.0   16.666666666666668
-100.0   30.0   33.333333333333336
-150.0   0.0   33.333333333333336
-150.0   30.0   33.333333333333336
-100.0   30.0   33.333333333333336
-150.0   30.0   16.666666666666668
-150.0   0.0   33.333333333333336
-100.0   30.0   33.333333333333336
-100.0   0.0   33.333333333333336
-100.0   0.0   16.666666666666668
-150.0   0.0   33.333333333333336
-100.0   30.0   33.333333333333336
-100.0   0.0   16.666666666666668
-150.0   30.0   16.666666666666668
-150.0   0.0   33.333333333333336
-100.0   0.0   33.333333333333336
-150.0   30.0   33.333333333333336
-150.0   0.0   50.0
-100.0   0.0   33.333333333333336
-100.0   30.0   33.333333333333336
-150.0   30.0   33.333333333333336
-100.0   30.0   50.0
-150.0   0.0   50.0
-150.0   30.0   50.0
-100.0   30.0   50.0
-150.0   30.0   33.333333333333336
-150.0   0.0   50.0
-100.0   30.0   50.0
-100.0   0.0   50.0
-100.0   0.0   33.333333333333336
-150.0   0.0   50.0
-100.0   30.0   50.0
-100.0   0.0   33.333333333333336
-150.0   30.0   33.333333333333336
-150.0   30.0   0.0
-100.0   30.0   0.0
-150.0   60.0   0.0
-150.0   30.0   16.666666666666668
-100.0   30.0   0.0
-100.0   60.0   0.0
-150.0   60.0   0.0
-100.0   60.0   16.666666666666668
-150.0   30.0   16.666666666666668
-150.0   60.0   16.666666666666668
-100.0   60.0   16.666666666666668
-150.0   60.0   0.0
-150.0   30.0   16.666666666666668
-100.0   60.0   16.666666666666668
-100.0   30.0   16.666666666666668
-100.0   30.0   0.0
-150.0   30.0   16.666666666666668
-100.0   60.0   16.666666666666668
-100.0   30.0   0.0
-150.0   60.0   0.0
-150.0   30.0   16.666666666666668
-100.0   30.0   16.666666666666668
-150.0   60.0   16.666666666666668
-150.0   30.0   33.333333333333336
-100.0   30.0   16.666666666666668
-100.0   60.0   16.666666666666668
-150.0   60.0   16.666666666666668
-100.0   60.0   33.333333333333336
-150.0   30.0   33.333333333333336
-150.0   60.0   33.333333333333336
-100.0   60.0   33.333333333333336
-150.0   60.0   16.666666666666668
-150.0   30.0   33.333333333333336
-100.0   60.0   33.333333333333336
-100.0   30.0   33.333333333333336
-100.0   30.0   16.666666666666668
-150.0   30.0   33.333333333333336
-100.0   60.0   33.333333333333336
-100.0   30.0   16.666666666666668
-150.0   60.0   16.666666666666668
-150.0   30.0   33.333333333333336
-100.0   30.0   33.333333333333336
-150.0   60.0   33.333333333333336
-150.0   30.0   50.0
-100.0   30.0   33.333333333333336
-100.0   60.0   33.333333333333336
-150.0   60.0   33.333333333333336
-100.0   60.0   50.0
-150.0   30.0   50.0
-150.0   60.0   50.0
-100.0   60.0   50.0
-150.0   60.0   33.333333333333336
-150.0   30.0   50.0
-100.0   60.0   50.0
-100.0   30.0   50.0
-100.0   30.0   33.333333333333336
-150.0   30.0   50.0
-100.0   60.0   50.0
-100.0   30.0   33.333333333333336
-150.0   60.0   33.333333333333336
-150.0   60.0   0.0
-100.0   60.0   0.0
-150.0   90.0   0.0
-150.0   60.0   16.666666666666668
-100.0   60.0   0.0
-100.0   90.0   0.0
-150.0   90.0   0.0
-100.0   90.0   16.666666666666668
-150.0   60.0   16.666666666666668
-150.0   90.0   16.666666666666668
-100.0   90.0   16.666666666666668
-150.0   90.0   0.0
-150.0   60.0   16.666666666666668
-100.0   90.0   16.666666666666668
-100.0   60.0   16.666666666666668
-100.0   60.0   0.0
-150.0   60.0   16.666666666666668
-100.0   90.0   16.666666666666668
-100.0   60.0   0.0
-150.0   90.0   0.0
-150.0   60.0   16.666666666666668
-100.0   60.0   16.666666666666668
-150.0   90.0   16.666666666666668
-150.0   60.0   33.333333333333336
-100.0   60.0   16.666666666666668
-100.0   90.0   16.666666666666668
-150.0   90.0   16.666666666666668
-100.0   90.0   33.333333333333336
-150.0   60.0   33.333333333333336
-150.0   90.0   33.333333333333336
-100.0   90.0   33.333333333333336
-150.0   90.0   16.666666666666668
-150.0   60.0   33.333333333333336
-100.0   90.0   33.333333333333336
-100.0   60.0   33.333333333333336
-100.0   60.0   16.666666666666668
-150.0   60.0   33.333333333333336
-100.0   90.0   33.333333333333336
-100.0   60.0   16.666666666666668
-150.0   90.0   16.666666666666668
-150.0   60.0   33.333333333333336
-100.0   60.0   33.333333333333336
-150.0   90.0   33.333333333333336
-150.0   60.0   50.0
-100.0   60.0   33.333333333333336
-100.0   90.0   33.333333333333336
-150.0   90.0   33.333333333333336
-100.0   90.0   50.0
-150.0   60.0   50.0
-150.0   90.0   50.0
-100.0   90.0   50.0
-150.0   90.0   33.333333333333336
-150.0   60.0   50.0
-100.0   90.0   50.0
-100.0   60.0   50.0
-100.0   60.0   33.333333333333336
-150.0   60.0   50.0
-100.0   90.0   50.0
-100.0   60.0   33.333333333333336
-150.0   90.0   33.333333333333336
-150.0   90.0   0.0
-100.0   90.0   0.0
-150.0   120.0   0.0
-150.0   90.0   16.666666666666668
-100.0   90.0   0.0
-100.0   120.0   0.0
-150.0   120.0   0.0
-100.0   120.0   16.666666666666668
-150.0   90.0   16.666666666666668
-150.0   120.0   16.666666666666668
-100.0   120.0   16.666666666666668
-150.0   120.0   0.0
-150.0   90.0   16.666666666666668
-100.0   120.0   16.666666666666668
-100.0   90.0   16.666666666666668
-100.0   90.0   0.0
-150.0   90.0   16.666666666666668
-100.0   120.0   16.666666666666668
-100.0   90.0   0.0
-150.0   120.0   0.0
-150.0   90.0   16.666666666666668
-100.0   90.0   16.666666666666668
-150.0   120.0   16.666666666666668
-150.0   90.0   33.333333333333336
-100.0   90.0   16.666666666666668
-100.0   120.0   16.666666666666668
-150.0   120.0   16.666666666666668
-100.0   120.0   33.333333333333336
-150.0   90.0   33.333333333333336
-150.0   120.0   33.333333333333336
-100.0   120.0   33.333333333333336
-150.0   120.0   16.666666666666668
-150.0   90.0   33.333333333333336
-100.0   120.0   33.333333333333336
-100.0   90.0   33.333333333333336
-100.0   90.0   16.666666666666668
-150.0   90.0   33.333333333333336
-100.0   120.0   33.333333333333336
-100.0   90.0   16.666666666666668
-150.0   120.0   16.666666666666668
-150.0   90.0   33.333333333333336
-100.0   90.0   33.333333333333336
-150.0   120.0   33.333333333333336
-150.0   90.0   50.0
-100.0   90.0   33.333333333333336
-100.0   120.0   33.333333333333336
-150.0   120.0   33.333333333333336
-100.0   120.0   50.0
-150.0   90.0   50.0
-150.0   120.0   50.0
-100.0   120.0   50.0
-150.0   120.0   33.333333333333336
-150.0   90.0   50.0
-100.0   120.0   50.0
-100.0   90.0   50.0
-100.0   90.0   33.333333333333336
-150.0   90.0   50.0
-100.0   120.0   50.0
-100.0   90.0   33.333333333333336
-150.0   120.0   33.333333333333336
-150.0   120.0   0.0
-100.0   120.0   0.0
-150.0   150.0   0.0
-150.0   120.0   16.666666666666668
-100.0   120.0   0.0
-100.0   150.0   0.0
-150.0   150.0   0.0
-100.0   150.0   16.666666666666668
-150.0   120.0   16.666666666666668
-150.0   150.0   16.666666666666668
-100.0   150.0   16.666666666666668
-150.0   150.0   0.0
-150.0   120.0   16.666666666666668
-100.0   150.0   16.666666666666668
-100.0   120.0   16.666666666666668
-100.0   120.0   0.0
-150.0   120.0   16.666666666666668
-100.0   150.0   16.666666666666668
-100.0   120.0   0.0
-150.0   150.0   0.0
-150.0   120.0   16.666666666666668
-100.0   120.0   16.666666666666668
-150.0   150.0   16.666666666666668
-150.0   120.0   33.333333333333336
-100.0   120.0   16.666666666666668
-100.0   150.0   16.666666666666668
-150.0   150.0   16.666666666666668
-100.0   150.0   33.333333333333336
-150.0   120.0   33.333333333333336
-150.0   150.0   33.333333333333336
-100.0   150.0   33.333333333333336
-150.0   150.0   16.666666666666668
-150.0   120.0   33.333333333333336
-100.0   150.0   33.333333333333336
-100.0   120.0   33.333333333333336
-100.0   120.0   16.666666666666668
-150.0   120.0   33.333333333333336
-100.0   150.0   33.333333333333336
-100.0   120.0   16.666666666666668
-150.0   150.0   16.666666666666668
-150.0   120.0   33.333333333333336
-100.0   120.0   33.333333333333336
-150.0   150.0   33.333333333333336
-150.0   120.0   50.0
-100.0   120.0   33.333333333333336
-100.0   150.0   33.333333333333336
-150.0   150.0   33.333333333333336
-100.0   150.0   50.0
-150.0   120.0   50.0
-150.0   150.0   50.0
-100.0   150.0   50.0
-150.0   150.0   33.333333333333336
-150.0   120.0   50.0
-100.0   150.0   50.0
-100.0   120.0   50.0
-100.0   120.0   33.333333333333336
-150.0   120.0   50.0
-100.0   150.0   50.0
-100.0   120.0   33.333333333333336
-150.0   150.0   33.333333333333336
-100.0   0.0   0.0
-50.0   0.0   0.0
-100.0   30.0   0.0
-100.0   0.0   16.666666666666668
-50.0   0.0   0.0
-50.0   30.0   0.0
-100.0   30.0   0.0
-50.0   30.0   16.666666666666668
-100.0   0.0   16.666666666666668
-100.0   30.0   16.666666666666668
-50.0   30.0   16.666666666666668
-100.0   30.0   0.0
-100.0   0.0   16.666666666666668
-50.0   30.0   16.666666666666668
-50.0   0.0   16.666666666666668
-50.0   0.0   0.0
-100.0   0.0   16.666666666666668
-50.0   30.0   16.666666666666668
-50.0   0.0   0.0
-100.0   30.0   0.0
-100.0   0.0   16.666666666666668
-50.0   0.0   16.666666666666668
-100.0   30.0   16.666666666666668
-100.0   0.0   33.333333333333336
-50.0   0.0   16.666666666666668
-50.0   30.0   16.666666666666668
-100.0   30.0   16.666666666666668
-50.0   30.0   33.333333333333336
-100.0   0.0   33.333333333333336
-100.0   30.0   33.333333333333336
-50.0   30.0   33.333333333333336
-100.0   30.0   16.666666666666668
-100.0   0.0   33.333333333333336
-50.0   30.0   33.333333333333336
-50.0   0.0   33.333333333333336
-50.0   0.0   16.666666666666668
-100.0   0.0   33.333333333333336
-50.0   30.0   33.333333333333336
-50.0   0.0   16.666666666666668
-100.0   30.0   16.666666666666668
-100.0   0.0   33.333333333333336
-50.0   0.0   33.333333333333336
-100.0   30.0   33.333333333333336
-100.0   0.0   50.0
-50.0   0.0   33.333333333333336
-50.0   30.0   33.333333333333336
-100.0   30.0   33.333333333333336
-50.0   30.0   50.0
-100.0   0.0   50.0
-100.0   30.0   50.0
-50.0   30.0   50.0
-100.0   30.0   33.333333333333336
-100.0   0.0   50.0
-50.0   30.0   50.0
-50.0   0.0   50.0
-50.0   0.0   33.333333333333336
-100.0   0.0   50.0
-50.0   30.0   50.0
-50.0   0.0   33.333333333333336
-100.0   30.0   33.333333333333336
-100.0   30.0   0.0
-50.0   30.0   0.0
-100.0   60.0   0.0
-100.0   30.0   16.666666666666668
-50.0   30.0   0.0
-50.0   60.0   0.0
-100.0   60.0   0.0
-50.0   60.0   16.666666666666668
-100.0   30.0   16.666666666666668
-100.0   60.0   16.666666666666668
-50.0   60.0   16.666666666666668
-100.0   60.0   0.0
-100.0   30.0   16.666666666666668
-50.0   60.0   16.666666666666668
-50.0   30.0   16.666666666666668
-50.0   30.0   0.0
-100.0   30.0   16.666666666666668
-50.0   60.0   16.666666666666668
-50.0   30.0   0.0
-100.0   60.0   0.0
-100.0   30.0   16.666666666666668
-50.0   30.0   16.666666666666668
-100.0   60.0   16.666666666666668
-100.0   30.0   33.333333333333336
-50.0   30.0   16.666666666666668
-50.0   60.0   16.666666666666668
-100.0   60.0   16.666666666666668
-50.0   60.0   33.333333333333336
-100.0   30.0   33.333333333333336
-100.0   60.0   33.333333333333336
-50.0   60.0   33.333333333333336
-100.0   60.0   16.666666666666668
-100.0   30.0   33.333333333333336
-50.0   60.0   33.333333333333336
-50.0   30.0   33.333333333333336
-50.0   30.0   16.666666666666668
-100.0   30.0   33.333333333333336
-50.0   60.0   33.333333333333336
-50.0   30.0   16.666666666666668
-100.0   60.0   16.666666666666668
-100.0   30.0   33.333333333333336
-50.0   30.0   33.333333333333336
-100.0   60.0   33.333333333333336
-100.0   30.0   50.0
-50.0   30.0   33.333333333333336
-50.0   60.0   33.333333333333336
-100.0   60.0   33.333333333333336
-50.0   60.0   50.0
-100.0   30.0   50.0
-100.0   60.0   50.0
-50.0   60.0   50.0
-100.0   60.0   33.333333333333336
-100.0   30.0   50.0
-50.0   60.0   50.0
-50.0   30.0   50.0
-50.0   30.0   33.333333333333336
-100.0   30.0   50.0
-50.0   60.0   50.0
-50.0   30.0   33.333333333333336
-100.0   60.0   33.333333333333336
-100.0   60.0   0.0
-50.0   60.0   0.0
-100.0   90.0   0.0
-100.0   60.0   16.666666666666668
-50.0   60.0   0.0
-50.0   90.0   0.0
-100.0   90.0   0.0
-50.0   90.0   16.666666666666668
-100.0   60.0   16.666666666666668
-100.0   90.0   16.666666666666668
-50.0   90.0   16.666666666666668
-100.0   90.0   0.0
-100.0   60.0   16.666666666666668
-50.0   90.0   16.666666666666668
-50.0   60.0   16.666666666666668
-50.0   60.0   0.0
-100.0   60.0   16.666666666666668
-50.0   90.0   16.666666666666668
-50.0   60.0   0.0
-100.0   90.0   0.0
-100.0   60.0   16.666666666666668
-50.0   60.0   16.666666666666668
-100.0   90.0   16.666666666666668
-100.0   60.0   33.333333333333336
-50.0   60.0   16.666666666666668
-50.0   90.0   16.666666666666668
-100.0   90.0   16.666666666666668
-50.0   90.0   33.333333333333336
-100.0   60.0   33.333333333333336
-100.0   90.0   33.333333333333336
-50.0   90.0   33.333333333333336
-100.0   90.0   16.666666666666668
-100.0   60.0   33.333333333333336
-50.0   90.0   33.333333333333336
-50.0   60.0   33.333333333333336
-50.0   60.0   16.666666666666668
-100.0   60.0   33.333333333333336
-50.0   90.0   33.333333333333336
-50.0   60.0   16.666666666666668
-100.0   90.0   16.666666666666668
-100.0   60.0   33.333333333333336
-50.0   60.0   33.333333333333336
-100.0   90.0   33.333333333333336
-100.0   60.0   50.0
-50.0   60.0   33.333333333333336
-50.0   90.0   33.333333333333336
-100.0   90.0   33.333333333333336
-50.0   90.0   50.0
-100.0   60.0   50.0
-100.0   90.0   50.0
-50.0   90.0   50.0
-100.0   90.0   33.333333333333336
-100.0   60.0   50.0
-50.0   90.0   50.0
-50.0   60.0   50.0
-50.0   60.0   33.333333333333336
-100.0   60.0   50.0
-50.0   90.0   50.0
-50.0   60.0   33.333333333333336
-100.0   90.0   33.333333333333336
-100.0   90.0   0.0
-50.0   90.0   0.0
-100.0   120.0   0.0
-100.0   90.0   16.666666666666668
-50.0   90.0   0.0
-50.0   120.0   0.0
-100.0   120.0   0.0
-50.0   120.0   16.666666666666668
-100.0   90.0   16.666666666666668
-100.0   120.0   16.666666666666668
-50.0   120.0   16.666666666666668
-100.0   120.0   0.0
-100.0   90.0   16.666666666666668
-50.0   120.0   16.666666666666668
-50.0   90.0   16.666666666666668
-50.0   90.0   0.0
-100.0   90.0   16.666666666666668
-50.0   120.0   16.666666666666668
-50.0   90.0   0.0
-100.0   120.0   0.0
-100.0   90.0   16.666666666666668
-50.0   90.0   16.666666666666668
-100.0   120.0   16.666666666666668
-100.0   90.0   33.333333333333336
-50.0   90.0   16.666666666666668
-50.0   120.0   16.666666666666668
-100.0   120.0   16.666666666666668
-50.0   120.0   33.333333333333336
-100.0   90.0   33.333333333333336
-100.0   120.0   33.333333333333336
-50.0   120.0   33.333333333333336
-100.0   120.0   16.666666666666668
-100.0   90.0   33.333333333333336
-50.0   120.0   33.333333333333336
-50.0   90.0   33.333333333333336
-50.0   90.0   16.666666666666668
-100.0   90.0   33.333333333333336
-50.0   120.0   33.333333333333336
-50.0   90.0   16.666666666666668
-100.0   120.0   16.666666666666668
-100.0   90.0   33.333333333333336
-50.0   90.0   33.333333333333336
-100.0   120.0   33.333333333333336
-100.0   90.0   50.0
-50.0   90.0   33.333333333333336
-50.0   120.0   33.333333333333336
-100.0   120.0   33.333333333333336
-50.0   120.0   50.0
-100.0   90.0   50.0
-100.0   120.0   50.0
-50.0   120.0   50.0
-100.0   120.0   33.333333333333336
-100.0   90.0   50.0
-50.0   120.0   50.0
-50.0   90.0   50.0
-50.0   90.0   33.333333333333336
-100.0   90.0   50.0
-50.0   120.0   50.0
-50.0   90.0   33.333333333333336
-100.0   120.0   33.333333333333336
-100.0   120.0   0.0
-50.0   120.0   0.0
-100.0   150.0   0.0
-100.0   120.0   16.666666666666668
-50.0   120.0   0.0
-50.0   150.0   0.0
-100.0   150.0   0.0
-50.0   150.0   16.666666666666668
-100.0   120.0   16.666666666666668
-100.0   150.0   16.666666666666668
-50.0   150.0   16.666666666666668
-100.0   150.0   0.0
-100.0   120.0   16.666666666666668
-50.0   150.0   16.666666666666668
-50.0   120.0   16.666666666666668
-50.0   120.0   0.0
-100.0   120.0   16.666666666666668
-50.0   150.0   16.666666666666668
-50.0   120.0   0.0
-100.0   150.0   0.0
-100.0   120.0   16.666666666666668
-50.0   120.0   16.666666666666668
-100.0   150.0   16.666666666666668
-100.0   120.0   33.333333333333336
-50.0   120.0   16.666666666666668
-50.0   150.0   16.666666666666668
-100.0   150.0   16.666666666666668
-50.0   150.0   33.333333333333336
-100.0   120.0   33.333333333333336
-100.0   150.0   33.333333333333336
-50.0   150.0   33.333333333333336
-100.0   150.0   16.666666666666668
-100.0   120.0   33.333333333333336
-50.0   150.0   33.333333333333336
-50.0   120.0   33.333333333333336
-50.0   120.0   16.666666666666668
-100.0   120.0   33.333333333333336
-50.0   150.0   33.333333333333336
-50.0   120.0   16.666666666666668
-100.0   150.0   16.666666666666668
-100.0   120.0   33.333333333333336
-50.0   120.0   33.333333333333336
-100.0   150.0   33.333333333333336
-100.0   120.0   50.0
-50.0   120.0   33.333333333333336
-50.0   150.0   33.333333333333336
-100.0   150.0   33.333333333333336
-50.0   150.0   50.0
-100.0   120.0   50.0
-100.0   150.0   50.0
-50.0   150.0   50.0
-100.0   150.0   33.333333333333336
-100.0   120.0   50.0
-50.0   150.0   50.0
-50.0   120.0   50.0
-50.0   120.0   33.333333333333336
-100.0   120.0   50.0
-50.0   150.0   50.0
-50.0   120.0   33.333333333333336
-100.0   150.0   33.333333333333336
-50.0   0.0   0.0
0.0   0.0   0.0
-50.0   30.0   0.0
-50.0   0.0   16.666666666666668
0.0   0.0   0.0
0.0   30.0   0.0
-50.0   30.0   0.0
0.0   30.0   16.666666666666668
-50.0   0.0   16.666666666666668
-50.0   30.0   16.666666666666668
0.0   30.0   16.666666666666668
-50.0   30.0   0.0
-50.0   0.0   16.666666666666668
0.0   30.0   16.666666666666668
0.0   0.0   16.666666666666668
0.0   0.0   0.0
-50.0   0.0   16.666666666666668
0.0   30.0   16.666666666666668
0.0   0.0   0.0
-50.0   30.0   0.0
-50.0   0.0   16.666666666666668
0.0   0.0   16.666666666666668
-50.0   30.0   16.666666666666668
-50.0   0.0   33.333333333333336
0.0   0.0   16.666666666666668
0.0   30.0   16.666666666666668
-50.0   30.0   16.666666666666668
0.0   30.0   33.333333333333336
-50.0   0.0   33.333333333333336
-50.0   30.0   33.333333333333336
0.0   30.0   33.333333333333336
-50.0   30.0   16.666666666666668
-50.0   0.0   33.333333333333336
0.0   30.0   33.333333333333336
0.0   0.0   33.333333333333336
0.0   0.0   16.666666666666668
-50.0   0.0   33.333333333333336
0.0   30.0   33.333333333333336
0.0   0.0   16.666666666666668
-50.0   30.0   16.666666666666668
-50.0   0.0   33.333333333333336
0.0   0.0   33.333333333333336
-50.0   30.0   33.333333333333336
-50.0   0.0   50.0
0.0   0.0   33.333333333333336
0.0   30.0   33.333333333333336
-50.0   30.0   33.333333333333336
0.0   30.0   50.0
-50.0   0.0   50.0
-50.0   30.0   50.0
0.0   30.0   50.0
-50.0   30.0   33.333333333333336
-50.0   0.0   50.0
0.0   30.0   50.0
0.0   0.0   50.0
0.0   0.0   33.333333333333336
-50.0   0.0   50.0
0.0   30.0   50.0
0.0   0.0   33.333333333333336
-50.0   30.0   33.333333333333336
-50.0   30.0   0.0
0.0   30.0   0.0
-50.0   60.0   0.0
-50.0   30.0   16.666666666666668
0.0   30.0   0.0
0.0   60.0   0.0
-50.0   60.0   0.0
0.0   60.0   16.666666666666668
-50.0   30.0   16.666666666666668
-50.0   60.0   16.666666666666668
0.0   60.0   16.666666666666668
-50.0   60.0   0.0
-50.0   30.0   16.666666666666668
0.0   60.0   16.666666666666668
0.0   30.0   16.666666666666668
0.0   30.0   0.0
-50.0   30.0   16.666666666666668
0.0   60.0   16.666666666666668
0.0   30.0   0.0
-50.0   60.0   0.0
-50.0   30.0   16.666666666666668
0.0   30.0   16.666666666666668
-50.0   60.0   16.666666666666668
-50.0   30.0   33.333333333333336
0.0   30.0   16.666666666666668
0.0   60.0   16.666666666666668
-50.0   60.0   16.666666666666668
0.0   60.0   33.333333333333336
-50.0   30.0   33.333333333333336
-50.0   60.0   33.333333333333336
0.0   60.0   33.333333333333336
-50.0   60.0   16.666666666666668
-50.0   30.0   33.333333333333336
0.0   60.0   33.333333333333336
0.0   30.0   33.333333333333336
0.0   30.0   16.666666666666668
-50.0   30.0   33.333333333333336
0.0   60.0   33.333333333333336
0.0   30.0   16.666666666666668
-50.0   60.0   16.666666666666668
-50.0   30.0   33.333333333333336
0.0   30.0   33.333333333333336
-50.0   60.0   33.333333333333336
-50.0   30.0   50.0
0.0   30.0   33.333333333333336
0.0   60.0   33.333333333333336
-50.0   60.0   33.333333333333336
0.0   60.0   50.0
-50.0   30.0   50.0
-50.0   60.0   50.0
0.0   60.0   50.0
-50.0   60.0   33.333333333333336
-50.0   30.0   50.0
0.0   60.0   50.0
0.0   30.0   50.0
0.0   30.0   33.333333333333336
-50.0   30.0   50.0
0.0   60.0   50.0
0.0   30.0   33.333333333333336
-50.0   60.0   33.333333333333336
-50.0   60.0   0.0
0.0   60.0   0.0
-50.0   90.0   0.0
-50.0   60.0   16.666666666666668
0.0   60.0   0.0
0.0   90.0   0.0
-50.0   90.0   0.0
0.0   90.0   16.666666666666668
-50.0   60.0   16.666666666666668
-50.0   90.0   16.666666666666668
0.0   90.0   16.666666666666668
-50.0   90.0   0.0
-50.0   60.0   16.666666666666668
0.0   90.0   16.666666666666668
0.0   60.0   16.666666666666668
0.0   60.0   0.0
-50.0   60.0   16.666666666666668
0.0   90.0   16.666666666666668
0.0   60.0   0.0
-50.0   90.0   0.0
-50.0   60.0   16.666666666666668
0.0   60.0   16.666666666666668
-50.0   90.0   16.666666666666668
-50.0   60.0   33.333333333333336
0.0   60.0   16.666666666666668
0.0   90.0   16.666666666666668
-50.0   90.0   16.666666666666668
0.0   90.0   33.333333333333336
-50.0   60.0   33.333333333333336
-50.0   90.0   33.333333333333336
0.0   90.0   33.333333333333336
-50.0   90.0   16.666666666666668
-50.0   60.0   33.333333333333336
0.0   90.0   33.333333333333336
0.0   60.0   33.333333333333336
0.0   60.0   16.666666666666668
-50.0   60.0   33.333333333333336
0.0   90.0   33.333333333333336
0.0   60.0   16.666666666666668
-50.0   90.0   16.666666666666668
-50.0   60.0   33.333333333333336
0.0   60.0   33.333333333333336
-50.0   90.0   33.333333333333336
-50.0   60.0   50.0
0.0   60.0   33.333333333333336
0.0   90.0   33.333333333333336
-50.0   90.0   33.333333333333336
0.0   90.0   50.0
-50.0   60.0   50.0
-50.0   90.0   50.0
0.0   90.0   50.0
-50.0   90.0   33.333333333333336
-50.0   60.0   50.0
0.0   90.0   50.0
0.0   60.0   50.0
0.0   60.0   33.333333333333336
-50.0   60.0   50.0
0.0   90.0   50.0
0.0   60.0   33.333333333333336
-50.0   90.0   33.333333333333336
-50.0   90.0   0.0
0.0   90.0   0.0
-50.0   120.0   0.0
-50.0   90.0   16.666666666666668
0.0   90.0   0.0
0.0   120.0   0.0
-50.0   120.0   0.0
0.0   120.0   16.666666666666668
-50.0   90.0   16.666666666666668
-50.0   120.0   16.666666666666668
0.0   120.0   16.666666666666668
-50.0   120.0   0.0
-50.0   90.0   16.666666666666668
0.0   120.0   16.666666666666668
0.0   90.0   16.666666666666668
0.0   90.0   0.0
-50.0   90.0   16.666666666666668
0.0   120.0   16.666666666666668
0.0   90.0   0.0
-50.0   120.0   0.0
-50.0   90.0   16.666666666666668
0.0   90.0   16.666666666666668
-50.0   120.0   16.666666666666668
-50.0   90.0   33.333333333333336
0.0   90.0   16.666666666666668
0.0   120.0   16.666666666666668
-50.0   120.0   16.666666666666668
0.0   120.0   33.333333333333336
-50.0   90.0   33.333333333333336
-50.0   120.0   33.333333333333336
0.0   120.0   33.333333333333336
-50.0   120.0   16.666666666666668
-50.0   90.0   33.333333333333336
0.0   120.0   33.333333333333336
0.0   90.0   33.333333333333336
0.0   90.0   16.666666666666668
-50.0   90.0   33.333333333333336
0.0   120.0   33.333333333333336
0.0   90.0   16.666666666666668
-50.0   120.0   16.666666666666668
-50.0   90.0   33.333333333333336
0.0   90.0   33.333333333333336
-50.0   120.0   33.333333333333336
-50.0   90.0   50.0
0.0   90.0   33.333333333333336
0.0   120.0   33.333333333333336
-50.0   120.0   33.333333333333336
0.0   120.0   50.0
-50.0   90.0   50.0
-50.0   120.0   50.0
0.0   120.0   50.0
-50.0   120.0   33.333333333333336
-50.0   90.0   50.0
0.0   120.0   50.0
0.0   90.0   50.0
0.0   90.0   33.333333333333336
-50.0   90.0   50.0
0.0   120.0   50.0
0.0   90.0   33.333333333333336
-50.0   120.0   33.333333333333336
-50.0   120.0   0.0
0.0   120.0   0.0
-50.0   150.0   0.0
-50.0   120.0   16.666666666666668
0.0   120.0   0.0
0.0   150.0   0.0
-50.0   150.0   0.0
0.0   150.0   16.666666666666668
-50.0   120.0   16.666666666666668
-50.0   150.0   16.666666666666668
0.0   150.0   16.666666666666668
-50.0   150.0   0.0
-50.0   120.0   16.666666666666668
0.0   150.0   16.666666666666668
0.0   120.0   16.666666666666668
0.0   120.0   0.0
-50.0   120.0   16.666666666666668
0.0   150.0   16.666666666666668
0.0   120.0   0.0
-50.0   150.0   0.0
-50.0   120.0   16.666666666666668
0.0   120.0   16.666666666666668
-50.0   150.0   16.666666666666668
-50.0   120.0   33.333333333333336
0.0   120.0   16.666666666666668
0.0   150.0   16.666666666666668
-50.0   150.0   16.666666666666668
0.0   150.0   33.333333333333336
-50.0   120.0   33.333333333333336
-50.0   150.0   33.333333333333336
0.0   150.0   33.333333333333336
-50.0   150.0   16.666666666666668
-50.0   120.0   33.333333333333336
0.0   150.0   33.333333333333336
0.0   120.0   33.333333333333336
0.0   120.0   16.666666666666668
-50.0   120.0   33.333333333333336
0.0   150.0   33.333333333333336
0.0   120.0   16.666666666666668
-50.0   150.0   16.666666666666668
-50.0   120.0   33.333333333333336
0.0   120.0   33.333333333333336
-50.0   150.0   33.333333333333336
-50.0   120.0   50.0
0.0   120.0   33.333333333333336
0.0   150.0   33.333333333333336
-50.0   150.0   33.333333333333336
0.0   150.0   50.0
-50.0   120.0   50.0
-50.0   150.0   50.0
0.0   150.0   50.0
-50.0   150.0   33.333333333333336
-50.0   120.0   50.0
0.0   150.0   50.0
0.0   120.0   50.0
0.0   120.0   33.333333333333336
-50.0   120.0   50.0
0.0   150.0   50.0
0.0   120.0   33.333333333333336
-50.0   150.0   33.333333333333336
0.0   0.0   0.0
50.0   0.0   0.0
0.0   30.0   0.0
0.0   0.0   16.666666666666668
50.0   0.0   0.0
50.0   30.0   0.0
0.0   30.0   0.0
50.0   30.0   16.666666666666668
0.0   0.0   16.666666666666668
0.0   30.0   16.666666666666668
50.0   30.0   16.666666666666668
0.0   30.0   0.0
0.0   0.0   16.666666666666668
50.0   30.0   16.666666666666668
50.0   0.0   16.666666666666668
50.0   0.0   0.0
0.0   0.0   16.666666666666668
50.0   30.0   16.666666666666668
50.0   0.0   0.0
0.0   30.0   0.0
0.0   0.0   16.666666666666668
50.0   0.0   16.666666666666668
0.0   30.0   16.666666666666668
0.0   0.0   33.333333333333336
50.0   0.0   16.666666666666668
50.0   30.0   16.666666666666668
0.0   30.0   16.666666666666668
50.0   30.0   33.333333333333336
0.0   0.0   33.333333333333336
0.0   30.0   33.333333333333336
50.0   30.0   33.333333333333336
0.0   30.0   16.666666666666668
0.0   0.0   33.333333333333336
50.0   30.0   33.333333333333336
50.0   0.0   33.333333333333336
50.0   0.0   16.666666666666668
0.0   0.0   33.333333333333336
50.0   30.0   33.333333333333336
50.0   0.0   16.666666666666668
0.0   30.0   16.666666666666668
0.0   0.0   33.333333333333336
50.0   0.0   33.333333333333336
0.0   30.0   33.333333333333336
0.0   0.0   50.0
50.0   0.0   33.333333333333336
50.0   30.0   33.333333333333336
0.0   30.0   33.333333333333336
50.0   30.0   50.0
0.0   0.0   50.0
0.0   30.0   50.0
50.0   30.0   50.0
0.0   30.0   33.333333333333336
0.0   0.0   50.0
50.0   30.0   50.0
50.0   0.0   50.0
50.0   0.0   33.333333333333336
0.0   0.0   50.0
50.0   30.0   50.0
50.0   0.0   33.333333333333336
0.0   30.0   33.333333333333336
0.0   30.0   0.0
50.0   30.0   0.0
0.0   60.0   0.0
0.0   30.0   16.666666666666668
50.0   30.0   0.0
50.0   60.0   0.0
0.0   60.0   0.0
50.0   60.0   16.666666666666668
0.0   30.0   16.666666666666668
0.0   60.0   16.666666666666668
50.0   60.0   16.666666666666668
0.0   60.0   0.0
0.0   30.0   16.666666666666668
50.0   60.0   16.666666666666668
50.0   30.0   16.666666666666668
50.0   30.0   0.0
0.0   30.0   16.666666666666668
50.0   60.0   16.666666666666668
50.0   30.0   0.0
0.0   60.0   0.0
0.0   30.0   16.666666666666668
50.0   30.0   16.666666666666668
0.0   60.0   16.666666666666668
0.0   30.0   33.333333333333336
50.0   30.0   16.666666666666668
50.0   60.0   16.666666666666668
0.0   60.0   16.666666666666668
50.0   60.0   33.333333333333336
0.0   30.0   33.333333333333336
0.0   60.0   33.333333333333336
50.0   60.0   33.333333333333336
0.0   60.0   16.666666666666668
0.0   30.0   33.333333333333336
50.0   60.0   33.333333333333336
50.0   30.0   33.333333333333336
50.0   30.0   16.666666666666668
0.0   30.0   33.333333333333336
50.0   60.0   33.333333333333336
50.0   30.0   16.666666666666668
0.0   60.0   16.666666666666668
0.0   30.0   33.333333333333336
50.0   30.0   33.333333333333336
0.0   60.0   33.333333333333336
0.0   30.0   50.0
50.0   30.0   33.333333333333336
50.0   60.0   33.333333333333336
0.0   60.0   33.333333333333336
50.0   60.0   50.0
0.0   30.0   50.0
0.0   60.0   50.0
50.0   60.0   50.0
0.0   60.0   33.333333333333336
0.0   30.0   50.0
50.0   60.0   50.0
50.0   30.0   50.0
50.0   30.0   33.333333333333336
0.0   30.0   50.0
50.0   60.0   50.0
50.0   30.0   33.333333333333336
0.0   60.0   33.333333333333336
0.0   60.0   0.0
50.0   60.0   0.0
0.0   90.0   0.0
0.0   60.0   16.666666666666668
50.0   60.0   0.0
50.0   90.0   0.0
0.0   90.0   0.0
50.0   90.0   16.666666666666668
0.0   60.0   16.666666666666668
0.0   90.0   16.666666666666668
50.0   90.0   16.666666666666668
0.0   90.0   0.0
0.0   60.0   16.666666666666668
50.0   90.0   16.666666666666668
50.0   60.0   16.666666666666668
50.0   60.0   0.0
0.0   60.0   16.666666666666668
50.0   90.0   16.666666666666668
50.0   60.0   0.0
0.0   90.0   0.0
0.0   60.0   16.666666666666668
50.0   60.0   16.666666666666668
0.0   90.0   16.666666666666668
0.0   60.0   33.333333333333336
50.0   60.0   16.666666666666668
50.0   90.0   16.666666666666668
0.0   90.0   16.666666666666668
50.0   90.0   33.333333333333336
0.0   60.0   33.333333333333336
0.0   90.0   33.333333333333336
50.0   90.0   33.333333333333336
0.0   90.0   16.666666666666668
0.0   60.0   33.333333333333336
50.0   90.0   33.333333333333336
50.0   60.0   33.333333333333336
50.0   60.0   16.666666666666668
0.0   60.0   33.333333333333336
50.0   90.0   33.333333333333336
50.0   60.0   16.666666666666668
0.0   90.0   16.666666666666668
0.0   60.0   33.333333333333336
50.0   60.0   33.333333333333336
0.0   90.0   33.333333333333336
0.0   60.0   50.0
50.0   60.0   33.333333333333336
50.0   90.0   33.333333333333336
0.0   90.0   33.333333333333336
50.0   90.0   50.0
0.0   60.0   50.0
0.0   90.0   50.0
50.0   90.0   50.0
0.0   90.0   33.333333333333336
0.0   60.0   50.0
50.0   90.0   50.0
50.0   60.0   50.0
50.0   60.0   33.333333333333336
0.0   60.0   50.0
50.0   90.0   50.0
50.0   60.0   33.333333333333336
0.0   90.0   33.333333333333336
0.0   90.0   0.0
50.0   90.0   0.0
0.0   120.0   0.0
0.0   90.0   16.666666666666668
50.0   90.0   0.0
50.0   120.0   0.0
0.0   120.0   0.0
50.0   120.0   16.666666666666668
0.0   90.0   16.666666666666668
0.0   120.0   16.666666666666668
50.0   120.0   16.666666666666668
0.0   120.0   0.0
0.0   90.0   16.666666666666668
50.0   120.0   16.666666666666668
50.0   90.0   16.666666666666668
50.0   90.0   0.0
0.0   90.0   16.666666666666668
50.0   120.0   16.666666666666668
50.0   90.0   0.0
0.0   120.0   0.0
0.0   90.0   16.666666666666668
50.0   90.0   16.666666666666668
0.0   120.0   16.666666666666668
0.0   90.0   33.333333333333336
50.0   90.0   16.666666666666668
50.0   120.0   16.666666666666668
0.0   120.0   16.666666666666668
50.0   120.0   33.333333333333336
0.0   90.0   33.333333333333336
0.0   120.0   33.333333333333336
50.0   120.0   33.333333333333336
0.0   120.0   16.666666666666668
0.0   90.0   33.333333333333336
50.0   120.0   33.333333333333336
50.0   90.0   33.333333333333336
50.0   90.0   16.666666666666668
0.0   90.0   33.333333333333336
50.0   120.0   33.333333333333336
50.0   90.0   16.666666666666668
0.0   120.0   16.666666666666668
0.0   90.0   33.333333333333336
50.0   90.0   33.333333333333336
0.0   120.0   33.333333333333336
0.0   90.0   50.0
50.0   90.0   33.333333333333336
50.0   120.0   33.333333333333336
0.0   120.0   33.333333333333336
50.0   120.0   50.0
0.0   90.0   50.0
0.0   120.0   50.0
50.0   120.0   50.0
0.0   120.0   33.333333333333336
0.0   90.0   50.0
50.0   120.0   50.0
50.0   90.0   50.0
50.0   90.0   33.333333333333336
0.0   90.0   50.0
50.0   120.0   50.0
50.0   90.0   33.333333333333336
0.0   120.0   33.333333333333336
0.0   120.0   0.0
50.0   120.0   0.0
0.0   150.0   0.0
0.0   120.0   16.666666666666668
50.0   120.0   0.0
50.0   150.0   0.0
0.0   150.0   0.0
50.0   150.0   16.666666666666668
0.0   120.0   16.666666666666668
0.0   150.0   16.666666666666668
50.0   150.0   16.666666666666668
0.0   150.0   0.0
0.0   120.0   16.666666666666668
50.0   150.0   16.666666666666668
50.0   120.0   16.666666666666668
50.0   120.0   0.0
0.0   120.0   16.666666666666668
50.0   150.0   16.666666666666668
50.0   120.0   0.0
0.0   150.0   0.0
0.0   120.0   16.666666666666668
50.0   120.0   16.666666666666668
0.0   150.0   16.666666666666668
0.0   120.0   33.333333333333336
50.0   120.0   16.666666666666668
50.0   150.0   16.666666666666668
0.0   150.0   16.666666666666668
50.0   150.0   33.333333333333336
0.0   120.0   33.333333333333336
0.0   150.0   33.333333333333336
50.0   150.0   33.333333333333336
0.0   150.0   16.666666666666668
0.0   120.0   33.333333333333336
50.0   150.0   33.333333333333336
50.0   120.0   33.333333333333336
50.0   120.0   16.666666666666668
0.0   120.0   33.333333333333336
50.0   150.0   33.333333333333336
50.0   120.0   16.666666666666668
0.0   150.0   16.666666666666668
0.0   120.0   33.333333333333336
50.0   120.0   33.333333333333336
0.0   150.0   33.333333333333336
0.0   120.0   50.0
50.0   120.0   33.333333333333336
50.0   150.0   33.333333333333336
0.0   150.0   33.333333333333336
50.0   150.0   50.0
0.0   120.0   50.0
0.0   150.0   50.0
50.0   150.0   50.0
0.0   150.0   33.333333333333336
0.0   120.0   50.0
50.0   150.0   50.0
50.0   120.0   50.0
50.0   120.0   33.333333333333336
0.0   120.0   50.0
50.0   150.0   50.0
50.0   120.0   33.333333333333336
0.0   150.0   33.333333333333336
50.0   0.0   0.0
100.0   0.0   0.0
50.0   30.0   0.0
50.0   0.0   16.666666666666668
100.0   0.0   0.0
100.0   30.0   0.0
50.0   30.0   0.0
100.0   30.0   16.666666666666668
50.0   0.0   16.666666666666668
50.0   30.0   16.666666666666668
100.0   30.0   16.666666666666668
50.0   30.0   0.0
50.0   0.0   16.666666666666668
100.0   30.0   16.666666666666668
100.0   0.0   16.666666666666668
100.0   0.0   0.0
50.0   0.0   16.666666666666668
100.0   30.0   16.666666666666668
100.0   0.0   0.0
50.0   30.0   0.0
50.0   0.0   16.666666666666668
100.0   0.0   16.666666666666668
50.0   30.0   16.666666666666668
50.0   0.0   33.333333333333336
100.0   0.0   16.666666666666668
100.0   30.0   16.666666666666668
50.0   30.0   16.666666666666668
100.0   30.0   33.333333333333336
50.0   0.0   33.333333333333336
50.0   30.0   33.333333333333336
100.0   30.0   33.333333333333336
50.0   30.0   16.666666666666668
50.0   0.0   33.333333333333336
100.0   30.0   33.333333333333336
100.0   0.0   33.333333333333336
100.0   0.0   16.666666666666668
50.0   0.0   33.333333333333336
100.0   30.0   33.333333333333336
100.0   0.0   16.666666666666668
50.0   30.0   16.666666666666668
50.0   0.0   33.333333333333336
100.0   0.0   33.333333333333336
50.0   30.0   33.333333333333336
50.0   0.0   50.0
100.0   0.0   33.333333333333336
100.0   30.0   33.333333333333336
50.0   30.0   33.333333333333336
100.0   30.0   50.0
50.0   0.0   50.0
50.0   30.0   50.0
100.0   30.0   50.0
50.0   30.0   33.333333333333336
50.0   0.0   50.0
100.0   30.0   50.0
100.0   0.0   50.0
100.0   0.0   33.333333333333336
50.0   0.0   50.0
100.0   30.0   50.0
100.0   0.0   33.333333333333336
50.0   30.0   33.333333333333336
50.0   30.0   0.0
100.0   30.0   0.0
50.0   60.0   0.0
50.0   30.0   16.666666666666668
100.0   30.0   0.0
100.0   60.0   0.0
50.0   60.0   0.0
100.0   60.0   16.666666666666668
50.0   30.0   16.666666666666668
50.0   60.0   16.666666666666668
100.0   60.0   16.666666666666668
50.0   60.0   0.0
50.0   30.0   16.666666666666668
100.0   60.0   16.666666666666668
100.0   30.0   16.666666666666668
100.0   30.0   0.0
50.0   30.0   16.666666666666668
100.0   60.0   16.666666666666668
100.0   30.0   0.0
50.0   60.0   0.0
50.0   30.0   16.666666666666668
100.0   30.0   16.666666666666668
50.0   60.0   16.666666666666668
50.0   30.0   33.333333333333336
100.0   30.0   16.666666666666668
100.0   60.0   16.666666666666668
50.0   60.0   16.666666666666668
100.0   60.0   33.333333333333336
50.0   30.0   33.333333333333336
50.0   60.0   33.333333333333336
100.0   60.0   33.333333333333336
50.0   60.0   16.666666666666668
50.0   30.0   33.333333333333336
100.0   60.0   33.333333333333336
100.0   30.0   33.333333333333336
100.0   30.0   16.666666666666668
50.0   30.0   33.333333333333336
100.0   60.0   33.333333333333336
100.0   30.0   16.666666666666668
50.0   60.0   16.666666666666668
50.0   30.0   33.333333333333336
100.0   30.0   33.333333333333336
50.0   60.0   33.333333333333336
50.0   30.0   50.0
100.0   30.0   33.333333333333336
100.0   60.0   33.333333333333336
50.0   60.0   33.333333333333336
100.0   60.0   50.0
50.0   30.0   50.0
50.0   60.0   50.0
100.0   60.0   50.0
50.0   60.0   33.333333333333336
50.0   30.0   50.0
100.0   60.0   50.0
100.0   30.0   50.0
100.0   30.0   33.333333333333336
50.0   30.0   50.0
100.0   60.0   50.0
100.0   30.0   33.333333333333336
50.0   60.0   33.333333333333336
50.0   60.0   0.0
100.0   60.0   0.0
50.0   90.0   0.0
50.0   60.0   16.666666666666668
100.0   60.0   0.0
100.0   90.0   0.0
50.0   90.0   0.0
100.0   90.0   16.666666666666668
50.0   60.0   16.666666666666668
50.0   90.0   16.666666666666668
100.0   90.0   16.666666666666668
50.0   90.0   0.0
50.0   60.0   16.666666666666668
100.0   90.0   16.666666666666668
100.0   60.0   16.666666666666668
100.0   60.0   0.0
50.0   60.0   16.666666666666668
100.0   90.0   16.666666666666668
100.0   60.0   0.0
50.0   90.0   0.0
50.0   60.0   16.666666666666668
100.0   60.0   16.666666666666668
50.0   90.0   16.666666666666668
50.0   60.0   33.333333333333336
100.0   60.0   16.666666666666668
100.0   90.0   16.666666666666668
50.0   90.0   16.666666666666668
100.0   90.0   33.333333333333336
50.0   60.0   33.333333333333336
50.0   90.0   33.333333333333336
100.0   90.0   33.333333333333336
50.0   90.0   16.666666666666668
50.0   60.0   33.333333333333336
100.0   90.0   33.333333333333336
100.0   60.0   33.333333333333336
100.0   60.0   16.666666666666668
50.0   60.0   33.333333333333336
100.0   90.0   33.333333333333336
100.0   60.0   16.666666666666668
50.0   90.0   16.666666666666668
50.0   60.0   33.333333333333336
100.0   60.0   33.333333333333336
50.0   90.0   33.333333333333336
50.0   60.0   50.0
100.0   60.0   33.333333333333336
100.0   90.0   33.333333333333336
50.0   90.0   33.333333333333336
100.0   90.0   50.0
50.0   60.0   50.0
50.0   90.0   50.0
100.0   90.0   50.0
50.0   90.0   33.333333333333336
50.0   60.0   50.0
100.0   90.0   50.0
100.0   60.0   50.0
100.0   60.0   33.333333333333336
50.0   60.0   50.0
100.0   90.0   50.0
100.0   60.0   33.333333333333336
50.0   90.0   33.333333333333336
50.0   90.0   0.0
100.0   90.0   0.0
50.0   120.0   0.0
50.0   90.0   16.666666666666668
100.0   90.0   0.0
100.0   120.0   0.0
50.0   120.0   0.0
100.0   120.0   16.666666666666668
50.0   90.0   16.666666666666668
50.0   120.0   16.666666666666668
100.0   120.0   16.666666666666668
50.0   120.0   0.0
50.0   90.0   16.666666666666668
100.0   120.0   16.666666666666668
100.0   90.0   16.666666666666668
100.0   90.0   0.0
50.0   90.0   16.666666666666668
100.0   120.0   16.666666666666668
100.0   90.0   0.0
50.0   120.0   0.0
50.0   90.0   16.666666666666668
100.0   90.0   16.666666666666668
50.0   120.0   16.666666666666668
50.0   90.0   33.333333333333336
100.0   90.0   16.666666666666668
100.0   120.0   16.666666666666668
50.0   120.0   16.666666666666668
100.0   120.0   33.333333333333336
50.0   90.0   33.333333333333336
50.0   120.0   33.333333333333336
100.0   120.0   33.333333333333336
50.0   120.0   16.666666666666668
50.0   90.0   33.333333333333336
100.0   120.0   33.333333333333336
100.0   90.0   33.333333333333336
100.0   90.0   16.666666666666668
50.0   90.0   33.333333333333336
100.0   120.0   33.333333333333336
100.0   90.0   16.666666666666668
50.0   120.0   16.666666666666668
50.0   90.0   33.333333333333336
100.0   90.0   33.333333333333336
50.0   120.0   33.333333333333336
50.0   90.0   50.0
100.0   90.0   33.333333333333336
100.0   120.0   33.333333333333336
50.0   120.0   33.333333333333336
100.0   120.0   50.0
50.0   90.0   50.0
50.0   120.0   50.0
100.0   120.0   50.0
50.0   120.0   33.333333333333336
50.0   90.0   50.0
100.0   120.0   50.0
100.0   90.0   50.0
100.0   90.0   33.333333333333336
50.0   90.0   50.0
100.0   120.0   50.0
100.0   90.0   33.333333333333336
50.0   120.0   33.333333333333336
50.0   120.0   0.0
100.0   120.0   0.0
50.0   150.0   0.0
50.0   120.0   16.666666666666668
100.0   120.0   0.0
100.0   150.0   0.0
50.0   150.0   0.0
100.0   150.0   16.666666666666668
50.0   120.0   16.666666666666668
50.0   150.0   16.666666666666668
100.0   150.0   16.666666666666668
50.0   150.0   0.0
50.0   120.0   16.666666666666668
100.0   150.0   16.666666666666668
100.0   120.0   16.666666666666668
100.0   120.0   0.0
50.0   120.0   16.666666666666668
100.0   150.0   16.666666666666668
100.0   120.0   0.0
50.0   150.0   0.0
50.0   120.0   16.666666666666668
100.0   120.0   16.666666666666668
50.0   150.0   16.666666666666668
50.0   120.0   33.333333333333336
100.0   120.0   16.666666666666668
100.0   150.0   16.666666666666668
50.0   150.0   16.666666666666668
100.0   150.0   33.333333333333336
50.0   120.0   33.333333333333336
50.0   150.0   33.333333333333336
100.0   150.0   33.333333333333336
50.0   150.0   16.666666666666668
50.0   120.0   33.333333333333336
100.0   150.0   33.333333333333336
100.0   120.0   33.333333333333336
100.0   120.0   16.666666666666668
50.0   120.0   33.333333333333336
100.0   150.0   33.333333333333336
100.0   120.0   16.666666666666668
50.0   150.0   16.666666666666668
50.0   120.0   33.333333333333336
100.0   120.0   33.333333333333336
50.0   150.0   33.333333333333336
50.0   120.0   50.0
100.0   120.0   33.333333333333336
100.0   150.0   33.333333333333336
50.0   150.0   33.333333333333336
100.0   150.0   50.0
50.0   120.0   50.0
50.0   150.0   50.0
100.0   150.0   50.0
50.0   150.0   33.333333333333336
50.0   120.0   50.0
100.0   150.0   50.0
100.0   120.0   50.0
100.0   120.0   33.333333333333336
50.0   120.0   50.0
100.0   150.0   50.0
100.0   120.0   33.333333333333336
50.0   150.0   33.333333333333336
100.0   0.0   0.0
150.0   0.0   0.0
100.0   30.0   0.0
100.0   0.0   16.666666666666668
150.0   0.0   0.0
150.0   30.0   0.0
100.0   30.0   0.0
150.0   30.0   16.666666666666668
100.0   0.0   16.666666666666668
100.0   30.0   16.666666666666668
150.0   30.0   16.666666666666668
100.0   30.0   0.0
100.0   0.0   16.666666666666668
150.0   30.0   16.666666666666668
150.0   0.0   16.666666666666668
150.0   0.0   0.0
100.0   0.0   16.666666666666668
150.0   30.0   16.666666666666668
150.0   0.0   0.0
100.0   30.0   0.0
100.0   0.0   16.666666666666668
150.0   0.0   16.666666666666668
100.0   30.0   16.666666666666668
100.0   0.0   33.333333333333336
150.0   0.0   16.666666666666668
150.0   30.0   16.666666666666668
100.0   30.0   16.666666666666668
150.0   30.0   33.333333333333336
100.0   0.0   33.333333333333336
100.0   30.0   33.333333333333336
150.0   30.0   33.333333333333336
100.0   30.0   16.666666666666668
100.0   0.0   33.333333333333336
150.0   30.0   33.333333333333336
150.0   0.0   33.333333333333336
150.0   0.0   16.666666666666668
100.0   0.0   33.333333333333336
150.0   30.0   33.333333333333336
150.0   0.0   16.666666666666668
100.0   30.0   16.666666666666668
100.0   0.0   33.333333333333336
150.0   0.0   33.333333333333336
100.0   30.0   33.333333333333336
100.0   0.0   50.0
150.0   0.0   33.333333333333336
150.0   30.0   33.333333333333336
100.0   30.0   33.333333333333336
150.0   30.0   50.0
100.0   0.0   50.0
100.0   30.0   50.0
150.0   30.0   50.0
100.0   30.0   33.333333333333336
100.0   0.0   50.0
150.0   30.0   50.0
150.0   0.0   50.0
150.0   0.0   33.333333333333336
100.0   0.0   50.0
150.0   30.0   50.0
150.0   0.0   33.333333333333336
100.0   30.0   33.333333333333336
100.0   30.0   0.0
150.0   30.0   0.0
100.0   60.0   0.0
100.0   30.0   16.666666666666668
150.0   30.0   0.0
150.0   60.0   0.0
100.0   60.0   0.0
150.0   60.0   16.666666666666668
100.0   30.0   16.666666666666668
100.0   60.0   16.666666666666668
150.0   60.0   16.666666666666668
100.0   60.0   0.0
100.0   30.0   16.666666666666668
150.0   60.0   16.666666666666668
150.0   30.0   16.666666666666668
150.0   30.0   0.0
100.0   30.0   16.666666666666668
150.0   60.0   16.666666666666668
150.0   30.0   0.0
100.0   60.0   0.0
100.0   30.0   16.666666666666668
150.0   30.0   16.666666666666668
100.0   60.0   16.666666666666668
100.0   30.0   33.333333333333336
150.0   30.0   16.666666666666668
150.0   60.0   16.666666666666668
100.0   60.0   16.666666666666668
150.0   60.0   33.333333333333336
100.0   30.0   33.333333333333336
100.0   60.0   33.333333333333336
150.0   60.0   33.333333333333336
100.0   60.0   16.666666666666668
100.0   30.0   33.333333333333336
150.0   60.0   33.333333333333336
150.0   30.0   33.333333333333336
150.0   30.0   16.666666666666668
100.0   30.0   33.333333333333336
150.0   60.0   33.333333333333336
150.0   30.0   16.666666666666668
100.0   60.0   16.666666666666668
100.0   30.0   33.333333333333336
150.0   30.0   33.333333333333336
100.0   60.0   33.333333333333336
100.0   30.0   50.0
150.0   30.0   33.333333333333336
150.0   60.0   33.333333333333336
100.0   60.0   33.333333333333336
150.0   60.0   50.0
100.0   30.0   50.0
100.0   60.0   50.0
150.0   60.0   50.0
100.0   60.0   33.333333333333336
100.0   30.0   50.0
150.0   60.0   50.0
150.0   30.0   50.0
150.0   30.0   33.333333333333336
100.0   30.0   50.0
150.0   60.0   50.0
150.0   30.0   33.333333333333336
100.0   60.0   33.333333333333336
100.0   60.0   0.0
150.0   60.0   0.0
100.0   90.0   0.0
100.0   60.0   16.666666666666668
150.0   60.0   0.0
150.0   90.0   0.0
100.0   90.0   0.0
150.0   90.0   16.666666666666668
100.0   60.0   16.666666666666668
100.0   90.0   16.666666666666668
150.0   90.0   16.666666666666668
100.0   90.0   0.0
100.0   60.0   16.666666666666668
150.0   90.0   16.666666666666668
150.0   60.0   16.666666666666668
150.0   60.0   0.0
100.0   60.0   16.666666666666668
150.0   90.0   16.666666666666668
150.0   60.0   0.0
100.0   90.0   0.0
100.0   60.0   16.666666666666668
150.0   60.0   16.666666666666668
100.0   90.0   16.666666666666668
100.0   60.0   33.333333333333336
150.0   60.0   16.666666666666668
150.0   90.0   16.666666666666668
100.0   90.0   16.666666666666668
150.0   90.0   33.333333333333336
100.0   60.0   33.333333333333336
100.0   90.0   33.333333333333336
150.0   90.0   33.333333333333336
100.0   90.0   16.666666666666668
100.0   60.0   33.333333333333336
150.0   90.0   33.333333333333336
150.0   60.0   33.333333333333336
150.0   60.0   16.666666666666668
100.0   60.0   33.333333333333336
150.0   90.0   33.333333333333336
150.0   60.0   16.666666666666668
100.0   90.0   16.666666666666668
100.0   60.0   33.333333333333336
150.0   60.0   33.333333333333336
100.0   90.0   33.333333333333336
100.0   60.0   50.0
150.0   60.0   33.333333333333336
150.0   90.0   33.333333333333336
100.0   90.0   33.333333333333336
150.0   90.0   50.0
100.0   60.0   50.0
100.0   90.0   50.0
150.0   90.0   50.0
100.0   90.0   33.333333333333336
100.0   60.0   50.0
150.0   90.0   50.0
150.0   60.0   50.0
150.0   60.0   33.333333333333336
100.0   60.0   50.0
150.0   90.0   50.0
150.0   60.0   33.333333333333336
100.0   90.0   33.333333333333336
100.0   90.0   0.0
150.0   90.0   0.0
100.0   120.0   0.0
100.0   90.0   16.666666666666668
150.0   90.0   0.0
150.0   120.0   0.0
100.0   120.0   0.0
150.0   120.0   16.666666666666668
100.0   90.0   16.666666666666668
100.0   120.0   16.666666666666668
150.0   120.0   16.666666666666668
100.0   120.0   0.0
100.0   90.0   16.666666666666668
150.0   120.0   16.666666666666668
150.0   90.0   16.666666666666668
150.0   90.0   0.0
100.0   90.0   16.666666666666668
150.0   120.0   16.666666666666668
150.0   90.0   0.0
100.0   120.0   0.0
100.0   90.0   16.666666666666668
150.0   90.0   16.666666666666668
100.0   120.0   16.666666666666668
100.0   90.0   33.333333333333336
150.0   90.0   16.666666666666668
150.0   120.0   16.666666666666668
100.0   120.0   16.666666666666668
150.0   120.0   33.333333333333336
100.0   90.0   33.333333333333336
100.0   120.0   33.333333333333336
150.0   120.0   33.333333333333336
100.0   120.0   16.666666666666668
100.0   90.0   33.333333333333336
150.0   120.0   33.333333333333336
150.0   90.0   33.333333333333336
150.0   90.0   16.666666666666668
100.0   90.0   33.333333333333336
150.0   120.0   33.333333333333336
150.0   90.0   16.666666666666668
100.0   120.0   16.666666666666668
100.0   90.0   33.333333333333336
150.0   90.0   33.333333333333336
100.0   120.0   33.333333333333336
100.0   90.0   50.0
150.0   90.0   33.333333333333336
150.0   120.0   33.333333333333336
100.0   120.0   33.333333333333336
150.0   120.0   50.0
100.0   90.0   50.0
100.0   120.0   50.0
150.0   120.0   50.0
100.0   120.0   33.333333333333336
100.0   90.0   50.0
150.0   120.0   50.0
150.0   90.0   50.0
150.0   90.0   33.333333333333336
100.0   90.0   50.0
150.0   120.0   50.0
150.0   90.0   33.333333333333336
100.0   120.0   33.333333333333336
100.0   120.0   0.0
150.0   120.0   0.0
100.0   150.0   0.0
100.0   120.0   16.666666666666668
150.0   120.0   0.0
150.0   150.0   0.0
100.0   150.0   0.0
150.0   150.0   16.666666666666668
100.0   120.0   16.666666666666668
100.0   150.0   16.666666666666668
150.0   150.0   16.666666666666668
100.0   150.0   0.0
100.0   120.0   16.666666666666668
150.0   150.0   16.666666666666668
150.0   120.0   16.666666666666668
150.0   120.0   0.0
100.0   120.0   16.666666666666668
150.0   150.0   16.666666666666668
150.0   120.0   0.0
100.0   150.0   0.0
100.0   120.0   16.666666666666668
150.0   120.0   16.666666666666668
100.0   150.0   16.666666666666668
100.0   120.0   33.333333333333336
150.0   120.0   16.666666666666668
150.0   150.0   16.666666666666668
100.0   150.0   16.666666666666668
150.0   150.0   33.333333333333336
100.0   120.0   33.333333333333336
100.0   150.0   33.333333333333336
150.0   150.0   33.333333333333336
100.0   150.0   16.666666666666668
100.0   120.0   33.333333333333336
150.0   150.0   33.333333333333336
150.0   120.0   33.333333333333336
150.0   120.0   16.666666666666668
100.0   120.0   33.333333333333336
150.0   150.0   33.333333333333336
150.0   120.0   16.666666666666668
100.0   150.0   16.666666666666668
100.0   120.0   33.333333333333336
150.0   120.0   33.333333333333336
100.0   150.0   33.333333333333336
100.0   120.0   50.0
150.0   120.0   33.333333333333336
150.0   150.0   33.333333333333336
100.0   150.0   33.333333333333336
150.0   150.0   50.0
100.0   120.0   50.0
100.0   150.0   50.0
150.0   150.0   50.0
100.0   150.0   33.333333333333336
100.0   120.0   50.0
150.0   150.0   50.0
150.0   120.0   50.0
150.0   120.0   33.333333333333336
100.0   120.0   50.0
150.0   150.0   50.0
150.0   120.0   33.333333333333336
100.0   150.0   33.333333333333336
150.0   0.0   0.0
200.0   0.0   0.0
150.0   30.0   0.0
150.0   0.0   16.666666666666668
200.0   0.0   0.0
200.0   30.0   0.0
150.0   30.0   0.0
200.0   30.0   16.666666666666668
150.0   0.0   16.666666666666668
150.0   30.0   16.666666666666668
200.0   30.0   16.666666666666668
150.0   30.0   0.0
150.0   0.0   16.666666666666668
200.0   30.0   16.666666666666668
200.0   0.0   16.666666666666668
200.0   0.0   0.0
150.0   0.0   16.666666666666668
200.0   30.0   16.666666666666668
200.0   0.0   0.0
150.0   30.0   0.0
150.0   0.0   16.666666666666668
200.0   0.0   16.666666666666668
150.0   30.0   16.666666666666668
150.0   0.0   33.333333333333336
200.0   0.0   16.666666666666668
200.0   30.0   16.666666666666668
150.0   30.0   16.666666666666668
200.0   30.0   33.333333333333336
150.0   0.0   33.333333333333336
150.0   30.0   33.333333333333336
200.0   30.0   33.333333333333336
150.0   30.0   16.666666666666668
150.0   0.0   33.333333333333336
200.0   30.0   33.333333333333336
200.0   0.0   33.333333333333336
200.0   0.0   16.666666666666668
150.0   0.0   33.333333333333336
200.0   30.0   33.333333333333336
200.0   0.0   16.666666666666668
150.0   30.0   16.666666666666668
150.0   0.0   33.333333333333336
200.0   0.0   33.333333333333336
150.0   30.0   33.333333333333336
150.0   0.0   50.0
200.0   0.0   33.333333333333336
200.0   30.0   33.333333333333336
150.0   30.0   33.333333333333336
200.0   30.0   50.0
150.0   0.0   50.0
150.0   30.0   50.0
200.0   30.0   50.0
150.0   30.0   33.333333333333336
150.0   0.0   50.0
200.0   30.0   50.0
200.0   0.0   50.0
200.0   0.0   33.333333333333336
150.0   0.0   50.0
200.0   30.0   50.0
200.0   0.0   33.333333333333336
150.0   30.0   33.333333333333336
150.0   30.0   0.0
200.0   30.0   0.0
150.0   60.0   0.0
150.0   30.0   16.666666666666668
200.0   30.0   0.0
200.0   60.0   0.0
150.0   60.0   0.0
200.0   60.0   16.666666666666668
150.0   30.0   16.666666666666668
150.0   60.0   16.666666666666668
200.0   60.0   16.666666666666668
150.0   60.0   0.0
150.0   30.0   16.666666666666668
200.0   60.0   16.666666666666668
200.0   30.0   16.666666666666668
200.0   30.0   0.0
150.0   30.0   16.666666666666668
200.0   60.0   16.666666666666668
200.0   30.0   0.0
150.0   60.0   0.0
150.0   30.0   16.666666666666668
200.0   30.0   16.666666666666668
150.0   60.0   16.666666666666668
150.0   30.0   33.333333333333336
200.0   30.0   16.666666666666668
200.0   60.0   16.666666666666668
150.0   60.0   16.666666666666668
200.0   60.0   33.333333333333336
150.0   30.0   33.333333333333336
150.0   60.0   33.333333333333336
200.0   60.0   33.333333333333336
150.0   60.0   16.666666666666668
150.0   30.0   33.333333333333336
200.0   60.0   33.333333333333336
200.0   30.0   33.333333333333336
200.0   30.0   16.666666666666668
150.0   30.0   33.333333333333336
200.0   60.0   33.333333333333336
200.0   30.0   16.666666666666668
150.0   60.0   16.666666666666668
150.0   30.0   33.333333333333336
200.0   30.0   33.333333333333336
150.0   60.0   33.333333333333336
150.0   30.0   50.0
200.0   30.0   33.333333333333336
200.0   60.0   33.333333333333336
150.0   60.0   33.333333333333336
200.0   60.0   50.0
150.0   30.0   50.0
150.0   60.0   50.0
200.0   60.0   50.0
150.0   60.0   33.333333333333336
150.0   30.0   50.0
200.0   60.0   50.0
200.0   30.0   50.0
200.0   30.0   33.333333333333336
150.0   30.0   50.0
200.0   60.0   50.0
200.0   30.0   33.333333333333336
150.0   60.0   33.333333333333336
150.0   60.0   0.0
200.0   60.0   0.0
150.0   90.0   0.0
150.0   60.0   16.666666666666668
200.0   60.0   0.0
200.0   90.0   0.0
150.0   90.0   0.0
200.0   90.0   16.666666666666668
150.0   60.0   16.666666666666668
150.0   90.0   16.666666666666668
200.0   90.0   16.666666666666668
150.0   90.0   0.0
150.0   60.0   16.666666666666668
200.0   90.0   16.666666666666668
200.0   60.0   16.666666666666668
200.0   60.0   0.0
150.0   60.0   16.666666666666668
200.0   90.0   16.666666666666668
200.0   60.0   0.0
150.0   90.0   0.0
150.0   60.0   16.666666666666668
200.0   60.0   16.666666666666668
150.0   90.0   16.666666666666668
150.0   60.0   33.333333333333336
200.0   60.0   16.666666666666668
200.0   90.0   16.666666666666668
150.0   90.0   16.666666666666668
200.0   90.0   33.333333333333336
150.0   60.0   33.333333333333336
150.0   90.0   33.333333333333336
200.0   90.0   33.333333333333336
150.0   90.0   16.666666666666668
150.0   60.0   33.333333333333336
200.0   90.0   33.333333333333336
200.0   60.0   33.333333333333336
200.0   60.0   16.666666666666668
150.0   60.0   33.333333333333336
200.0   90.0   33.333333333333336
200.0   60.0   16.666666666666668
150.0   90.0   16.666666666666668
150.0   60.0   33.333333333333336
200.0   60.0   33.333333333333336
150.0   90.0   33.333333333333336
150.0   60.0   50.0
200.0   60.0   33.333333333333336
200.0   90.0   33.333333333333336
150.0   90.0   33.333333333333336
200.0   90.0   50.0
150.0   60.0   50.0
150.0   90.0   50.0
200.0   90.0   50.0
150.0   90.0   33.333333333333336
150.0   60.0   50.0
200.0   90.0   50.0
200.0   60.0   50.0
200.0   60.0   33.333333333333336
150.0   60.0   50.0
200.0   90.0   50.0
200.0   60.0   33.333333333333336
150.0   90.0   33.333333333333336
150.0   90.0   0.0
200.0   90.0   0.0
150.0   120.0   0.0
150.0   90.0   16.666666666666668
200.0   90.0   0.0
200.0   120.0   0.0
150.0   120.0   0.0
200.0   120.0   16.666666666666668
150.0   90.0   16.666666666666668
150.0   120.0   16.666666666666668
200.0   120.0   16.666666666666668
150.0   120.0   0.0
150.0   90.0   16.666666666666668
200.0   120.0   16.666666666666668
200.0   90.0   16.666666666666668
200.0   90.0   0.0
150.0   90.0   16.666666666666668
200.0   120.0   16.666666666666668
200.0   90.0   0.0
150.0   120.0   0.0
150.0   90.0   16.666666666666668
200.0   90.0   16.666666666666668
150.0   120.0   16.666666666666668
150.0   90.0   33.333333333333336
200.0   90.0   16.666666666666668
200.0   120.0   16.666666666666668
150.0   120.0   16.666666666666668
200.0   120.0   33.333333333333336
150.0   90.0   33.333333333333336
150.0   120.0   33.333333333333336
200.0   120.0   33.333333333333336
150.0   120.0   16.666666666666668
150.0   90.0   33.333333333333336
200.0   120.0   33.333333333333336
200.0   90.0   33.333333333333336
200.0   90.0   16.666666666666668
150.0   90.0   33.333333333333336
200.0   120.0   33.333333333333336
200.0   90.0   16.666666666666668
150.0   120.0   16.666666666666668
150.0   90.0   33.333333333333336
200.0   90.0   33.333333333333336
150.0   120.0   33.333333333333336
150.0   90.0   50.0
200.0   90.0   33.333333333333336
200.0   120.0   33.333333333333336
150.0   120.0   33.333333333333336
200.0   120.0   50.0
150.0   90.0   50.0
150.0   120.0   50.0
200.0   120.0   50.0
150.0   120.0   33.333333333333336
150.0   90.0   50.0
200.0   120.0   50.0
200.0   90.0   50.0
200.0   90.0   33.333333333333336
150.0   90.0   50.0
200.0   120.0   50.0
200.0   90.0   33.333333333333336
150.0   120.0   33.333333333333336
150.0   120.0   0.0
200.0   120.0   0.0
150.0   150.0   0.0
150.0   120.0   16.666666666666668
200.0   120.0   0.0
200.0   150.0   0.0
150.0   150.0   0.0
200.0   150.0   16.666666666666668
150.0   120.0   16.666666666666668
150.0   150.0   16.666666666666668
200.0   150.0   16.666666666666668
150.0   150.0   0.0
150.0   120.0   16.666666666666668
200.0   150.0   16.666666666666668
200.0   120.0   16.666666666666668
200.0   120.0   0.0
150.0   120.0   16.666666666666668
200.0   150.0   16.666666666666668
200.0   120.0   0.0
150.0   150.0   0.0
150.0   120.0   16.666666666666668
200.0   120.0   16.666666666666668
150.0   150.0   16.666666666666668
150.0   120.0   33.333333333333336
200.0   120.0   16.666666666666668
200.0   150.0   16.666666666666668
150.0   150.0   16.666666666666668
200.0   150.0   33.333333333333336
150.0   120.0   33.333333333333336
150.0   150.0   33.333333333333336
200.0   150.0   33.333333333333336
150.0   150.0   16.666666666666668
150.0   120.0   33.333333333333336
200.0   150.0   33.333333333333336
200.0   120.0   33.333333333333336
200.0   120.0   16.666666666666668
150.0   120.0   33.333333333333336
200.0   150.0   33.333333333333336
200.0   120.0   16.666666666666668
150.0   150.0   16.666666666666668
150.0   120.0   33.333333333333336
200.0   120.0   33.333333333333336
150.0   150.0   33.333333333333336
150.0   120.0   50.0
200.0   120.0   33.333333333333336
200.0   150.0   33.333333333333336
150.0   150.0   33.333333333333336
200.0   150.0   50.0
150.0   120.0   50.0
150.0   150.0   50.0
200.0   150.0   50.0
150.0   150.0   33.333333333333336
150.0   120.0   50.0
200.0   150.0   50.0
200.0   120.0   50.0
200.0   120.0   33.333333333333336
150.0   120.0   50.0
200.0   150.0   50.0
200.0   120.0   33.333333333333336
150.0   150.0   33.333333333333336
200.0   0.0   0.0
250.0   0.0   0.0
200.0   30.0   0.0
200.0   0.0   16.666666666666668
250.0   0.0   0.0
250.0   30.0   0.0
200.0   30.0   0.0
250.0   30.0   16.666666666666668
200.0   0.0   16.666666666666668
200.0   30.0   16.666666666666668
250.0   30.0   16.666666666666668
200.0   30.0   0.0
200.0   0.0   16.666666666666668
250.0   30.0   16.666666666666668
250.0   0.0   16.666666666666668
250.0   0.0   0.0
200.0   0.0   16.666666666666668
250.0   30.0   16.666666666666668
250.0   0.0   0.0
200.0   30.0   0.0
200.0   0.0   16.666666666666668
250.0   0.0   16.666666666666668
200.0   30.0   16.666666666666668
200.0   0.0   33.333333333333336
250.0   0.0   16.666666666666668
250.0   30.0   16.666666666666668
200.0   30.0   16.666666666666668
250.0   30.0   33.333333333333336
200.0   0.0   33.333333333333336
200.0   30.0   33.333333333333336
250.0   30.0   33.333333333333336
200.0   30.0   16.666666666666668
200.0   0.0   33.333333333333336
250.0   30.0   33.333333333333336
250.0   0.0   33.333333333333336
250.0   0.0   16.666666666666668
200.0   0.0   33.333333333333336
250.0   30.0   33.333333333333336
250.0   0.0   16.666666666666668
200.0   30.0   16.666666666666668
200.0   0.0   33.333333333333336
250.0   0.0   33.333333333333336
200.0   30.0   33.333333333333336
200.0   0.0   50.0
250.0   0.0   33.333333333333336
250.0   30.0   33.333333333333336
200.0   30.0   33.333333333333336
250.0   30.0   50.0
200.0   0.0   50.0
200.0   30.0   50.0
250.0   30.0   50.0
200.0   30.0   33.333333333333336
200.0   0.0   50.0
250.0   30.0   50.0
250.0   0.0   50.0
250.0   0.0   33.333333333333336
200.0   0.0   50.0
250.0   30.0   50.0
250.0   0.0   33.333333333333336
200.0   30.0   33.333333333333336
200.0   30.0   0.0
250.0   30.0   0.0
200.0   60.0   0.0
200.0   30.0   16.666666666666668
250.0   30.0   0.0
250.0   60.0   0.0
200.0   60.0   0.0
250.0   60.0   16.666666666666668
200.0   30.0   16.666666666666668
200.0   60.0   16.666666666666668
250.0   60.0   16.666666666666668
200.0   60.0   0.0
200.0   30.0   16.666666666666668
250.0   60.0   16.666666666666668
250.0   30.0   16.666666666666668
250.0   30.0   0.0
200.0   30.0   16.666666666666668
250.0   60.0   16.666666666666668
250.0   30.0   0.0
200.0   60.0   0.0
200.0   30.0   16.666666666666668
250.0   30.0   16.666666666666668
200.0   60.0   16.666666666666668
200.0   30.0   33.333333333333336
250.0   30.0   16.666666666666668
250.0   60.0   16.666666666666668
200.0   60.0   16.666666666666668
250.0   60.0   33.333333333333336
200.0   30.0   33.333333333333336
200.0   60.0   33.333333333333336
250.0   60.0   33.333333333333336
200.0   60.0   16.666666666666668
200.0   30.0   33.333333333333336
250.0   60.0   33.333333333333336
250.0   30.0   33.333333333333336
250.0   30.0   16.666666666666668
200.0   30.0   33.333333333333336
250.0   60.0   33.333333333333336
250.0   30.0   16.666666666666668
200.0   60.0   16.666666666666668
200.0   30.0   33.333333333333336
250.0   30.0   33.333333333333336
200.0   60.0   33.333333333333336
200.0   30.0   50.0
250.0   30.0   33.333333333333336
250.0   60.0   33.333333333333336
200.0   60.0   33.333333333333336
250.0   60.0   50.0
200.0   30.0   50.0
200.0   60.0   50.0
250.0   60.0   50.0
200.0   60.0   33.333333333333336
200.0   30.0   50.0
250.0   60.0   50.0
250.0   30.0   50.0
250.0   30.0   33.333333333333336
200.0   30.0   50.0
250.0   60.0   50.0
250.0   30.0   33.333333333333336
200.0   60.0   33.333333333333336
200.0   60.0   0.0
250.0   60.0   0.0
200.0   90.0   0.0
200.0   60.0   16.666666666666668
250.0   60.0   0.0
250.0   90.0   0.0
200.0   90.0   0.0
250.0   90.0   16.666666666666668
200.0   60.0   16.666666666666668
200.0   90.0   16.666666666666668
250.0   90.0   16.666666666666668
200.0   90.0   0.0
200.0   60.0   16.666666666666668
250.0   90.0   16.666666666666668
250.0   60.0   16.666666666666668
250.0   60.0   0.0
200.0   60.0   16.666666666666668
250.0   90.0   16.666666666666668
250.0   60.0   0.0
200.0   90.0   0.0
200.0   60.0   16.666666666666668
250.0   60.0   16.666666666666668
200.0   90.0   16.666666666666668
200.0   60.0   33.333333333333336
250.0   60.0   16.666666666666668
250.0   90.0   16.666666666666668
200.0   90.0   16.666666666666668
250.0   90.0   33.333333333333336
200.0   60.0   33.333333333333336
200.0   90.0   33.333333333333336
250.0   90.0   33.333333333333336
200.0   90.0   16.666666666666668
200.0   60.0   33.333333333333336
250.0   90.0   33.333333333333336
250.0   60.0   33.333333333333336
250.0   60.0   16.666666666666668
200.0   60.0   33.333333333333336
250.0   90.0   33.333333333333336
250.0   60.0   16.666666666666668
200.0   90.0   16.666666666666668
200.0   60.0   33.333333333333336
250.0   60.0   33.333333333333336
200.0   90.0   33.333333333333336
200.0   60.0   50.0
250.0   60.0   33.333333333333336
250.0   90.0   33.333333333333336
200.0   90.0   33.333333333333336
250.0   90.0   50.0
200.0   60.0   50.0
200.0   90.0   50.0
250.0   90.0   50.0
200.0   90.0   33.333333333333336
200.0   60.0   50.0
250.0   90.0   50.0
250.0   60.0   50.0
250.0   60.0   33.333333333333336
200.0   60.0   50.0
250.0   90.0   50.0
250.0   60.0   33.333333333333336
200.0   90.0   33.333333333333336
200.0   90.0   0.0
250.0   90.0   0.0
200.0   120.0   0.0
200.0   90.0   16.666666666666668
250.0   90.0   0.0
250.0   120.0   0.0
200.0   120.0   0.0
250.0   120.0   16.666666666666668
200.0   90.0   16.666666666666668
200.0   120.0   16.666666666666668
250.0   120.0   16.666666666666668
200.0   120.0   0.0
200.0   90.0   16.666666666666668
250.0   120.0   16.666666666666668
250.0   90.0   16.666666666666668
250.0   90.0   0.0
200.0   90.0   16.666666666666668
250.0   120.0   16.666666666666668
250.0   90.0   0.0
200.0   120.0   0.0
200.0   90.0   16.666666666666668
250.0   90.0   16.666666666666668
200.0   120.0   16.666666666666668
200.0   90.0   33.333333333333336
250.0   90.0   16.666666666666668
250.0   120.0   16.666666666666668
200.0   120.0   16.666666666666668
250.0   120.0   33.333333333333336
200.0   90.0   33.333333333333336
200.0   120.0   33.333333333333336
250.0   120.0   33.333333333333336
200.0   120.0   16.666666666666668
200.0   90.0   33.333333333333336
250.0   120.0   33.333333333333336
250.0   90.0   33.333333333333336
250.0   90.0   16.666666666666668
200.0   90.0   33.333333333333336
250.0   120.0   33.333333333333336
250.0   90.0   16.666666666666668
200.0   120.0   16.666666666666668
200.0   90.0   33.333333333333336
250.0   90.0   33.333333333333336
200.0   120.0   33.333333333333336
200.0   90.0   50.0
250.0   90.0   33.333333333333336
250.0   120.0   33.333333333333336
200.0   120.0   33.333333333333336
250.0   120.0   50.0
200.0   90.0   50.0
200.0   120.0   50.0
250.0   120.0   50.0
200.0   120.0   33.333333333333336
200.0   90.0   50.0
250.0   120.0   50.0
250.0   90.0   50.0
250.0   90.0   33.333333333333336
200.0   90.0   50.0
250.0   120.0   50.0
250.0   90.0   33.333333333333336
200.0   120.0   33.333333333333336
200.0   120.0   0.0
250.0   120.0   0.0
200.0   150.0   0.0
200.0   120.0   16.666666666666668
250.0   120.0   0.0
250.0   150.0   0.0
200.0   150.0   0.0
250.0   150.0   16.666666666666668
200.0   120.0   16.666666666666668
200.0   150.0   16.666666666666668
250.0   150.0   16.666666666666668
200.0   150.0   0.0
200.0   120.0   16.666666666666668
250.0   150.0   16.666666666666668
250.0   120.0   16.666666666666668
250.0   120.0   0.0
200.0   120.0   16.666666666666668
250.0   150.0   16.666666666666668
250.0   120.0   0.0
200.0   150.0   0.0
200.0   120.0   16.666666666666668
250.0   120.0   16.666666666666668
200.0   150.0   16.666666666666668
200.0   120.0   33.333333333333336
250.0   120.0   16.666666666666668
250.0   150.0   16.666666666666668
200.0   150.0   16.666666666666668
250.0   150.0   33.333333333333336
200.0   120.0   33.333333333333336
200.0   150.0   33.333333333333336
250.0   150.0   33.333333333333336
200.0   150.0   16.666666666666668
200.0   120.0   33.333333333333336
250.0   150.0   33.333333333333336
250.0   120.0   33.333333333333336
250.0   120.0   16.666666666666668
200.0   120.0   33.333333333333336
250.0   150.0   33.333333333333336
250.0   120.0   16.666666666666668
200.0   150.0   16.666666666666668
200.0   120.0   33.333333333333336
250.0   120.0   33.333333333333336
200.0   150.0   33.333333333333336
200.0   120.0   50.0
250.0   120.0   33.333333333333336
250.0   150.0   33.333333333333336
200.0   150.0   33.333333333333336
250.0   150.0   50.0
200.0   120.0   50.0
200.0   150.0   50.0
250.0   150.0   50.0
200.0   150.0   33.333333333333336
200.0   120.0   50.0
250.0   150.0   50.0
250.0   120.0   50.0
250.0   120.0   33.333333333333336
200.0   120.0   50.0
250.0   150.0   50.0
250.0   120.0   33.333333333333336
200.0   150.0   33.333333333333336
250.0   0.0   0.0
300.0   0.0   0.0
250.0   30.0   0.0
250.0   0.0   16.666666666666668
300.0   0.0   0.0
300.0   30.0   0.0
250.0   30.0   0.0
300.0   30.0   16.666666666666668
250.0   0.0   16.666666666666668
250.0   30.0   16.666666666666668
300.0   30.0   16.666666666666668
250.0   30.0   0.0
250.0   0.0   16.666666666666668
300.0   30.0   16.666666666666668
300.0   0.0   16.666666666666668
300.0   0.0   0.0
250.0   0.0   16.666666666666668
300.0   30.0   16.666666666666668
300.0   0.0   0.0
250.0   30.0   0.0
250.0   0.0   16.666666666666668
300.0   0.0   16.666666666666668
250.0   30.0   16.666666666666668
250.0   0.0   33.333333333333336
300.0   0.0   16.666666666666668
300.0   30.0   16.666666666666668
250.0   30.0   16.666666666666668
300.0   30.0   33.333333333333336
250.0   0.0   33.333333333333336
250.0   30.0   33.333333333333336
300.0   30.0   33.333333333333336
250.0   30.0   16.666666666666668
250.0   0.0   33.333333333333336
300.0   30.0   33.333333333333336
300.0   0.0   33.333333333333336
300.0   0.0   16.666666666666668
250.0   0.0   33.333333333333336
300.0   30.0   33.333333333333336
300.0   0.0   16.666666666666668
250.0   30.0   16.666666666666668
250.0   0.0   33.333333333333336
300.0   0.0   33.333333333333336
250.0   30.0   33.333333333333336
250.0   0.0   50.0
300.0   0.0   33.333333333333336
300.0   30.0   33.333333333333336
250.0   30.0   33.333333333333336
300.0   30.0   50.0
250.0   0.0   50.0
250.0   30.0   50.0
300.0   30.0   50.0
250.0   30.0   33.333333333333336
250.0   0.0   50.0
300.0   30.0   50.0
300.0   0.0   50.0
300.0   0.0   33.333333333333336
250.0   0.0   50.0
300.0   30.0   50.0
300.0   0.0   33.333333333333336
250.0   30.0   33.333333333333336
250.0   30.0   0.0
300.0   30.0   0.0
250.0   60.0   0.0
250.0   30.0   16.666666666666668
300.0   30.0   0.0
300.0   60.0   0.0
250.0   60.0   0.0
300.0   60.0   16.666666666666668
250.0   30.0   16.666666666666668
250.0   60.0   16.666666666666668
300.0   60.0   16.666666666666668
250.0   60.0   0.0
250.0   30.0   16.666666666666668
300.0   60.0   16.666666666666668
300.0   30.0   16.666666666666668
300.0   30.0   0.0
250.0   30.0   16.666666666666668
300.0   60.0   16.666666666666668
300.0   30.0   0.0
250.0   60.0   0.0
250.0   30.0   16.666666666666668
300.0   30.0   16.666666666666668
250.0   60.0   16.666666666666668
250.0   30.0   33.333333333333336
300.0   30.0   16.666666666666668
300.0   60.0   16.666666666666668
250.0   60.0   16.666666666666668
300.0   60.0   33.333333333333336
250.0   30.0   33.333333333333336
250.0   60.0   33.333333333333336
300.0   60.0   33.333333333333336
250.0   60.0   16.666666666666668
250.0   30.0   33.333333333333336
300.0   60.0   33.333333333333336
300.0   30.0   33.333333333333336
300.0   30.0   16.666666666666668
250.0   30.0   33.333333333333336
300.0   60.0   33.333333333333336
300.0   30.0   16.666666666666668
250.0   60.0   16.666666666666668
250.0   30.0   33.333333333333336
300.0   30.0   33.333333333333336
250.0   60.0   33.333333333333336
250.0   30.0   50.0
300.0   30.0   33.333333333333336
300.0   60.0   33.333333333333336
250.0   60.0   33.333333333333336
300.0   60.0   50.0
250.0   30.0   50.0
250.0   60.0   50.0
300.0   60.0   50.0
250.0   60.0   33.333333333333336
250.0   30.0   50.0
300.0   60.0   50.0
300.0   30.0   50.0
300.0   30.0   33.333333333333336
250.0   30.0   50.0
300.0   60.0   50.0
300.0   30.0   33.333333333333336
250.0   60.0   33.333333333333336
250.0   60.0   0.0
300.0   60.0   0.0
250.0   90.0   0.0
250.0   60.0   16.666666666666668
300.0   60.0   0.0
300.0   90.0   0.0
250.0   90.0   0.0
300.0   90.0   16.666666666666668
250.0   60.0   16.666666666666668
250.0   90.0   16.666666666666668
300.0   90.0   16.666666666666668
250.0   90.0   0.0
250.0   60.0   16.666666666666668
300.0   90.0   16.666666666666668
300.0   60.0   16.666666666666668
300.0   60.0   0.0
250.0   60.0   16.666666666666668
300.0   90.0   16.666666666666668
300.0   60.0   0.0
250.0   90.0   0.0
250.0   60.0   16.666666666666668
300.0   60.0   16.666666666666668
250.0   90.0   16.666666666666668
250.0   60.0   33.333333333333336
300.0   60.0   16.666666666666668
300.0   90.0   16.666666666666668
250.0   90.0   16.666666666666668
300.0   90.0   33.333333333333336
250.0   60.0   33.333333333333336
250.0   90.0   33.333333333333336
300.0   90.0   33.333333333333336
250.0   90.0   16.666666666666668
250.0   60.0   33.333333333333336
300.0   90.0   33.333333333333336
300.0   60.0   33.333333333333336
300.0   60.0   16.666666666666668
250.0   60.0   33.333333333333336
300.0   90.0   33.333333333333336
300.0   60.0   16.666666666666668
250.0   90.0   16.666666666666668
250.0   60.0   33.333333333333336
300.0   60.0   33.333333333333336
250.0   90.0   33.333333333333336
250.0   60.0   50.0
300.0   60.0   33.333333333333336
300.0   90.0   33.333333333333336
250.0   90.0   33.333333333333336
300.0   90.0   50.0
250.0   60.0   50.0
250.0   90.0   50.0
300.0   90.0   50.0
250.0   90.0   33.333333333333336
250.0   60.0   50.0
300.0   90.0   50.0
300.0   60.0   50.0
300.0   60.0   33.333333333333336
250.0   60.0   50.0
300.0   90.0   50.0
300.0   60.0   33.333333333333336
250.0   90.0   33.333333333333336
250.0   90.0   0.0
300.0   90.0   0.0
250.0   120.0   0.0
250.0   90.0   16.666666666666668
300.0   90.0   0.0
300.0   120.0   0.0
250.0   120.0   0.0
300.0   120.0   16.666666666666668
250.0   90.0   16.666666666666668
250.0   120.0   16.666666666666668
300.0   120.0   16.666666666666668
250.0   120.0   0.0
250.0   90.0   16.666666666666668
300.0   120.0   16.666666666666668
300.0   90.0   16.666666666666668
300.0   90.0   0.0
250.0   90.0   16.666666666666668
300.0   120.0   16.666666666666668
300.0   90.0   0.0
250.0   120.0   0.0
250.0   90.0   16.666666666666668
300.0   90.0   16.666666666666668
250.0   120.0   16.666666666666668
250.0   90.0   33.333333333333336
300.0   90.0   16.666666666666668
300.0   120.0   16.666666666666668
250.0   120.0   16.666666666666668
300.0   120.0   33.333333333333336
250.0   90.0   33.333333333333336
250.0   120.0   33.333333333333336
300.0   120.0   33.333333333333336
250.0   120.0   16.666666666666668
250.0   90.0   33.333333333333336
300.0   120.0   33.333333333333336
300.0   90.0   33.333333333333336
300.0   90.0   16.666666666666668
250.0   90.0   33.333333333333336
300.0   120.0   33.333333333333336
300.0   90.0   16.666666666666668
250.0   120.0   16.666666666666668
250.0   90.0   33.333333333333336
300.0   90.0   33.333333333333336
250.0   120.0   33.333333333333336
250.0   90.0   50.0
300.0   90.0   33.333333333333336
300.0   120.0   33.333333333333336
250.0   120.0   33.333333333333336
300.0   120.0   50.0
250.0   90.0   50.0
250.0   120.0   50.0
300.0   120.0   50.0
250.0   120.0   33.333333333333336
250.0   90.0   50.0
300.0   120.0   50.0
300.0   90.0   50.0
300.0   90.0   33.333333333333336
250.0   90.0   50.0
300.0   120.0   50.0
300.0   90.0   33.333333333333336
250.0   120.0   33.333333333333336
250.0   120.0   0.0
300.0   120.0   0.0
250.0   150.0   0.0
250.0   120.0   16.666666666666668
300.0   120.0   0.0
300.0   150.0   0.0
250.0   150.0   0.0
300.0   150.0   16.666666666666668
250.0   120.0   16.666666666666668
250.0   150.0   16.666666666666668
300.0   150.0   16.666666666666668
250.0   150.0   0.0
250.0   120.0   16.666666666666668
300.0   150.0   16.666666666666668
300.0   120.0   16.666666666666668
300.0   120.0   0.0
250.0   120.0   16.666666666666668
300.0   150.0   16.666666666666668
300.0   120.0   0.0
250.0   150.0   0.0
250.0   120.0   16.666666666666668
300.0   120.0   16.666666666666668
250.0   150.0   16.666666666666668
250.0   120.0   33.333333333333336
300.0   120.0   16.666666666666668
300.0   150.0   16.666666666666668
250.0   150.0   16.666666666666668
300.0   150.0   33.333333333333336
250.0   120.0   33.333333333333336
250.0   150.0   33.333333333333336
300.0   150.0   33.333333333333336
250.0   150.0   16.666666666666668
250.0   120.0   33.333333333333336
300.0   150.0   33.333333333333336
300.0   120.0   33.333333333333336
300.0   120.0   16.666666666666668
250.0   120.0   33.333333333333336
300.0   150.0   33.333333333333336
300.0   120.0   16.666666666666668
250.0   150.0   16.666666666666668
250.0   120.0   33.333333333333336
300.0   120.0   33.333333333333336
250.0   150.0   33.333333333333336
250.0   120.0   50.0
300.0   120.0   33.333333333333336
300.0   150.0   33.333333333333336
250.0   150.0   33.333333333333336
300.0   150.0   50.0
250.0   120.0   50.0
250.0   150.0   50.0
300.0   150.0   50.0
250.0   150.0   33.333333333333336
250.0   120.0   50.0
300.0   150.0   50.0
300.0   120.0   50.0
300.0   120.0   33.333333333333336
250.0   120.0   50.0
300.0   150.0   50.0
300.0   120.0   33.333333333333336
250.0   150.0   33.333333333333336
300.0   0.0   0.0
350.0   0.0   0.0
300.0   30.0   0.0
300.0   0.0   16.666666666666668
350.0   0.0   0.0
350.0   30.0   0.0
300.0   30.0   0.0
350.0   30.0   16.666666666666668
300.0   0.0   16.666666666666668
300.0   30.0   16.666666666666668
350.0   30.0   16.666666666666668
300.0   30.0   0.0
300.0   0.0   16.666666666666668
350.0   30.0   16.666666666666668
350.0   0.0   16.666666666666668
350.0   0.0   0.0
300.0   0.0   16.666666666666668
350.0   30.0   16.666666666666668
350.0   0.0   0.0
300.0   30.0   0.0
300.0   0.0   16.666666666666668
350.0   0.0   16.666666666666668
300.0   30.0   16.666666666666668
300.0   0.0   33.333333333333336
350.0   0.0   16.666666666666668
350.0   30.0   16.666666666666668
300.0   30.0   16.666666666666668
350.0   30.0   33.333333333333336
300.0   0.0   33.333333333333336
300.0   30.0   33.333333333333336
350.0   30.0   33.333333333333336
300.0   30.0   16.666666666666668
300.0   0.0   33.333333333333336
350.0   30.0   33.333333333333336
350.0   0.0   33.333333333333336
350.0   0.0   16.666666666666668
300.0   0.0   33.333333333333336
350.0   30.0   33.333333333333336
350.0   0.0   16.666666666666668
300.0   30.0   16.666666666666668
300.0   0.0   33.333333333333336
350.0   0.0   33.333333333333336
300.0   30.0   33.333333333333336
300.0   0.0   50.0
350.0   0.0   33.333333333333336
350.0   30.0   33.333333333333336
300.0   30.0   33.333333333333336
350.0   30.0   50.0
300.0   0.0   50.0
300.0   30.0   50.0
350.0   30.0   50.0
300.0   30.0   33.333333333333336
300.0   0.0   50.0
350.0   30.0   50.0
350.0   0.0   50.0
350.0   0.0   33.333333333333336
300.0   0.0   50.0
350.0   30.0   50.0
350.0   0.0   33.333333333333336
300.0   30.0   33.333333333333336
300.0   30.0   0.0
350.0   30.0   0.0
300.0   60.0   0.0
300.0   30.0   16.666666666666668
350.0   30.0   0.0
350.0   60.0   0.0
300.0   60.0   0.0
350.0   60.0   16.666666666666668
300.0   30.0   16.666666666666668
300.0   60.0   16.666666666666668
350.0   60.0   16.666666666666668
300.0   60.0   0.0
300.0   30.0   16.666666666666668
350.0   60.0   16.666666666666668
350.0   30.0   16.666666666666668
350.0   30.0   0.0
300.0   30.0   16.666666666666668
350.0   60.0   16.666666666666668
350.0   30.0   0.0
300.0   60.0   0.0
300.0   30.0   16.666666666666668
350.0   30.0   16.666666666666668
300.0   60.0   16.666666666666668
300.0   30.0   33.333333333333336
350.0   30.0   16.666666666666668
350.0   60.0   16.666666666666668
300.0   60.0   16.666666666666668
350.0   60.0   33.333333333333336
300.0   30.0   33.333333333333336
300.0   60.0   33.333333333333336
350.0   60.0   33.333333333333336
300.0   60.0   16.666666666666668
300.0   30.0   33.333333333333336
350.0   60.0   33.333333333333336
350.0   30.0   33.333333333333336
350.0   30.0   16.666666666666668
300.0   30.0   33.333333333333336
350.0   60.0   33.333333333333336
350.0   30.0   16.666666666666668
300.0   60.0   16.666666666666668
300.0   30.0   33.333333333333336
350.0   30.0   33.333333333333336
300.0   60.0   33.333333333333336
300.0   30.0   50.0
350.0   30.0   33.333333333333336
350.0   60.0   33.333333333333336
300.0   60.0   33.333333333333336
350.0   60.0   50.0
300.0   30.0   50.0
300.0   60.0   50.0
350.0   60.0   50.0
300.0   60.0   33.333333333333336
300.0   30.0   50.0
350.0   60.0   50.0
350.0   30.0   50.0
350.0   30.0   33.333333333333336
300.0   30.0   50.0
350.0   60.0   50.0
350.0   30.0   33.333333333333336
300.0   60.0   33.333333333333336
300.0   60.0   0.0
350.0   60.0   0.0
300.0   90.0   0.0
300.0   60.0   16.666666666666668
350.0   60.0   0.0
350.0   90.0   0.0
300.0   90.0   0.0
350.0   90.0   16.666666666666668
300.0   60.0   16.666666666666668
300.0   90.0   16.666666666666668
350.0   90.0   16.666666666666668
300.0   90.0   0.0
300.0   60.0   16.666666666666668
350.0   90.0   16.666666666666668
350.0   60.0   16.666666666666668
350.0   60.0   0.0
300.0   60.0   16.666666666666668
350.0   90.0   16.666666666666668
350.0   60.0   0.0
300.0   90.0   0.0
300.0   60.0   16.666666666666668
350.0   60.0   16.666666666666668
300.0   90.0   16.666666666666668
300.0   60.0   33.333333333333336
350.0   60.0   16.666666666666668
350.0   90.0   16.666666666666668
300.0   90.0   16.666666666666668
350.0   90.0   33.333333333333336
300.0   60.0   33.333333333333336
300.0   90.0   33.333333333333336
350.0   90.0   33.333333333333336
300.0   90.0   16.666666666666668
300.0   60.0   33.333333333333336
350.0   90.0   33.333333333333336
350.0   60.0   33.333333333333336
350.0   60.0   16.666666666666668
300.0   60.0   33.333333333333336
350.0   90.0   33.333333333333336
350.0   60.0   16.666666666666668
300.0   90.0   16.666666666666668
300.0   60.0   33.333333333333336
350.0   60.0   33.333333333333336
300.0   90.0   33.333333333333336
300.0   60.0   50.0
350.0   60.0   33.333333333333336
350.0   90.0   33.333333333333336
300.0   90.0   33.333333333333336
350.0   90.0   50.0
300.0   60.0   50.0
300.0   90.0   50.0
350.0   90.0   50.0
300.0   90.0   33.333333333333336
300.0   60.0   50.0
350.0   90.0   50.0
350.0   60.0   50.0
350.0   60.0   33.333333333333336
300.0   60.0   50.0
350.0   90.0   50.0
350.0   60.0   33.333333333333336
300.0   90.0   33.333333333333336
300.0   90.0   0.0
350.0   90.0   0.0
300.0   120.0   0.0
300.0   90.0   16.666666666666668
350.0   90.0   0.0
350.0   120.0   0.0
300.0   120.0   0.0
350.0   120.0   16.666666666666668
300.0   90.0   16.666666666666668
300.0   120.0   16.666666666666668
350.0   120.0   16.666666666666668
300.0   120.0   0.0
300.0   90.0   16.666666666666668
350.0   120.0   16.666666666666668
350.0   90.0   16.666666666666668
350.0   90.0   0.0
300.0   90.0   16.666666666666668
350.0   120.0   16.666666666666668
350.0   90.0   0.0
300.0   120.0   0.0
300.0   90.0   16.666666666666668
350.0   90.0   16.666666666666668
300.0   120.0   16.666666666666668
300.0   90.0   33.333333333333336
350.0   90.0   16.666666666666668
350.0   120.0   16.666666666666668
300.0   120.0   16.666666666666668
350.0   120.0   33.333333333333336
300.0   90.0   33.333333333333336
300.0   120.0   33.333333333333336
350.0   120.0   33.333333333333336
300.0   120.0   16.666666666666668
300.0   90.0   33.333333333333336
350.0   120.0   33.333333333333336
350.0   90.0   33.333333333333336
350.0   90.0   16.666666666666668
300.0   90.0   33.333333333333336
350.0   120.0   33.333333333333336
350.0   90.0   16.666666666666668
300.0   120.0   16.666666666666668
300.0   90.0   33.333333333333336
350.0   90.0   33.333333333333336
300.0   120.0   33.333333333333336
300.0   90.0   50.0
350.0   90.0   33.333333333333336
350.0   120.0   33.333333333333336
300.0   120.0   33.333333333333336
350.0   120.0   50.0
300.0   90.0   50.0
300.0   120.0   50.0
350.0   120.0   50.0
300.0   120.0   33.333333333333336
300.0   90.0   50.0
350.0   120.0   50.0
350.0   90.0   50.0
350.0   90.0   33.333333333333336
300.0   90.0   50.0
350.0   120.0   50.0
350.0   90.0   33.333333333333336
300.0   120.0   33.333333333333336
300.0   120.0   0.0
350.0   120.0   0.0
300.0   150.0   0.0
300.0   120.0   16.666666666666668
350.0   120.0   0.0
350.0   150.0   0.0
300.0   150.0   0.0
350.0   150.0   16.666666666666668
300.0   120.0   16.666666666666668
300.0   150.0   16.666666666666668
350.0   150.0   16.666666666666668
300.0   150.0   0.0
300.0   120.0   16.666666666666668
350.0   150.0   16.666666666666668
350.0   120.0   16.666666666666668
350.0   120.0   0.0
300.0   120.0   16.666666666666668
350.0   150.0   16.666666666666668
350.0   120.0   0.0
300.0   150.0   0.0
300.0   120.0   16.666666666666668
350.0   120.0   16.666666666666668
300.0   150.0   16.666666666666668
300.0   120.0   33.333333333333336
350.0   120.0   16.666666666666668
350.0   150.0   16.666666666666668
300.0   150.0   16.666666666666668
350.0   150.0   33.333333333333336
300.0   120.0   33.333333333333336
300.0   150.0   33.333333333333336
350.0   150.0   33.333333333333336
300.0   150.0   16.666666666666668
300.0   120.0   33.333333333333336
350.0   150.0   33.333333333333336
350.0   120.0   33.333333333333336
350.0   120.0   16.666666666666668
300.0   120.0   33.333333333333336
350.0   150.0   33.333333333333336
350.0   120.0   16.666666666666668
300.0   150.0   16.666666666666668
300.0   120.0   33.333333333333336
350.0   120.0   33.333333333333336
300.0   150.0   33.333333333333336
300.0   120.0   50.0
350.0   120.0   33.333333333333336
350.0   150.0   33.333333333333336
300.0   150.0   33.333333333333336
350.0   150.0   50.0
300.0   120.0   50.0
300.0   150.0   50.0
350.0   150.0   50.0
300.0   150.0   33.333333333333336
300.0   120.0   50.0
350.0   150.0   50.0
350.0   120.0   50.0
350.0   120.0   33.333333333333336
300.0   120.0   50.0
350.0   150.0   50.0
350.0   120.0   33.333333333333336
300.0   150.0   33.333333333333336
350.0   0.0   0.0
400.0   0.0   0.0
350.0   30.0   0.0
350.0   0.0   16.666666666666668
400.0   0.0   0.0
400.0   30.0   0.0
350.0   30.0   0.0
400.0   30.0   16.666666666666668
350.0   0.0   16.666666666666668
350.0   30.0   16.666666666666668
400.0   30.0   16.666666666666668
350.0   30.0   0.0
350.0   0.0   16.666666666666668
400.0   30.0   16.666666666666668
400.0   0.0   16.666666666666668
400.0   0.0   0.0
350.0   0.0   16.666666666666668
400.0   30.0   16.666666666666668
400.0   0.0   0.0
350.0   30.0   0.0
350.0   0.0   16.666666666666668
400.0   0.0   16.666666666666668
350.0   30.0   16.666666666666668
350.0   0.0   33.333333333333336
400.0   0.0   16.666666666666668
400.0   30.0   16.666666666666668
350.0   30.0   16.666666666666668
400.0   30.0   33.333333333333336
350.0   0.0   33.333333333333336
350.0   30.0   33.333333333333336
400.0   30.0   33.333333333333336
350.0   30.0   16.666666666666668
350.0   0.0   33.333333333333336
400.0   30.0   33.333333333333336
400.0   0.0   33.333333333333336
400.0   0.0   16.666666666666668
350.0   0.0   33.333333333333336
400.0   30.0   33.333333333333336
400.0   0.0   16.666666666666668
350.0   30.0   16.666666666666668
350.0   0.0   33.333333333333336
400.0   0.0   33.333333333333336
350.0   30.0   33.333333333333336
350.0   0.0   50.0
400.0   0.0   33.333333333333336
400.0   30.0   33.333333333333336
350.0   30.0   33.333333333333336
400.0   30.0   50.0
350.0   0.0   50.0
350.0   30.0   50.0
400.0   30.0   50.0
350.0   30.0   33.333333333333336
350.0   0.0   50.0
400.0   30.0   50.0
400.0   0.0   50.0
400.0   0.0   33.333333333333336
350.0   0.0   50.0
400.0   30.0   50.0
400.0   0.0   33.333333333333336
350.0   30.0   33.333333333333336
350.0   30.0   0.0
400.0   30.0   0.0
350.0   60.0   0.0
350.0   30.0   16.666666666666668
400.0   30.0   0.0
400.0   60.0   0.0
350.0   60.0   0.0
400.0   60.0   16.666666666666668
350.0   30.0   16.666666666666668
350.0   60.0   16.666666666666668
400.0   60.0   16.666666666666668
350.0   60.0   0.0
350.0   30.0   16.666666666666668
400.0   60.0   16.666666666666668
400.0   30.0   16.666666666666668
400.0   30.0   0.0
350.0   30.0   16.666666666666668
400.0   60.0   16.666666666666668
400.0   30.0   0.0
350.0   60.0   0.0
350.0   30.0   16.666666666666668
400.0   30.0   16.666666666666668
350.0   60.0   16.666666666666668
350.0   30.0   33.333333333333336
400.0   30.0   16.666666666666668
400.0   60.0   16.666666666666668
350.0   60.0   16.666666666666668
400.0   60.0   33.333333333333336
350.0   30.0   33.333333333333336
350.0   60.0   33.333333333333336
400.0   60.0   33.333333333333336
350.0   60.0   16.666666666666668
350.0   30.0   33.333333333333336
400.0   60.0   33.333333333333336
400.0   30.0   33.333333333333336
400.0   30.0   16.666666666666668
350.0   30.0   33.333333333333336
400.0   60.0   33.333333333333336
400.0   30.0   16.666666666666668
350.0   60.0   16.666666666666668
350.0   30.0   33.333333333333336
400.0   30.0   33.333333333333336
350.0   60.0   33.333333333333336
350.0   30.0   50.0
400.0   30.0   33.333333333333336
400.0   60.0   33.333333333333336
350.0   60.0   33.333333333333336
400.0   60.0   50.0
350.0   30.0   50.0
350.0   60.0   50.0
400.0   60.0   50.0
350.0   60.0   33.333333333333336
350.0   30.0   50.0
400.0   60.0   50.0
400.0   30.0   50.0
400.0   30.0   33.333333333333336
350.0   30.0   50.0
400.0   60.0   50.0
400.0   30.0   33.333333333333336
350.0   60.0   33.333333333333336
350.0   60.0   0.0
400.0   60.0   0.0
350.0   90.0   0.0
350.0   60.0   16.666666666666668
400.0   60.0   0.0
400.0   90.0   0.0
350.0   90.0   0.0
400.0   90.0   16.666666666666668
350.0   60.0   16.666666666666668
350.0   90.0   16.666666666666668
400.0   90.0   16.666666666666668
350.0   90.0   0.0
350.0   60.0   16.666666666666668
400.0   90.0   16.666666666666668
400.0   60.0   16.666666666666668
400.0   60.0   0.0
350.0   60.0   16.666666666666668
400.0   90.0   16.666666666666668
400.0   60.0   0.0
350.0   90.0   0.0
350.0   60.0   16.666666666666668
400.0   60.0   16.666666666666668
350.0   90.0   16.666666666666668
350.0   60.0   33.333333333333336
400.0   60.0   16.666666666666668
400.0   90.0   16.666666666666668
350.0   90.0   16.666666666666668
400.0   90.0   33.333333333333336
350.0   60.0   33.333333333333336
350.0   90.0   33.333333333333336
400.0   90.0   33.333333333333336
350.0   90.0   16.666666666666668
350.0   60.0   33.333333333333336
400.0   90.0   33.333333333333336
400.0   60.0   33.333333333333336
400.0   60.0   16.666666666666668
350.0   60.0   33.333333333333336
400.0   90.0   33.333333333333336
400.0   60.0   16.666666666666668
350.0   90.0   16.666666666666668
350.0   60.0   33.333333333333336
400.0   60.0   33.333333333333336
350.0   90.0   33.333333333333336
350.0   60.0   50.0
400.0   60.0   33.333333333333336
400.0   90.0   33.333333333333336
350.0   90.0   33.333333333333336
400.0   90.0   50.0
350.0   60.0   50.0
350.0   90.0   50.0
400.0   90.0   50.0
350.0   90.0   33.333333333333336
350.0   60.0   50.0
400.0   90.0   50.0
400.0   60.0   50.0
400.0   60.0   33.333333333333336
350.0   60.0   50.0
400.0   90.0   50.0
400.0   60.0   33.333333333333336
350.0   90.0   33.333333333333336
350.0   90.0   0.0
400.0   90.0   0.0
350.0   120.0   0.0
350.0   90.0   16.666666666666668
400.0   90.0   0.0
400.0   120.0   0.0
350.0   120.0   0.0
400.0   120.0   16.666666666666668
350.0   90.0   16.666666666666668
350.0   120.0   16.666666666666668
400.0   120.0   16.666666666666668
350.0   120.0   0.0
350.0   90.0   16.666666666666668
400.0   120.0   16.666666666666668
400.0   90.0   16.666666666666668
400.0   90.0   0.0
350.0   90.0   16.666666666666668
400.0   120.0   16.666666666666668
400.0   90.0   0.0
350.0   120.0   0.0
350.0   90.0   16.666666666666668
400.0   90.0   16.666666666666668
350.0   120.0   16.666666666666668
350.0   90.0   33.333333333333336
400.0   90.0   16.666666666666668
400.0   120.0   16.666666666666668
350.0   120.0   16.666666666666668
400.0   120.0   33.333333333333336
350.0   90.0   33.333333333333336
350.0   120.0   33.333333333333336
400.0   120.0   33.333333333333336
350.0   120.0   16.666666666666668
350.0   90.0   33.333333333333336
400.0   120.0   33.333333333333336
400.0   90.0   33.333333333333336
400.0   90.0   16.666666666666668
350.0   90.0   33.333333333333336
400.0   120.0   33.333333333333336
400.0   90.0   16.666666666666668
350.0   120.0   16.666666666666668
350.0   90.0   33.333333333333336
400.0   90.0   33.333333333333336
350.0   120.0   33.333333333333336
350.0   90.0   50.0
400.0   90.0   33.333333333333336
400.0   120.0   33.333333333333336
350.0   120.0   33.333333333333336
400.0   120.0   50.0
350.0   90.0   50.0
350.0   120.0   50.0
400.0   120.0   50.0
350.0   120.0   33.333333333333336
350.0   90.0   50.0
400.0   120.0   50.0
400.0   90.0   50.0
400.0   90.0   33.333333333333336
350.0   90.0   50.0
400.0   120.0   50.0
400.0   90.0   33.333333333333336
350.0   120.0   33.333333333333336
350.0   120.0   0.0
400.0   120.0   0.0
350.0   150.0   0.0
350.0   120.0   16.666666666666668
400.0   120.0   0.0
400.0   150.0   0.0
350.0   150.0   0.0
400.0   150.0   16.666666666666668
350.0   120.0   16.666666666666668
350.0   150.0   16.666666666666668
400.0   150.0   16.666666666666668
350.0   150.0   0.0
350.0   120.0   16.666666666666668
400.0   150.0   16.666666666666668
400.0   120.0   16.666666666666668
400.0   120.0   0.0
350.0   120.0   16.666666666666668
400.0   150.0   16.666666666666668
400.0   120.0   0.0
350.0   150.0   0.0
350.0   120.0   16.666666666666668
400.0   120.0   16.666666666666668
350.0   150.0   16.666666666666668
350.0   120.0   33.333333333333336
400.0   120.0   16.666666666666668
400.0   150.0   16.666666666666668
350.0   150.0   16.666666666666668
400.0   150.0   33.333333333333336
350.0   120.0   33.333333333333336
350.0   150.0   33.333333333333336
400.0   150.0   33.333333333333336
350.0   150.0   16.666666666666668
350.0   120.0   33.333333333333336
400.0   150.0   33.333333333333336
400.0   120.0   33.333333333333336
400.0   120.0   16.666666666666668
350.0   120.0   33.333333333333336
400.0   150.0   33.333333333333336
400.0   120.0   16.666666666666668
350.0   150.0   16.666666666666668
350.0   120.0   33.333333333333336
400.0   120.0   33.333333333333336
350.0   150.0   33.333333333333336
350.0   120.0   50.0
400.0   120.0   33.333333333333336
400.0   150.0   33.333333333333336
350.0   150.0   33.333333333333336
400.0   150.0   50.0
350.0   120.0   50.0
350.0   150.0   50.0
400.0   150.0   50.0
350.0   150.0   33.333333333333336
350.0   120.0   50.0
400.0   150.0   50.0
400.0   120.0   50.0
400.0   120.0   33.333333333333336
350.0   120.0   50.0
400.0   150.0   50.0
400.0   120.0   33.333333333333336
350.0   150.0   33.333333333333336
400.0   0.0   0.0
450.0   0.0   0.0
400.0   30.0   0.0
400.0   0.0   16.666666666666668
450.0   0.0   0.0
450.0   30.0   0.0
400.0   30.0   0.0
450.0   30.0   16.666666666666668
400.0   0.0   16.666666666666668
400.0   30.0   16.666666666666668
450.0   30.0   16.666666666666668
400.0   30.0   0.0
400.0   0.0   16.666666666666668
450.0   30.0   16.666666666666668
450.0   0.0   16.666666666666668
450.0   0.0   0.0
400.0   0.0   16.666666666666668
450.0   30.0   16.666666666666668
450.0   0.0   0.0
400.0   30.0   0.0
400.0   0.0   16.666666666666668
450.0   0.0   16.666666666666668
400.0   30.0   16.666666666666668
400.0   0.0   33.333333333333336
450.0   0.0   16.666666666666668
450.0   30.0   16.666666666666668
400.0   30.0   16.666666666666668
450.0   30.0   33.333333333333336
400.0   0.0   33.333333333333336
400.0   30.0   33.333333333333336
450.0   30.0   33.333333333333336
400.0   30.0   16.666666666666668
400.0   0.0   33.333333333333336
450.0   30.0   33.333333333333336
450.0   0.0   33.333333333333336
450.0   0.0   16.666666666666668
400.0   0.0   33.333333333333336
450.0   30.0   33.333333333333336
450.0   0.0   16.666666666666668
400.0   30.0   16.666666666666668
400.0   0.0   33.333333333333336
450.0   0.0   33.333333333333336
400.0   30.0   33.333333333333336
400.0   0.0   50.0
450.0   0.0   33.333333333333336
450.0   30.0   33.333333333333336
400.0   30.0   33.333333333333336
450.0   30.0   50.0
400.0   0.0   50.0
400.0   30.0   50.0
450.0   30.0   50.0
400.0   30.0   33.333333333333336
400.0   0.0   50.0
450.0   30.0   50.0
450.0   0.0   50.0
450.0   0.0   33.333333333333336
400.0   0.0   50.0
450.0   30.0   50.0
450.0   0.0   33.333333333333336
400.0   30.0   33.333333333333336
400.0   30.0   0.0
450.0   30.0   0.0
400.0   60.0   0.0
400.0   30.0   16.666666666666668
450.0   30.0   0.0
450.0   60.0   0.0
400.0   60.0   0.0
450.0   60.0   16.666666666666668
400.0   30.0   16.666666666666668
400.0   60.0   16.666666666666668
450.0   60.0   16.666666666666668
400.0   60.0   0.0
400.0   30.0   16.666666666666668
450.0   60.0   16.666666666666668
450.0   30.0   16.666666666666668
450.0   30.0   0.0
400.0   30.0   16.666666666666668
450.0   60.0   16.666666666666668
450.0   30.0   0.0
400.0   60.0   0.0
400.0   30.0   16.666666666666668
450.0   30.0   16.666666666666668
400.0   60.0   16.666666666666668
400.0   30.0   33.333333333333336
450.0   30.0   16.666666666666668
450.0   60.0   16.666666666666668
400.0   60.0   16.666666666666668
450.0   60.0   33.333333333333336
400.0   30.0   33.333333333333336
400.0   60.0   33.333333333333336
450.0   60.0   33.333333333333336
400.0   60.0   16.666666666666668
400.0   30.0   33.333333333333336
450.0   60.0   33.333333333333336
450.0   30.0   33.333333333333336
450.0   30.0   16.666666666666668
400.0   30.0   33.333333333333336
450.0   60.0   33.333333333333336
450.0   30.0   16.666666666666668
400.0   60.0   16.666666666666668
400.0   30.0   33.333333333333336
450.0   30.0   33.333333333333336
400.0   60.0   33.333333333333336
400.0   30.0   50.0
450.0   30.0   33.333333333333336
450.0   60.0   33.333333333333336
400.0   60.0   33.333333333333336
450.0   60.0   50.0
400.0   30.0   50.0
400.0   60.0   50.0
450.0   60.0   50.0
400.0   60.0   33.333333333333336
400.0   30.0   50.0
450.0   60.0   50.0
450.0   30.0   50.0
450.0   30.0   33.333333333333336
400.0   30.0   50.0
450.0   60.0   50.0
450.0   30.0   33.333333333333336
400.0   60.0   33.333333333333336
400.0   60.0   0.0
450.0   60.0   0.0
400.0   90.0   0.0
400.0   60.0   16.666666666666668
450.0   60.0   0.0
450.0   90.0   0.0
400.0   90.0   0.0
450.0   90.0   16.666666666666668
400.0   60.0   16.666666666666668
400.0   90.0   16.666666666666668
450.0   90.0   16.666666666666668
400.0   90.0   0.0
400.0   60.0   16.666666666666668
450.0   90.0   16.666666666666668
450.0   60.0   16.666666666666668
450.0   60.0   0.0
400.0   60.0   16.666666666666668
450.0   90.0   16.666666666666668
450.0   60.0   0.0
400.0   90.0   0.0
400.0   60.0   16.666666666666668
450.0   60.0   16.666666666666668
400.0   90.0   16.666666666666668
400.0   60.0   33.333333333333336
450.0   60.0   16.666666666666668
450.0   90.0   16.666666666666668
400.0   90.0   16.666666666666668
450.0   90.0   33.333333333333336
400.0   60.0   33.333333333333336
400.0   90.0   33.333333333333336
450.0   90.0   33.333333333333336
400.0   90.0   16.666666666666668
400.0   60.0   33.333333333333336
450.0   90.0   33.333333333333336
450.0   60.0   33.333333333333336
450.0   60.0   16.666666666666668
400.0   60.0   33.333333333333336
450.0   90.0   33.333333333333336
450.0   60.0   16.666666666666668
400.0   90.0   16.666666666666668
400.0   60.0   33.333333333333336
450.0   60.0   33.333333333333336
400.0   90.0   33.333333333333336
400.0   60.0   50.0
450.0   60.0   33.333333333333336
450.0   90.0   33.333333333333336
400.0   90.0   33.333333333333336
450.0   90.0   50.0
400.0   60.0   50.0
400.0   90.0   50.0
450.0   90.0   50.0
400.0   90.0   33.333333333333336
400.0   60.0   50.0
450.0   90.0   50.0
450.0   60.0   50.0
450.0   60.0   33.333333333333336
400.0   60.0   50.0
450.0   90.0   50.0
450.0   60.0   33.333333333333336
400.0   90.0   33.333333333333336
400.0   90.0   0.0
450.0   90.0   0.0
400.0   120.0   0.0
400.0   90.0   16.666666666666668
450.0   90.0   0.0
450.0   120.0   0.0
400.0   120.0   0.0
450.0   120.0   16.666666666666668
400.0   90.0   16.666666666666668
400.0   120.0   16.666666666666668
450.0   120.0   16.666666666666668
400.0   120.0   0.0
400.0   90.0   16.666666666666668
450.0   120.0   16.666666666666668
450.0   90.0   16.666666666666668
450.0   90.0   0.0
400.0   90.0   16.666666666666668
450.0   120.0   16.666666666666668
450.0   90.0   0.0
400.0   120.0   0.0
400.0   90.0   16.666666666666668
450.0   90.0   16.666666666666668
400.0   120.0   16.666666666666668
400.0   90.0   33.333333333333336
450.0   90.0   16.666666666666668
450.0   120.0   16.666666666666668
400.0   120.0   16.666666666666668
450.0   120.0   33.333333333333336
400.0   90.0   33.333333333333336
400.0   120.0   33.333333333333336
450.0   120.0   33.333333333333336
400.0   120.0   16.666666666666668
400.0   90.0   33.333333333333336
450.0   120.0   33.333333333333336
450.0   90.0   33.333333333333336
450.0   90.0   16.666666666666668
400.0   90.0   33.333333333333336
450.0   120.0   33.333333333333336
450.0   90.0   16.666666666666668
400.0   120.0   16.666666666666668
400.0   90.0   33.333333333333336
450.0   90.0   33.333333333333336
400.0   120.0   33.333333333333336
400.0   90.0   50.0
450.0   90.0   33.333333333333336
450.0   120.0   33.333333333333336
400.0   120.0   33.333333333333336
450.0   120.0   50.0
400.0   90.0   50.0
400.0   120.0   50.0
450.0   120.0   50.0
400.0   120.0   33.333333333333336
400.0   90.0   50.0
450.0   120.0   50.0
450.0   90.0   50.0
450.0   90.0   33.333333333333336
400.0   90.0   50.0
450.0   120.0   50.0
450.0   90.0   33.333333333333336
400.0   120.0   33.333333333333336
400.0   120.0   0.0
450.0   120.0   0.0
400.0   150.0   0.0
400.0   120.0   16.666666666666668
450.0   120.0   0.0
450.0   150.0   0.0
400.0   150.0   0.0
450.0   150.0   16.666666666666668
400.0   120.0   16.666666666666668
400.0   150.0   16.666666666666668
450.0   150.0   16.666666666666668
400.0   150.0   0.0
400.0   120.0   16.666666666666668
450.0   150.0   16.666666666666668
450.0   120.0   16.666666666666668
450.0   120.0   0.0
400.0   120.0   16.666666666666668
450.0   150.0   16.666666666666668
450.0   120.0   0.0
400.0   150.0   0.0
400.0   120.0   16.666666666666668
450.0   120.0   16.666666666666668
400.0   150.0   16.666666666666668
400.0   120.0   33.333333333333336
450.0   120.0   16.666666666666668
450.0   150.0   16.666666666666668
400.0   150.0   16.666666666666668
450.0   150.0   33.333333333333336
400.0   120.0   33.333333333333336
400.0   150.0   33.333333333333336
450.0   150.0   33.333333333333336
400.0   150.0   16.666666666666668
400.0   120.0   33.333333333333336
450.0   150.0   33.333333333333336
450.0   120.0   33.333333333333336
450.0   120.0   16.666666666666668
400.0   120.0   33.333333333333336
450.0   150.0   33.333333333333336
450.0   120.0   16.666666666666668
400.0   150.0   16.666666666666668
400.0   120.0   33.333333333333336
450.0   120.0   33.333333333333336
400.0   150.0   33.333333333333336
400.0   120.0   50.0
450.0   120.0   33.333333333333336
450.0   150.0   33.333333333333336
400.0   150.0   33.333333333333336
450.0   150.0   50.0
400.0   120.0   50.0
400.0   150.0   50.0
450.0   150.0   50.0
400.0   150.0   33.333333333333336
400.0   120.0   50.0
450.0   150.0   50.0
450.0   120.0   50.0
450.0   120.0   33.333333333333336
400.0   120.0   50.0
450.0   150.0   50.0
450.0   120.0   33.333333333333336
400.0   150.0   33.333333333333336
450.0   0.0   0.0
500.0   0.0   0.0
450.0   30.0   0.0
450.0   0.0   16.666666666666668
500.0   0.0   0.0
500.0   30.0   0.0
450.0   30.0   0.0
500.0   30.0   16.666666666666668
450.0   0.0   16.666666666666668
450.0   30.0   16.666666666666668
500.0   30.0   16.666666666666668
450.0   30.0   0.0
450.0   0.0   16.666666666666668
500.0   30.0   16.666666666666668
500.0   0.0   16.666666666666668
500.0   0.0   0.0
450.0   0.0   16.666666666666668
500.0   30.0   16.666666666666668
500.0   0.0   0.0
450.0   30.0   0.0
450.0   0.0   16.666666666666668
500.0   0.0   16.666666666666668
450.0   30.0   16.666666666666668
450.0   0.0   33.333333333333336
500.0   0.0   16.666666666666668
500.0   30.0   16.666666666666668
450.0   30.0   16.666666666666668
500.0   30.0   33.333333333333336
450.0   0.0   33.333333333333336
450.0   30.0   33.333333333333336
500.0   30.0   33.333333333333336
450.0   30.0   16.666666666666668
450.0   0.0   33.333333333333336
500.0   30.0   33.333333333333336
500.0   0.0   33.333333333333336
500.0   0.0   16.666666666666668
450.0   0.0   33.333333333333336
500.0   30.0   33.333333333333336
500.0   0.0   16.666666666666668
450.0   30.0   16.666666666666668
450.0   0.0   33.333333333333336
500.0   0.0   33.333333333333336
450.0   30.0   33.333333333333336
450.0   0.0   50.0
500.0   0.0   33.333333333333336
500.0   30.0   33.333333333333336
450.0   30.0   33.333333333333336
500.0   30.0   50.0
450.0   0.0   50.0
450.0   30.0   50.0
500.0   30.0   50.0
450.0   30.0   33.333333333333336
450.0   0.0   50.0
500.0   30.0   50.0
500.0   0.0   50.0
500.0   0.0   33.333333333333336
450.0   0.0   50.0
500.0   30.0   50.0
500.0   0.0   33.333333333333336
450.0   30.0   33.333333333333336
450.0   30.0   0.0
500.0   30.0   0.0
450.0   60.0   0.0
450.0   30.0   16.666666666666668
500.0   30.0   0.0
500.0   60.0   0.0
450.0   60.0   0.0
500.0   60.0   16.666666666666668
450.0   30.0   16.666666666666668
450.0   60.0   16.666666666666668
500.0   60.0   16.666666666666668
450.0   60.0   0.0
450.0   30.0   16.666666666666668
500.0   60.0   16.666666666666668
500.0   30.0   16.666666666666668
500.0   30.0   0.0
450.0   30.0   16.666666666666668
500.0   60.0   16.666666666666668
500.0   30.0   0.0
450.0   60.0   0.0
450.0   30.0   16.666666666666668
500.0   30.0   16.666666666666668
450.0   60.0   16.666666666666668
450.0   30.0   33.333333333333336
500.0   30.0   16.666666666666668
500.0   60.0   16.666666666666668
450.0   60.0   16.666666666666668
500.0   60.0   33.333333333333336
450.0   30.0   33.333333333333336
450.0   60.0   33.333333333333336
500.0   60.0   33.333333333333336
450.0   60.0   16.666666666666668
450.0   30.0   33.333333333333336
500.0   60.0   33.333333333333336
500.0   30.0   33.333333333333336
500.0   30.0   16.666666666666668
450.0   30.0   33.333333333333336
500.0   60.0   33.333333333333336
500.0   30.0   16.666666666666668
450.0   60.0   16.666666666666668
450.0   30.0   33.333333333333336
500.0   30.0   33.333333333333336
450.0   60.0   33.333333333333336
450.0   30.0   50.0
500.0   30.0   33.333333333333336
500.0   60.0   33.333333333333336
450.0   60.0   33.333333333333336
500.0   60.0   50.0
450.0   30.0   50.0
450.0   60.0   50.0
500.0   60.0   50.0
450.0   60.0   33.333333333333336
450.0   30.0   50.0
500.0   60.0   50.0
500.0   30.0   50.0
500.0   30.0   33.333333333333336
450.0   30.0   50.0
500.0   60.0   50.0
500.0   30.0   33.333333333333336
450.0   60.0   33.333333333333336
450.0   60.0   0.0
500.0   60.0   0.0
450.0   90.0   0.0
450.0   60.0   16.666666666666668
500.0   60.0   0.0
500.0   90.0   0.0
450.0   90.0   0.0
500.0   90.0   16.666666666666668
450.0   60.0   16.666666666666668
450.0   90.0   16.666666666666668
500.0   90.0   16.666666666666668
450.0   90.0   0.0
450.0   60.0   16.666666666666668
500.0   90.0   16.666666666666668
500.0   60.0   16.666666666666668
500.0   60.0   0.0
450.0   60.0   16.666666666666668
500.0   90.0   16.666666666666668
500.0   60.0   0.0
450.0   90.0   0.0
450.0   60.0   16.666666666666668
500.0   60.0   16.666666666666668
450.0   90.0   16.666666666666668
450.0   60.0   33.333333333333336
500.0   60.0   16.666666666666668
500.0   90.0   16.666666666666668
450.0   90.0   16.666666666666668
500.0   90.0   33.333333333333336
450.0   60.0   33.333333333333336
450.0   90.0   33.333333333333336
500.0   90.0   33.333333333333336
450.0   90.0   16.666666666666668
450.0   60.0   33.333333333333336
500.0   90.0   33.333333333333336
500.0   60.0   33.333333333333336
500.0   60.0   16.666666666666668
450.0   60.0   33.333333333333336
500.0   90.0   33.333333333333336
500.0   60.0   16.666666666666668
450.0   90.0   16.666666666666668
450.0   60.0   33.333333333333336
500.0   60.0   33.333333333333336
450.0   90.0   33.333333333333336
450.0   60.0   50.0
500.0   60.0   33.333333333333336
500.0   90.0   33.333333333333336
450.0   90.0   33.333333333333336
500.0   90.0   50.0
450.0   60.0   50.0
450.0   90.0   50.0
500.0   90.0   50.0
450.0   90.0   33.333333333333336
450.0   60.0   50.0
500.0   90.0   50.0
500.0   60.0   50.0
500.0   60.0   33.333333333333336
450.0   60.0   50.0
500.0   90.0   50.0
500.0   60.0   33.333333333333336
450.0   90.0   33.333333333333336
450.0   90.0   0.0
500.0   90.0   0.0
450.0   120.0   0.0
450.0   90.0   16.666666666666668
500.0   90.0   0.0
500.0   120.0   0.0
450.0   120.0   0.0
500.0   120.0   16.666666666666668
450.0   90.0   16.666666666666668
450.0   120.0   16.666666666666668
500.0   120.0   16.666666666666668
450.0   120.0   0.0
450.0   90.0   16.666666666666668
500.0   120.0   16.666666666666668
500.0   90.0   16.666666666666668
500.0   90.0   0.0
450.0   90.0   16.666666666666668
500.0   120.0   16.666666666666668
500.0   90.0   0.0
450.0   120.0   0.0
450.0   90.0   16.666666666666668
500.0   90.0   16.666666666666668
450.0   120.0   16.666666666666668
450.0   90.0   33.333333333333336
500.0   90.0   16.666666666666668
500.0   120.0   16.666666666666668
450.0   120.0   16.666666666666668
500.0   120.0   33.333333333333336
450.0   90.0   33.333333333333336
450.0   120.0   33.333333333333336
500.0   120.0   33.333333333333336
450.0   120.0   16.666666666666668
450.0   90.0   33.333333333333336
500.0   120.0   33.333333333333336
500.0   90.0   33.333333333333336
500.0   90.0   16.666666666666668
450.0   90.0   33.333333333333336
500.0   120.0   33.333333333333336
500.0   90.0   16.666666666666668
450.0   120.0   16.666666666666668
450.0   90.0   33.333333333333336
500.0   90.0   33.333333333333336
450.0   120.0   33.333333333333336
450.0   90.0   50.0
500.0   90.0   33.333333333333336
500.0   120.0   33.333333333333336
450.0   120.0   33.333333333333336
500.0   120.0   50.0
450.0   90.0   50.0
450.0   120.0   50.0
500.0   120.0   50.0
450.0   120.0   33.333333333333336
450.0   90.0   50.0
500.0   120.0   50.0
500.0   90.0   50.0
500.0   90.0   33.333333333333336
450.0   90.0   50.0
500.0   120.0   50.0
500.0   90.0   33.333333333333336
450.0   120.0   33.333333333333336
450.0   120.0   0.0
500.0   120.0   0.0
450.0   150.0   0.0
450.0   120.0   16.666666666666668
500.0   120.0   0.0
500.0   150.0   0.0
450.0   150.0   0.0
500.0   150.0   16.666666666666668
450.0   120.0   16.666666666666668
450.0   150.0   16.666666666666668
500.0   150.0   16.666666666666668
450.0   150.0   0.0
450.0   120.0   16.666666666666668
500.0   150.0   16.666666666666668
500.0   120.0   16.666666666666668
500.0   120.0   0.0
450.0   120.0   16.666666666666668
500.0   150.0   16.666666666666668
500.0   120.0   0.0
450.0   150.0   0.0
450.0   120.0   16.666666666666668
500.0   120.0   16.666666666666668
450.0   150.0   16.666666666666668
450.0   120.0   33.333333333333336
500.0   120.0   16.666666666666668
500.0   150.0   16.666666666666668
450.0   150.0   16.666666666666668
500.0   150.0   33.333333333333336
450.0   120.0   33.333333333333336
450.0   150.0   33.333333333333336
500.0   150.0   33.333333333333336
450.0   150.0   16.666666666666668
450.0   120.0   33.333333333333336
500.0   150.0   33.333333333333336
500.0   120.0   33.333333333333336
500.0   120.0   16.666666666666668
450.0   120.0   33.333333333333336
500.0   150.0   33.333333333333336
500.0   120.0   16.666666666666668
450.0   150.0   16.666666666666668
450.0   120.0   33.333333333333336
500.0   120.0   33.333333333333336
450.0   150.0   33.333333333333336
450.0   120.0   50.0
500.0   120.0   33.333333333333336
500.0   150.0   33.333333333333336
450.0   150.0   33.333333333333336
500.0   150.0   50.0
450.0   120.0   50.0
450.0   150.0   50.0
500.0   150.0   50.0
450.0   150.0   33.333333333333336
450.0   120.0   50.0
500.0   150.0   50.0
500.0   120.0   50.0
500.0   120.0   33.333333333333336
450.0   120.0   50.0
500.0   150.0   50.0
500.0   120.0   33.333333333333336
450.0   150.0   33.333333333333336
             </DataArray>   
          </Points>  
          <Cells>  
             <DataArray type="Int32" Name="connectivity" format="ascii">   
0   1   2   3
4   5   6   7
8   9   10   11
12   13   14   15
16   17   18   19
20   21   22   23
24   25   26   27
28   29   30   31
32   33   34   35
36   37   38   39
40   41   42   43
44   45   46   47
48   49   50   51
52   53   54   55
56   57   58   59
60   61   62   63
64   65   66   67
68   69   70   71
72   73   74   75
76   77   78   79
80   81   82   83
84   85   86   87
88   89   90   91
92   93   94   95
96   97   98   99
100   101   102   103
104   105   106   107
108   109   110   111
112   113   114   115
116   117   118   119
120   121   122   123
124   125   126   127
128   129   130   131
132   133   134   135
136   137   138   139
140   141   142   143
144   145   146   147
148   149   150   151
152   153   154   155
156   157   158   159
160   161   162   163
164   165   166   167
168   169   170   171
172   173   174   175
176   177   178   179
180   181   182   183
184   185   186   187
188   189   190   191
192   193   194   195
196   197   198   199
200   201   202   203
204   205   206   207
208   209   210   211
212   213   214   215
216   217   218   219
220   221   222   223
224   225   226   227
228   229   230   231
232   233   234   235
236   237   238   239
240   241   242   243
244   245   246   247
248   249   250   251
252   253   254   255
256   257   258   259
260   261   262   263
264   265   266   267
268   269   270   271
272   273   274   275
276   277   278   279
280   281   282   283
284   285   286   287
288   289   290   291
292   293   294   295
296   297   298   299
300   301   302   303
304   305   306   307
308   309   310   311
312   313   314   315
316   317   318   319
320   321   322   323
324   325   326   327
328   329   330   331
332   333   334   335
336   337   338   339
340   341   342   343
344   345   346   347
348   349   350   351
352   353   354   355
356   357   358   359
360   361   362   363
364   365   366   367
368   369   370   371
372   373   374   375
376   377   378   379
380   381   382   383
384   385   386   387
388   389   390   391
392   393   394   395
396   397   398   399
400   401   402   403
404   405   406   407
408   409   410   411
412   413   414   415
416   417   418   419
420   421   422   423
424   425   426   427
428   429   430   431
432   433   434   435
436   437   438   439
440   441   442   443
444   445   446   447
448   449   450   451
452   453   454   455
456   457   458   459
460   461   462   463
464   465   466   467
468   469   470   471
472   473   474   475
476   477   478   479
480   481   482   483
484   485   486   487
488   489   490   491
492   493   494   495
496   497   498   499
500   501   502   503
504   505   506   507
508   509   510   511
512   513   514   515
516   517   518   519
520   521   522   523
524   525   526   527
528   529   530   531
532   533   534   535
536   537   538   539
540   541   542   543
544   545   546   547
548   549   550   551
552   553   554   555
556   557   558   559
560   561   562   563
564   565   566   567
568   569   570   571
572   573   574   575
576   577   578   579
580   581   582   583
584   585   586   587
588   589   590   591
592   593   594   595
596   597   598   599
600   601   602   603
604   605   606   607
608   609   610   611
612   613   614   615
616   617   618   619
620   621   622   623
624   625   626   627
628   629   630   631
632   633   634   635
636   637   638   639
640   641   642   643
644   645   646   647
648   649   650   651
652   653   654   655
656   657   658   659
660   661   662   663
664   665   666   667
668   669   670   671
672   673   674   675
676   677   678   679
680   681   682   683
684   685   686   687
688   689   690   691
692   693   694   695
696   697   698   699
700   701   702   703
704   705   706   707
708   709   710   711
712   713   714   715
716   717   718   719
720   721   722   723
724   725   726   727
728   729   730   731
732   733   734   735
736   737   738   739
740   741   742   743
744   745   746   747
748   749   750   751
752   753   754   755
756   757   758   759
760   761   762   763
764   765   766   767
768   769   770   771
772   773   774   775
776   777   778   779
780   781   782   783
784   785   786   787
788   789   790   791
792   793   794   795
796   797   798   799
800   801   802   803
804   805   806   807
808   809   810   811
812   813   814   815
816   817   818   819
820   821   822   823
824   825   826   827
828   829   830   831
832   833   834   835
836   837   838   839
840   841   842   843
844   845   846   847
848   849   850   851
852   853   854   855
856   857   858   859
860   861   862   863
864   865   866   867
868   869   870   871
872   873   874   875
876   877   878   879
880   881   882   883
884   885   886   887
888   889   890   891
892   893   894   895
896   897   898   899
900   901   902   903
904   905   906   907
908   909   910   911
912   913   914   915
916   917   918   919
920   921   922   923
924   925   926   927
928   929   930   931
932   933   934   935
936   937   938   939
940   941   942   943
944   945   946   947
948   949   950   951
952   953   954   955
956   957   958   959
960   961   962   963
964   965   966   967
968   969   970   971
972   973   974   975
976   977   978   979
980   981   982   983
984   985   986   987
988   989   990   991
992   993   994   995
996   997   998   999
1000   1001   1002   1003
1004   1005   1006   1007
1008   1009   1010   1011
1012   1013   1014   1015
1016   1017   1018   1019
1020   1021   1022   1023
1024   1025   1026   1027
1028   1029   1030   1031
1032   1033   1034   1035
1036   1037   1038   1039
1040   1041   1042   1043
1044   1045   1046   1047
1048   1049   1050   1051
1052   1053   1054   1055
1056   1057   1058   1059
1060   1061   1062   1063
1064   1065   1066   1067
1068   1069   1070   1071
1072   1073   1074   1075
1076   1077   1078   1079
1080   1081   1082   1083
1084   1085   1086   1087
1088   1089   1090   1091
1092   1093   1094   1095
1096   1097   1098   1099
1100   1101   1102   1103
1104   1105   1106   1107
1108   1109   1110   1111
1112   1113   1114   1115
1116   1117   1118   1119
1120   1121   1122   1123
1124   1125   1126   1127
1128   1129   1130   1131
1132   1133   1134   1135
1136   1137   1138   1139
1140   1141   1142   1143
1144   1145   1146   1147
1148   1149   1150   1151
1152   1153   1154   1155
1156   1157   1158   1159
1160   1161   1162   1163
1164   1165   1166   1167
1168   1169   1170   1171
1172   1173   1174   1175
1176   1177   1178   1179
1180   1181   1182   1183
1184   1185   1186   1187
1188   1189   1190   1191
1192   1193   1194   1195
1196   1197   1198   1199
1200   1201   1202   1203
1204   1205   1206   1207
1208   1209   1210   1211
1212   1213   1214   1215
1216   1217   1218   1219
1220   1221   1222   1223
1224   1225   1226   1227
1228   1229   1230   1231
1232   1233   1234   1235
1236   1237   1238   1239
1240   1241   1242   1243
1244   1245   1246   1247
1248   1249   1250   1251
1252   1253   1254   1255
1256   1257   1258   1259
1260   1261   1262   1263
1264   1265   1266   1267
1268   1269   1270   1271
1272   1273   1274   1275
1276   1277   1278   1279
1280   1281   1282   1283
1284   1285   1286   1287
1288   1289   1290   1291
1292   1293   1294   1295
1296   1297   1298   1299
1300   1301   1302   1303
1304   1305   1306   1307
1308   1309   1310   1311
1312   1313   1314   1315
1316   1317   1318   1319
1320   1321   1322   1323
1324   1325   1326   1327
1328   1329   1330   1331
1332   1333   1334   1335
1336   1337   1338   1339
1340   1341   1342   1343
1344   1345   1346   1347
1348   1349   1350   1351
1352   1353   1354   1355
1356   1357   1358   1359
1360   1361   1362   1363
1364   1365   1366   1367
1368   1369   1370   1371
1372   1373   1374   1375
1376   1377   1378   1379
1380   1381   1382   1383
1384   1385   1386   1387
1388   1389   1390   1391
1392   1393   1394   1395
1396   1397   1398   1399
1400   1401   1402   1403
1404   1405   1406   1407
1408   1409   1410   1411
1412   1413   1414   1415
1416   1417   1418   1419
1420   1421   1422   1423
1424   1425   1426   1427
1428   1429   1430   1431
1432   1433   1434   1435
1436   1437   1438   1439
1440   1441   1442   1443
1444   1445   1446   1447
1448   1449   1450   1451
1452   1453   1454   1455
1456   1457   1458   1459
1460   1461   1462   1463
1464   1465   1466   1467
1468   1469   1470   1471
1472   1473   1474   1475
1476   1477   1478   1479
1480   1481   1482   1483
1484   1485   1486   1487
1488   1489   1490   1491
1492   1493   1494   1495
1496   1497   1498   1499
1500   1501   1502   1503
1504   1505   1506   1507
1508   1509   1510   1511
1512   1513   1514   1515
1516   1517   1518   1519
1520   1521   1522   1523
1524   1525   1526   1527
1528   1529   1530   1531
1532   1533   1534   1535
1536   1537   1538   1539
1540   1541   1542   1543
1544   1545   1546   1547
1548   1549   1550   1551
1552   1553   1554   1555
1556   1557   1558   1559
1560   1561   1562   1563
1564   1565   1566   1567
1568   1569   1570   1571
1572   1573   1574   1575
1576   1577   1578   1579
1580   1581   1582   1583
1584   1585   1586   1587
1588   1589   1590   1591
1592   1593   1594   1595
1596   1597   1598   1599
1600   1601   1602   1603
1604   1605   1606   1607
1608   1609   1610   1611
1612   1613   1614   1615
1616   1617   1618   1619
1620   1621   1622   1623
1624   1625   1626   1627
1628   1629   1630   1631
1632   1633   1634   1635
1636   1637   1638   1639
1640   1641   1642   1643
1644   1645   1646   1647
1648   1649   1650   1651
1652   1653   1654   1655
1656   1657   1658   1659
1660   1661   1662   1663
1664   1665   1666   1667
1668   1669   1670   1671
1672   1673   1674   1675
1676   1677   1678   1679
1680   1681   1682   1683
1684   1685   1686   1687
1688   1689   1690   1691
1692   1693   1694   1695
1696   1697   1698   1699
1700   1701   1702   1703
1704   1705   1706   1707
1708   1709   1710   1711
1712   1713   1714   1715
1716   1717   1718   1719
1720   1721   1722   1723
1724   1725   1726   1727
1728   1729   1730   1731
1732   1733   1734   1735
1736   1737   1738   1739
1740   1741   1742   1743
1744   1745   1746   1747
1748   1749   1750   1751
1752   1753   1754   1755
1756   1757   1758   1759
1760   1761   1762   1763
1764   1765   1766   1767
1768   1769   1770   1771
1772   1773   1774   1775
1776   1777   1778   1779
1780   1781   1782   1783
1784   1785   1786   1787
1788   1789   1790   1791
1792   1793   1794   1795
1796   1797   1798   1799
1800   1801   1802   1803
1804   1805   1806   1807
1808   1809   1810   1811
1812   1813   1814   1815
1816   1817   1818   1819
1820   1821   1822   1823
1824   1825   1826   1827
1828   1829   1830   1831
1832   1833   1834   1835
1836   1837   1838   1839
1840   1841   1842   1843
1844   1845   1846   1847
1848   1849   1850   1851
1852   1853   1854   1855
1856   1857   1858   1859
1860   1861   1862   1863
1864   1865   1866   1867
1868   1869   1870   1871
1872   1873   1874   1875
1876   1877   1878   1879
1880   1881   1882   1883
1884   1885   1886   1887
1888   1889   1890   1891
1892   1893   1894   1895
1896   1897   1898   1899
1900   1901   1902   1903
1904   1905   1906   1907
1908   1909   1910   1911
1912   1913   1914   1915
1916   1917   1918   1919
1920   1921   1922   1923
1924   1925   1926   1927
1928   1929   1930   1931
1932   1933   1934   1935
1936   1937   1938   1939
1940   1941   1942   1943
1944   1945   1946   1947
1948   1949   1950   1951
1952   1953   1954   1955
1956   1957   1958   1959
1960   1961   1962   1963
1964   1965   1966   1967
1968   1969   1970   1971
1972   1973   1974   1975
1976   1977   1978   1979
1980   1981   1982   1983
1984   1985   1986   1987
1988   1989   1990   1991
1992   1993   1994   1995
1996   1997   1998   1999
2000   2001   2002   2003
2004   2005   2006   2007
2008   2009   2010   2011
2012   2013   2014   2015
2016   2017   2018   2019
2020   2021   2022   2023
2024   2025   2026   2027
2028   2029   2030   2031
2032   2033   2034   2035
2036   2037   2038   2039
2040   2041   2042   2043
2044   2045   2046   2047
2048   2049   2050   2051
2052   2053   2054   2055
2056   2057   2058   2059
2060   2061   2062   2063
2064   2065   2066   2067
2068   2069   2070   2071
2072   2073   2074   2075
2076   2077   2078   2079
2080   2081   2082   2083
2084   2085   2086   2087
2088   2089   2090   2091
2092   2093   2094   2095
2096   2097   2098   2099
2100   2101   2102   2103
2104   2105   2106   2107
2108   2109   2110   2111
2112   2113   2114   2115
2116   2117   2118   2119
2120   2121   2122   2123
2124   2125   2126   2127
2128   2129   2130   2131
2132   2133   2134   2135
2136   2137   2138   2139
2140   2141   2142   2143
2144   2145   2146   2147
2148   2149   2150   2151
2152   2153   2154   2155
2156   2157   2158   2159
2160   2161   2162   2163
2164   2165   2166   2167
2168   2169   2170   2171
2172   2173   2174   2175
2176   2177   2178   2179
2180   2181   2182   2183
2184   2185   2186   2187
2188   2189   2190   2191
2192   2193   2194   2195
2196   2197   2198   2199
2200   2201   2202   2203
2204   2205   2206   2207
2208   2209   2210   2211
2212   2213   2214   2215
2216   2217   2218   2219
2220   2221   2222   2223
2224   2225   2226   2227
2228   2229   2230   2231
2232   2233   2234   2235
2236   2237   2238   2239
2240   2241   2242   2243
2244   2245   2246   2247
2248   2249   2250   2251
2252   2253   2254   2255
2256   2257   2258   2259
2260   2261   2262   2263
2264   2265   2266   2267
2268   2269   2270   2271
2272   2273   2274   2275
2276   2277   2278   2279
2280   2281   2282   2283
2284   2285   2286   2287
2288   2289   2290   2291
2292   2293   2294   2295
2296   2297   2298   2299
2300   2301   2302   2303
2304   2305   2306   2307
2308   2309   2310   2311
2312   2313   2314   2315
2316   2317   2318   2319
2320   2321   2322   2323
2324   2325   2326   2327
2328   2329   2330   2331
2332   2333   2334   2335
2336   2337   2338   2339
2340   2341   2342   2343
2344   2345   2346   2347
2348   2349   2350   2351
2352   2353   2354   2355
2356   2357   2358   2359
2360   2361   2362   2363
2364   2365   2366   2367
2368   2369   2370   2371
2372   2373   2374   2375
2376   2377   2378   2379
2380   2381   2382   2383
2384   2385   2386   2387
2388   2389   2390   2391
2392   2393   2394   2395
2396   2397   2398   2399
2400   2401   2402   2403
2404   2405   2406   2407
2408   2409   2410   2411
2412   2413   2414   2415
2416   2417   2418   2419
2420   2421   2422   2423
2424   2425   2426   2427
2428   2429   2430   2431
2432   2433   2434   2435
2436   2437   2438   2439
2440   2441   2442   2443
2444   2445   2446   2447
2448   2449   2450   2451
2452   2453   2454   2455
2456   2457   2458   2459
2460   2461   2462   2463
2464   2465   2466   2467
2468   2469   2470   2471
2472   2473   2474   2475
2476   2477   2478   2479
2480   2481   2482   2483
2484   2485   2486   2487
2488   2489   2490   2491
2492   2493   2494   2495
2496   2497   2498   2499
2500   2501   2502   2503
2504   2505   2506   2507
2508   2509   2510   2511
2512   2513   2514   2515
2516   2517   2518   2519
2520   2521   2522   2523
2524   2525   2526   2527
2528   2529   2530   2531
2532   2533   2534   2535
2536   2537   2538   2539
2540   2541   2542   2543
2544   2545   2546   2547
2548   2549   2550   2551
2552   2553   2554   2555
2556   2557   2558   2559
2560   2561   2562   2563
2564   2565   2566   2567
2568   2569   2570   2571
2572   2573   2574   2575
2576   2577   2578   2579
2580   2581   2582   2583
2584   2585   2586   2587
2588   2589   2590   2591
2592   2593   2594   2595
2596   2597   2598   2599
2600   2601   2602   2603
2604   2605   2606   2607
2608   2609   2610   2611
2612   2613   2614   2615
2616   2617   2618   2619
2620   2621   2622   2623
2624   2625   2626   2627
2628   2629   2630   2631
2632   2633   2634   2635
2636   2637   2638   2639
2640   2641   2642   2643
2644   2645   2646   2647
2648   2649   2650   2651
2652   2653   2654   2655
2656   2657   2658   2659
2660   2661   2662   2663
2664   2665   2666   2667
2668   2669   2670   2671
2672   2673   2674   2675
2676   2677   2678   2679
2680   2681   2682   2683
2684   2685   2686   2687
2688   2689   2690   2691
2692   2693   2694   2695
2696   2697   2698   2699
2700   2701   2702   2703
2704   2705   2706   2707
2708   2709   2710   2711
2712   2713   2714   2715
2716   2717   2718   2719
2720   2721   2722   2723
2724   2725   2726   2727
2728   2729   2730   2731
2732   2733   2734   2735
2736   2737   2738   2739
2740   2741   2742   2743
2744   2745   2746   2747
2748   2749   2750   2751
2752   2753   2754   2755
2756   2757   2758   2759
2760   2761   2762   2763
2764   2765   2766   2767
2768   2769   2770   2771
2772   2773   2774   2775
2776   2777   2778   2779
2780   2781   2782   2783
2784   2785   2786   2787
2788   2789   2790   2791
2792   2793   2794   2795
2796   2797   2798   2799
2800   2801   2802   2803
2804   2805   2806   2807
2808   2809   2810   2811
2812   2813   2814   2815
2816   2817   2818   2819
2820   2821   2822   2823
2824   2825   2826   2827
2828   2829   2830   2831
2832   2833   2834   2835
2836   2837   2838   2839
2840   2841   2842   2843
2844   2845   2846   2847
2848   2849   2850   2851
2852   2853   2854   2855
2856   2857   2858   2859
2860   2861   2862   2863
2864   2865   2866   2867
2868   2869   2870   2871
2872   2873   2874   2875
2876   2877   2878   2879
2880   2881   2882   2883
2884   2885   2886   2887
2888   2889   2890   2891
2892   2893   2894   2895
2896   2897   2898   2899
2900   2901   2902   2903
2904   2905   2906   2907
2908   2909   2910   2911
2912   2913   2914   2915
2916   2917   2918   2919
2920   2921   2922   2923
2924   2925   2926   2927
2928   2929   2930   2931
2932   2933   2934   2935
2936   2937   2938   2939
2940   2941   2942   2943
2944   2945   2946   2947
2948   2949   2950   2951
2952   2953   2954   2955
2956   2957   2958   2959
2960   2961   2962   2963
2964   2965   2966   2967
2968   2969   2970   2971
2972   2973   2974   2975
2976   2977   2978   2979
2980   2981   2982   2983
2984   2985   2986   2987
2988   2989   2990   2991
2992   2993   2994   2995
2996   2997   2998   2999
3000   3001   3002   3003
3004   3005   3006   3007
3008   3009   3010   3011
3012   3013   3014   3015
3016   3017   3018   3019
3020   3021   3022   3023
3024   3025   3026   3027
3028   3029   3030   3031
3032   3033   3034   3035
3036   3037   3038   3039
3040   3041   3042   3043
3044   3045   3046   3047
3048   3049   3050   3051
3052   3053   3054   3055
3056   3057   3058   3059
3060   3061   3062   3063
3064   3065   3066   3067
3068   3069   3070   3071
3072   3073   3074   3075
3076   3077   3078   3079
3080   3081   3082   3083
3084   3085   3086   3087
3088   3089   3090   3091
3092   3093   3094   3095
3096   3097   3098   3099
3100   3101   3102   3103
3104   3105   3106   3107
3108   3109   3110   3111
3112   3113   3114   3115
3116   3117   3118   3119
3120   3121   3122   3123
3124   3125   3126   3127
3128   3129   3130   3131
3132   3133   3134   3135
3136   3137   3138   3139
3140   3141   3142   3143
3144   3145   3146   3147
3148   3149   3150   3151
3152   3153   3154   3155
3156   3157   3158   3159
3160   3161   3162   3163
3164   3165   3166   3167
3168   3169   3170   3171
3172   3173   3174   3175
3176   3177   3178   3179
3180   3181   3182   3183
3184   3185   3186   3187
3188   3189   3190   3191
3192   3193   3194   3195
3196   3197   3198   3199
3200   3201   3202   3203
3204   3205   3206   3207
3208   3209   3210   3211
3212   3213   3214   3215
3216   3217   3218   3219
3220   3221   3222   3223
3224   3225   3226   3227
3228   3229   3230   3231
3232   3233   3234   3235
3236   3237   3238   3239
3240   3241   3242   3243
3244   3245   3246   3247
3248   3249   3250   3251
3252   3253   3254   3255
3256   3257   3258   3259
3260   3261   3262   3263
3264   3265   3266   3267
3268   3269   3270   3271
3272   3273   3274   3275
3276   3277   3278   3279
3280   3281   3282   3283
3284   3285   3286   3287
3288   3289   3290   3291
3292   3293   3294   3295
3296   3297   3298   3299
3300   3301   3302   3303
3304   3305   3306   3307
3308   3309   3310   3311
3312   3313   3314   3315
3316   3317   3318   3319
3320   3321   3322   3323
3324   3325   3326   3327
3328   3329   3330   3331
3332   3333   3334   3335
3336   3337   3338   3339
3340   3341   3342   3343
3344   3345   3346   3347
3348   3349   3350   3351
3352   3353   3354   3355
3356   3357   3358   3359
3360   3361   3362   3363
3364   3365   3366   3367
3368   3369   3370   3371
3372   3373   3374   3375
3376   3377   3378   3379
3380   3381   3382   3383
3384   3385   3386   3387
3388   3389   3390   3391
3392   3393   3394   3395
3396   3397   3398   3399
3400   3401   3402   3403
3404   3405   3406   3407
3408   3409   3410   3411
3412   3413   3414   3415
3416   3417   3418   3419
3420   3421   3422   3423
3424   3425   3426   3427
3428   3429   3430   3431
3432   3433   3434   3435
3436   3437   3438   3439
3440   3441   3442   3443
3444   3445   3446   3447
3448   3449   3450   3451
3452   3453   3454   3455
3456   3457   3458   3459
3460   3461   3462   3463
3464   3465   3466   3467
3468   3469   3470   3471
3472   3473   3474   3475
3476   3477   3478   3479
3480   3481   3482   3483
3484   3485   3486   3487
3488   3489   3490   3491
3492   3493   3494   3495
3496   3497   3498   3499
3500   3501   3502   3503
3504   3505   3506   3507
3508   3509   3510   3511
3512   3513   3514   3515
3516   3517   3518   3519
3520   3521   3522   3523
3524   3525   3526   3527
3528   3529   3530   3531
3532   3533   3534   3535
3536   3537   3538   3539
3540   3541   3542   3543
3544   3545   3546   3547
3548   3549   3550   3551
3552   3553   3554   3555
3556   3557   3558   3559
3560   3561   3562   3563
3564   3565   3566   3567
3568   3569   3570   3571
3572   3573   3574   3575
3576   3577   3578   3579
3580   3581   3582   3583
3584   3585   3586   3587
3588   3589   3590   3591
3592   3593   3594   3595
3596   3597   3598   3599
3600   3601   3602   3603
3604   3605   3606   3607
3608   3609   3610   3611
3612   3613   3614   3615
3616   3617   3618   3619
3620   3621   3622   3623
3624   3625   3626   3627
3628   3629   3630   3631
3632   3633   3634   3635
3636   3637   3638   3639
3640   3641   3642   3643
3644   3645   3646   3647
3648   3649   3650   3651
3652   3653   3654   3655
3656   3657   3658   3659
3660   3661   3662   3663
3664   3665   3666   3667
3668   3669   3670   3671
3672   3673   3674   3675
3676   3677   3678   3679
3680   3681   3682   3683
3684   3685   3686   3687
3688   3689   3690   3691
3692   3693   3694   3695
3696   3697   3698   3699
3700   3701   3702   3703
3704   3705   3706   3707
3708   3709   3710   3711
3712   3713   3714   3715
3716   3717   3718   3719
3720   3721   3722   3723
3724   3725   3726   3727
3728   3729   3730   3731
3732   3733   3734   3735
3736   3737   3738   3739
3740   3741   3742   3743
3744   3745   3746   3747
3748   3749   3750   3751
3752   3753   3754   3755
3756   3757   3758   3759
3760   3761   3762   3763
3764   3765   3766   3767
3768   3769   3770   3771
3772   3773   3774   3775
3776   3777   3778   3779
3780   3781   3782   3783
3784   3785   3786   3787
3788   3789   3790   3791
3792   3793   3794   3795
3796   3797   3798   3799
3800   3801   3802   3803
3804   3805   3806   3807
3808   3809   3810   3811
3812   3813   3814   3815
3816   3817   3818   3819
3820   3821   3822   3823
3824   3825   3826   3827
3828   3829   3830   3831
3832   3833   3834   3835
3836   3837   3838   3839
3840   3841   3842   3843
3844   3845   3846   3847
3848   3849   3850   3851
3852   3853   3854   3855
3856   3857   3858   3859
3860   3861   3862   3863
3864   3865   3866   3867
3868   3869   3870   3871
3872   3873   3874   3875
3876   3877   3878   3879
3880   3881   3882   3883
3884   3885   3886   3887
3888   3889   3890   3891
3892   3893   3894   3895
3896   3897   3898   3899
3900   3901   3902   3903
3904   3905   3906   3907
3908   3909   3910   3911
3912   3913   3914   3915
3916   3917   3918   3919
3920   3921   3922   3923
3924   3925   3926   3927
3928   3929   3930   3931
3932   3933   3934   3935
3936   3937   3938   3939
3940   3941   3942   3943
3944   3945   3946   3947
3948   3949   3950   3951
3952   3953   3954   3955
3956   3957   3958   3959
3960   3961   3962   3963
3964   3965   3966   3967
3968   3969   3970   3971
3972   3973   3974   3975
3976   3977   3978   3979
3980   3981   3982   3983
3984   3985   3986   3987
3988   3989   3990   3991
3992   3993   3994   3995
3996   3997   3998   3999
4000   4001   4002   4003
4004   4005   4006   4007
4008   4009   4010   4011
4012   4013   4014   4015
4016   4017   4018   4019
4020   4021   4022   4023
4024   4025   4026   4027
4028   4029   4030   4031
4032   4033   4034   4035
4036   4037   4038   4039
4040   4041   4042   4043
4044   4045   4046   4047
4048   4049   4050   4051
4052   4053   4054   4055
4056   4057   4058   4059
4060   4061   4062   4063
4064   4065   4066   4067
4068   4069   4070   4071
4072   4073   4074   4075
4076   4077   4078   4079
4080   4081   4082   4083
4084   4085   4086   4087
4088   4089   4090   4091
4092   4093   4094   4095
4096   4097   4098   4099
4100   4101   4102   4103
4104   4105   4106   4107
4108   4109   4110   4111
4112   4113   4114   4115
4116   4117   4118   4119
4120   4121   4122   4123
4124   4125   4126   4127
4128   4129   4130   4131
4132   4133   4134   4135
4136   4137   4138   4139
4140   4141   4142   4143
4144   4145   4146   4147
4148   4149   4150   4151
4152   4153   4154   4155
4156   4157   4158   4159
4160   4161   4162   4163
4164   4165   4166   4167
4168   4169   4170   4171
4172   4173   4174   4175
4176   4177   4178   4179
4180   4181   4182   4183
4184   4185   4186   4187
4188   4189   4190   4191
4192   4193   4194   4195
4196   4197   4198   4199
4200   4201   4202   4203
4204   4205   4206   4207
4208   4209   4210   4211
4212   4213   4214   4215
4216   4217   4218   4219
4220   4221   4222   4223
4224   4225   4226   4227
4228   4229   4230   4231
4232   4233   4234   4235
4236   4237   4238   4239
4240   4241   4242   4243
4244   4245   4246   4247
4248   4249   4250   4251
4252   4253   4254   4255
4256   4257   4258   4259
4260   4261   4262   4263
4264   4265   4266   4267
4268   4269   4270   4271
4272   4273   4274   4275
4276   4277   4278   4279
4280   4281   4282   4283
4284   4285   4286   4287
4288   4289   4290   4291
4292   4293   4294   4295
4296   4297   4298   4299
4300   4301   4302   4303
4304   4305   4306   4307
4308   4309   4310   4311
4312   4313   4314   4315
4316   4317   4318   4319
4320   4321   4322   4323
4324   4325   4326   4327
4328   4329   4330   4331
4332   4333   4334   4335
4336   4337   4338   4339
4340   4341   4342   4343
4344   4345   4346   4347
4348   4349   4350   4351
4352   4353   4354   4355
4356   4357   4358   4359
4360   4361   4362   4363
4364   4365   4366   4367
4368   4369   4370   4371
4372   4373   4374   4375
4376   4377   4378   4379
4380   4381   4382   4383
4384   4385   4386   4387
4388   4389   4390   4391
4392   4393   4394   4395
4396   4397   4398   4399
4400   4401   4402   4403
4404   4405   4406   4407
4408   4409   4410   4411
4412   4413   4414   4415
4416   4417   4418   4419
4420   4421   4422   4423
4424   4425   4426   4427
4428   4429   4430   4431
4432   4433   4434   4435
4436   4437   4438   4439
4440   4441   4442   4443
4444   4445   4446   4447
4448   4449   4450   4451
4452   4453   4454   4455
4456   4457   4458   4459
4460   4461   4462   4463
4464   4465   4466   4467
4468   4469   4470   4471
4472   4473   4474   4475
4476   4477   4478   4479
4480   4481   4482   4483
4484   4485   4486   4487
4488   4489   4490   4491
4492   4493   4494   4495
4496   4497   4498   4499
4500   4501   4502   4503
4504   4505   4506   4507
4508   4509   4510   4511
4512   4513   4514   4515
4516   4517   4518   4519
4520   4521   4522   4523
4524   4525   4526   4527
4528   4529   4530   4531
4532   4533   4534   4535
4536   4537   4538   4539
4540   4541   4542   4543
4544   4545   4546   4547
4548   4549   4550   4551
4552   4553   4554   4555
4556   4557   4558   4559
4560   4561   4562   4563
4564   4565   4566   4567
4568   4569   4570   4571
4572   4573   4574   4575
4576   4577   4578   4579
4580   4581   4582   4583
4584   4585   4586   4587
4588   4589   4590   4591
4592   4593   4594   4595
4596   4597   4598   4599
4600   4601   4602   4603
4604   4605   4606   4607
4608   4609   4610   4611
4612   4613   4614   4615
4616   4617   4618   4619
4620   4621   4622   4623
4624   4625   4626   4627
4628   4629   4630   4631
4632   4633   4634   4635
4636   4637   4638   4639
4640   4641   4642   4643
4644   4645   4646   4647
4648   4649   4650   4651
4652   4653   4654   4655
4656   4657   4658   4659
4660   4661   4662   4663
4664   4665   4666   4667
4668   4669   4670   4671
4672   4673   4674   4675
4676   4677   4678   4679
4680   4681   4682   4683
4684   4685   4686   4687
4688   4689   4690   4691
4692   4693   4694   4695
4696   4697   4698   4699
4700   4701   4702   4703
4704   4705   4706   4707
4708   4709   4710   4711
4712   4713   4714   4715
4716   4717   4718   4719
4720   4721   4722   4723
4724   4725   4726   4727
4728   4729   4730   4731
4732   4733   4734   4735
4736   4737   4738   4739
4740   4741   4742   4743
4744   4745   4746   4747
4748   4749   4750   4751
4752   4753   4754   4755
4756   4757   4758   4759
4760   4761   4762   4763
4764   4765   4766   4767
4768   4769   4770   4771
4772   4773   4774   4775
4776   4777   4778   4779
4780   4781   4782   4783
4784   4785   4786   4787
4788   4789   4790   4791
4792   4793   4794   4795
4796   4797   4798   4799
4800   4801   4802   4803
4804   4805   4806   4807
4808   4809   4810   4811
4812   4813   4814   4815
4816   4817   4818   4819
4820   4821   4822   4823
4824   4825   4826   4827
4828   4829   4830   4831
4832   4833   4834   4835
4836   4837   4838   4839
4840   4841   4842   4843
4844   4845   4846   4847
4848   4849   4850   4851
4852   4853   4854   4855
4856   4857   4858   4859
4860   4861   4862   4863
4864   4865   4866   4867
4868   4869   4870   4871
4872   4873   4874   4875
4876   4877   4878   4879
4880   4881   4882   4883
4884   4885   4886   4887
4888   4889   4890   4891
4892   4893   4894   4895
4896   4897   4898   4899
4900   4901   4902   4903
4904   4905   4906   4907
4908   4909   4910   4911
4912   4913   4914   4915
4916   4917   4918   4919
4920   4921   4922   4923
4924   4925   4926   4927
4928   4929   4930   4931
4932   4933   4934   4935
4936   4937   4938   4939
4940   4941   4942   4943
4944   4945   4946   4947
4948   4949   4950   4951
4952   4953   4954   4955
4956   4957   4958   4959
4960   4961   4962   4963
4964   4965   4966   4967
4968   4969   4970   4971
4972   4973   4974   4975
4976   4977   4978   4979
4980   4981   4982   4983
4984   4985   4986   4987
4988   4989   4990   4991
4992   4993   4994   4995
4996   4997   4998   4999
5000   5001   5002   5003
5004   5005   5006   5007
5008   5009   5010   5011
5012   5013   5014   5015
5016   5017   5018   5019
5020   5021   5022   5023
5024   5025   5026   5027
5028   5029   5030   5031
5032   5033   5034   5035
5036   5037   5038   5039
5040   5041   5042   5043
5044   5045   5046   5047
5048   5049   5050   5051
5052   5053   5054   5055
5056   5057   5058   5059
5060   5061   5062   5063
5064   5065   5066   5067
5068   5069   5070   5071
5072   5073   5074   5075
5076   5077   5078   5079
5080   5081   5082   5083
5084   5085   5086   5087
5088   5089   5090   5091
5092   5093   5094   5095
5096   5097   5098   5099
5100   5101   5102   5103
5104   5105   5106   5107
5108   5109   5110   5111
5112   5113   5114   5115
5116   5117   5118   5119
5120   5121   5122   5123
5124   5125   5126   5127
5128   5129   5130   5131
5132   5133   5134   5135
5136   5137   5138   5139
5140   5141   5142   5143
5144   5145   5146   5147
5148   5149   5150   5151
5152   5153   5154   5155
5156   5157   5158   5159
5160   5161   5162   5163
5164   5165   5166   5167
5168   5169   5170   5171
5172   5173   5174   5175
5176   5177   5178   5179
5180   5181   5182   5183
5184   5185   5186   5187
5188   5189   5190   5191
5192   5193   5194   5195
5196   5197   5198   5199
5200   5201   5202   5203
5204   5205   5206   5207
5208   5209   5210   5211
5212   5213   5214   5215
5216   5217   5218   5219
5220   5221   5222   5223
5224   5225   5226   5227
5228   5229   5230   5231
5232   5233   5234   5235
5236   5237   5238   5239
5240   5241   5242   5243
5244   5245   5246   5247
5248   5249   5250   5251
5252   5253   5254   5255
5256   5257   5258   5259
5260   5261   5262   5263
5264   5265   5266   5267
5268   5269   5270   5271
5272   5273   5274   5275
5276   5277   5278   5279
5280   5281   5282   5283
5284   5285   5286   5287
5288   5289   5290   5291
5292   5293   5294   5295
5296   5297   5298   5299
5300   5301   5302   5303
5304   5305   5306   5307
5308   5309   5310   5311
5312   5313   5314   5315
5316   5317   5318   5319
5320   5321   5322   5323
5324   5325   5326   5327
5328   5329   5330   5331
5332   5333   5334   5335
5336   5337   5338   5339
5340   5341   5342   5343
5344   5345   5346   5347
5348   5349   5350   5351
5352   5353   5354   5355
5356   5357   5358   5359
5360   5361   5362   5363
5364   5365   5366   5367
5368   5369   5370   5371
5372   5373   5374   5375
5376   5377   5378   5379
5380   5381   5382   5383
5384   5385   5386   5387
5388   5389   5390   5391
5392   5393   5394   5395
5396   5397   5398   5399
5400   5401   5402   5403
5404   5405   5406   5407
5408   5409   5410   5411
5412   5413   5414   5415
5416   5417   5418   5419
5420   5421   5422   5423
5424   5425   5426   5427
5428   5429   5430   5431
5432   5433   5434   5435
5436   5437   5438   5439
5440   5441   5442   5443
5444   5445   5446   5447
5448   5449   5450   5451
5452   5453   5454   5455
5456   5457   5458   5459
5460   5461   5462   5463
5464   5465   5466   5467
5468   5469   5470   5471
5472   5473   5474   5475
5476   5477   5478   5479
5480   5481   5482   5483
5484   5485   5486   5487
5488   5489   5490   5491
5492   5493   5494   5495
5496   5497   5498   5499
5500   5501   5502   5503
5504   5505   5506   5507
5508   5509   5510   5511
5512   5513   5514   5515
5516   5517   5518   5519
5520   5521   5522   5523
5524   5525   5526   5527
5528   5529   5530   5531
5532   5533   5534   5535
5536   5537   5538   5539
5540   5541   5542   5543
5544   5545   5546   5547
5548   5549   5550   5551
5552   5553   5554   5555
5556   5557   5558   5559
5560   5561   5562   5563
5564   5565   5566   5567
5568   5569   5570   5571
5572   5573   5574   5575
5576   5577   5578   5579
5580   5581   5582   5583
5584   5585   5586   5587
5588   5589   5590   5591
5592   5593   5594   5595
5596   5597   5598   5599
5600   5601   5602   5603
5604   5605   5606   5607
5608   5609   5610   5611
5612   5613   5614   5615
5616   5617   5618   5619
5620   5621   5622   5623
5624   5625   5626   5627
5628   5629   5630   5631
5632   5633   5634   5635
5636   5637   5638   5639
5640   5641   5642   5643
5644   5645   5646   5647
5648   5649   5650   5651
5652   5653   5654   5655
5656   5657   5658   5659
5660   5661   5662   5663
5664   5665   5666   5667
5668   5669   5670   5671
5672   5673   5674   5675
5676   5677   5678   5679
5680   5681   5682   5683
5684   5685   5686   5687
5688   5689   5690   5691
5692   5693   5694   5695
5696   5697   5698   5699
5700   5701   5702   5703
5704   5705   5706   5707
5708   5709   5710   5711
5712   5713   5714   5715
5716   5717   5718   5719
5720   5721   5722   5723
5724   5725   5726   5727
5728   5729   5730   5731
5732   5733   5734   5735
5736   5737   5738   5739
5740   5741   5742   5743
5744   5745   5746   5747
5748   5749   5750   5751
5752   5753   5754   5755
5756   5757   5758   5759
5760   5761   5762   5763
5764   5765   5766   5767
5768   5769   5770   5771
5772   5773   5774   5775
5776   5777   5778   5779
5780   5781   5782   5783
5784   5785   5786   5787
5788   5789   5790   5791
5792   5793   5794   5795
5796   5797   5798   5799
5800   5801   5802   5803
5804   5805   5806   5807
5808   5809   5810   5811
5812   5813   5814   5815
5816   5817   5818   5819
5820   5821   5822   5823
5824   5825   5826   5827
5828   5829   5830   5831
5832   5833   5834   5835
5836   5837   5838   5839
5840   5841   5842   5843
5844   5845   5846   5847
5848   5849   5850   5851
5852   5853   5854   5855
5856   5857   5858   5859
5860   5861   5862   5863
5864   5865   5866   5867
5868   5869   5870   5871
5872   5873   5874   5875
5876   5877   5878   5879
5880   5881   5882   5883
5884   5885   5886   5887
5888   5889   5890   5891
5892   5893   5894   5895
5896   5897   5898   5899
5900   5901   5902   5903
5904   5905   5906   5907
5908   5909   5910   5911
5912   5913   5914   5915
5916   5917   5918   5919
5920   5921   5922   5923
5924   5925   5926   5927
5928   5929   5930   5931
5932   5933   5934   5935
5936   5937   5938   5939
5940   5941   5942   5943
5944   5945   5946   5947
5948   5949   5950   5951
5952   5953   5954   5955
5956   5957   5958   5959
5960   5961   5962   5963
5964   5965   5966   5967
5968   5969   5970   5971
5972   5973   5974   5975
5976   5977   5978   5979
5980   5981   5982   5983
5984   5985   5986   5987
5988   5989   5990   5991
5992   5993   5994   5995
5996   5997   5998   5999
              </DataArray>   
              <DataArray type="Int32" Name="offsets" format="ascii">   
4
8
12
16
20
24
28
32
36
40
44
48
52
56
60
64
68
72
76
80
84
88
92
96
100
104
108
112
116
120
124
128
132
136
140
144
148
152
156
160
164
168
172
176
180
184
188
192
196
200
204
208
212
216
220
224
228
232
236
240
244
248
252
256
260
264
268
272
276
280
284
288
292
296
300
304
308
312
316
320
324
328
332
336
340
344
348
352
356
360
364
368
372
376
380
384
388
392
396
400
404
408
412
416
420
424
428
432
436
440
444
448
452
456
460
464
468
472
476
480
484
488
492
496
500
504
508
512
516
520
524
528
532
536
540
544
548
552
556
560
564
568
572
576
580
584
588
592
596
600
604
608
612
616
620
624
628
632
636
640
644
648
652
656
660
664
668
672
676
680
684
688
692
696
700
704
708
712
716
720
724
728
732
736
740
744
748
752
756
760
764
768
772
776
780
784
788
792
796
800
804
808
812
816
820
824
828
832
836
840
844
848
852
856
860
864
868
872
876
880
884
888
892
896
900
904
908
912
916
920
924
928
932
936
940
944
948
952
956
960
964
968
972
976
980
984
988
992
996
1000
1004
1008
1012
1016
1020
1024
1028
1032
1036
1040
1044
1048
1052
1056
1060
1064
1068
1072
1076
1080
1084
1088
1092
1096
1100
1104
1108
1112
1116
1120
1124
1128
1132
1136
1140
1144
1148
1152
1156
1160
1164
1168
1172
1176
1180
1184
1188
1192
1196
1200
1204
1208
1212
1216
1220
1224
1228
1232
1236
1240
1244
1248
1252
1256
1260
1264
1268
1272
1276
1280
1284
1288
1292
1296
1300
1304
1308
1312
1316
1320
1324
1328
1332
1336
1340
1344
1348
1352
1356
1360
1364
1368
1372
1376
1380
1384
1388
1392
1396
1400
1404
1408
1412
1416
1420
1424
1428
1432
1436
1440
1444
1448
1452
1456
1460
1464
1468
1472
1476
1480
1484
1488
1492
1496
1500
1504
1508
1512
1516
1520
1524
1528
1532
1536
1540
1544
1548
1552
1556
1560
1564
1568
1572
1576
1580
1584
1588
1592
1596
1600
1604
1608
1612
1616
1620
1624
1628
1632
1636
1640
1644
1648
1652
1656
1660
1664
1668
1672
1676
1680
1684
1688
1692
1696
1700
1704
1708
1712
1716
1720
1724
1728
1732
1736
1740
1744
1748
1752
1756
1760
1764
1768
1772
1776
1780
1784
1788
1792
1796
1800
1804
1808
1812
1816
1820
1824
1828
1832
1836
1840
1844
1848
1852
1856
1860
1864
1868
1872
1876
1880
1884
1888
1892
1896
1900
1904
1908
1912
1916
1920
1924
1928
1932
1936
1940
1944
1948
1952
1956
1960
1964
1968
1972
1976
1980
1984
1988
1992
1996
2000
2004
2008
2012
2016
2020
2024
2028
2032
2036
2040
2044
2048
2052
2056
2060
2064
2068
2072
2076
2080
2084
2088
2092
2096
2100
2104
2108
2112
2116
2120
2124
2128
2132
2136
2140
2144
2148
2152
2156
2160
2164
2168
2172
2176
2180
2184
2188
2192
2196
2200
2204
2208
2212
2216
2220
2224
2228
2232
2236
2240
2244
2248
2252
2256
2260
2264
2268
2272
2276
2280
2284
2288
2292
2296
2300
2304
2308
2312
2316
2320
2324
2328
2332
2336
2340
2344
2348
2352
2356
2360
2364
2368
2372
2376
2380
2384
2388
2392
2396
2400
2404
2408
2412
2416
2420
2424
2428
2432
2436
2440
2444
2448
2452
2456
2460
2464
2468
2472
2476
2480
2484
2488
2492
2496
2500
2504
2508
2512
2516
2520
2524
2528
2532
2536
2540
2544
2548
2552
2556
2560
2564
2568
2572
2576
2580
2584
2588
2592
2596
2600
2604
2608
2612
2616
2620
2624
2628
2632
2636
2640
2644
2648
2652
2656
2660
2664
2668
2672
2676
2680
2684
2688
2692
2696
2700
2704
2708
2712
2716
2720
2724
2728
2732
2736
2740
2744
2748
2752
2756
2760
2764
2768
2772
2776
2780
2784
2788
2792
2796
2800
2804
2808
2812
2816
2820
2824
2828
2832
2836
2840
2844
2848
2852
2856
2860
2864
2868
2872
2876
2880
2884
2888
2892
2896
2900
2904
2908
2912
2916
2920
2924
2928
2932
2936
2940
2944
2948
2952
2956
2960
2964
2968
2972
2976
2980
2984
2988
2992
2996
3000
3004
3008
3012
3016
3020
3024
3028
3032
3036
3040
3044
3048
3052
3056
3060
3064
3068
3072
3076
3080
3084
3088
3092
3096
3100
3104
3108
3112
3116
3120
3124
3128
3132
3136
3140
3144
3148
3152
3156
3160
3164
3168
3172
3176
3180
3184
3188
3192
3196
3200
3204
3208
3212
3216
3220
3224
3228
3232
3236
3240
3244
3248
3252
3256
3260
3264
3268
3272
3276
3280
3284
3288
3292
3296
3300
3304
3308
3312
3316
3320
3324
3328
3332
3336
3340
3344
3348
3352
3356
3360
3364
3368
3372
3376
3380
3384
3388
3392
3396
3400
3404
3408
3412
3416
3420
3424
3428
3432
3436
3440
3444
3448
3452
3456
3460
3464
3468
3472
3476
3480
3484
3488
3492
3496
3500
3504
3508
3512
3516
3520
3524
3528
3532
3536
3540
3544
3548
3552
3556
3560
3564
3568
3572
3576
3580
3584
3588
3592
3596
3600
3604
3608
3612
3616
3620
3624
3628
3632
3636
3640
3644
3648
3652
3656
3660
3664
3668
3672
3676
3680
3684
3688
3692
3696
3700
3704
3708
3712
3716
3720
3724
3728
3732
3736
3740
3744
3748
3752
3756
3760
3764
3768
3772
3776
3780
3784
3788
3792
3796
3800
3804
3808
3812
3816
3820
3824
3828
3832
3836
3840
3844
3848
3852
3856
3860
3864
3868
3872
3876
3880
3884
3888
3892
3896
3900
3904
3908
3912
3916
3920
3924
3928
3932
3936
3940
3944
3948
3952
3956
3960
3964
3968
3972
3976
3980
3984
3988
3992
3996
4000
4004
4008
4012
4016
4020
4024
4028
4032
4036
4040
4044
4048
4052
4056
4060
4064
4068
4072
4076
4080
4084
4088
4092
4096
4100
4104
4108
4112
4116
4120
4124
4128
4132
4136
4140
4144
4148
4152
4156
4160
4164
4168
4172
4176
4180
4184
4188
4192
4196
4200
4204
4208
4212
4216
4220
4224
4228
4232
4236
4240
4244
4248
4252
4256
4260
4264
4268
4272
4276
4280
4284
4288
4292
4296
4300
4304
4308
4312
4316
4320
4324
4328
4332
4336
4340
4344
4348
4352
4356
4360
4364
4368
4372
4376
4380
4384
4388
4392
4396
4400
4404
4408
4412
4416
4420
4424
4428
4432
4436
4440
4444
4448
4452
4456
4460
4464
4468
4472
4476
4480
4484
4488
4492
4496
4500
4504
4508
4512
4516
4520
4524
4528
4532
4536
4540
4544
4548
4552
4556
4560
4564
4568
4572
4576
4580
4584
4588
4592
4596
4600
4604
4608
4612
4616
4620
4624
4628
4632
4636
4640
4644
4648
4652
4656
4660
4664
4668
4672
4676
4680
4684
4688
4692
4696
4700
4704
4708
4712
4716
4720
4724
4728
4732
4736
4740
4744
4748
4752
4756
4760
4764
4768
4772
4776
4780
4784
4788
4792
4796
4800
4804
4808
4812
4816
4820
4824
4828
4832
4836
4840
4844
4848
4852
4856
4860
4864
4868
4872
4876
4880
4884
4888
4892
4896
4900
4904
4908
4912
4916
4920
4924
4928
4932
4936
4940
4944
4948
4952
4956
4960
4964
4968
4972
4976
4980
4984
4988
4992
4996
5000
5004
5008
5012
5016
5020
5024
5028
5032
5036
5040
5044
5048
5052
5056
5060
5064
5068
5072
5076
5080
5084
5088
5092
5096
5100
5104
5108
5112
5116
5120
5124
5128
5132
5136
5140
5144
5148
5152
5156
5160
5164
5168
5172
5176
5180
5184
5188
5192
5196
5200
5204
5208
5212
5216
5220
5224
5228
5232
5236
5240
5244
5248
5252
5256
5260
5264
5268
5272
5276
5280
5284
5288
5292
5296
5300
5304
5308
5312
5316
5320
5324
5328
5332
5336
5340
5344
5348
5352
5356
5360
5364
5368
5372
5376
5380
5384
5388
5392
5396
5400
5404
5408
5412
5416
5420
5424
5428
5432
5436
5440
5444
5448
5452
5456
5460
5464
5468
5472
5476
5480
5484
5488
5492
5496
5500
5504
5508
5512
5516
5520
5524
5528
5532
5536
5540
5544
5548
5552
5556
5560
5564
5568
5572
5576
5580
5584
5588
5592
5596
5600
5604
5608
5612
5616
5620
5624
5628
5632
5636
5640
5644
5648
5652
5656
5660
5664
5668
5672
5676
5680
5684
5688
5692
5696
5700
5704
5708
5712
5716
5720
5724
5728
5732
5736
5740
5744
5748
5752
5756
5760
5764
5768
5772
5776
5780
5784
5788
5792
5796
5800
5804
5808
5812
5816
5820
5824
5828
5832
5836
5840
5844
5848
5852
5856
5860
5864
5868
5872
5876
5880
5884
5888
5892
5896
5900
5904
5908
5912
5916
5920
5924
5928
5932
5936
5940
5944
5948
5952
5956
5960
5964
5968
5972
5976
5980
5984
5988
5992
5996
6000
              </DataArray>   
              <DataArray type="UInt8" Name="types" format="ascii">   
10
10
10
10
10
10
10
10
10
10
10
10
10
10
10
10
10
10
10
10
10
10
10
10
10
10
10
10
10
10
10
10
10
10
10
10
10
10
10
10
10
10
10
10
10
10
10
10
10
10
10
10
10
10
10
10
10
10
10
10
10
10
10
10
10
10
10
10
10
10
10
10
10
10
10
10
10
10
10
10
10
10
10
10
10
10
10
10
10
10
10
10
10
10
10
10
10
10
10
10
10
10
10
10
10
10
10
10
10
10
10
10
10
10
10
10
10
10
10
10
10
10
10
10
10
10
10
10
10
10
10
10
10
10
10
10
10
10
10
10
10
10
10
10
10
10
10
10
10
10
10
10
10
10
10
10
10
10
10
10
10
10
10
10
10
10
10
10
10
10
10
10
10
10
10
10
10
10
10
10
10
10
10
10
10
10
10
10
10
10
10
10
10
10
10
10
10
10
10
10
10
10
10
10
10
10
10
10
10
10
10
10
10
10
10
10
10
10
10
10
10
10
10
10
10
10
10
10
10
10
10
10
10
10
10
10
10
10
10
10
10
10
10
10
10
10
10
10
10
10
10
10
10
10
10
10
10
10
10
10
10
10
10
10
10
10
10
10
10
10
10
10
10
10
10
10
10
10
10
10
10
10
10
10
10
10
10
10
10
10
10
10
10
10
10
10
10
10
10
10
10
10
10
10
10
10
10
10
10
10
10
10
10
10
10
10
10
10
10
10
10
10
10
10
10
10
10
10
10
10
10
10
10
10
10
10
10
10
10
10
10
10
10
10
10
10
10
10
10
10
10
10
10
10
10
10
10
10
10
10
10
10
10
10
10
10
10
10
10
10
10
10
10
10
10
10
10
10
10
10
10
10
10
10
10
10
10
10
10
10
10
10
10
10
10
10
10
10
10
10
10
10
10
10
10
10
10
10
10
10
10
10
10
10
10
10
10
10
10
10
10
10
10
10
10
10
10
10
10
10
10
10
10
10
10
10
10
10
10
10
10
10
10
10
10
10
10
10
10
10
10
10
10
10
10
10
10
10
10
10
10
10
10
10
10
10
10
10
10
10
10
10
10
10
10
10
10
10
10
10
10
10
10
10
10
10
10
10
10
10
10
10
10
10
10
10
10
10
10
10
10
10
10
10
10
10
10
10
10
10
10
10
10
10
10
10
10
10
10
10
10
10
10
10
10
10
10
10
10
10
10
10
10
10
10
10
10
10
10
10
10
10
10
10
10
10
10
10
10
10
10
10
10
10
10
10
10
10
10
10
10
10
10
10
10
10
10
10
10
10
10
10
10
10
10
10
10
10
10
10
10
10
10
10
10
10
10
10
10
10
10
10
10
10
10
10
10
10
10
10
10
10
10
10
10
10
10
10
10
10
10
10
10
10
10
10
10
10
10
10
10
10
10
10
10
10
10
10
10
10
10
10
10
10
10
10
10
10
10
10
10
10
10
10
10
10
10
10
10
10
10
10
10
10
10
10
10
10
10
10
10
10
10
10
10
10
10
10
10
10
10
10
10
10
10
10
10
10
10
10
10
10
10
10
10
10
10
10
10
10
10
10
10
10
10
10
10
10
10
10
10
10
10
10
10
10
10
10
10
10
10
10
10
10
10
10
10
10
10
10
10
10
10
10
10
10
10
10
10
10
10
10
10
10
10
10
10
10
10
10
10
10
10
10
10
10
10
10
10
10
10
10
10
10
10
10
10
10
10
10
10
10
10
10
10
10
10
10
10
10
10
10
10
10
10
10
10
10
10
10
10
10
10
10
10
10
10
10
10
10
10
10
10
10
10
10
10
10
10
10
10
10
10
10
10
10
10
10
10
10
10
10
10
10
10
10
10
10
10
10
10
10
10
10
10
10
10
10
10
10
10
10
10
10
10
10
10
10
10
10
10
10
10
10
10
10
10
10
10
10
10
10
10
10
10
10
10
10
10
10
10
10
10
10
10
10
10
10
10
10
10
10
10
10
10
10
10
10
10
10
10
10
10
10
10
10
10
10
10
10
10
10
10
10
10
10
10
10
10
10
10
10
10
10
10
10
10
10
10
10
10
10
10
10
10
10
10
10
10
10
10
10
10
10
10
10
10
10
10
10
10
10
10
10
10
10
10
10
10
10
10
10
10
10
10
10
10
10
10
10
10
10
10
10
10
10
10
10
10
10
10
10
10
10
10
10
10
10
10
10
10
10
10
10
10
10
10
10
10
10
10
10
10
10
10
10
10
10
10
10
10
10
10
10
10
10
10
10
10
10
10
10
10
10
10
10
10
10
10
10
10
10
10
10
10
10
10
10
10
10
10
10
10
10
10
10
10
10
10
10
10
10
10
10
10
10
10
10
10
10
10
10
10
10
10
10
10
10
10
10
10
10
10
10
10
10
10
10
10
10
10
10
10
10
10
10
10
10
10
10
10
10
10
10
10
10
10
10
10
10
10
10
10
10
10
10
10
10
10
10
10
10
10
10
10
10
10
10
10
10
10
10
10
10
10
10
10
10
10
10
10
10
10
10
10
10
10
10
10
10
10
10
10
10
10
10
10
10
10
10
10
10
10
10
10
10
10
10
10
10
10
10
10
10
10
10
10
10
10
10
10
10
10
10
10
10
10
10
10
10
10
10
10
10
10
10
10
10
10
10
10
10
10
10
10
10
10
10
10
10
10
10
10
10
10
10
10
10
10
10
10
10
10
10
10
10
10
10
10
10
10
10
10
10
10
10
10
10
10
10
10
10
10
10
10
10
10
10
10
10
10
10
10
10
10
10
10
10
10
10
10
10
10
10
10
10
10
10
10
10
10
10
10
10
10
10
10
10
10
10
10
10
10
10
10
10
10
10
10
10
10
10
10
10
10
10
10
10
10
10
10
10
10
10
10
10
10
10
10
10
10
10
10
10
10
10
10
10
10
10
10
10
10
10
10
10
10
10
10
10
10
10
10
10
10
10
10
10
10
10
10
10
10
10
10
10
10
10
10
10
10
10
10
10
10
10
10
10
10
10
10
10
10
10
10
10
10
10
10
10
10
10
10
10
10
10
10
10
10
10
10
10
10
10
10
10
10
10
10
10
10
10
10
10
10
10
10
10
10
10
10
10
10
10
10
10
10
10
10
10
10
10
10
10
10
10
10
10
10
10
10
10
10
10
10
10
10
10
10
10
10
10
10
10
10
10
10
10
10
10
10
10
10
10
10
10
10
10
10
10
10
10
10
10
10
10
10
10
10
10
10
10
10
10
10
10
10
10
10
10
10
10
10
10
10
10
10
10
10
10
10
10
10
10
10
10
10
10
10
10
10
10
10
10
10
10
10
10
10
10
10
10
10
10
10
10
10
10
10
10
10
10
10
10
10
10
10
10
10
10
10
10
10
10
10
10
10
10
10
10
              </DataArray>   
          </Cells>  
          <PointData>  
             <DataArray type="Float64" NumberOfComponents="3" Name="Strains" format="ascii">   
-0.0005011819720589044   0.0   -0.0003277998272557162
-0.0005011819720589044   0.0   -0.0003277998272557162
-0.0005011819720589044   0.0   -0.0003277998272557162
-0.0005011819720589044   0.0   -0.0003277998272557162
-0.0003190232603675733   5.56708648758109e-05   9.200544488654691e-06
-0.0003190232603675733   5.56708648758109e-05   9.200544488654691e-06
-0.0003190232603675733   5.56708648758109e-05   9.200544488654691e-06
-0.0003190232603675733   5.56708648758109e-05   9.200544488654691e-06
-0.0003127920396555803   0.0   -0.0003092299668130972
-0.0003127920396555803   0.0   -0.0003092299668130972
-0.0003127920396555803   0.0   -0.0003092299668130972
-0.0003127920396555803   0.0   -0.0003092299668130972
-0.0005246071414001794   6.67365381781151e-05   3.7532798543668967e-06
-0.0005246071414001794   6.67365381781151e-05   3.7532798543668967e-06
-0.0005246071414001794   6.67365381781151e-05   3.7532798543668967e-06
-0.0005246071414001794   6.67365381781151e-05   3.7532798543668967e-06
-0.0004069870058572416   1.5474883702182524e-05   -0.00016152328669830296
-0.0004069870058572416   1.5474883702182524e-05   -0.00016152328669830296
-0.0004069870058572416   1.5474883702182524e-05   -0.00016152328669830296
-0.0004069870058572416   1.5474883702182524e-05   -0.00016152328669830296
-0.0005246071414001803   0.0   -0.00034927188971996633
-0.0005246071414001803   0.0   -0.00034927188971996633
-0.0005246071414001803   0.0   -0.00034927188971996633
-0.0005246071414001803   0.0   -0.00034927188971996633
-0.0003127920396555803   6.673653817811521e-05   4.379520276123598e-05
-0.0003127920396555803   6.673653817811521e-05   4.379520276123598e-05
-0.0003127920396555803   6.673653817811521e-05   4.379520276123598e-05
-0.0003127920396555803   6.673653817811521e-05   4.379520276123598e-05
-0.0003137585413186895   0.0   -0.00031682153977712085
-0.0003137585413186895   0.0   -0.00031682153977712085
-0.0003137585413186895   0.0   -0.00031682153977712085
-0.0003137585413186895   0.0   -0.00031682153977712085
-0.0005410971421604754   7.147870916803228e-05   1.9188902791704302e-05
-0.0005410971421604754   7.147870916803228e-05   1.9188902791704302e-05
-0.0005410971421604754   7.147870916803228e-05   1.9188902791704302e-05
-0.0005410971421604754   7.147870916803228e-05   1.9188902791704302e-05
-0.0004191828413594342   2.7041958285704533e-05   -0.00015733954801396748
-0.0004191828413594342   2.7041958285704533e-05   -0.00015733954801396748
-0.0004191828413594342   2.7041958285704533e-05   -0.00015733954801396748
-0.0004191828413594342   2.7041958285704533e-05   -0.00015733954801396748
-0.0005410971421604762   0.0   -0.00035970876527794033
-0.0005410971421604762   0.0   -0.00035970876527794033
-0.0005410971421604762   0.0   -0.00035970876527794033
-0.0005410971421604762   0.0   -0.00035970876527794033
-0.0003137585413186895   7.147870916803239e-05   6.207612829252373e-05
-0.0003137585413186895   7.147870916803239e-05   6.207612829252373e-05
-0.0003137585413186895   7.147870916803239e-05   6.207612829252373e-05
-0.0003137585413186895   7.147870916803239e-05   6.207612829252373e-05
-0.00031368873456635074   0.0   -0.0003187589665568163
-0.00031368873456635074   0.0   -0.0003187589665568163
-0.00031368873456635074   0.0   -0.0003187589665568163
-0.00031368873456635074   0.0   -0.0003187589665568163
-0.0005765374159250369   8.136821569207516e-05   7.050123962575028e-05
-0.0005765374159250369   8.136821569207516e-05   7.050123962575028e-05
-0.0005765374159250369   8.136821569207516e-05   7.050123962575028e-05
-0.0005765374159250369   8.136821569207516e-05   7.050123962575028e-05
-0.00042739293836341276   3.4124832267603265e-05   -0.00014972685958893994
-0.00042739293836341276   3.4124832267603265e-05   -0.00014972685958893994
-0.00042739293836341276   3.4124832267603265e-05   -0.00014972685958893994
-0.00042739293836341276   3.4124832267603265e-05   -0.00014972685958893994
-0.0003190232603675739   0.0   -0.0002943973083302297
-0.0003190232603675739   0.0   -0.0002943973083302297
-0.0003190232603675739   0.0   -0.0002943973083302297
-0.0003190232603675739   0.0   -0.0002943973083302297
-0.0001451873469693887   2.04467317370681e-05   7.59725304231963e-06
-0.0001451873469693887   2.04467317370681e-05   7.59725304231963e-06
-0.0001451873469693887   2.04467317370681e-05   7.59725304231963e-06
-0.0001451873469693887   2.04467317370681e-05   7.59725304231963e-06
-0.00013972136924154805   0.0   -0.0002917936316137725
-0.00013972136924154805   0.0   -0.0002917936316137725
-0.00013972136924154805   0.0   -0.0002917936316137725
-0.00013972136924154805   0.0   -0.0002917936316137725
-0.0003127920396555803   2.9060558665541098e-05   -2.0778849456376818e-05
-0.0003127920396555803   2.9060558665541098e-05   -2.0778849456376818e-05
-0.0003127920396555803   2.9060558665541098e-05   -2.0778849456376818e-05
-0.0003127920396555803   2.9060558665541098e-05   -2.0778849456376818e-05
-0.00022937231480456055   2.1697305970476216e-06   -0.0001436772273669792
-0.00022937231480456055   2.1697305970476216e-06   -0.0001436772273669792
-0.00022937231480456055   2.1697305970476216e-06   -0.0001436772273669792
-0.00022937231480456055   2.1697305970476216e-06   -0.0001436772273669792
-0.00031279203965558003   0.0   -0.0003092299668130969
-0.00031279203965558003   0.0   -0.0003092299668130969
-0.00031279203965558003   0.0   -0.0003092299668130969
-0.00031279203965558003   0.0   -0.0003092299668130969
-0.00013972136924154805   2.9060558665541098e-05   -3.3425142570520994e-06
-0.00013972136924154805   2.9060558665541098e-05   -3.3425142570520994e-06
-0.00013972136924154805   2.9060558665541098e-05   -3.3425142570520994e-06
-0.00013972136924154805   2.9060558665541098e-05   -3.3425142570520994e-06
-0.00013668599731684073   0.0   -0.00029547387732510296
-0.00013668599731684073   0.0   -0.00029547387732510296
-0.00013668599731684073   0.0   -0.00029547387732510296
-0.00013668599731684073   0.0   -0.00029547387732510296
-0.0003137585413186895   3.557943742002988e-05   -2.170063310737299e-05
-0.0003137585413186895   3.557943742002988e-05   -2.170063310737299e-05
-0.0003137585413186895   3.557943742002988e-05   -2.170063310737299e-05
-0.0003137585413186895   3.557943742002988e-05   -2.170063310737299e-05
-0.00022473901848621007   1.1463407906661812e-05   -0.0001555968867868166
-0.00022473901848621007   1.1463407906661812e-05   -0.0001555968867868166
-0.00022473901848621007   1.1463407906661812e-05   -0.0001555968867868166
-0.00022473901848621007   1.1463407906661812e-05   -0.0001555968867868166
-0.0003137585413186895   0.0   -0.00031682153977712085
-0.0003137585413186895   0.0   -0.00031682153977712085
-0.0003137585413186895   0.0   -0.00031682153977712085
-0.0003137585413186895   0.0   -0.00031682153977712085
-0.00013668599731684073   3.557943742002988e-05   -3.5297065535512344e-07
-0.00013668599731684073   3.557943742002988e-05   -3.5297065535512344e-07
-0.00013668599731684073   3.557943742002988e-05   -3.5297065535512344e-07
-0.00013668599731684073   3.557943742002988e-05   -3.5297065535512344e-07
-0.00013393599132983976   0.0   -0.00029393047766911224
-0.00013393599132983976   0.0   -0.00029393047766911224
-0.00013393599132983976   0.0   -0.00029393047766911224
-0.00013393599132983976   0.0   -0.00029393047766911224
-0.00031368873456634987   4.138081481283964e-05   -1.9171061162631285e-05
-0.00031368873456634987   4.138081481283964e-05   -1.9171061162631285e-05
-0.00031368873456634987   4.138081481283964e-05   -1.9171061162631285e-05
-0.00031368873456634987   4.138081481283964e-05   -1.9171061162631285e-05
-0.00022384726632426456   1.9075885090007e-05   -0.00015552388373240843
-0.00022384726632426456   1.9075885090007e-05   -0.00015552388373240843
-0.00022384726632426456   1.9075885090007e-05   -0.00015552388373240843
-0.00022384726632426456   1.9075885090007e-05   -0.00015552388373240843
-0.00014518734696938895   0.0   -0.00028212926928798877
-0.00014518734696938895   0.0   -0.00028212926928798877
-0.00014518734696938895   0.0   -0.00028212926928798877
-0.00014518734696938895   0.0   -0.00028212926928798877
1.9127042894883983e-05   -2.5978146541966564e-06   -9.830641640051603e-06
1.9127042894883983e-05   -2.5978146541966564e-06   -9.830641640051603e-06
1.9127042894883983e-05   -2.5978146541966564e-06   -9.830641640051603e-06
1.9127042894883983e-05   -2.5978146541966564e-06   -9.830641640051603e-06
2.2576855971261816e-05   0.0   -0.0002887081362598998
2.2576855971261816e-05   0.0   -0.0002887081362598998
2.2576855971261816e-05   0.0   -0.0002887081362598998
2.2576855971261816e-05   0.0   -0.0002887081362598998
-0.00013972136924154805   5.142492256452911e-06   -2.129658959242262e-05
-0.00013972136924154805   5.142492256452911e-06   -2.129658959242262e-05
-0.00013972136924154805   5.142492256452911e-06   -2.129658959242262e-05
-0.00013972136924154805   5.142492256452911e-06   -2.129658959242262e-05
-6.130524549906343e-05   -5.482389143259973e-06   -0.00014561520032340205
-6.130524549906343e-05   -5.482389143259973e-06   -0.00014561520032340205
-6.130524549906343e-05   -5.482389143259973e-06   -0.00014561520032340205
-6.130524549906343e-05   -5.482389143259973e-06   -0.00014561520032340205
-0.00013972136924154805   0.0   -0.0002917936316137725
-0.00013972136924154805   0.0   -0.0002917936316137725
-0.00013972136924154805   0.0   -0.0002917936316137725
-0.00013972136924154805   0.0   -0.0002917936316137725
2.2576855971261856e-05   5.142492256452911e-06   -1.8211094238550847e-05
2.2576855971261856e-05   5.142492256452911e-06   -1.8211094238550847e-05
2.2576855971261856e-05   5.142492256452911e-06   -1.8211094238550847e-05
2.2576855971261856e-05   5.142492256452911e-06   -1.8211094238550847e-05
2.5288515212393198e-05   0.0   -0.0002883015749884799
2.5288515212393198e-05   0.0   -0.0002883015749884799
2.5288515212393198e-05   0.0   -0.0002883015749884799
2.5288515212393198e-05   0.0   -0.0002883015749884799
-0.00013668599731684052   1.1953837227704305e-05   -2.5516356443046334e-05
-0.00013668599731684052   1.1953837227704305e-05   -2.5516356443046334e-05
-0.00013668599731684052   1.1953837227704305e-05   -2.5516356443046334e-05
-0.00013668599731684052   1.1953837227704305e-05   -2.5516356443046334e-05
-5.72164270145774e-05   2.9100471877434428e-06   -0.00015253936625617527
-5.72164270145774e-05   2.9100471877434428e-06   -0.00015253936625617527
-5.72164270145774e-05   2.9100471877434428e-06   -0.00015253936625617527
-5.72164270145774e-05   2.9100471877434428e-06   -0.00015253936625617527
-0.00013668599731684073   0.0   -0.00029547387732510296
-0.00013668599731684073   0.0   -0.00029547387732510296
-0.00013668599731684073   0.0   -0.00029547387732510296
-0.00013668599731684073   0.0   -0.00029547387732510296
2.5288515212393242e-05   1.1953837227704305e-05   -1.8344054106423754e-05
2.5288515212393242e-05   1.1953837227704305e-05   -1.8344054106423754e-05
2.5288515212393242e-05   1.1953837227704305e-05   -1.8344054106423754e-05
2.5288515212393242e-05   1.1953837227704305e-05   -1.8344054106423754e-05
2.8965073730170543e-05   0.0   -0.0002820216013778979
2.8965073730170543e-05   0.0   -0.0002820216013778979
2.8965073730170543e-05   0.0   -0.0002820216013778979
2.8965073730170543e-05   0.0   -0.0002820216013778979
-0.00013393599132983965   1.9848127152023438e-05   -2.2428702569095033e-05
-0.00013393599132983965   1.9848127152023438e-05   -2.2428702569095033e-05
-0.00013393599132983965   1.9848127152023438e-05   -2.2428702569095033e-05
-0.00013393599132983965   1.9848127152023438e-05   -2.2428702569095033e-05
-5.3860461793334986e-05   1.1210229956003806e-05   -0.00015070518014565756
-5.3860461793334986e-05   1.1210229956003806e-05   -0.00015070518014565756
-5.3860461793334986e-05   1.1210229956003806e-05   -0.00015070518014565756
-5.3860461793334986e-05   1.1210229956003806e-05   -0.00015070518014565756
1.9127042894884017e-05   0.0   -0.00028368795808050677
1.9127042894884017e-05   0.0   -0.00028368795808050677
1.9127042894884017e-05   0.0   -0.00028368795808050677
1.9127042894884017e-05   0.0   -0.00028368795808050677
0.00019741604463197163   -2.315444105218577e-05   -4.3228648333865083e-07
0.00019741604463197163   -2.315444105218577e-05   -4.3228648333865083e-07
0.00019741604463197163   -2.315444105218577e-05   -4.3228648333865083e-07
0.00019741604463197163   -2.315444105218577e-05   -4.3228648333865083e-07
0.00019765807827835463   0.0   -0.00029919563628443203
0.00019765807827835463   0.0   -0.00029919563628443203
0.00019765807827835463   0.0   -0.00029919563628443203
0.00019765807827835463   0.0   -0.00029919563628443203
2.2576855971261894e-05   -1.7479166707552154e-05   3.0939009185871136e-06
2.2576855971261894e-05   -1.7479166707552154e-05   3.0939009185871136e-06
2.2576855971261894e-05   -1.7479166707552154e-05   3.0939009185871136e-06
2.2576855971261894e-05   -1.7479166707552154e-05   3.0939009185871136e-06
0.00010839256058661932   -1.2923065169937695e-05   -0.00014266593436291044
0.00010839256058661932   -1.2923065169937695e-05   -0.00014266593436291044
0.00010839256058661932   -1.2923065169937695e-05   -0.00014266593436291044
0.00010839256058661932   -1.2923065169937695e-05   -0.00014266593436291044
2.2576855971261894e-05   0.0   -0.00028870813625990076
2.2576855971261894e-05   0.0   -0.00028870813625990076
2.2576855971261894e-05   0.0   -0.00028870813625990076
2.2576855971261894e-05   0.0   -0.00028870813625990076
0.00019765807827835463   -1.7479166707552154e-05   -7.393599105944178e-06
0.00019765807827835463   -1.7479166707552154e-05   -7.393599105944178e-06
0.00019765807827835463   -1.7479166707552154e-05   -7.393599105944178e-06
0.00019765807827835463   -1.7479166707552154e-05   -7.393599105944178e-06
0.00019671759870255358   0.0   -0.00029492245463564633
0.00019671759870255358   0.0   -0.00029492245463564633
0.00019671759870255358   0.0   -0.00029492245463564633
0.00019671759870255358   0.0   -0.00029492245463564633
2.5288515212393242e-05   -1.1034799411943207e-05   -2.586435838213168e-06
2.5288515212393242e-05   -1.1034799411943207e-05   -2.586435838213168e-06
2.5288515212393242e-05   -1.1034799411943207e-05   -2.586435838213168e-06
2.5288515212393242e-05   -1.1034799411943207e-05   -2.586435838213168e-06
0.00010964722733690774   -5.178598646454616e-06   -0.0001466980098383637
0.00010964722733690774   -5.178598646454616e-06   -0.0001466980098383637
0.00010964722733690774   -5.178598646454616e-06   -0.0001466980098383637
0.00010964722733690774   -5.178598646454616e-06   -0.0001466980098383637
2.528851521239322e-05   0.0   -0.00028830157498848014
2.528851521239322e-05   0.0   -0.00028830157498848014
2.528851521239322e-05   0.0   -0.00028830157498848014
2.528851521239322e-05   0.0   -0.00028830157498848014
0.00019671759870255358   -1.1034799411943207e-05   -9.207315485379149e-06
0.00019671759870255358   -1.1034799411943207e-05   -9.207315485379149e-06
0.00019671759870255358   -1.1034799411943207e-05   -9.207315485379149e-06
0.00019671759870255358   -1.1034799411943207e-05   -9.207315485379149e-06
0.00020043716404873776   0.0   -0.00028344317189642437
0.00020043716404873776   0.0   -0.00028344317189642437
0.00020043716404873776   0.0   -0.00028344317189642437
0.00020043716404873776   0.0   -0.00028344317189642437
2.896507373017059e-05   -2.369284197543324e-06   3.7652158197135226e-06
2.896507373017059e-05   -2.369284197543324e-06   3.7652158197135226e-06
2.896507373017059e-05   -2.369284197543324e-06   3.7652158197135226e-06
2.896507373017059e-05   -2.369284197543324e-06   3.7652158197135226e-06
0.00011286283963056542   4.048669243379992e-06   -0.0001399151660788317
0.00011286283963056542   4.048669243379992e-06   -0.0001399151660788317
0.00011286283963056542   4.048669243379992e-06   -0.0001399151660788317
0.00011286283963056542   4.048669243379992e-06   -0.0001399151660788317
0.00019741604463197163   0.0   -0.00029758062271181823
0.00019741604463197163   0.0   -0.00029758062271181823
0.00019741604463197163   0.0   -0.00029758062271181823
0.00019741604463197163   0.0   -0.00029758062271181823
0.0004451185579856027   -5.862306914421775e-05   8.008305805770524e-05
0.0004451185579856027   -5.862306914421775e-05   8.008305805770524e-05
0.0004451185579856027   -5.862306914421775e-05   8.008305805770524e-05
0.0004451185579856027   -5.862306914421775e-05   8.008305805770524e-05
0.0004178965685776743   0.0   -0.00032915752254075167
0.0004178965685776743   0.0   -0.00032915752254075167
0.0004178965685776743   0.0   -0.00032915752254075167
0.0004178965685776743   0.0   -0.00032915752254075167
0.00019765807827835463   -4.993647709386603e-05   6.786851421443406e-05
0.00019765807827835463   -4.993647709386603e-05   6.786851421443406e-05
0.00019765807827835463   -4.993647709386603e-05   6.786851421443406e-05
0.00019765807827835463   -4.993647709386603e-05   6.786851421443406e-05
0.000307656306604823   -2.631408319077788e-05   -0.00012963530267153257
0.000307656306604823   -2.631408319077788e-05   -0.00012963530267153257
0.000307656306604823   -2.631408319077788e-05   -0.00012963530267153257
0.000307656306604823   -2.631408319077788e-05   -0.00012963530267153257
0.00019765807827835447   0.0   -0.00029919563628443176
0.00019765807827835447   0.0   -0.00029919563628443176
0.00019765807827835447   0.0   -0.00029919563628443176
0.00019765807827835447   0.0   -0.00029919563628443176
0.00041789656857767286   -4.9936477093865924e-05   3.7906627958114204e-05
0.00041789656857767286   -4.9936477093865924e-05   3.7906627958114204e-05
0.00041789656857767286   -4.9936477093865924e-05   3.7906627958114204e-05
0.00041789656857767286   -4.9936477093865924e-05   3.7906627958114204e-05
0.00040530098964523624   0.0   -0.00032231312775592185
0.00040530098964523624   0.0   -0.00032231312775592185
0.00040530098964523624   0.0   -0.00032231312775592185
0.00040530098964523624   0.0   -0.00032231312775592185
0.00019671759870255358   -4.565112186712594e-05   5.271653026882463e-05
0.00019671759870255358   -4.565112186712594e-05   5.271653026882463e-05
0.00019671759870255358   -4.565112186712594e-05   5.271653026882463e-05
0.00019671759870255358   -4.565112186712594e-05   5.271653026882463e-05
0.00030147953396179525   -1.9264576226241537e-05   -0.0001377186225477753
0.00030147953396179525   -1.9264576226241537e-05   -0.0001377186225477753
0.00030147953396179525   -1.9264576226241537e-05   -0.0001377186225477753
0.00030147953396179525   -1.9264576226241537e-05   -0.0001377186225477753
0.00019671759870255358   0.0   -0.00029492245463564633
0.00019671759870255358   0.0   -0.00029492245463564633
0.00019671759870255358   0.0   -0.00029492245463564633
0.00019671759870255358   0.0   -0.00029492245463564633
0.00040530098964523483   -4.5651121867125726e-05   2.5325857148549057e-05
0.00040530098964523483   -4.5651121867125726e-05   2.5325857148549057e-05
0.00040530098964523483   -4.5651121867125726e-05   2.5325857148549057e-05
0.00040530098964523483   -4.5651121867125726e-05   2.5325857148549057e-05
0.00038661537334422764   0.0   -0.00030477246643162556
0.00038661537334422764   0.0   -0.00030477246643162556
0.00038661537334422764   0.0   -0.00030477246643162556
0.00038661537334422764   0.0   -0.00030477246643162556
0.00020043716404873776   -3.554882422533614e-05   2.6853843596059783e-05
0.00020043716404873776   -3.554882422533614e-05   2.6853843596059783e-05
0.00020043716404873776   -3.554882422533614e-05   2.6853843596059783e-05
0.00020043716404873776   -3.554882422533614e-05   2.6853843596059783e-05
0.0002916664860233909   -8.208343163316502e-06   -0.00014159931499890715
0.0002916664860233909   -8.208343163316502e-06   -0.00014159931499890715
0.0002916664860233909   -8.208343163316502e-06   -0.00014159931499890715
0.0002916664860233909   -8.208343163316502e-06   -0.00014159931499890715
-0.0004356807569076116   5.5670864875810686e-05   -0.00028511349542180545
-0.0004356807569076116   5.5670864875810686e-05   -0.00028511349542180545
-0.0004356807569076116   5.5670864875810686e-05   -0.00028511349542180545
-0.0004356807569076116   5.5670864875810686e-05   -0.00028511349542180545
-0.0002789749621349213   5.011435810256602e-05   -2.727107486460154e-05
-0.0002789749621349213   5.011435810256602e-05   -2.727107486460154e-05
-0.0002789749621349213   5.011435810256602e-05   -2.727107486460154e-05
-0.0002789749621349213   5.011435810256602e-05   -2.727107486460154e-05
-0.00028604070324191885   6.67365381781151e-05   -0.00023937842131933548
-0.00028604070324191885   6.67365381781151e-05   -0.00023937842131933548
-0.00028604070324191885   6.67365381781151e-05   -0.00023937842131933548
-0.00028604070324191885   6.67365381781151e-05   -0.00023937842131933548
-0.00044049466810974075   6.010266587485702e-05   2.2025176842323507e-05
-0.00044049466810974075   6.010266587485702e-05   2.2025176842323507e-05
-0.00044049466810974075   6.010266587485702e-05   2.2025176842323507e-05
-0.00044049466810974075   6.010266587485702e-05   2.2025176842323507e-05
-0.0003460325350481311   5.812683264948032e-05   -0.00013422621165846884
-0.0003460325350481311   5.812683264948032e-05   -0.00013422621165846884
-0.0003460325350481311   5.812683264948032e-05   -0.00013422621165846884
-0.0003460325350481311   5.812683264948032e-05   -0.00013422621165846884
-0.00044049466810974075   6.67365381781151e-05   -0.00023539809793738053
-0.00044049466810974075   6.67365381781151e-05   -0.00023539809793738053
-0.00044049466810974075   6.67365381781151e-05   -0.00023539809793738053
-0.00044049466810974075   6.67365381781151e-05   -0.00023539809793738053
-0.0002860407032419198   6.010266587485702e-05   1.8044853460368613e-05
-0.0002860407032419198   6.010266587485702e-05   1.8044853460368613e-05
-0.0002860407032419198   6.010266587485702e-05   1.8044853460368613e-05
-0.0002860407032419198   6.010266587485702e-05   1.8044853460368613e-05
-0.00028757023725940815   7.147870916803217e-05   -0.00021516320245737073
-0.00028757023725940815   7.147870916803217e-05   -0.00021516320245737073
-0.00028757023725940815   7.147870916803217e-05   -0.00021516320245737073
-0.00028757023725940815   7.147870916803217e-05   -0.00021516320245737073
-0.00044367898561070446   6.460888546642443e-05   4.9139939015753085e-05
-0.00044367898561070446   6.460888546642443e-05   4.9139939015753085e-05
-0.00044367898561070446   6.460888546642443e-05   4.9139939015753085e-05
-0.00044367898561070446   6.460888546642443e-05   4.9139939015753085e-05
-0.0003562707031359816   6.440962116032291e-05   -9.642097319178936e-05
-0.0003562707031359816   6.440962116032291e-05   -9.642097319178936e-05
-0.0003562707031359816   6.440962116032291e-05   -9.642097319178936e-05
-0.0003562707031359816   6.440962116032291e-05   -9.642097319178936e-05
-0.0004436789856107037   7.147870916803217e-05   -0.0002110413082364061
-0.0004436789856107037   7.147870916803217e-05   -0.0002110413082364061
-0.0004436789856107037   7.147870916803217e-05   -0.0002110413082364061
-0.0004436789856107037   7.147870916803217e-05   -0.0002110413082364061
-0.0002875702372594086   6.460888546642443e-05   4.501804479478829e-05
-0.0002875702372594086   6.460888546642443e-05   4.501804479478829e-05
-0.0002875702372594086   6.460888546642443e-05   4.501804479478829e-05
-0.0002875702372594086   6.460888546642443e-05   4.501804479478829e-05
-0.00028599124944579505   8.136821569207505e-05   -0.0001588224086311405
-0.00028599124944579505   8.136821569207505e-05   -0.0001588224086311405
-0.00028599124944579505   8.136821569207505e-05   -0.0001588224086311405
-0.00028599124944579505   8.136821569207505e-05   -0.0001588224086311405
-0.00043149883892638853   6.816743886855245e-05   9.161070659729413e-05
-0.00043149883892638853   6.816743886855245e-05   9.161070659729413e-05
-0.00043149883892638853   6.816743886855245e-05   9.161070659729413e-05
-0.00043149883892638853   6.816743886855245e-05   9.161070659729413e-05
-0.00034708007726979987   7.061965582763575e-05   -5.055855967247007e-05
-0.00034708007726979987   7.061965582763575e-05   -5.055855967247007e-05
-0.00034708007726979987   7.061965582763575e-05   -5.055855967247007e-05
-0.00034708007726979987   7.061965582763575e-05   -5.055855967247007e-05
-0.0002789749621349213   2.04467317370681e-05   -0.000302318729974328
-0.0002789749621349213   2.04467317370681e-05   -0.000302318729974328
-0.0002789749621349213   2.04467317370681e-05   -0.000302318729974328
-0.0002789749621349213   2.04467317370681e-05   -0.000302318729974328
-0.00013206029682171896   2.3317397781850773e-05   -5.573855482545408e-05
-0.00013206029682171896   2.3317397781850773e-05   -5.573855482545408e-05
-0.00013206029682171896   2.3317397781850773e-05   -5.573855482545408e-05
-0.00013206029682171896   2.3317397781850773e-05   -5.573855482545408e-05
-0.0001352651221437611   2.9060558665541044e-05   -0.00030188678281223985
-0.0001352651221437611   2.9060558665541044e-05   -0.00030188678281223985
-0.0001352651221437611   2.9060558665541044e-05   -0.00030188678281223985
-0.0001352651221437611   2.9060558665541044e-05   -0.00030188678281223985
-0.00028604070324191885   3.2503376540054694e-05   -5.265983837335103e-05
-0.00028604070324191885   3.2503376540054694e-05   -5.265983837335103e-05
-0.00028604070324191885   3.2503376540054694e-05   -5.265983837335103e-05
-0.00028604070324191885   3.2503376540054694e-05   -5.265983837335103e-05
-0.00020750266363141786   2.6176438647701103e-05   -0.0001797604083221087
-0.00020750266363141786   2.6176438647701103e-05   -0.0001797604083221087
-0.00020750266363141786   2.6176438647701103e-05   -0.0001797604083221087
-0.00020750266363141786   2.6176438647701103e-05   -0.0001797604083221087
-0.0002860407032419186   2.9060558665541044e-05   -0.0003039524735369476
-0.0002860407032419186   2.9060558665541044e-05   -0.0003039524735369476
-0.0002860407032419186   2.9060558665541044e-05   -0.0003039524735369476
-0.0002860407032419186   2.9060558665541044e-05   -0.0003039524735369476
-0.00013526512214376128   3.250337654005491e-05   -5.059414764864304e-05
-0.00013526512214376128   3.250337654005491e-05   -5.059414764864304e-05
-0.00013526512214376128   3.250337654005491e-05   -5.059414764864304e-05
-0.00013526512214376128   3.250337654005491e-05   -5.059414764864304e-05
-0.00013631147630861903   3.557943742002977e-05   -0.00029622688217386273
-0.00013631147630861903   3.557943742002977e-05   -0.00029622688217386273
-0.00013631147630861903   3.557943742002977e-05   -0.00029622688217386273
-0.00013631147630861903   3.557943742002977e-05   -0.00029622688217386273
-0.00028757023725940815   4.01012402257042e-05   -4.684202893928571e-05
-0.00028757023725940815   4.01012402257042e-05   -4.684202893928571e-05
-0.00028757023725940815   4.01012402257042e-05   -4.684202893928571e-05
-0.00028757023725940815   4.01012402257042e-05   -4.684202893928571e-05
-0.0002091751529813609   3.319983308450072e-05   -0.00017335965845130833
-0.0002091751529813609   3.319983308450072e-05   -0.00017335965845130833
-0.0002091751529813609   3.319983308450072e-05   -0.00017335965845130833
-0.0002091751529813609   3.319983308450072e-05   -0.00017335965845130833
-0.00028757023725940815   3.557943742002977e-05   -0.0002989399638572673
-0.00028757023725940815   3.557943742002977e-05   -0.0002989399638572673
-0.00028757023725940815   3.557943742002977e-05   -0.0002989399638572673
-0.00028757023725940815   3.557943742002977e-05   -0.0002989399638572673
-0.0001363114763086195   4.0101240225704415e-05   -4.412894725588126e-05
-0.0001363114763086195   4.0101240225704415e-05   -4.412894725588126e-05
-0.0001363114763086195   4.0101240225704415e-05   -4.412894725588126e-05
-0.0001363114763086195   4.0101240225704415e-05   -4.412894725588126e-05
-0.00013603227319827505   4.138081481283964e-05   -0.0002931812654944426
-0.00013603227319827505   4.138081481283964e-05   -0.0002931812654944426
-0.00013603227319827505   4.138081481283964e-05   -0.0002931812654944426
-0.00013603227319827505   4.138081481283964e-05   -0.0002931812654944426
-0.0002859912494457948   4.8271437046713394e-05   -4.7384011755567364e-05
-0.0002859912494457948   4.8271437046713394e-05   -4.7384011755567364e-05
-0.0002859912494457948   4.8271437046713394e-05   -4.7384011755567364e-05
-0.0002859912494457948   4.8271437046713394e-05   -4.7384011755567364e-05
-0.00021046115561151074   3.95565424817577e-05   -0.00016803856474040144
-0.00021046115561151074   3.95565424817577e-05   -0.00016803856474040144
-0.00021046115561151074   3.95565424817577e-05   -0.00016803856474040144
-0.00021046115561151074   3.95565424817577e-05   -0.00016803856474040144
-0.0001320602968217187   -2.5978146541966564e-06   -0.0003164655362373116
-0.0001320602968217187   -2.5978146541966564e-06   -0.0003164655362373116
-0.0001320602968217187   -2.5978146541966564e-06   -0.0003164655362373116
-0.0001320602968217187   -2.5978146541966564e-06   -0.0003164655362373116
1.3009649821268274e-05   -6.811745389789618e-07   -7.353230776320241e-05
1.3009649821268274e-05   -6.811745389789618e-07   -7.353230776320241e-05
1.3009649821268274e-05   -6.811745389789618e-07   -7.353230776320241e-05
1.3009649821268274e-05   -6.811745389789618e-07   -7.353230776320241e-05
1.2361850529623699e-05   5.142492256452911e-06   -0.00031825847582321544
1.2361850529623699e-05   5.142492256452911e-06   -0.00031825847582321544
1.2361850529623699e-05   5.142492256452911e-06   -0.00031825847582321544
1.2361850529623699e-05   5.142492256452911e-06   -0.00031825847582321544
-0.0001352651221437611   7.779796130445282e-06   -7.37959036919683e-05
-0.0001352651221437611   7.779796130445282e-06   -7.37959036919683e-05
-0.0001352651221437611   7.779796130445282e-06   -7.37959036919683e-05
-0.0001352651221437611   7.779796130445282e-06   -7.37959036919683e-05
-6.085730547177903e-05   2.5784511621292907e-06   -0.0001946881244976163
-6.085730547177903e-05   2.5784511621292907e-06   -0.0001946881244976163
-6.085730547177903e-05   2.5784511621292907e-06   -0.0001946881244976163
-6.085730547177903e-05   2.5784511621292907e-06   -0.0001946881244976163
-0.0001352651221437611   5.142492256452857e-06   -0.00031984085814761026
-0.0001352651221437611   5.142492256452857e-06   -0.00031984085814761026
-0.0001352651221437611   5.142492256452857e-06   -0.00031984085814761026
-0.0001352651221437611   5.142492256452857e-06   -0.00031984085814761026
1.2361850529623699e-05   7.779796130445282e-06   -7.221352136757315e-05
1.2361850529623699e-05   7.779796130445282e-06   -7.221352136757315e-05
1.2361850529623699e-05   7.779796130445282e-06   -7.221352136757315e-05
1.2361850529623699e-05   7.779796130445282e-06   -7.221352136757315e-05
1.149401827327758e-05   1.1953837227704305e-05   -0.000318935521513931
1.149401827327758e-05   1.1953837227704305e-05   -0.000318935521513931
1.149401827327758e-05   1.1953837227704305e-05   -0.000318935521513931
1.149401827327758e-05   1.1953837227704305e-05   -0.000318935521513931
-0.00013631147630861903   1.6045081307075777e-05   -7.504777699172651e-05
-0.00013631147630861903   1.6045081307075777e-05   -7.504777699172651e-05
-0.00013631147630861903   1.6045081307075777e-05   -7.504777699172651e-05
-0.00013631147630861903   1.6045081307075777e-05   -7.504777699172651e-05
-6.204740827702972e-05   9.752212886222889e-06   -0.0001950455026585295
-6.204740827702972e-05   9.752212886222889e-06   -0.0001950455026585295
-6.204740827702972e-05   9.752212886222889e-06   -0.0001950455026585295
-6.204740827702972e-05   9.752212886222889e-06   -0.0001950455026585295
-0.00013631147630861903   1.1953837227704305e-05   -0.0003213902679615539
-0.00013631147630861903   1.1953837227704305e-05   -0.0003213902679615539
-0.00013631147630861903   1.1953837227704305e-05   -0.0003213902679615539
-0.00013631147630861903   1.1953837227704305e-05   -0.0003213902679615539
1.1494018273277604e-05   1.6045081307075777e-05   -7.259303054410368e-05
1.1494018273277604e-05   1.6045081307075777e-05   -7.259303054410368e-05
1.1494018273277604e-05   1.6045081307075777e-05   -7.259303054410368e-05
1.1494018273277604e-05   1.6045081307075777e-05   -7.259303054410368e-05
9.805355503572996e-06   1.9848127152023384e-05   -0.000318381035575037
9.805355503572996e-06   1.9848127152023384e-05   -0.000318381035575037
9.805355503572996e-06   1.9848127152023384e-05   -0.000318381035575037
9.805355503572996e-06   1.9848127152023384e-05   -0.000318381035575037
-0.00013603227319827513   2.4658727507978657e-05   -7.820468128553028e-05
-0.00013603227319827513   2.4658727507978657e-05   -7.820468128553028e-05
-0.00013603227319827513   2.4658727507978657e-05   -7.820468128553028e-05
-0.00013603227319827513   2.4658727507978657e-05   -7.820468128553028e-05
-6.278978413713477e-05   1.7121797330327346e-05   -0.00019575333828083976
-6.278978413713477e-05   1.7121797330327346e-05   -0.00019575333828083976
-6.278978413713477e-05   1.7121797330327346e-05   -0.00019575333828083976
-6.278978413713477e-05   1.7121797330327346e-05   -0.00019575333828083976
1.3009649821268274e-05   -2.3154441052185715e-05   -0.00029202453238015666
1.3009649821268274e-05   -2.3154441052185715e-05   -0.00029202453238015666
1.3009649821268274e-05   -2.3154441052185715e-05   -0.00029202453238015666
1.3009649821268274e-05   -2.3154441052185715e-05   -0.00029202453238015666
0.00016250882603683538   -2.3809243704048114e-05   -4.3252120278662056e-05
0.00016250882603683538   -2.3809243704048114e-05   -4.3252120278662056e-05
0.00016250882603683538   -2.3809243704048114e-05   -4.3252120278662056e-05
0.00016250882603683538   -2.3809243704048114e-05   -4.3252120278662056e-05
0.0001637793809958865   -1.7479166707551992e-05   -0.0002961444303400921
0.0001637793809958865   -1.7479166707551992e-05   -0.0002961444303400921
0.0001637793809958865   -1.7479166707551992e-05   -0.0002961444303400921
0.0001637793809958865   -1.7479166707551992e-05   -0.0002961444303400921
1.2361850529623699e-05   -1.61307494975782e-05   -4.45909298889711e-05
1.2361850529623699e-05   -1.61307494975782e-05   -4.45909298889711e-05
1.2361850529623699e-05   -1.61307494975782e-05   -4.45909298889711e-05
1.2361850529623699e-05   -1.61307494975782e-05   -4.45909298889711e-05
8.67906256935801e-05   -1.9294802971489642e-05   -0.00016674045641121882
8.67906256935801e-05   -1.9294802971489642e-05   -0.00016674045641121882
8.67906256935801e-05   -1.9294802971489642e-05   -0.00016674045641121882
8.67906256935801e-05   -1.9294802971489642e-05   -0.00016674045641121882
1.2361850529623679e-05   -1.7479166707552046e-05   -0.000296953480666077
1.2361850529623679e-05   -1.7479166707552046e-05   -0.000296953480666077
1.2361850529623679e-05   -1.7479166707552046e-05   -0.000296953480666077
1.2361850529623679e-05   -1.7479166707552046e-05   -0.000296953480666077
0.0001637793809958868   -1.61307494975782e-05   -4.3781879562986795e-05
0.0001637793809958868   -1.61307494975782e-05   -4.3781879562986795e-05
0.0001637793809958868   -1.61307494975782e-05   -4.3781879562986795e-05
0.0001637793809958868   -1.61307494975782e-05   -4.3781879562986795e-05
0.00016290516130908965   -1.1034799411943207e-05   -0.0003017191682337206
0.00016290516130908965   -1.1034799411943207e-05   -0.0003017191682337206
0.00016290516130908965   -1.1034799411943207e-05   -0.0003017191682337206
0.00016290516130908965   -1.1034799411943207e-05   -0.0003017191682337206
1.149401827327758e-05   -8.603574391944637e-06   -5.082599818603348e-05
1.149401827327758e-05   -8.603574391944637e-06   -5.082599818603348e-05
1.149401827327758e-05   -8.603574391944637e-06   -5.082599818603348e-05
1.149401827327758e-05   -8.603574391944637e-06   -5.082599818603348e-05
8.580743651089058e-05   -1.3155974342600029e-05   -0.000171950255278328
8.580743651089058e-05   -1.3155974342600029e-05   -0.000171950255278328
8.580743651089058e-05   -1.3155974342600029e-05   -0.000171950255278328
8.580743651089058e-05   -1.3155974342600029e-05   -0.000171950255278328
1.1494018273277574e-05   -1.1034799411943207e-05   -0.0003031779032457199
1.1494018273277574e-05   -1.1034799411943207e-05   -0.0003031779032457199
1.1494018273277574e-05   -1.1034799411943207e-05   -0.0003031779032457199
1.1494018273277574e-05   -1.1034799411943207e-05   -0.0003031779032457199
0.00016290516130909022   -8.60357439194442e-06   -4.9367263174034354e-05
0.00016290516130909022   -8.60357439194442e-06   -4.9367263174034354e-05
0.00016290516130909022   -8.60357439194442e-06   -4.9367263174034354e-05
0.00016290516130909022   -8.60357439194442e-06   -4.9367263174034354e-05
0.00015809324732821479   -2.369284197543324e-06   -0.00030224617576531267
0.00015809324732821479   -2.369284197543324e-06   -0.00030224617576531267
0.00015809324732821479   -2.369284197543324e-06   -0.00030224617576531267
0.00015809324732821479   -2.369284197543324e-06   -0.00030224617576531267
9.805355503572996e-06   7.137453226723454e-07   -5.694950710303934e-05
9.805355503572996e-06   7.137453226723454e-07   -5.694950710303934e-05
9.805355503572996e-06   7.137453226723454e-07   -5.694950710303934e-05
9.805355503572996e-06   7.137453226723454e-07   -5.694950710303934e-05
8.481513621494974e-05   -5.985333943857828e-06   -0.00017794636072874896
8.481513621494974e-05   -5.985333943857828e-06   -0.00017794636072874896
8.481513621494974e-05   -5.985333943857828e-06   -0.00017794636072874896
8.481513621494974e-05   -5.985333943857828e-06   -0.00017794636072874896
0.00016250882603683538   -5.862306914421775e-05   -0.00017672822794369953
0.00016250882603683538   -5.862306914421775e-05   -0.00017672822794369953
0.00016250882603683538   -5.862306914421775e-05   -0.00017672822794369953
0.00016250882603683538   -5.862306914421775e-05   -0.00017672822794369953
0.000310165776892644   -4.4298048490412764e-05   7.796170254159747e-05
0.000310165776892644   -4.4298048490412764e-05   7.796170254159747e-05
0.000310165776892644   -4.4298048490412764e-05   7.796170254159747e-05
0.000310165776892644   -4.4298048490412764e-05   7.796170254159747e-05
0.0003218100512223008   -4.993647709386603e-05   -0.00021505942696226473
0.0003218100512223008   -4.993647709386603e-05   -0.00021505942696226473
0.0003218100512223008   -4.993647709386603e-05   -0.00021505942696226473
0.0003218100512223008   -4.993647709386603e-05   -0.00021505942696226473
0.00016377938099588712   -4.023166033144897e-05   4.250213335764191e-05
0.00016377938099588712   -4.023166033144897e-05   4.250213335764191e-05
0.00016377938099588712   -4.023166033144897e-05   4.250213335764191e-05
0.00016377938099588712   -4.023166033144897e-05   4.250213335764191e-05
0.00022842742710241177   -4.807796250352273e-05   -6.0536828849988675e-05
0.00022842742710241177   -4.807796250352273e-05   -6.0536828849988675e-05
0.00022842742710241177   -4.807796250352273e-05   -6.0536828849988675e-05
0.00022842742710241177   -4.807796250352273e-05   -6.0536828849988675e-05
0.00016377938099588666   -4.9936477093865924e-05   -0.00022088231701971407
0.00016377938099588666   -4.9936477093865924e-05   -0.00022088231701971407
0.00016377938099588666   -4.9936477093865924e-05   -0.00022088231701971407
0.00016377938099588666   -4.9936477093865924e-05   -0.00022088231701971407
0.0003218100512223008   -4.023166033144897e-05   4.8325023415092235e-05
0.0003218100512223008   -4.023166033144897e-05   4.8325023415092235e-05
0.0003218100512223008   -4.023166033144897e-05   4.8325023415092235e-05
0.0003218100512223008   -4.023166033144897e-05   4.8325023415092235e-05
0.0003205021660766634   -4.5651121867125726e-05   -0.00023394389476501845
0.0003205021660766634   -4.5651121867125726e-05   -0.00023394389476501845
0.0003205021660766634   -4.5651121867125726e-05   -0.00023394389476501845
0.0003205021660766634   -4.5651121867125726e-05   -0.00023394389476501845
0.00016290516130909022   -3.5898742342960026e-05   2.2866352133103784e-05
0.00016290516130909022   -3.5898742342960026e-05   2.2866352133103784e-05
0.00016290516130909022   -3.5898742342960026e-05   2.2866352133103784e-05
0.00016290516130909022   -3.5898742342960026e-05   2.2866352133103784e-05
0.00023631322385795646   -4.2490809606252544e-05   -9.552517842369764e-05
0.00023631322385795646   -4.2490809606252544e-05   -9.552517842369764e-05
0.00023631322385795646   -4.2490809606252544e-05   -9.552517842369764e-05
0.00023631322385795646   -4.2490809606252544e-05   -9.552517842369764e-05
0.0001629051613090899   -4.5651121867125726e-05   -0.00023979532247951738
0.0001629051613090899   -4.5651121867125726e-05   -0.00023979532247951738
0.0001629051613090899   -4.5651121867125726e-05   -0.00023979532247951738
0.0001629051613090899   -4.5651121867125726e-05   -0.00023979532247951738
0.0003205021660766634   -3.5898742342960026e-05   2.8717779847603313e-05
0.0003205021660766634   -3.5898742342960026e-05   2.8717779847603313e-05
0.0003205021660766634   -3.5898742342960026e-05   2.8717779847603313e-05
0.0003205021660766634   -3.5898742342960026e-05   2.8717779847603313e-05
0.0003184440085917104   -3.554882422533609e-05   -0.0002723489314152614
0.0003184440085917104   -3.554882422533609e-05   -0.0002723489314152614
0.0003184440085917104   -3.554882422533609e-05   -0.0002723489314152614
0.0003184440085917104   -3.554882422533609e-05   -0.0002723489314152614
0.00015809324732821535   -2.6570414133369157e-05   -1.04847086979501e-05
0.00015809324732821535   -2.6570414133369157e-05   -1.04847086979501e-05
0.00015809324732821535   -2.6570414133369157e-05   -1.04847086979501e-05
0.00015809324732821535   -2.6570414133369157e-05   -1.04847086979501e-05
0.00022947199412680426   -3.6609672649361505e-05   -0.00012342573158600242
0.00022947199412680426   -3.6609672649361505e-05   -0.00012342573158600242
0.00022947199412680426   -3.6609672649361505e-05   -0.00012342573158600242
0.00022947199412680426   -3.6609672649361505e-05   -0.00012342573158600242
-0.0003477453602078502   5.011435810256624e-05   -0.00023951277666356332
-0.0003477453602078502   5.011435810256624e-05   -0.00023951277666356332
-0.0003477453602078502   5.011435810256624e-05   -0.00023951277666356332
-0.0003477453602078502   5.011435810256624e-05   -0.00023951277666356332
-0.00022781314749218881   3.835188059321407e-05   -4.668324197640609e-05
-0.00022781314749218881   3.835188059321407e-05   -4.668324197640609e-05
-0.00022781314749218881   3.835188059321407e-05   -4.668324197640609e-05
-0.00022781314749218881   3.835188059321407e-05   -4.668324197640609e-05
-0.00022894350446188622   6.010266587485702e-05   -0.00019883731290702353
-0.00022894350446188622   6.010266587485702e-05   -0.00019883731290702353
-0.00022894350446188622   6.010266587485702e-05   -0.00019883731290702353
-0.00022894350446188622   6.010266587485702e-05   -0.00019883731290702353
-0.0003425610429616525   4.636258540243561e-05   -1.2307004572933641e-06
-0.0003425610429616525   4.636258540243561e-05   -1.2307004572933641e-06
-0.0003425610429616525   4.636258540243561e-05   -1.2307004572933641e-06
-0.0003425610429616525   4.636258540243561e-05   -1.2307004572933641e-06
-0.0002746421522606681   5.0942842690827276e-05   -0.00011717700599863669
-0.0002746421522606681   5.0942842690827276e-05   -0.00011717700599863669
-0.0002746421522606681   5.0942842690827276e-05   -0.00011717700599863669
-0.0002746421522606681   5.0942842690827276e-05   -0.00011717700599863669
-0.0003425610429616525   6.010266587485702e-05   -0.00019059326462357053
-0.0003425610429616525   6.010266587485702e-05   -0.00019059326462357053
-0.0003425610429616525   6.010266587485702e-05   -0.00019059326462357053
-0.0003425610429616525   6.010266587485702e-05   -0.00019059326462357053
-0.00022894350446188622   4.636258540243561e-05   -9.474748740745387e-06
-0.00022894350446188622   4.636258540243561e-05   -9.474748740745387e-06
-0.00022894350446188622   4.636258540243561e-05   -9.474748740745387e-06
-0.00022894350446188622   4.636258540243561e-05   -9.474748740745387e-06
-0.0002287424566376204   6.460888546642443e-05   -0.00017008508094265747
-0.0002287424566376204   6.460888546642443e-05   -0.00017008508094265747
-0.0002287424566376204   6.460888546642443e-05   -0.00017008508094265747
-0.0002287424566376204   6.460888546642443e-05   -0.00017008508094265747
-0.00033749149174320484   4.9876567685529574e-05   2.0002701568519726e-05
-0.00033749149174320484   4.9876567685529574e-05   2.0002701568519726e-05
-0.00033749149174320484   4.9876567685529574e-05   2.0002701568519726e-05
-0.00033749149174320484   4.9876567685529574e-05   2.0002701568519726e-05
-0.0002770626085093062   5.558720293159618e-05   -8.413848496894877e-05
-0.0002770626085093062   5.558720293159618e-05   -8.413848496894877e-05
-0.0002770626085093062   5.558720293159618e-05   -8.413848496894877e-05
-0.0002770626085093062   5.558720293159618e-05   -8.413848496894877e-05
-0.00033749149174320484   6.460888546642443e-05   -0.00016124569027412038
-0.00033749149174320484   6.460888546642443e-05   -0.00016124569027412038
-0.00033749149174320484   6.460888546642443e-05   -0.00016124569027412038
-0.00033749149174320484   6.460888546642443e-05   -0.00016124569027412038
-0.00022874245663762071   4.987656768553001e-05   1.116331089998405e-05
-0.00022874245663762071   4.987656768553001e-05   1.116331089998405e-05
-0.00022874245663762071   4.987656768553001e-05   1.116331089998405e-05
-0.00022874245663762071   4.987656768553001e-05   1.116331089998405e-05
-0.00022899837439586674   6.816743886855245e-05   -0.0001297767445325032
-0.00022899837439586674   6.816743886855245e-05   -0.0001297767445325032
-0.00022899837439586674   6.816743886855245e-05   -0.0001297767445325032
-0.00022899837439586674   6.816743886855245e-05   -0.0001297767445325032
-0.00033084875194052494   5.331704553529753e-05   4.8884120708545496e-05
-0.00033084875194052494   5.331704553529753e-05   4.8884120708545496e-05
-0.00033084875194052494   5.331704553529753e-05   4.8884120708545496e-05
-0.00033084875194052494   5.331704553529753e-05   4.8884120708545496e-05
-0.0002707904722464371   5.8016559110230046e-05   -5.403272025989044e-05
-0.0002707904722464371   5.8016559110230046e-05   -5.403272025989044e-05
-0.0002707904722464371   5.8016559110230046e-05   -5.403272025989044e-05
-0.0002707904722464371   5.8016559110230046e-05   -5.403272025989044e-05
-0.00022781314749218881   2.3317397781850773e-05   -0.00027676014275689693
-0.00022781314749218881   2.3317397781850773e-05   -0.00027676014275689693
-0.00022781314749218881   2.3317397781850773e-05   -0.00027676014275689693
-0.00022781314749218881   2.3317397781850773e-05   -0.00027676014275689693
-0.0001157686144165029   1.9100967212598834e-05   -9.254911263897132e-05
-0.0001157686144165029   1.9100967212598834e-05   -9.254911263897132e-05
-0.0001157686144165029   1.9100967212598834e-05   -9.254911263897132e-05
-0.0001157686144165029   1.9100967212598834e-05   -9.254911263897132e-05
-0.00011719895334817427   3.2503376540054694e-05   -0.0002728592426776697
-0.00011719895334817427   3.2503376540054694e-05   -0.0002728592426776697
-0.00011719895334817427   3.2503376540054694e-05   -0.0002728592426776697
-0.00011719895334817427   3.2503376540054694e-05   -0.0002728592426776697
-0.0002289435044618858   2.6974646645176563e-05   -8.330108621788963e-05
-0.0002289435044618858   2.6974646645176563e-05   -8.330108621788963e-05
-0.0002289435044618858   2.6974646645176563e-05   -8.330108621788963e-05
-0.0002289435044618858   2.6974646645176563e-05   -8.330108621788963e-05
-0.0001709582140197803   2.6861591670305184e-05   -0.00017987540396980977
-0.0001709582140197803   2.6861591670305184e-05   -0.00017987540396980977
-0.0001709582140197803   2.6861591670305184e-05   -0.00017987540396980977
-0.0001709582140197803   2.6861591670305184e-05   -0.00017987540396980977
-0.000228943504461886   3.2503376540054694e-05   -0.0002695420047407422
-0.000228943504461886   3.2503376540054694e-05   -0.0002695420047407422
-0.000228943504461886   3.2503376540054694e-05   -0.0002695420047407422
-0.000228943504461886   3.2503376540054694e-05   -0.0002695420047407422
-0.00011719895334817444   2.6974646645176997e-05   -8.661832415481606e-05
-0.00011719895334817444   2.6974646645176997e-05   -8.661832415481606e-05
-0.00011719895334817444   2.6974646645176997e-05   -8.661832415481606e-05
-0.00011719895334817444   2.6974646645176997e-05   -8.661832415481606e-05
-0.0001181348605552199   4.01012402257042e-05   -0.00026562828142101644
-0.0001181348605552199   4.01012402257042e-05   -0.00026562828142101644
-0.0001181348605552199   4.01012402257042e-05   -0.00026562828142101644
-0.0001181348605552199   4.01012402257042e-05   -0.00026562828142101644
-0.0002287424566376204   3.396269565189569e-05   -7.759916120606523e-05
-0.0002287424566376204   3.396269565189569e-05   -7.759916120606523e-05
-0.0002287424566376204   3.396269565189569e-05   -7.759916120606523e-05
-0.0002287424566376204   3.396269565189569e-05   -7.759916120606523e-05
-0.00017129665578832908   3.3334503593141895e-05   -0.00017296524738629512
-0.00017129665578832908   3.3334503593141895e-05   -0.00017296524738629512
-0.00017129665578832908   3.3334503593141895e-05   -0.00017296524738629512
-0.00017129665578832908   3.3334503593141895e-05   -0.00017296524738629512
-0.0002287424566376204   4.01012402257042e-05   -0.0002619451546767317
-0.0002287424566376204   4.01012402257042e-05   -0.0002619451546767317
-0.0002287424566376204   4.01012402257042e-05   -0.0002619451546767317
-0.0002287424566376204   4.01012402257042e-05   -0.0002619451546767317
-0.00011813486055522034   3.396269565189569e-05   -8.128228795034923e-05
-0.00011813486055522034   3.396269565189569e-05   -8.128228795034923e-05
-0.00011813486055522034   3.396269565189569e-05   -8.128228795034923e-05
-0.00011813486055522034   3.396269565189569e-05   -8.128228795034923e-05
-0.00011933691956873501   4.8271437046713394e-05   -0.0002649805988632816
-0.00011933691956873501   4.8271437046713394e-05   -0.0002649805988632816
-0.00011933691956873501   4.8271437046713394e-05   -0.0002649805988632816
-0.00011933691956873501   4.8271437046713394e-05   -0.0002649805988632816
-0.00022899837439586664   4.138876692666221e-05   -7.808190541269818e-05
-0.00022899837439586664   4.138876692666221e-05   -7.808190541269818e-05
-0.00022899837439586664   4.138876692666221e-05   -7.808190541269818e-05
-0.00022899837439586664   4.138876692666221e-05   -7.808190541269818e-05
-0.0001733494808374809   3.9739559409372564e-05   -0.0001698405368329651
-0.0001733494808374809   3.9739559409372564e-05   -0.0001698405368329651
-0.0001733494808374809   3.9739559409372564e-05   -0.0001698405368329651
-0.0001733494808374809   3.9739559409372564e-05   -0.0001698405368329651
-0.00011576861441650268   -6.811745389789618e-07   -0.00029823373810532725
-0.00011576861441650268   -6.811745389789618e-07   -0.00029823373810532725
-0.00011576861441650268   -6.811745389789618e-07   -0.00029823373810532725
-0.00011576861441650268   -6.811745389789618e-07   -0.00029823373810532725
-5.0034833281949e-06   1.0125319882085815e-06   -0.00011260896237516853
-5.0034833281949e-06   1.0125319882085815e-06   -0.00011260896237516853
-5.0034833281949e-06   1.0125319882085815e-06   -0.00011260896237516853
-5.0034833281949e-06   1.0125319882085815e-06   -0.00011260896237516853
-6.154203692450604e-06   7.779796130445282e-06   -0.0002954749368675445
-6.154203692450604e-06   7.779796130445282e-06   -0.0002954749368675445
-6.154203692450604e-06   7.779796130445282e-06   -0.0002954749368675445
-6.154203692450604e-06   7.779796130445282e-06   -0.0002954749368675445
-0.00011719895334817427   8.75656588619593e-06   -0.0001109864159614558
-0.00011719895334817427   8.75656588619593e-06   -0.0001109864159614558
-0.00011719895334817427   8.75656588619593e-06   -0.0001109864159614558
-0.00011719895334817427   8.75656588619593e-06   -0.0001109864159614558
-6.0690978365009304e-05   5.097115467587229e-06   -0.00020297070401556543
-6.0690978365009304e-05   5.097115467587229e-06   -0.00020297070401556543
-6.0690978365009304e-05   5.097115467587229e-06   -0.00020297070401556543
-6.0690978365009304e-05   5.097115467587229e-06   -0.00020297070401556543
-0.00011719895334817427   7.779796130445282e-06   -0.0002960609987209951
-0.00011719895334817427   7.779796130445282e-06   -0.0002960609987209951
-0.00011719895334817427   7.779796130445282e-06   -0.0002960609987209951
-0.00011719895334817427   7.779796130445282e-06   -0.0002960609987209951
-6.1542036924506145e-06   8.756565886195496e-06   -0.00011040035410800494
-6.1542036924506145e-06   8.756565886195496e-06   -0.00011040035410800494
-6.1542036924506145e-06   8.756565886195496e-06   -0.00011040035410800494
-6.1542036924506145e-06   8.756565886195496e-06   -0.00011040035410800494
-6.994133053604126e-06   1.6045081307075777e-05   -0.000296288044598368
-6.994133053604126e-06   1.6045081307075777e-05   -0.000296288044598368
-6.994133053604126e-06   1.6045081307075777e-05   -0.000296288044598368
-6.994133053604126e-06   1.6045081307075777e-05   -0.000296288044598368
-0.00011813486055522012   1.6476858904564736e-05   -0.00011131256532083617
-0.00011813486055522012   1.6476858904564736e-05   -0.00011131256532083617
-0.00011813486055522012   1.6476858904564736e-05   -0.00011131256532083617
-0.00011813486055522012   1.6476858904564736e-05   -0.00011131256532083617
-6.216913858842124e-05   1.192488767520674e-05   -0.0002018575858612174
-6.216913858842124e-05   1.192488767520674e-05   -0.0002018575858612174
-6.216913858842124e-05   1.192488767520674e-05   -0.0002018575858612174
-6.216913858842124e-05   1.192488767520674e-05   -0.0002018575858612174
-0.00011813486055522012   1.6045081307075777e-05   -0.0002965471111568621
-0.00011813486055522012   1.6045081307075777e-05   -0.0002965471111568621
-0.00011813486055522012   1.6045081307075777e-05   -0.0002965471111568621
-0.00011813486055522012   1.6045081307075777e-05   -0.0002965471111568621
-6.994133053604143e-06   1.6476858904564736e-05   -0.00011105349876234139
-6.994133053604143e-06   1.6476858904564736e-05   -0.00011105349876234139
-6.994133053604143e-06   1.6476858904564736e-05   -0.00011105349876234139
-6.994133053604143e-06   1.6476858904564736e-05   -0.00011105349876234139
-8.300014094980501e-06   2.4658727507978657e-05   -0.00030010447536087874
-8.300014094980501e-06   2.4658727507978657e-05   -0.00030010447536087874
-8.300014094980501e-06   2.4658727507978657e-05   -0.00030010447536087874
-8.300014094980501e-06   2.4658727507978657e-05   -0.00030010447536087874
-0.00011933691956873485   2.43773381291279e-05   -0.00011487413261064539
-0.00011933691956873485   2.43773381291279e-05   -0.00011487413261064539
-0.00011933691956873485   2.43773381291279e-05   -0.00011487413261064539
-0.00011933691956873485   2.43773381291279e-05   -0.00011487413261064539
-6.37380939997363e-05   1.8833702778169644e-05   -0.00020421266068173323
-6.37380939997363e-05   1.8833702778169644e-05   -0.00020421266068173323
-6.37380939997363e-05   1.8833702778169644e-05   -0.00020421266068173323
-6.37380939997363e-05   1.8833702778169644e-05   -0.00020421266068173323
-5.003483328194913e-06   -2.3809243704048114e-05   -0.00026654444511335694
-5.003483328194913e-06   -2.3809243704048114e-05   -0.00026654444511335694
-5.003483328194913e-06   -2.3809243704048114e-05   -0.00026654444511335694
-5.003483328194913e-06   -2.3809243704048114e-05   -0.00026654444511335694
0.00010524699165313502   -1.600296282952508e-05   -7.81098849530937e-05
0.00010524699165313502   -1.600296282952508e-05   -7.81098849530937e-05
0.00010524699165313502   -1.600296282952508e-05   -7.81098849530937e-05
0.00010524699165313502   -1.600296282952508e-05   -7.81098849530937e-05
0.00010514212421047797   -1.61307494975782e-05   -0.0002635221007232625
0.00010514212421047797   -1.61307494975782e-05   -0.0002635221007232625
0.00010514212421047797   -1.61307494975782e-05   -0.0002635221007232625
0.00010514212421047797   -1.61307494975782e-05   -0.0002635221007232625
-6.1542036924506145e-06   -8.91367505477655e-06   -8.235846555072898e-05
-6.1542036924506145e-06   -8.91367505477655e-06   -8.235846555072898e-05
-6.1542036924506145e-06   -8.91367505477655e-06   -8.235846555072898e-05
-6.1542036924506145e-06   -8.91367505477655e-06   -8.235846555072898e-05
4.942460785149202e-05   -1.566050797115236e-05   -0.0001709417183741413
4.942460785149202e-05   -1.566050797115236e-05   -0.0001709417183741413
4.942460785149202e-05   -1.566050797115236e-05   -0.0001709417183741413
4.942460785149202e-05   -1.566050797115236e-05   -0.0001709417183741413
-6.1542036924506145e-06   -1.61307494975782e-05   -0.0002678523453889429
-6.1542036924506145e-06   -1.61307494975782e-05   -0.0002678523453889429
-6.1542036924506145e-06   -1.61307494975782e-05   -0.0002678523453889429
-6.1542036924506145e-06   -1.61307494975782e-05   -0.0002678523453889429
0.00010514212421047797   -8.913675054776984e-06   -7.802822088504762e-05
0.00010514212421047797   -8.913675054776984e-06   -7.802822088504762e-05
0.00010514212421047797   -8.913675054776984e-06   -7.802822088504762e-05
0.00010514212421047797   -8.913675054776984e-06   -7.802822088504762e-05
0.00010560370738387035   -8.603574391944637e-06   -0.00027052273142808795
0.00010560370738387035   -8.603574391944637e-06   -0.00027052273142808795
0.00010560370738387035   -8.603574391944637e-06   -0.00027052273142808795
0.00010560370738387035   -8.603574391944637e-06   -0.00027052273142808795
-6.994133053604153e-06   -1.9397730382599877e-06   -8.685794484450886e-05
-6.994133053604153e-06   -1.9397730382599877e-06   -8.685794484450886e-05
-6.994133053604153e-06   -1.9397730382599877e-06   -8.685794484450886e-05
-6.994133053604153e-06   -1.9397730382599877e-06   -8.685794484450886e-05
4.789548872201816e-05   -9.511197189348425e-06   -0.00017379779331322485
4.789548872201816e-05   -9.511197189348425e-06   -0.00017379779331322485
4.789548872201816e-05   -9.511197189348425e-06   -0.00017379779331322485
4.789548872201816e-05   -9.511197189348425e-06   -0.00017379779331322485
-6.994133053604133e-06   -8.60357439194442e-06   -0.00027452101224029765
-6.994133053604133e-06   -8.60357439194442e-06   -0.00027452101224029765
-6.994133053604133e-06   -8.60357439194442e-06   -0.00027452101224029765
-6.994133053604133e-06   -8.60357439194442e-06   -0.00027452101224029765
0.00010560370738387035   -1.9397730382599877e-06   -8.285966403229661e-05
0.00010560370738387035   -1.9397730382599877e-06   -8.285966403229661e-05
0.00010560370738387035   -1.9397730382599877e-06   -8.285966403229661e-05
0.00010560370738387035   -1.9397730382599877e-06   -8.285966403229661e-05
0.00010476538708229199   7.137453226723454e-07   -0.0002784304447406668
0.00010476538708229199   7.137453226723454e-07   -0.0002784304447406668
0.00010476538708229199   7.137453226723454e-07   -0.0002784304447406668
0.00010476538708229199   7.137453226723454e-07   -0.0002784304447406668
-8.300014094980515e-06   6.222439741498161e-06   -9.329332609650829e-05
-8.300014094980515e-06   6.222439741498161e-06   -9.329332609650829e-05
-8.300014094980515e-06   6.222439741498161e-06   -9.329332609650829e-05
-8.300014094980515e-06   6.222439741498161e-06   -9.329332609650829e-05
4.734550482296201e-05   -2.9246577533249656e-06   -0.00018054759912951724
4.734550482296201e-05   -2.9246577533249656e-06   -0.00018054759912951724
4.734550482296201e-05   -2.9246577533249656e-06   -0.00018054759912951724
4.734550482296201e-05   -2.9246577533249656e-06   -0.00018054759912951724
0.00010524699165313491   -4.429804849041298e-05   -0.00014924186616066656
0.00010524699165313491   -4.429804849041298e-05   -0.00014924186616066656
0.00010524699165313491   -4.429804849041298e-05   -0.00014924186616066656
0.00010524699165313491   -4.429804849041298e-05   -0.00014924186616066656
0.0002086590699485949   -2.9081823765200396e-05   3.2241332500228e-05
0.0002086590699485949   -2.9081823765200396e-05   3.2241332500228e-05
0.0002086590699485949   -2.9081823765200396e-05   3.2241332500228e-05
0.0002086590699485949   -2.9081823765200396e-05   3.2241332500228e-05
0.00021560443512675602   -4.0231660331448756e-05   -0.0001681055851100122
0.00021560443512675602   -4.0231660331448756e-05   -0.0001681055851100122
0.00021560443512675602   -4.0231660331448756e-05   -0.0001681055851100122
0.00021560443512675602   -4.0231660331448756e-05   -0.0001681055851100122
0.00010514212421047775   -2.5010822510413734e-05   6.86576372449781e-06
0.00010514212421047775   -2.5010822510413734e-05   6.86576372449781e-06
0.00010514212421047775   -2.5010822510413734e-05   6.86576372449781e-06
0.00010514212421047775   -2.5010822510413734e-05   6.86576372449781e-06
0.0001518805615480916   -3.424808730801386e-05   -6.54892729596325e-05
0.0001518805615480916   -3.424808730801386e-05   -6.54892729596325e-05
0.0001518805615480916   -3.424808730801386e-05   -6.54892729596325e-05
0.0001518805615480916   -3.424808730801386e-05   -6.54892729596325e-05
0.0001051421242104777   -4.0231660331448756e-05   -0.0001772380878026326
0.0001051421242104777   -4.0231660331448756e-05   -0.0001772380878026326
0.0001051421242104777   -4.0231660331448756e-05   -0.0001772380878026326
0.0001051421242104777   -4.0231660331448756e-05   -0.0001772380878026326
0.00021560443512675602   -2.5010822510413734e-05   1.5998266417118975e-05
0.00021560443512675602   -2.5010822510413734e-05   1.5998266417118975e-05
0.00021560443512675602   -2.5010822510413734e-05   1.5998266417118975e-05
0.00021560443512675602   -2.5010822510413734e-05   1.5998266417118975e-05
0.00022092569628112332   -3.5898742342960026e-05   -0.0001896517006305397
0.00022092569628112332   -3.5898742342960026e-05   -0.0001896517006305397
0.00022092569628112332   -3.5898742342960026e-05   -0.0001896517006305397
0.00022092569628112332   -3.5898742342960026e-05   -0.0001896517006305397
0.00010560370738386997   -2.150304985894377e-05   -6.085801292195214e-06
0.00010560370738386997   -2.150304985894377e-05   -6.085801292195214e-06
0.00010560370738386997   -2.150304985894377e-05   -6.085801292195214e-06
0.00010560370738386997   -2.150304985894377e-05   -6.085801292195214e-06
0.0001569895278380614   -3.16199275611842e-05   -8.565870876116842e-05
0.0001569895278380614   -3.16199275611842e-05   -8.565870876116842e-05
0.0001569895278380614   -3.16199275611842e-05   -8.565870876116842e-05
0.0001569895278380614   -3.16199275611842e-05   -8.565870876116842e-05
0.00010560370738387013   -3.5898742342960026e-05   -0.0001982891161209496
0.00010560370738387013   -3.5898742342960026e-05   -0.0001982891161209496
0.00010560370738387013   -3.5898742342960026e-05   -0.0001982891161209496
0.00010560370738387013   -3.5898742342960026e-05   -0.0001982891161209496
0.000220925696281123   -2.150304985894377e-05   2.5516141982161004e-06
0.000220925696281123   -2.150304985894377e-05   2.5516141982161004e-06
0.000220925696281123   -2.150304985894377e-05   2.5516141982161004e-06
0.000220925696281123   -2.150304985894377e-05   2.5516141982161004e-06
0.00022658171579098313   -2.6570414133369157e-05   -0.00022627128150648317
0.00022658171579098313   -2.6570414133369157e-05   -0.00022627128150648317
0.00022658171579098313   -2.6570414133369157e-05   -0.00022627128150648317
0.00022658171579098313   -2.6570414133369157e-05   -0.00022627128150648317
0.00010476538708229167   -1.399677656466463e-05   -3.078824953322125e-05
0.00010476538708229167   -1.399677656466463e-05   -3.078824953322125e-05
0.00010476538708229167   -1.399677656466463e-05   -3.078824953322125e-05
0.00010476538708229167   -1.399677656466463e-05   -3.078824953322125e-05
0.00015626699901179152   -2.7259403349343472e-05   -0.00010866669334491218
0.00015626699901179152   -2.7259403349343472e-05   -0.00010866669334491218
0.00015626699901179152   -2.7259403349343472e-05   -0.00010866669334491218
0.00015626699901179152   -2.7259403349343472e-05   -0.00010866669334491218
-0.0002504713898299775   3.835188059321407e-05   -0.00019018351198424994
-0.0002504713898299775   3.835188059321407e-05   -0.00019018351198424994
-0.0002504713898299775   3.835188059321407e-05   -0.00019018351198424994
-0.0002504713898299775   3.835188059321407e-05   -0.00019018351198424994
-0.00017032257975530506   2.445210159998483e-05   -6.494202925573273e-05
-0.00017032257975530506   2.445210159998483e-05   -6.494202925573273e-05
-0.00017032257975530506   2.445210159998483e-05   -6.494202925573273e-05
-0.00017032257975530506   2.445210159998483e-05   -6.494202925573273e-05
-0.00016970698003214782   4.636258540243561e-05   -0.00016155796115313028
-0.00016970698003214782   4.636258540243561e-05   -0.00016155796115313028
-0.00016970698003214782   4.636258540243561e-05   -0.00016155796115313028
-0.00016970698003214782   4.636258540243561e-05   -0.00016155796115313028
-0.00024303298692197276   3.1095317237286e-05   -3.0187588770999932e-05
-0.00024303298692197276   3.1095317237286e-05   -3.0187588770999932e-05
-0.00024303298692197276   3.1095317237286e-05   -3.0187588770999932e-05
-0.00024303298692197276   3.1095317237286e-05   -3.0187588770999932e-05
-0.00019954424196480964   3.69203504508326e-05   -0.00010616385029439939
-0.00019954424196480964   3.69203504508326e-05   -0.00010616385029439939
-0.00019954424196480964   3.69203504508326e-05   -0.00010616385029439939
-0.00019954424196480964   3.69203504508326e-05   -0.00010616385029439939
-0.00024303298692197276   4.636258540243561e-05   -0.000152397600254041
-0.00024303298692197276   4.636258540243561e-05   -0.000152397600254041
-0.00024303298692197276   4.636258540243561e-05   -0.000152397600254041
-0.00024303298692197276   4.636258540243561e-05   -0.000152397600254041
-0.00016970698003214814   3.1095317237286e-05   -3.934794967008965e-05
-0.00016970698003214814   3.1095317237286e-05   -3.934794967008965e-05
-0.00016970698003214814   3.1095317237286e-05   -3.934794967008965e-05
-0.00016970698003214814   3.1095317237286e-05   -3.934794967008965e-05
-0.000168422922551354   4.9876567685529574e-05   -0.00014087394454074392
-0.000168422922551354   4.9876567685529574e-05   -0.00014087394454074392
-0.000168422922551354   4.9876567685529574e-05   -0.00014087394454074392
-0.000168422922551354   4.9876567685529574e-05   -0.00014087394454074392
-0.00023746326659359013   3.418305438158704e-05   -1.6390596487984247e-05
-0.00023746326659359013   3.418305438158704e-05   -1.6390596487984247e-05
-0.00023746326659359013   3.418305438158704e-05   -1.6390596487984247e-05
-0.00023746326659359013   3.418305438158704e-05   -1.6390596487984247e-05
-0.00019957306514342444   4.062570743495423e-05   -8.340652407028246e-05
-0.00019957306514342444   4.062570743495423e-05   -8.340652407028246e-05
-0.00019957306514342444   4.062570743495423e-05   -8.340652407028246e-05
-0.00019957306514342444   4.062570743495423e-05   -8.340652407028246e-05
-0.00023746326659359013   4.9876567685529574e-05   -0.0001314578365583781
-0.00023746326659359013   4.9876567685529574e-05   -0.0001314578365583781
-0.00023746326659359013   4.9876567685529574e-05   -0.0001314578365583781
-0.00023746326659359013   4.9876567685529574e-05   -0.0001314578365583781
-0.00016842292255135431   3.418305438158704e-05   -2.5806704470349422e-05
-0.00016842292255135431   3.418305438158704e-05   -2.5806704470349422e-05
-0.00016842292255135431   3.418305438158704e-05   -2.5806704470349422e-05
-0.00016842292255135431   3.418305438158704e-05   -2.5806704470349422e-05
-0.00016790282792337975   5.331704553529753e-05   -0.00011221388762257863
-0.00016790282792337975   5.331704553529753e-05   -0.00011221388762257863
-0.00016790282792337975   5.331704553529753e-05   -0.00011221388762257863
-0.00016790282792337975   5.331704553529753e-05   -0.00011221388762257863
-0.00023016492349694877   3.805429231528573e-05   7.13923598709941e-07
-0.00023016492349694877   3.805429231528573e-05   7.13923598709941e-07
-0.00023016492349694877   3.805429231528573e-05   7.13923598709941e-07
-0.00023016492349694877   3.805429231528573e-05   7.13923598709941e-07
-0.00019367791521584968   4.261917504959313e-05   -6.283668651037213e-05
-0.00019367791521584968   4.261917504959313e-05   -6.283668651037213e-05
-0.00019367791521584968   4.261917504959313e-05   -6.283668651037213e-05
-0.00019367791521584968   4.261917504959313e-05   -6.283668651037213e-05
-0.00017032257975530473   1.9100967212598834e-05   -0.0002418593917012015
-0.00017032257975530473   1.9100967212598834e-05   -0.0002418593917012015
-0.00017032257975530473   1.9100967212598834e-05   -0.0002418593917012015
-0.00017032257975530473   1.9100967212598834e-05   -0.0002418593917012015
-9.774431946012218e-05   1.2605418538267146e-05   -0.00012479295374716315
-9.774431946012218e-05   1.2605418538267146e-05   -0.00012479295374716315
-9.774431946012218e-05   1.2605418538267146e-05   -0.00012479295374716315
-9.774431946012218e-05   1.2605418538267146e-05   -0.00012479295374716315
-9.7789651706444e-05   2.6974646645176563e-05   -0.00023980087058794557
-9.7789651706444e-05   2.6974646645176563e-05   -0.00023980087058794557
-9.7789651706444e-05   2.6974646645176563e-05   -0.00023980087058794557
-9.7789651706444e-05   2.6974646645176563e-05   -0.00023980087058794557
-0.00016970698003214782   1.9613693382392224e-05   -0.00011552208475410072
-0.00016970698003214782   1.9613693382392224e-05   -0.00011552208475410072
-0.00016970698003214782   1.9613693382392224e-05   -0.00011552208475410072
-0.00016970698003214782   1.9613693382392224e-05   -0.00011552208475410072
-0.00013265827031146035   2.0870337247117475e-05   -0.00017802392060741628
-0.00013265827031146035   2.0870337247117475e-05   -0.00017802392060741628
-0.00013265827031146035   2.0870337247117475e-05   -0.00017802392060741628
-0.00013265827031146035   2.0870337247117475e-05   -0.00017802392060741628
-0.0001697069800321477   2.6974646645176563e-05   -0.00023538429863027388
-0.0001697069800321477   2.6974646645176563e-05   -0.00023538429863027388
-0.0001697069800321477   2.6974646645176563e-05   -0.00023538429863027388
-0.0001697069800321477   2.6974646645176563e-05   -0.00023538429863027388
-9.7789651706444e-05   1.9613693382391356e-05   -0.00011993865671177208
-9.7789651706444e-05   1.9613693382391356e-05   -0.00011993865671177208
-9.7789651706444e-05   1.9613693382391356e-05   -0.00011993865671177208
-9.7789651706444e-05   1.9613693382391356e-05   -0.00011993865671177208
-9.771406072059272e-05   3.396269565189569e-05   -0.00023442408403732658
-9.771406072059272e-05   3.396269565189569e-05   -0.00023442408403732658
-9.771406072059272e-05   3.396269565189569e-05   -0.00023442408403732658
-9.771406072059272e-05   3.396269565189569e-05   -0.00023442408403732658
-0.000168422922551354   2.5983250001003662e-05   -0.00011178831359552285
-0.000168422922551354   2.5983250001003662e-05   -0.00011178831359552285
-0.000168422922551354   2.5983250001003662e-05   -0.00011178831359552285
-0.000168422922551354   2.5983250001003662e-05   -0.00011178831359552285
-0.000132036471171802   2.6618713296636988e-05   -0.0001728136772054876
-0.000132036471171802   2.6618713296636988e-05   -0.0001728136772054876
-0.000132036471171802   2.6618713296636988e-05   -0.0001728136772054876
-0.000132036471171802   2.6618713296636988e-05   -0.0001728136772054876
-0.000168422922551354   3.396269565189569e-05   -0.00022963641664679158
-0.000168422922551354   3.396269565189569e-05   -0.00022963641664679158
-0.000168422922551354   3.396269565189569e-05   -0.00022963641664679158
-0.000168422922551354   3.396269565189569e-05   -0.00022963641664679158
-9.771406072059293e-05   2.5983250001003662e-05   -0.0001165759809860572
-9.771406072059293e-05   2.5983250001003662e-05   -0.0001165759809860572
-9.771406072059293e-05   2.5983250001003662e-05   -0.0001165759809860572
-9.771406072059293e-05   2.5983250001003662e-05   -0.0001165759809860572
-9.778736279888279e-05   4.138876692666264e-05   -0.00023536636297486922
-9.778736279888279e-05   4.138876692666264e-05   -0.00023536636297486922
-9.778736279888279e-05   4.138876692666264e-05   -0.00023536636297486922
-9.778736279888279e-05   4.138876692666264e-05   -0.00023536636297486922
-0.00016790282792337986   3.2894291541662665e-05   -0.00011341056920304037
-0.00016790282792337986   3.2894291541662665e-05   -0.00011341056920304037
-0.00016790282792337986   3.2894291541662665e-05   -0.00011341056920304037
-0.00016790282792337986   3.2894291541662665e-05   -0.00011341056920304037
-0.00013288800603705584   3.2297618687930456e-05   -0.000171410601968007
-0.00013288800603705584   3.2297618687930456e-05   -0.000171410601968007
-0.00013288800603705584   3.2297618687930456e-05   -0.000171410601968007
-0.00013288800603705584   3.2297618687930456e-05   -0.000171410601968007
-9.774431946012202e-05   1.0125319882085815e-06   -0.0002668327945583107
-9.774431946012202e-05   1.0125319882085815e-06   -0.0002668327945583107
-9.774431946012202e-05   1.0125319882085815e-06   -0.0002668327945583107
-9.774431946012202e-05   1.0125319882085815e-06   -0.0002668327945583107
-2.6208004991032426e-05   2.147530454827719e-06   -0.000146924604696523
-2.6208004991032426e-05   2.147530454827719e-06   -0.000146924604696523
-2.6208004991032426e-05   2.147530454827719e-06   -0.000146924604696523
-2.6208004991032426e-05   2.147530454827719e-06   -0.000146924604696523
-2.625413617219343e-05   8.75656588619593e-06   -0.00026391130961038326
-2.625413617219343e-05   8.75656588619593e-06   -0.00026391130961038326
-2.625413617219343e-05   8.75656588619593e-06   -0.00026391130961038326
-2.625413617219343e-05   8.75656588619593e-06   -0.00026391130961038326
-9.778965170644378e-05   9.185987193197943e-06   -0.0001449431031708341
-9.778965170644378e-05   9.185987193197943e-06   -0.0001449431031708341
-9.778965170644378e-05   9.185987193197943e-06   -0.0001449431031708341
-9.778965170644378e-05   9.185987193197943e-06   -0.0001449431031708341
-6.158898784298243e-05   6.1795642460993165e-06   -0.00020347368917501043
-6.158898784298243e-05   6.1795642460993165e-06   -0.00020347368917501043
-6.158898784298243e-05   6.1795642460993165e-06   -0.00020347368917501043
-6.158898784298243e-05   6.1795642460993165e-06   -0.00020347368917501043
-9.778965170644378e-05   8.75656588619593e-06   -0.00026416896239458434
-9.778965170644378e-05   8.75656588619593e-06   -0.00026416896239458434
-9.778965170644378e-05   8.75656588619593e-06   -0.00026416896239458434
-9.778965170644378e-05   8.75656588619593e-06   -0.00026416896239458434
-2.625413617219343e-05   9.185987193197943e-06   -0.0001446854503866328
-2.625413617219343e-05   9.185987193197943e-06   -0.0001446854503866328
-2.625413617219343e-05   9.185987193197943e-06   -0.0001446854503866328
-2.625413617219343e-05   9.185987193197943e-06   -0.0001446854503866328
-2.615755013997434e-05   1.647685890456517e-05   -0.00026459238392159646
-2.615755013997434e-05   1.647685890456517e-05   -0.00026459238392159646
-2.615755013997434e-05   1.647685890456517e-05   -0.00026459238392159646
-2.615755013997434e-05   1.647685890456517e-05   -0.00026459238392159646
-9.771406072059272e-05   1.6246821381591357e-05   -0.00014519351044011515
-9.771406072059272e-05   1.6246821381591357e-05   -0.00014519351044011515
-9.771406072059272e-05   1.6246821381591357e-05   -0.00014519351044011515
-9.771406072059272e-05   1.6246821381591357e-05   -0.00014519351044011515
-6.199820738779495e-05   1.2332212413386674e-05   -0.0002023711672805222
-6.199820738779495e-05   1.2332212413386674e-05   -0.0002023711672805222
-6.199820738779495e-05   1.2332212413386674e-05   -0.0002023711672805222
-6.199820738779495e-05   1.2332212413386674e-05   -0.0002023711672805222
-9.771406072059272e-05   1.647685890456517e-05   -0.00026445436140781244
-9.771406072059272e-05   1.647685890456517e-05   -0.00026445436140781244
-9.771406072059272e-05   1.647685890456517e-05   -0.00026445436140781244
-9.771406072059272e-05   1.647685890456517e-05   -0.00026445436140781244
-2.6157550139974385e-05   1.624682138159049e-05   -0.00014533153295389896
-2.6157550139974385e-05   1.624682138159049e-05   -0.00014533153295389896
-2.6157550139974385e-05   1.624682138159049e-05   -0.00014533153295389896
-2.6157550139974385e-05   1.624682138159049e-05   -0.00014533153295389896
-2.619732413994891e-05   2.43773381291279e-05   -0.0002685967239598056
-2.619732413994891e-05   2.43773381291279e-05   -0.0002685967239598056
-2.619732413994891e-05   2.43773381291279e-05   -0.0002685967239598056
-2.619732413994891e-05   2.43773381291279e-05   -0.0002685967239598056
-9.778736279888274e-05   2.343111169742819e-05   -0.00014871225700256187
-9.778736279888274e-05   2.343111169742819e-05   -0.00014871225700256187
-9.778736279888274e-05   2.343111169742819e-05   -0.00014871225700256187
-9.778736279888274e-05   2.343111169742819e-05   -0.00014871225700256187
-6.25282601188376e-05   1.856559552509355e-05   -0.0002045581184325696
-6.25282601188376e-05   1.856559552509355e-05   -0.0002045581184325696
-6.25282601188376e-05   1.856559552509355e-05   -0.0002045581184325696
-6.25282601188376e-05   1.856559552509355e-05   -0.0002045581184325696
-2.6208004991032382e-05   -1.600296282952508e-05   -0.00023633648658097795
-2.6208004991032382e-05   -1.600296282952508e-05   -0.00023633648658097795
-2.6208004991032382e-05   -1.600296282952508e-05   -0.00023633648658097795
-2.6208004991032382e-05   -1.600296282952508e-05   -0.00023633648658097795
4.4338664919045924e-05   -7.42304154866414e-06   -0.00011361075062899786
4.4338664919045924e-05   -7.42304154866414e-06   -0.00011361075062899786
4.4338664919045924e-05   -7.42304154866414e-06   -0.00011361075062899786
4.4338664919045924e-05   -7.42304154866414e-06   -0.00011361075062899786
4.4916521083229234e-05   -8.91367505477655e-06   -0.00023100209219954196
4.4916521083229234e-05   -8.91367505477655e-06   -0.00023100209219954196
4.4916521083229234e-05   -8.91367505477655e-06   -0.00023100209219954196
4.4916521083229234e-05   -8.91367505477655e-06   -0.00023100209219954196
-2.625413617219343e-05   -8.014602988354325e-07   -0.00011725165896073548
-2.625413617219343e-05   -8.014602988354325e-07   -0.00011725165896073548
-2.625413617219343e-05   -8.014602988354325e-07   -0.00011725165896073548
-2.625413617219343e-05   -8.014602988354325e-07   -0.00011725165896073548
9.232471917248329e-06   -7.674695488592547e-06   -0.00017227206466261728
9.232471917248329e-06   -7.674695488592547e-06   -0.00017227206466261728
9.232471917248329e-06   -7.674695488592547e-06   -0.00017227206466261728
9.232471917248329e-06   -7.674695488592547e-06   -0.00017227206466261728
-2.625413617219343e-05   -8.91367505477655e-06   -0.00023586942105310676
-2.625413617219343e-05   -8.91367505477655e-06   -0.00023586942105310676
-2.625413617219343e-05   -8.91367505477655e-06   -0.00023586942105310676
-2.625413617219343e-05   -8.91367505477655e-06   -0.00023586942105310676
4.491652108322934e-05   -8.014602988354325e-07   -0.00011238433010717086
4.491652108322934e-05   -8.014602988354325e-07   -0.00011238433010717086
4.491652108322934e-05   -8.014602988354325e-07   -0.00011238433010717086
4.491652108322934e-05   -8.014602988354325e-07   -0.00011238433010717086
4.626554711287424e-05   -1.939773038259554e-06   -0.00023588731606735388
4.626554711287424e-05   -1.939773038259554e-06   -0.00023588731606735388
4.626554711287424e-05   -1.939773038259554e-06   -0.00023588731606735388
4.626554711287424e-05   -1.939773038259554e-06   -0.00023588731606735388
-2.6157550139974385e-05   5.576083522420942e-06   -0.00011969166791568191
-2.6157550139974385e-05   5.576083522420942e-06   -0.00011969166791568191
-2.6157550139974385e-05   5.576083522420942e-06   -0.00011969166791568191
-2.6157550139974385e-05   5.576083522420942e-06   -0.00011969166791568191
8.827198613921786e-06   -2.1680064016729034e-06   -0.00017335312855105246
8.827198613921786e-06   -2.1680064016729034e-06   -0.00017335312855105246
8.827198613921786e-06   -2.1680064016729034e-06   -0.00017335312855105246
8.827198613921786e-06   -2.1680064016729034e-06   -0.00017335312855105246
-2.6157550139974365e-05   -1.9397730382599877e-06   -0.00024039683000376248
-2.6157550139974365e-05   -1.9397730382599877e-06   -0.00024039683000376248
-2.6157550139974365e-05   -1.9397730382599877e-06   -0.00024039683000376248
-2.6157550139974365e-05   -1.9397730382599877e-06   -0.00024039683000376248
4.626554711287435e-05   5.576083522420942e-06   -0.00011518215397927304
4.626554711287435e-05   5.576083522420942e-06   -0.00011518215397927304
4.626554711287435e-05   5.576083522420942e-06   -0.00011518215397927304
4.626554711287435e-05   5.576083522420942e-06   -0.00011518215397927304
4.692250633712004e-05   6.2224397414977276e-06   -0.00024284422800642828
4.692250633712004e-05   6.2224397414977276e-06   -0.00024284422800642828
4.692250633712004e-05   6.2224397414977276e-06   -0.00024284422800642828
4.692250633712004e-05   6.2224397414977276e-06   -0.00024284422800642828
-2.6197324139948864e-05   1.2893866094713241e-05   -0.0001249806996899084
-2.6197324139948864e-05   1.2893866094713241e-05   -0.0001249806996899084
-2.6197324139948864e-05   1.2893866094713241e-05   -0.0001249806996899084
-2.6197324139948864e-05   1.2893866094713241e-05   -0.0001249806996899084
9.076136277089955e-06   3.7305622979607635e-06   -0.00017827181810692192
9.076136277089955e-06   3.7305622979607635e-06   -0.00017827181810692192
9.076136277089955e-06   3.7305622979607635e-06   -0.00017827181810692192
9.076136277089955e-06   3.7305622979607635e-06   -0.00017827181810692192
4.4338664919045816e-05   -2.9081823765200396e-05   -0.0001299670511942673
4.4338664919045816e-05   -2.9081823765200396e-05   -0.0001299670511942673
4.4338664919045816e-05   -2.9081823765200396e-05   -0.0001299670511942673
4.4338664919045816e-05   -2.9081823765200396e-05   -0.0001299670511942673
0.00010718603964309642   -1.3685780235317586e-05   -1.5983800536252535e-05
0.00010718603964309642   -1.3685780235317586e-05   -1.5983800536252535e-05
0.00010718603964309642   -1.3685780235317586e-05   -1.5983800536252535e-05
0.00010718603964309642   -1.3685780235317586e-05   -1.5983800536252535e-05
0.00011458239976290768   -2.5010822510413734e-05   -0.00013662828420785936
0.00011458239976290768   -2.5010822510413734e-05   -0.00013662828420785936
0.00011458239976290768   -2.5010822510413734e-05   -0.00013662828420785936
0.00011458239976290768   -2.5010822510413734e-05   -0.00013662828420785936
4.491652108322929e-05   -9.211116873518096e-06   -2.9998309790533117e-05
4.491652108322929e-05   -9.211116873518096e-06   -2.9998309790533117e-05
4.491652108322929e-05   -9.211116873518096e-06   -2.9998309790533117e-05
4.491652108322929e-05   -9.211116873518096e-06   -2.9998309790533117e-05
7.444049680953193e-05   -1.865280750623123e-05   -7.353992162140903e-05
7.444049680953193e-05   -1.865280750623123e-05   -7.353992162140903e-05
7.444049680953193e-05   -1.865280750623123e-05   -7.353992162140903e-05
7.444049680953193e-05   -1.865280750623123e-05   -7.353992162140903e-05
4.4916521083229234e-05   -2.5010822510413734e-05   -0.00014610810758999577
4.4916521083229234e-05   -2.5010822510413734e-05   -0.00014610810758999577
4.4916521083229234e-05   -2.5010822510413734e-05   -0.00014610810758999577
4.4916521083229234e-05   -2.5010822510413734e-05   -0.00014610810758999577
0.00011458239976290725   -9.211116873518096e-06   -2.0518486408395518e-05
0.00011458239976290725   -9.211116873518096e-06   -2.0518486408395518e-05
0.00011458239976290725   -9.211116873518096e-06   -2.0518486408395518e-05
0.00011458239976290725   -9.211116873518096e-06   -2.0518486408395518e-05
0.00012026731674456598   -2.1503049858944204e-05   -0.00014987929912285258
0.00012026731674456598   -2.1503049858944204e-05   -0.00014987929912285258
0.00012026731674456598   -2.1503049858944204e-05   -0.00014987929912285258
0.00012026731674456598   -2.1503049858944204e-05   -0.00014987929912285258
4.626554711287435e-05   -6.112792851611579e-06   -3.5777170607765836e-05
4.626554711287435e-05   -6.112792851611579e-06   -3.5777170607765836e-05
4.626554711287435e-05   -6.112792851611579e-06   -3.5777170607765836e-05
4.626554711287435e-05   -6.112792851611579e-06   -3.5777170607765836e-05
7.89773754966457e-05   -1.63591974141385e-05   -8.414904184320159e-05
7.89773754966457e-05   -1.63591974141385e-05   -8.414904184320159e-05
7.89773754966457e-05   -1.63591974141385e-05   -8.414904184320159e-05
7.89773754966457e-05   -1.63591974141385e-05   -8.414904184320159e-05
4.62655471128743e-05   -2.150304985894377e-05   -0.0001591134533272514
4.62655471128743e-05   -2.150304985894377e-05   -0.0001591134533272514
4.62655471128743e-05   -2.150304985894377e-05   -0.0001591134533272514
4.62655471128743e-05   -2.150304985894377e-05   -0.0001591134533272514
0.00012026731674456555   -6.112792851611579e-06   -2.654301640336561e-05
0.00012026731674456555   -6.112792851611579e-06   -2.654301640336561e-05
0.00012026731674456555   -6.112792851611579e-06   -2.654301640336561e-05
0.00012026731674456555   -6.112792851611579e-06   -2.654301640336561e-05
0.0001278106782995411   -1.3996776564664196e-05   -0.00017524905871404604
0.0001278106782995411   -1.3996776564664196e-05   -0.00017524905871404604
0.0001278106782995411   -1.3996776564664196e-05   -0.00017524905871404604
0.0001278106782995411   -1.3996776564664196e-05   -0.00017524905871404604
4.6922506337120095e-05   -4.594264011760496e-09   -4.8830748157068665e-05
4.6922506337120095e-05   -4.594264011760496e-09   -4.8830748157068665e-05
4.6922506337120095e-05   -4.594264011760496e-09   -4.8830748157068665e-05
4.6922506337120095e-05   -4.594264011760496e-09   -4.8830748157068665e-05
8.04595700362917e-05   -1.2922521395476554e-05   -9.69750980434757e-05
8.04595700362917e-05   -1.2922521395476554e-05   -9.69750980434757e-05
8.04595700362917e-05   -1.2922521395476554e-05   -9.69750980434757e-05
8.04595700362917e-05   -1.2922521395476554e-05   -9.69750980434757e-05
-0.00015211698587884286   2.445210159998483e-05   -0.00014222588788861523
-0.00015211698587884286   2.445210159998483e-05   -0.00014222588788861523
-0.00015211698587884286   2.445210159998483e-05   -0.00014222588788861523
-0.00015211698587884286   2.445210159998483e-05   -0.00014222588788861523
-0.00011203498110659614   1.0010215784503514e-05   -8.408767809082616e-05
-0.00011203498110659614   1.0010215784503514e-05   -8.408767809082616e-05
-0.00011203498110659614   1.0010215784503514e-05   -8.408767809082616e-05
-0.00011203498110659614   1.0010215784503514e-05   -8.408767809082616e-05
-0.00011037136421802396   3.1095317237286e-05   -0.00012546710028239066
-0.00011037136421802396   3.1095317237286e-05   -0.00012546710028239066
-0.00011037136421802396   3.1095317237286e-05   -0.00012546710028239066
-0.00011037136421802396   3.1095317237286e-05   -0.00012546710028239066
-0.00014388654850233337   1.5548253872770673e-05   -6.028022178983022e-05
-0.00014388654850233337   1.5548253872770673e-05   -6.028022178983022e-05
-0.00014388654850233337   1.5548253872770673e-05   -6.028022178983022e-05
-0.00014388654850233337   1.5548253872770673e-05   -6.028022178983022e-05
-0.0001241106336746044   2.192397305207129e-05   -9.706551134363098e-05
-0.0001241106336746044   2.192397305207129e-05   -9.706551134363098e-05
-0.0001241106336746044   2.192397305207129e-05   -9.706551134363098e-05
-0.0001241106336746044   2.192397305207129e-05   -9.706551134363098e-05
-0.00014388654850233337   3.1095317237286e-05   -0.00011613886226368103
-0.00014388654850233337   3.1095317237286e-05   -0.00011613886226368103
-0.00014388654850233337   3.1095317237286e-05   -0.00011613886226368103
-0.00014388654850233337   3.1095317237286e-05   -0.00011613886226368103
-0.00011037136421802396   1.5548253872769806e-05   -6.960845980854007e-05
-0.00011037136421802396   1.5548253872769806e-05   -6.960845980854007e-05
-0.00011037136421802396   1.5548253872769806e-05   -6.960845980854007e-05
-0.00011037136421802396   1.5548253872769806e-05   -6.960845980854007e-05
-0.00010800184919304524   3.418305438158704e-05   -0.00011204198652022251
-0.00010800184919304524   3.418305438158704e-05   -0.00011204198652022251
-0.00010800184919304524   3.418305438158704e-05   -0.00011204198652022251
-0.00010800184919304524   3.418305438158704e-05   -0.00011204198652022251
-0.00013730726378639977   1.8337515050316847e-05   -5.369230526587046e-05
-0.00013730726378639977   1.8337515050316847e-05   -5.369230526587046e-05
-0.00013730726378639977   1.8337515050316847e-05   -5.369230526587046e-05
-0.00013730726378639977   1.8337515050316847e-05   -5.369230526587046e-05
-0.0001219321406782445   2.4908642902747233e-05   -8.32601871575884e-05
-0.0001219321406782445   2.4908642902747233e-05   -8.32601871575884e-05
-0.0001219321406782445   2.4908642902747233e-05   -8.32601871575884e-05
-0.0001219321406782445   2.4908642902747233e-05   -8.32601871575884e-05
-0.00013730726378639933   3.418305438158704e-05   -0.00010253466292146126
-0.00013730726378639933   3.418305438158704e-05   -0.00010253466292146126
-0.00013730726378639933   3.418305438158704e-05   -0.00010253466292146126
-0.00013730726378639933   3.418305438158704e-05   -0.00010253466292146126
-0.00010800184919304546   1.8337515050316847e-05   -6.319962886463235e-05
-0.00010800184919304546   1.8337515050316847e-05   -6.319962886463235e-05
-0.00010800184919304546   1.8337515050316847e-05   -6.319962886463235e-05
-0.00010800184919304546   1.8337515050316847e-05   -6.319962886463235e-05
-0.00010637480931376944   3.80542923152866e-05   -9.480028671805373e-05
-0.00010637480931376944   3.80542923152866e-05   -9.480028671805373e-05
-0.00010637480931376944   3.80542923152866e-05   -9.480028671805373e-05
-0.00010637480931376944   3.80542923152866e-05   -9.480028671805373e-05
-0.00012892603364062058   2.275148697914852e-05   -4.803322963828436e-05
-0.00012892603364062058   2.275148697914852e-05   -4.803322963828436e-05
-0.00012892603364062058   2.275148697914852e-05   -4.803322963828436e-05
-0.00012892603364062058   2.275148697914852e-05   -4.803322963828436e-05
-0.00011622502874178301   2.6963965161546678e-05   -7.172905804578994e-05
-0.00011622502874178301   2.6963965161546678e-05   -7.172905804578994e-05
-0.00011622502874178301   2.6963965161546678e-05   -7.172905804578994e-05
-0.00011622502874178301   2.6963965161546678e-05   -7.172905804578994e-05
-0.00011203498110659614   1.2605418538266279e-05   -0.00020684461466473434
-0.00011203498110659614   1.2605418538266279e-05   -0.00020684461466473434
-0.00011203498110659614   1.2605418538266279e-05   -0.00020684461466473434
-0.00011203498110659614   1.2605418538266279e-05   -0.00020684461466473434
-7.950260218772607e-05   5.699371651704706e-06   -0.0001567676112652224
-7.950260218772607e-05   5.699371651704706e-06   -0.0001567676112652224
-7.950260218772607e-05   5.699371651704706e-06   -0.0001567676112652224
-7.950260218772607e-05   5.699371651704706e-06   -0.0001567676112652224
-7.840246392851375e-05   1.9613693382392224e-05   -0.00020618259126265262
-7.840246392851375e-05   1.9613693382392224e-05   -0.00020618259126265262
-7.840246392851375e-05   1.9613693382392224e-05   -0.00020618259126265262
-7.840246392851375e-05   1.9613693382392224e-05   -0.00020618259126265262
-0.00011037136421802418   1.204476688864125e-05   -0.00014835973488388316
-0.00011037136421802418   1.204476688864125e-05   -0.00014835973488388316
-0.00011037136421802418   1.204476688864125e-05   -0.00014835973488388316
-0.00011037136421802418   1.204476688864125e-05   -0.00014835973488388316
-9.415134308288025e-05   1.3696299254630298e-05   -0.0001763840228620546
-9.415134308288025e-05   1.3696299254630298e-05   -0.0001763840228620546
-9.415134308288025e-05   1.3696299254630298e-05   -0.0001763840228620546
-9.415134308288025e-05   1.3696299254630298e-05   -0.0001763840228620546
-0.00011037136421802375   1.9613693382392224e-05   -0.00020164123536640065
-0.00011037136421802375   1.9613693382392224e-05   -0.00020164123536640065
-0.00011037136421802375   1.9613693382392224e-05   -0.00020164123536640065
-0.00011037136421802375   1.9613693382392224e-05   -0.00020164123536640065
-7.840246392851375e-05   1.2044766888640382e-05   -0.00015290109078013492
-7.840246392851375e-05   1.2044766888640382e-05   -0.00015290109078013492
-7.840246392851375e-05   1.2044766888640382e-05   -0.00015290109078013492
-7.840246392851375e-05   1.2044766888640382e-05   -0.00015290109078013492
-7.718894670691518e-05   2.5983250001003662e-05   -0.00020285100495580095
-7.718894670691518e-05   2.5983250001003662e-05   -0.00020285100495580095
-7.718894670691518e-05   2.5983250001003662e-05   -0.00020285100495580095
-7.718894670691518e-05   2.5983250001003662e-05   -0.00020285100495580095
-0.00010800184919304567   1.7937567816996534e-05   -0.00014666875816851167
-0.00010800184919304567   1.7937567816996534e-05   -0.00014666875816851167
-0.00010800184919304567   1.7937567816996534e-05   -0.00014666875816851167
-0.00010800184919304567   1.7937567816996534e-05   -0.00014666875816851167
-9.271033950537279e-05   1.881861937526319e-05   -0.0001726832385829252
-9.271033950537279e-05   1.881861937526319e-05   -0.0001726832385829252
-9.271033950537279e-05   1.881861937526319e-05   -0.0001726832385829252
-9.271033950537279e-05   1.881861937526319e-05   -0.0001726832385829252
-0.00010800184919304524   2.5983250001003662e-05   -0.00019802359564539615
-0.00010800184919304524   2.5983250001003662e-05   -0.00019802359564539615
-0.00010800184919304524   2.5983250001003662e-05   -0.00019802359564539615
-0.00010800184919304524   2.5983250001003662e-05   -0.00019802359564539615
-7.718894670691507e-05   1.7937567816996534e-05   -0.0001514961674789156
-7.718894670691507e-05   1.7937567816996534e-05   -0.0001514961674789156
-7.718894670691507e-05   1.7937567816996534e-05   -0.0001514961674789156
-7.718894670691507e-05   1.7937567816996534e-05   -0.0001514961674789156
-7.610551287724971e-05   3.289429154166353e-05   -0.00020481677070806337
-7.610551287724971e-05   3.289429154166353e-05   -0.00020481677070806337
-7.610551287724971e-05   3.289429154166353e-05   -0.00020481677070806337
-7.610551287724971e-05   3.289429154166353e-05   -0.00020481677070806337
-0.00010637480931376966   2.447821967455511e-05   -0.0001493183001935964
-0.00010637480931376966   2.447821967455511e-05   -0.0001493183001935964
-0.00010637480931376966   2.447821967455511e-05   -0.0001493183001935964
-0.00010637480931376966   2.447821967455511e-05   -0.0001493183001935964
-9.213324275021717e-05   2.3998796316525642e-05   -0.00017276659045136877
-9.213324275021717e-05   2.3998796316525642e-05   -0.00017276659045136877
-9.213324275021717e-05   2.3998796316525642e-05   -0.00017276659045136877
-9.213324275021717e-05   2.3998796316525642e-05   -0.00017276659045136877
-7.950260218772586e-05   2.147530454827719e-06   -0.00023380089282600382
-7.950260218772586e-05   2.147530454827719e-06   -0.00023380089282600382
-7.950260218772586e-05   2.147530454827719e-06   -0.00023380089282600382
-7.950260218772586e-05   2.147530454827719e-06   -0.00023380089282600382
-4.783090859025351e-05   3.2348262550439474e-06   -0.00018036235935008733
-4.783090859025351e-05   3.2348262550439474e-06   -0.00018036235935008733
-4.783090859025351e-05   3.2348262550439474e-06   -0.00018036235935008733
-4.783090859025351e-05   3.2348262550439474e-06   -0.00018036235935008733
-4.6756149178220555e-05   9.185987193197943e-06   -0.00023088499092636158
-4.6756149178220555e-05   9.185987193197943e-06   -0.00023088499092636158
-4.6756149178220555e-05   9.185987193197943e-06   -0.00023088499092636158
-4.6756149178220555e-05   9.185987193197943e-06   -0.00023088499092636158
-7.840246392851375e-05   9.689398518786772e-06   -0.0001784431798045581
-7.840246392851375e-05   9.689398518786772e-06   -0.0001784431798045581
-7.840246392851375e-05   9.689398518786772e-06   -0.0001784431798045581
-7.840246392851375e-05   9.689398518786772e-06   -0.0001784431798045581
-6.271953517721767e-05   6.958231224389079e-06   -0.0002029426940134176
-6.271953517721767e-05   6.958231224389079e-06   -0.0002029426940134176
-6.271953517721767e-05   6.958231224389079e-06   -0.0002029426940134176
-6.271953517721767e-05   6.958231224389079e-06   -0.0002029426940134176
-7.840246392851365e-05   9.185987193197943e-06   -0.0002311870377217141
-7.840246392851365e-05   9.185987193197943e-06   -0.0002311870377217141
-7.840246392851365e-05   9.185987193197943e-06   -0.0002311870377217141
-7.840246392851365e-05   9.185987193197943e-06   -0.0002311870377217141
-4.6756149178220555e-05   9.689398518786772e-06   -0.00017814113300920536
-4.6756149178220555e-05   9.689398518786772e-06   -0.00017814113300920536
-4.6756149178220555e-05   9.689398518786772e-06   -0.00017814113300920536
-4.6756149178220555e-05   9.689398518786772e-06   -0.00017814113300920536
-4.555163780765323e-05   1.624682138159049e-05   -0.00023149608901360582
-4.555163780765323e-05   1.624682138159049e-05   -0.00023149608901360582
-4.555163780765323e-05   1.624682138159049e-05   -0.00023149608901360582
-4.555163780765323e-05   1.624682138159049e-05   -0.00023149608901360582
-7.718894670691507e-05   1.620089704201192e-05   -0.00017873968624442036
-7.718894670691507e-05   1.620089704201192e-05   -0.00017873968624442036
-7.718894670691507e-05   1.620089704201192e-05   -0.00017873968624442036
-7.718894670691507e-05   1.620089704201192e-05   -0.00017873968624442036
-6.199115980948537e-05   1.2498053048045667e-05   -0.00020184762467709164
-6.199115980948537e-05   1.2498053048045667e-05   -0.00020184762467709164
-6.199115980948537e-05   1.2498053048045667e-05   -0.00020184762467709164
-6.199115980948537e-05   1.2498053048045667e-05   -0.00020184762467709164
-7.718894670691496e-05   1.624682138159049e-05   -0.0002314685344098578
-7.718894670691496e-05   1.624682138159049e-05   -0.0002314685344098578
-7.718894670691496e-05   1.624682138159049e-05   -0.0002314685344098578
-7.718894670691496e-05   1.624682138159049e-05   -0.0002314685344098578
-4.555163780765331e-05   1.620089704201192e-05   -0.00017876724084816805
-4.555163780765331e-05   1.620089704201192e-05   -0.00017876724084816805
-4.555163780765331e-05   1.620089704201192e-05   -0.00017876724084816805
-4.555163780765331e-05   1.620089704201192e-05   -0.00017876724084816805
-4.446812909342983e-05   2.343111169742819e-05   -0.00023539430691208764
-4.446812909342983e-05   2.343111169742819e-05   -0.00023539430691208764
-4.446812909342983e-05   2.343111169742819e-05   -0.00023539430691208764
-4.446812909342983e-05   2.343111169742819e-05   -0.00023539430691208764
-7.610551287724971e-05   2.281022230492518e-05   -0.00018229280030355034
-7.610551287724971e-05   2.281022230492518e-05   -0.00018229280030355034
-7.610551287724971e-05   2.281022230492518e-05   -0.00018229280030355034
-7.610551287724971e-05   2.281022230492518e-05   -0.00018229280030355034
-6.138434154958144e-05   1.811138848045301e-05   -0.00020400878555498314
-6.138434154958144e-05   1.811138848045301e-05   -0.00020400878555498314
-6.138434154958144e-05   1.811138848045301e-05   -0.00020400878555498314
-6.138434154958144e-05   1.811138848045301e-05   -0.00020400878555498314
-4.783090859025335e-05   -7.42304154866414e-06   -0.0002049826140468644
-4.783090859025335e-05   -7.42304154866414e-06   -0.0002049826140468644
-4.783090859025335e-05   -7.42304154866414e-06   -0.0002049826140468644
-4.783090859025335e-05   -7.42304154866414e-06   -0.0002049826140468644
-1.7058171266370143e-05   1.3259385326456347e-06   -0.00014844533045827455
-1.7058171266370143e-05   1.3259385326456347e-06   -0.00014844533045827455
-1.7058171266370143e-05   1.3259385326456347e-06   -0.00014844533045827455
-1.7058171266370143e-05   1.3259385326456347e-06   -0.00014844533045827455
-1.5463529626320513e-05   -8.014602988354325e-07   -0.00019842723943844101
-1.5463529626320513e-05   -8.014602988354325e-07   -0.00019842723943844101
-1.5463529626320513e-05   -8.014602988354325e-07   -0.00019842723943844101
-1.5463529626320513e-05   -8.014602988354325e-07   -0.00019842723943844101
-4.6756149178220474e-05   7.571806471203674e-06   -0.00015129683358062904
-4.6756149178220474e-05   7.571806471203674e-06   -0.00015129683358062904
-4.6756149178220474e-05   7.571806471203674e-06   -0.00015129683358062904
-4.6756149178220474e-05   7.571806471203674e-06   -0.00015129683358062904
-3.1457011564464834e-05   8.22206961538334e-07   -0.00017274563656442604
-3.1457011564464834e-05   8.22206961538334e-07   -0.00017274563656442604
-3.1457011564464834e-05   8.22206961538334e-07   -0.00017274563656442604
-3.1457011564464834e-05   8.22206961538334e-07   -0.00017274563656442604
-4.675614917822039e-05   -8.014602988354325e-07   -0.00020345119950046422
-4.675614917822039e-05   -8.014602988354325e-07   -0.00020345119950046422
-4.675614917822039e-05   -8.014602988354325e-07   -0.00020345119950046422
-4.675614917822039e-05   -8.014602988354325e-07   -0.00020345119950046422
-1.5463529626320513e-05   7.571806471203674e-06   -0.00014627287351860708
-1.5463529626320513e-05   7.571806471203674e-06   -0.00014627287351860708
-1.5463529626320513e-05   7.571806471203674e-06   -0.00014627287351860708
-1.5463529626320513e-05   7.571806471203674e-06   -0.00014627287351860708
-1.3114119456346775e-05   5.57608352242181e-06   -0.00020112347931137585
-1.3114119456346775e-05   5.57608352242181e-06   -0.00020112347931137585
-1.3114119456346775e-05   5.57608352242181e-06   -0.00020112347931137585
-1.3114119456346775e-05   5.57608352242181e-06   -0.00020112347931137585
-4.555163780765323e-05   1.3463991295773782e-05   -0.00015179369338987658
-4.555163780765323e-05   1.3463991295773782e-05   -0.00015179369338987658
-4.555163780765323e-05   1.3463991295773782e-05   -0.00015179369338987658
-4.555163780765323e-05   1.3463991295773782e-05   -0.00015179369338987658
-3.0487421174989292e-05   5.861208596327078e-06   -0.00017233905149131466
-3.0487421174989292e-05   5.861208596327078e-06   -0.00017233905149131466
-3.0487421174989292e-05   5.861208596327078e-06   -0.00017233905149131466
-3.0487421174989292e-05   5.861208596327078e-06   -0.00017233905149131466
-4.555163780765311e-05   5.57608352242181e-06   -0.00020585622397538634
-4.555163780765311e-05   5.57608352242181e-06   -0.00020585622397538634
-4.555163780765311e-05   5.57608352242181e-06   -0.00020585622397538634
-4.555163780765311e-05   5.57608352242181e-06   -0.00020585622397538634
-1.3114119456346775e-05   1.3463991295773782e-05   -0.00014706094872586487
-1.3114119456346775e-05   1.3463991295773782e-05   -0.00014706094872586487
-1.3114119456346775e-05   1.3463991295773782e-05   -0.00014706094872586487
-1.3114119456346775e-05   1.3463991295773782e-05   -0.00014706094872586487
-1.147067948701556e-05   1.2893866094713241e-05   -0.00020675055540973026
-1.147067948701556e-05   1.2893866094713241e-05   -0.00020675055540973026
-1.147067948701556e-05   1.2893866094713241e-05   -0.00020675055540973026
-1.147067948701556e-05   1.2893866094713241e-05   -0.00020675055540973026
-4.446812909342983e-05   2.0134629979185782e-05   -0.0001560992643963891
-4.446812909342983e-05   2.0134629979185782e-05   -0.0001560992643963891
-4.446812909342983e-05   2.0134629979185782e-05   -0.0001560992643963891
-4.446812909342983e-05   2.0134629979185782e-05   -0.0001560992643963891
-2.9469133856707157e-05   1.1150740861536751e-05   -0.00017570725632033805
-2.9469133856707157e-05   1.1150740861536751e-05   -0.00017570725632033805
-2.9469133856707157e-05   1.1150740861536751e-05   -0.00017570725632033805
-2.9469133856707157e-05   1.1150740861536751e-05   -0.00017570725632033805
-1.7058171266370143e-05   -1.3685780235317586e-05   -0.0001113439020232641
-1.7058171266370143e-05   -1.3685780235317586e-05   -0.0001113439020232641
-1.7058171266370143e-05   -1.3685780235317586e-05   -0.0001113439020232641
-1.7058171266370143e-05   -1.3685780235317586e-05   -0.0001113439020232641
5.9362619541755875e-06   1.7752320041570721e-06   -6.374323931200316e-05
5.9362619541755875e-06   1.7752320041570721e-06   -6.374323931200316e-05
5.9362619541755875e-06   1.7752320041570721e-06   -6.374323931200316e-05
5.9362619541755875e-06   1.7752320041570721e-06   -6.374323931200316e-05
1.423250749757422e-05   -9.211116873518096e-06   -0.00010649224072418616
1.423250749757422e-05   -9.211116873518096e-06   -0.00010649224072418616
1.423250749757422e-05   -9.211116873518096e-06   -0.00010649224072418616
1.423250749757422e-05   -9.211116873518096e-06   -0.00010649224072418616
-1.5463529626320513e-05   6.703847122509557e-06   -6.654782391531057e-05
-1.5463529626320513e-05   6.703847122509557e-06   -6.654782391531057e-05
-1.5463529626320513e-05   6.703847122509557e-06   -6.654782391531057e-05
-1.5463529626320513e-05   6.703847122509557e-06   -6.654782391531057e-05
-3.023615438028937e-06   -2.9309987117712155e-06   -8.150010672856411e-05
-3.023615438028937e-06   -2.9309987117712155e-06   -8.150010672856411e-05
-3.023615438028937e-06   -2.9309987117712155e-06   -8.150010672856411e-05
-3.023615438028937e-06   -2.9309987117712155e-06   -8.150010672856411e-05
-1.5463529626320513e-05   -9.211116873518096e-06   -0.00011604121912180219
-1.5463529626320513e-05   -9.211116873518096e-06   -0.00011604121912180219
-1.5463529626320513e-05   -9.211116873518096e-06   -0.00011604121912180219
-1.5463529626320513e-05   -9.211116873518096e-06   -0.00011604121912180219
1.423250749757422e-05   6.703847122509557e-06   -5.6998845517694e-05
1.423250749757422e-05   6.703847122509557e-06   -5.6998845517694e-05
1.423250749757422e-05   6.703847122509557e-06   -5.6998845517694e-05
1.423250749757422e-05   6.703847122509557e-06   -5.6998845517694e-05
2.078046725463665e-05   -6.112792851612446e-06   -0.00011236288488324
2.078046725463665e-05   -6.112792851612446e-06   -0.00011236288488324
2.078046725463665e-05   -6.112792851612446e-06   -0.00011236288488324
2.078046725463665e-05   -6.112792851612446e-06   -0.00011236288488324
-1.3114119456346775e-05   9.479892242768989e-06   -6.522751808822841e-05
-1.3114119456346775e-05   9.479892242768989e-06   -6.522751808822841e-05
-1.3114119456346775e-05   9.479892242768989e-06   -6.522751808822841e-05
-1.3114119456346775e-05   9.479892242768989e-06   -6.522751808822841e-05
1.2118708729128317e-06   -5.78348715861085e-07   -8.306922406181648e-05
1.2118708729128317e-06   -5.78348715861085e-07   -8.306922406181648e-05
1.2118708729128317e-06   -5.78348715861085e-07   -8.306922406181648e-05
1.2118708729128317e-06   -5.78348715861085e-07   -8.306922406181648e-05
-1.3114119456346775e-05   -6.112792851612446e-06   -0.00012171849593986843
-1.3114119456346775e-05   -6.112792851612446e-06   -0.00012171849593986843
-1.3114119456346775e-05   -6.112792851612446e-06   -0.00012171849593986843
-1.3114119456346775e-05   -6.112792851612446e-06   -0.00012171849593986843
2.078046725463665e-05   9.479892242768989e-06   -5.5871907031599874e-05
2.078046725463665e-05   9.479892242768989e-06   -5.5871907031599874e-05
2.078046725463665e-05   9.479892242768989e-06   -5.5871907031599874e-05
2.078046725463665e-05   9.479892242768989e-06   -5.5871907031599874e-05
2.9025984428523305e-05   -4.594264011760496e-09   -0.00012594721895036972
2.9025984428523305e-05   -4.594264011760496e-09   -0.00012594721895036972
2.9025984428523305e-05   -4.594264011760496e-09   -0.00012594721895036972
2.9025984428523305e-05   -4.594264011760496e-09   -0.00012594721895036972
-1.147067948701556e-05   1.4422473633402509e-05   -6.710901982958522e-05
-1.147067948701556e-05   1.4422473633402509e-05   -6.710901982958522e-05
-1.147067948701556e-05   1.4422473633402509e-05   -6.710901982958522e-05
-1.147067948701556e-05   1.4422473633402509e-05   -6.710901982958522e-05
4.820590981536872e-06   2.1266525571887046e-06   -8.688364463144637e-05
4.820590981536872e-06   2.1266525571887046e-06   -8.688364463144637e-05
4.820590981536872e-06   2.1266525571887046e-06   -8.688364463144637e-05
4.820590981536872e-06   2.1266525571887046e-06   -8.688364463144637e-05
-5.3516398872710666e-05   1.0010215784503514e-05   -9.520074757579091e-05
-5.3516398872710666e-05   1.0010215784503514e-05   -9.520074757579091e-05
-5.3516398872710666e-05   1.0010215784503514e-05   -9.520074757579091e-05
-5.3516398872710666e-05   1.0010215784503514e-05   -9.520074757579091e-05
-5.3733037822477825e-05   -4.5791822758257245e-06   -0.00010431545132826752
-5.3733037822477825e-05   -4.5791822758257245e-06   -0.00010431545132826752
-5.3733037822477825e-05   -4.5791822758257245e-06   -0.00010431545132826752
-5.3733037822477825e-05   -4.5791822758257245e-06   -0.00010431545132826752
-5.101237713648851e-05   1.5548253872770673e-05   -8.943567940194325e-05
-5.101237713648851e-05   1.5548253872770673e-05   -8.943567940194325e-05
-5.101237713648851e-05   1.5548253872770673e-05   -8.943567940194325e-05
-5.101237713648851e-05   1.5548253872770673e-05   -8.943567940194325e-05
-4.42557556510027e-05   -8.92427853525779e-08   -9.131421721621106e-05
-4.42557556510027e-05   -8.92427853525779e-08   -9.131421721621106e-05
-4.42557556510027e-05   -8.92427853525779e-08   -9.131421721621106e-05
-4.42557556510027e-05   -8.92427853525779e-08   -9.131421721621106e-05
-4.841425687473935e-05   6.888649612783737e-06   -8.857011728220267e-05
-4.841425687473935e-05   6.888649612783737e-06   -8.857011728220267e-05
-4.841425687473935e-05   6.888649612783737e-06   -8.857011728220267e-05
-4.841425687473935e-05   6.888649612783737e-06   -8.857011728220267e-05
-4.425575565100248e-05   1.5548253872770673e-05   -8.005318140706869e-05
-4.425575565100248e-05   1.5548253872770673e-05   -8.005318140706869e-05
-4.425575565100248e-05   1.5548253872770673e-05   -8.005318140706869e-05
-4.425575565100248e-05   1.5548253872770673e-05   -8.005318140706869e-05
-5.1012377136488724e-05   -8.92427853525779e-08   -0.00010069671521108648
-5.1012377136488724e-05   -8.92427853525779e-08   -0.00010069671521108648
-5.1012377136488724e-05   -8.92427853525779e-08   -0.00010069671521108648
-5.1012377136488724e-05   -8.92427853525779e-08   -0.00010069671521108648
-4.758649086686155e-05   1.8337515050316847e-05   -8.300157322020923e-05
-4.758649086686155e-05   1.8337515050316847e-05   -8.300157322020923e-05
-4.758649086686155e-05   1.8337515050316847e-05   -8.300157322020923e-05
-4.758649086686155e-05   1.8337515050316847e-05   -8.300157322020923e-05
-3.6580678821021995e-05   2.4404710384333395e-06   -9.180636688947696e-05
-3.6580678821021995e-05   2.4404710384333395e-06   -9.180636688947696e-05
-3.6580678821021995e-05   2.4404710384333395e-06   -9.180636688947696e-05
-3.6580678821021995e-05   2.4404710384333395e-06   -9.180636688947696e-05
-4.4013949934964755e-05   9.188187606236353e-06   -8.346621164025819e-05
-4.4013949934964755e-05   9.188187606236353e-06   -8.346621164025819e-05
-4.4013949934964755e-05   9.188187606236353e-06   -8.346621164025819e-05
-4.4013949934964755e-05   9.188187606236353e-06   -8.346621164025819e-05
-3.658067882102221e-05   1.8337515050316847e-05   -7.346334681307886e-05
-3.658067882102221e-05   1.8337515050316847e-05   -7.346334681307886e-05
-3.658067882102221e-05   1.8337515050316847e-05   -7.346334681307886e-05
-3.658067882102221e-05   1.8337515050316847e-05   -7.346334681307886e-05
-4.758649086686155e-05   2.4404710384333395e-06   -0.00010134459329660668
-4.758649086686155e-05   2.4404710384333395e-06   -0.00010134459329660668
-4.758649086686155e-05   2.4404710384333395e-06   -0.00010134459329660668
-4.758649086686155e-05   2.4404710384333395e-06   -0.00010134459329660668
-4.490033502491109e-05   2.2751486979147653e-05   -7.699886910729134e-05
-4.490033502491109e-05   2.2751486979147653e-05   -7.699886910729134e-05
-4.490033502491109e-05   2.2751486979147653e-05   -7.699886910729134e-05
-4.490033502491109e-05   2.2751486979147653e-05   -7.699886910729134e-05
-2.7104446838929156e-05   7.4893512895246594e-06   -9.750140133682125e-05
-2.7104446838929156e-05   7.4893512895246594e-06   -9.750140133682125e-05
-2.7104446838929156e-05   7.4893512895246594e-06   -9.750140133682125e-05
-2.7104446838929156e-05   7.4893512895246594e-06   -9.750140133682125e-05
-3.850159424791653e-05   1.137903056108204e-05   -8.083996321810996e-05
-3.850159424791653e-05   1.137903056108204e-05   -8.083996321810996e-05
-3.850159424791653e-05   1.137903056108204e-05   -8.083996321810996e-05
-3.850159424791653e-05   1.137903056108204e-05   -8.083996321810996e-05
-5.3733037822477825e-05   5.699371651704706e-06   -0.00017249069145444705
-5.3733037822477825e-05   5.699371651704706e-06   -0.00017249069145444705
-5.3733037822477825e-05   5.699371651704706e-06   -0.00017249069145444705
-5.3733037822477825e-05   5.699371651704706e-06   -0.00017249069145444705
-6.152205555580523e-05   -1.0252272337595708e-06   -0.0001895071470079373
-6.152205555580523e-05   -1.0252272337595708e-06   -0.0001895071470079373
-6.152205555580523e-05   -1.0252272337595708e-06   -0.0001895071470079373
-6.152205555580523e-05   -1.0252272337595708e-06   -0.0001895071470079373
-5.9312670795098345e-05   1.2044766888640382e-05   -0.00017263383076832235
-5.9312670795098345e-05   1.2044766888640382e-05   -0.00017263383076832235
-5.9312670795098345e-05   1.2044766888640382e-05   -0.00017263383076832235
-5.9312670795098345e-05   1.2044766888640382e-05   -0.00017263383076832235
-5.101237713648894e-05   4.6333064035800064e-06   -0.00018202077724163452
-5.101237713648894e-05   4.6333064035800064e-06   -0.00018202077724163452
-5.101237713648894e-05   4.6333064035800064e-06   -0.00018202077724163452
-5.101237713648894e-05   4.6333064035800064e-06   -0.00018202077724163452
-5.573721418879337e-05   6.5704528419540525e-06   -0.00017530833668415527
-5.573721418879337e-05   6.5704528419540525e-06   -0.00017530833668415527
-5.573721418879337e-05   6.5704528419540525e-06   -0.00017530833668415527
-5.573721418879337e-05   6.5704528419540525e-06   -0.00017530833668415527
-5.101237713648851e-05   1.2044766888640382e-05   -0.0001681869544772844
-5.101237713648851e-05   1.2044766888640382e-05   -0.0001681869544772844
-5.101237713648851e-05   1.2044766888640382e-05   -0.0001681869544772844
-5.101237713648851e-05   1.2044766888640382e-05   -0.0001681869544772844
-5.931267079509824e-05   4.633306403581741e-06   -0.00018646765353267074
-5.931267079509824e-05   4.633306403581741e-06   -0.00018646765353267074
-5.931267079509824e-05   4.633306403581741e-06   -0.00018646765353267074
-5.931267079509824e-05   4.633306403581741e-06   -0.00018646765353267074
-5.701579414277259e-05   1.7937567816996534e-05   -0.00017118854728656856
-5.701579414277259e-05   1.7937567816996534e-05   -0.00017118854728656856
-5.701579414277259e-05   1.7937567816996534e-05   -0.00017118854728656856
-5.701579414277259e-05   1.7937567816996534e-05   -0.00017118854728656856
-4.758649086686155e-05   1.0074493212863453e-05   -0.00018218620798393908
-4.758649086686155e-05   1.0074493212863453e-05   -0.00018218620798393908
-4.758649086686155e-05   1.0074493212863453e-05   -0.00018218620798393908
-4.758649086686155e-05   1.0074493212863453e-05   -0.00018218620798393908
-5.352226858422373e-05   1.1123681524506136e-05   -0.00017292275810865555
-5.352226858422373e-05   1.1123681524506136e-05   -0.00017292275810865555
-5.352226858422373e-05   1.1123681524506136e-05   -0.00017292275810865555
-5.352226858422373e-05   1.1123681524506136e-05   -0.00017292275810865555
-4.758649086686155e-05   1.7937567816996534e-05   -0.0001664707025240881
-4.758649086686155e-05   1.7937567816996534e-05   -0.0001664707025240881
-4.758649086686155e-05   1.7937567816996534e-05   -0.0001664707025240881
-4.758649086686155e-05   1.7937567816996534e-05   -0.0001664707025240881
-5.701579414277237e-05   1.0074493212863453e-05   -0.0001869040527464191
-5.701579414277237e-05   1.0074493212863453e-05   -0.0001869040527464191
-5.701579414277237e-05   1.0074493212863453e-05   -0.0001869040527464191
-5.701579414277237e-05   1.0074493212863453e-05   -0.0001869040527464191
-5.484865729666092e-05   2.4478219674555976e-05   -0.00017402068602674452
-5.484865729666092e-05   2.4478219674555976e-05   -0.00017402068602674452
-5.484865729666092e-05   2.4478219674555976e-05   -0.00017402068602674452
-5.484865729666092e-05   2.4478219674555976e-05   -0.00017402068602674452
-4.490033502491109e-05   1.6280837064850187e-05   -0.00018568279358050334
-4.490033502491109e-05   1.6280837064850187e-05   -0.00018568279358050334
-4.490033502491109e-05   1.6280837064850187e-05   -0.00018568279358050334
-4.490033502491109e-05   1.6280837064850187e-05   -0.00018568279358050334
-5.156893882163598e-05   1.5892253993213604e-05   -0.00017433530407631455
-5.156893882163598e-05   1.5892253993213604e-05   -0.00017433530407631455
-5.156893882163598e-05   1.5892253993213604e-05   -0.00017433530407631455
-5.156893882163598e-05   1.5892253993213604e-05   -0.00017433530407631455
-6.152205555580502e-05   3.2348262550439474e-06   -0.00020077257635071942
-6.152205555580502e-05   3.2348262550439474e-06   -0.00020077257635071942
-6.152205555580502e-05   3.2348262550439474e-06   -0.00020077257635071942
-6.152205555580502e-05   3.2348262550439474e-06   -0.00020077257635071942
-6.977698010025512e-05   4.646319293170539e-06   -0.0002136838881019276
-6.977698010025512e-05   4.646319293170539e-06   -0.0002136838881019276
-6.977698010025512e-05   4.646319293170539e-06   -0.0002136838881019276
-6.977698010025512e-05   4.646319293170539e-06   -0.0002136838881019276
-6.760305156228188e-05   9.689398518786772e-06   -0.00019769783185064494
-6.760305156228188e-05   9.689398518786772e-06   -0.00019769783185064494
-6.760305156228188e-05   9.689398518786772e-06   -0.00019769783185064494
-6.760305156228188e-05   9.689398518786772e-06   -0.00019769783185064494
-5.9312670795098345e-05   1.048621175562224e-05   -0.0002119932210713849
-5.9312670795098345e-05   1.048621175562224e-05   -0.0002119932210713849
-5.9312670795098345e-05   1.048621175562224e-05   -0.0002119932210713849
-5.9312670795098345e-05   1.048621175562224e-05   -0.0002119932210713849
-6.416540247687748e-05   7.921202019846307e-06   -0.0002023663290936236
-6.416540247687748e-05   7.921202019846307e-06   -0.0002023663290936236
-6.416540247687748e-05   7.921202019846307e-06   -0.0002023663290936236
-6.416540247687748e-05   7.921202019846307e-06   -0.0002023663290936236
-5.931267079509813e-05   9.689398518786772e-06   -0.00019817591979274596
-5.931267079509813e-05   9.689398518786772e-06   -0.00019817591979274596
-5.931267079509813e-05   9.689398518786772e-06   -0.00019817591979274596
-5.931267079509813e-05   9.689398518786772e-06   -0.00019817591979274596
-6.7603051562282e-05   1.048621175562224e-05   -0.00021151513312928473
-6.7603051562282e-05   1.048621175562224e-05   -0.00021151513312928473
-6.7603051562282e-05   1.048621175562224e-05   -0.00021151513312928473
-6.7603051562282e-05   1.048621175562224e-05   -0.00021151513312928473
-6.532052853817112e-05   1.6200897042011053e-05   -0.00019827908935749535
-6.532052853817112e-05   1.6200897042011053e-05   -0.00019827908935749535
-6.532052853817112e-05   1.6200897042011053e-05   -0.00019827908935749535
-6.532052853817112e-05   1.6200897042011053e-05   -0.00019827908935749535
-5.701579414277259e-05   1.645585819964185e-05   -0.00021227329004440388
-5.701579414277259e-05   1.645585819964185e-05   -0.00021227329004440388
-5.701579414277259e-05   1.645585819964185e-05   -0.00021227329004440388
-5.701579414277259e-05   1.645585819964185e-05   -0.00021227329004440388
-6.233521153355232e-05   1.2910872773431309e-05   -0.00020128060313738126
-6.233521153355232e-05   1.2910872773431309e-05   -0.00020128060313738126
-6.233521153355232e-05   1.2910872773431309e-05   -0.00020128060313738126
-6.233521153355232e-05   1.2910872773431309e-05   -0.00020128060313738126
-5.701579414277237e-05   1.6200897042011053e-05   -0.0001984320660520728
-5.701579414277237e-05   1.6200897042011053e-05   -0.0001984320660520728
-5.701579414277237e-05   1.6200897042011053e-05   -0.0001984320660520728
-5.701579414277237e-05   1.6200897042011053e-05   -0.0001984320660520728
-6.532052853817112e-05   1.645585819964185e-05   -0.0002121203133498258
-6.532052853817112e-05   1.645585819964185e-05   -0.0002121203133498258
-6.532052853817112e-05   1.645585819964185e-05   -0.0002121203133498258
-6.532052853817112e-05   1.645585819964185e-05   -0.0002121203133498258
-6.316676646514606e-05   2.2810222304924313e-05   -0.0002021272034721331
-6.316676646514606e-05   2.2810222304924313e-05   -0.0002021272034721331
-6.316676646514606e-05   2.2810222304924313e-05   -0.0002021272034721331
-6.316676646514606e-05   2.2810222304924313e-05   -0.0002021272034721331
-5.484865729666103e-05   2.2507454878759395e-05   -0.00021580905829724113
-5.484865729666103e-05   2.2507454878759395e-05   -0.00021580905829724113
-5.484865729666103e-05   2.2507454878759395e-05   -0.00021580905829724113
-5.484865729666103e-05   2.2507454878759395e-05   -0.00021580905829724113
-6.0647046511089356e-05   1.7970073509890848e-05   -0.00020342264745187345
-6.0647046511089356e-05   1.7970073509890848e-05   -0.00020342264745187345
-6.0647046511089356e-05   1.7970073509890848e-05   -0.00020342264745187345
-6.0647046511089356e-05   1.7970073509890848e-05   -0.00020342264745187345
-6.977698010025488e-05   1.3259385326456347e-06   -0.00017325803968481698
-6.977698010025488e-05   1.3259385326456347e-06   -0.00017325803968481698
-6.977698010025488e-05   1.3259385326456347e-06   -0.00017325803968481698
-6.977698010025488e-05   1.3259385326456347e-06   -0.00017325803968481698
-7.845638795138843e-05   1.0345547037856132e-05   -0.00018231195433358015
-7.845638795138843e-05   1.0345547037856132e-05   -0.00018231195433358015
-7.845638795138843e-05   1.0345547037856132e-05   -0.00018231195433358015
-7.845638795138843e-05   1.0345547037856132e-05   -0.00018231195433358015
-7.583372205365648e-05   7.571806471203674e-06   -0.00016567627491281952
-7.583372205365648e-05   7.571806471203674e-06   -0.00016567627491281952
-7.583372205365648e-05   7.571806471203674e-06   -0.00016567627491281952
-7.583372205365648e-05   7.571806471203674e-06   -0.00016567627491281952
-6.760305156228188e-05   1.620056898662091e-05   -0.00018457131657436063
-6.760305156228188e-05   1.620056898662091e-05   -0.00018457131657436063
-6.760305156228188e-05   1.620056898662091e-05   -0.00018457131657436063
-6.760305156228188e-05   1.620056898662091e-05   -0.00018457131657436063
-7.235520241912532e-05   9.516596873501357e-06   -0.00017264068187841907
-7.235520241912532e-05   9.516596873501357e-06   -0.00017264068187841907
-7.235520241912532e-05   9.516596873501357e-06   -0.00017264068187841907
-7.235520241912532e-05   9.516596873501357e-06   -0.00017264068187841907
-6.760305156228177e-05   7.571806471203674e-06   -0.00017085353242206943
-6.760305156228177e-05   7.571806471203674e-06   -0.00017085353242206943
-6.760305156228177e-05   7.571806471203674e-06   -0.00017085353242206943
-6.760305156228177e-05   7.571806471203674e-06   -0.00017085353242206943
-7.583372205365648e-05   1.620056898662091e-05   -0.0001793940590651107
-7.583372205365648e-05   1.620056898662091e-05   -0.0001793940590651107
-7.583372205365648e-05   1.620056898662091e-05   -0.0001793940590651107
-7.583372205365648e-05   1.620056898662091e-05   -0.0001793940590651107
-7.246219410524124e-05   1.3463991295773782e-05   -0.00016641944605332634
-7.246219410524124e-05   1.3463991295773782e-05   -0.00016641944605332634
-7.246219410524124e-05   1.3463991295773782e-05   -0.00016641944605332634
-7.246219410524124e-05   1.3463991295773782e-05   -0.00016641944605332634
-6.5320528538171e-05   2.160748437223317e-05   -0.0001832083178443189
-6.5320528538171e-05   2.160748437223317e-05   -0.0001832083178443189
-6.5320528538171e-05   2.160748437223317e-05   -0.0001832083178443189
-6.5320528538171e-05   2.160748437223317e-05   -0.0001832083178443189
-7.001246029176398e-05   1.4156963796333952e-05   -0.00017091811924279288
-7.001246029176398e-05   1.4156963796333952e-05   -0.00017091811924279288
-7.001246029176398e-05   1.4156963796333952e-05   -0.00017091811924279288
-7.001246029176398e-05   1.4156963796333952e-05   -0.00017091811924279288
-6.532052853817084e-05   1.3463991295773782e-05   -0.0001713055418992018
-6.532052853817084e-05   1.3463991295773782e-05   -0.0001713055418992018
-6.532052853817084e-05   1.3463991295773782e-05   -0.0001713055418992018
-6.532052853817084e-05   1.3463991295773782e-05   -0.0001713055418992018
-7.246219410524135e-05   2.1607484372234906e-05   -0.00017832222199844205
-7.246219410524135e-05   2.1607484372234906e-05   -0.00017832222199844205
-7.246219410524135e-05   2.1607484372234906e-05   -0.00017832222199844205
-7.246219410524135e-05   2.1607484372234906e-05   -0.00017832222199844205
-6.980904312548452e-05   2.0134629979185782e-05   -0.00017103647398874957
-6.980904312548452e-05   2.0134629979185782e-05   -0.00017103647398874957
-6.980904312548452e-05   2.0134629979185782e-05   -0.00017103647398874957
-6.980904312548452e-05   2.0134629979185782e-05   -0.00017103647398874957
-6.316676646514606e-05   2.7675729880384872e-05   -0.00018663159503003282
-6.316676646514606e-05   2.7675729880384872e-05   -0.00018663159503003282
-6.316676646514606e-05   2.7675729880384872e-05   -0.00018663159503003282
-6.316676646514606e-05   2.7675729880384872e-05   -0.00018663159503003282
-6.824279541364654e-05   1.8906893845688395e-05   -0.00017291024516171105
-6.824279541364654e-05   1.8906893845688395e-05   -0.00017291024516171105
-6.824279541364654e-05   1.8906893845688395e-05   -0.00017291024516171105
-6.824279541364654e-05   1.8906893845688395e-05   -0.00017291024516171105
-7.845638795138816e-05   1.7752320041570721e-06   -9.242079077910557e-05
-7.845638795138816e-05   1.7752320041570721e-06   -9.242079077910557e-05
-7.845638795138816e-05   1.7752320041570721e-06   -9.242079077910557e-05
-7.845638795138816e-05   1.7752320041570721e-06   -9.242079077910557e-05
-9.468766014130857e-05   1.7350676739190038e-05   -0.00011012764425461993
-9.468766014130857e-05   1.7350676739190038e-05   -0.00011012764425461993
-9.468766014130857e-05   1.7350676739190038e-05   -0.00011012764425461993
-9.468766014130857e-05   1.7350676739190038e-05   -0.00011012764425461993
-8.548672587792294e-05   6.703847122509557e-06   -7.638286855192293e-05
-8.548672587792294e-05   6.703847122509557e-06   -7.638286855192293e-05
-8.548672587792294e-05   6.703847122509557e-06   -7.638286855192293e-05
-8.548672587792294e-05   6.703847122509557e-06   -7.638286855192293e-05
-7.583372205365632e-05   2.2651108385176102e-05   -0.00010203956501663315
-7.583372205365632e-05   2.2651108385176102e-05   -0.00010203956501663315
-7.583372205365632e-05   2.2651108385176102e-05   -0.00010203956501663315
-7.583372205365632e-05   2.2651108385176102e-05   -0.00010203956501663315
-8.0231538516612e-05   1.2771090313639342e-05   -8.878186006878639e-05
-8.0231538516612e-05   1.2771090313639342e-05   -8.878186006878639e-05
-8.0231538516612e-05   1.2771090313639342e-05   -8.878186006878639e-05
-8.0231538516612e-05   1.2771090313639342e-05   -8.878186006878639e-05
-7.58337220536561e-05   6.703847122509557e-06   -8.595122530952225e-05
-7.58337220536561e-05   6.703847122509557e-06   -8.595122530952225e-05
-7.58337220536561e-05   6.703847122509557e-06   -8.595122530952225e-05
-7.58337220536561e-05   6.703847122509557e-06   -8.595122530952225e-05
-8.548672587792273e-05   2.2651108385176102e-05   -9.247120825903524e-05
-8.548672587792273e-05   2.2651108385176102e-05   -9.247120825903524e-05
-8.548672587792273e-05   2.2651108385176102e-05   -9.247120825903524e-05
-8.548672587792273e-05   2.2651108385176102e-05   -9.247120825903524e-05
-7.800304064614497e-05   9.479892242768989e-06   -7.522671581812424e-05
-7.800304064614497e-05   9.479892242768989e-06   -7.522671581812424e-05
-7.800304064614497e-05   9.479892242768989e-06   -7.522671581812424e-05
-7.800304064614497e-05   9.479892242768989e-06   -7.522671581812424e-05
-7.246219410524124e-05   2.5078724905380073e-05   -9.382075965052954e-05
-7.246219410524124e-05   2.5078724905380073e-05   -9.382075965052954e-05
-7.246219410524124e-05   2.5078724905380073e-05   -9.382075965052954e-05
-7.246219410524124e-05   2.5078724905380073e-05   -9.382075965052954e-05
-7.626570449760164e-05   1.521596966908012e-05   -8.156392252148389e-05
-7.626570449760164e-05   1.521596966908012e-05   -8.156392252148389e-05
-7.626570449760164e-05   1.521596966908012e-05   -8.156392252148389e-05
-7.626570449760164e-05   1.521596966908012e-05   -8.156392252148389e-05
-7.246219410524107e-05   9.479892242768989e-06   -8.45860154156902e-05
-7.246219410524107e-05   9.479892242768989e-06   -8.45860154156902e-05
-7.246219410524107e-05   9.479892242768989e-06   -8.45860154156902e-05
-7.246219410524107e-05   9.479892242768989e-06   -8.45860154156902e-05
-7.800304064614497e-05   2.507872490537834e-05   -8.446146005296282e-05
-7.800304064614497e-05   2.507872490537834e-05   -8.446146005296282e-05
-7.800304064614497e-05   2.507872490537834e-05   -8.446146005296282e-05
-7.800304064614497e-05   2.507872490537834e-05   -8.446146005296282e-05
-6.88693093008918e-05   1.4422473633402509e-05   -7.772712408284305e-05
-6.88693093008918e-05   1.4422473633402509e-05   -7.772712408284305e-05
-6.88693093008918e-05   1.4422473633402509e-05   -7.772712408284305e-05
-6.88693093008918e-05   1.4422473633402509e-05   -7.772712408284305e-05
-6.980904312548435e-05   2.8861746416381645e-05   -8.48244647116414e-05
-6.980904312548435e-05   2.8861746416381645e-05   -8.48244647116414e-05
-6.980904312548435e-05   2.8861746416381645e-05   -8.48244647116414e-05
-6.980904312548435e-05   2.8861746416381645e-05   -8.48244647116414e-05
-7.050005460534009e-05   1.7206655999552067e-05   -7.667972466178464e-05
-7.050005460534009e-05   1.7206655999552067e-05   -7.667972466178464e-05
-7.050005460534009e-05   1.7206655999552067e-05   -7.667972466178464e-05
-7.050005460534009e-05   1.7206655999552067e-05   -7.667972466178464e-05
4.6181910064814913e-05   -4.5791822758257245e-06   -4.8670214483039625e-05
4.6181910064814913e-05   -4.5791822758257245e-06   -4.8670214483039625e-05
4.6181910064814913e-05   -4.5791822758257245e-06   -4.8670214483039625e-05
4.6181910064814913e-05   -4.5791822758257245e-06   -4.8670214483039625e-05
4.645783199569171e-06   -1.94750087725553e-05   -0.00012683458848981996
4.645783199569171e-06   -1.94750087725553e-05   -0.00012683458848981996
4.645783199569171e-06   -1.94750087725553e-05   -0.00012683458848981996
4.645783199569171e-06   -1.94750087725553e-05   -0.00012683458848981996
8.382702244198043e-06   -8.92427853525779e-08   -5.36601955377072e-05
8.382702244198043e-06   -8.92427853525779e-08   -5.36601955377072e-05
8.382702244198043e-06   -8.92427853525779e-08   -5.36601955377072e-05
8.382702244198043e-06   -8.92427853525779e-08   -5.36601955377072e-05
5.652567314799869e-05   -1.59918769264758e-05   -0.00012435689989270067
5.652567314799869e-05   -1.59918769264758e-05   -0.00012435689989270067
5.652567314799869e-05   -1.59918769264758e-05   -0.00012435689989270067
5.652567314799869e-05   -1.59918769264758e-05   -0.00012435689989270067
2.7862446016507173e-05   -8.104029692812542e-06   -8.131756301374589e-05
2.7862446016507173e-05   -8.104029692812542e-06   -8.131756301374589e-05
2.7862446016507173e-05   -8.104029692812542e-06   -8.131756301374589e-05
2.7862446016507173e-05   -8.104029692812542e-06   -8.131756301374589e-05
5.652567314799891e-05   -8.92427853525779e-08   -4.411861505303292e-05
5.652567314799891e-05   -8.92427853525779e-08   -4.411861505303292e-05
5.652567314799891e-05   -8.92427853525779e-08   -4.411861505303292e-05
5.652567314799891e-05   -8.92427853525779e-08   -4.411861505303292e-05
8.382702244197826e-06   -1.5991876926477536e-05   -0.00013389848037737581
8.382702244197826e-06   -1.5991876926477536e-05   -0.00013389848037737581
8.382702244197826e-06   -1.5991876926477536e-05   -0.00013389848037737581
8.382702244197826e-06   -1.5991876926477536e-05   -0.00013389848037737581
1.278255375047519e-05   2.4404710384333395e-06   -5.403469195557845e-05
1.278255375047519e-05   2.4404710384333395e-06   -5.403469195557845e-05
1.278255375047519e-05   2.4404710384333395e-06   -5.403469195557845e-05
1.278255375047519e-05   2.4404710384333395e-06   -5.403469195557845e-05
6.528668213058109e-05   -1.368161269945517e-05   -0.00013186832234635517
6.528668213058109e-05   -1.368161269945517e-05   -0.00013186832234635517
6.528668213058109e-05   -1.368161269945517e-05   -0.00013186832234635517
6.528668213058109e-05   -1.368161269945517e-05   -0.00013186832234635517
3.4436691493027545e-05   -6.483833413891554e-06   -8.477033885510724e-05
3.4436691493027545e-05   -6.483833413891554e-06   -8.477033885510724e-05
3.4436691493027545e-05   -6.483833413891554e-06   -8.477033885510724e-05
3.4436691493027545e-05   -6.483833413891554e-06   -8.477033885510724e-05
6.528668213058109e-05   2.4404710384333395e-06   -4.436144171284396e-05
6.528668213058109e-05   2.4404710384333395e-06   -4.436144171284396e-05
6.528668213058109e-05   2.4404710384333395e-06   -4.436144171284396e-05
6.528668213058109e-05   2.4404710384333395e-06   -4.436144171284396e-05
1.278255375047519e-05   -1.368161269945517e-05   -0.00014154157258908793
1.278255375047519e-05   -1.368161269945517e-05   -0.00014154157258908793
1.278255375047519e-05   -1.368161269945517e-05   -0.00014154157258908793
1.278255375047519e-05   -1.368161269945517e-05   -0.00014154157258908793
1.6418230785557797e-05   7.4893512895246594e-06   -5.911109702136288e-05
1.6418230785557797e-05   7.4893512895246594e-06   -5.911109702136288e-05
1.6418230785557797e-05   7.4893512895246594e-06   -5.911109702136288e-05
1.6418230785557797e-05   7.4893512895246594e-06   -5.911109702136288e-05
7.580931374923062e-05   -7.84872955306333e-06   -0.00014889338678859831
7.580931374923062e-05   -7.84872955306333e-06   -0.00014889338678859831
7.580931374923062e-05   -7.84872955306333e-06   -0.00014889338678859831
7.580931374923062e-05   -7.84872955306333e-06   -0.00014889338678859831
3.969633106304827e-05   -4.1150088291759535e-06   -9.094531474596393e-05
3.969633106304827e-05   -4.1150088291759535e-06   -9.094531474596393e-05
3.969633106304827e-05   -4.1150088291759535e-06   -9.094531474596393e-05
3.969633106304827e-05   -4.1150088291759535e-06   -9.094531474596393e-05
4.645783199569171e-06   -1.0252272337595708e-06   -0.00013876464672946988
4.645783199569171e-06   -1.0252272337595708e-06   -0.00013876464672946988
4.645783199569171e-06   -1.0252272337595708e-06   -0.00013876464672946988
4.645783199569171e-06   -1.0252272337595708e-06   -0.00013876464672946988
-4.404700829025549e-05   -7.752181642428288e-06   -0.0002239554718577127
-4.404700829025549e-05   -7.752181642428288e-06   -0.0002239554718577127
-4.404700829025549e-05   -7.752181642428288e-06   -0.0002239554718577127
-4.404700829025549e-05   -7.752181642428288e-06   -0.0002239554718577127
-4.075878531988953e-05   4.6333064035800064e-06   -0.00013955805061007312
-4.075878531988953e-05   4.6333064035800064e-06   -0.00013955805061007312
-4.075878531988953e-05   4.6333064035800064e-06   -0.00013955805061007312
-4.075878531988953e-05   4.6333064035800064e-06   -0.00013955805061007312
8.382702244197826e-06   -2.9896819994466167e-06   -0.00021688673684173532
8.382702244197826e-06   -2.9896819994466167e-06   -0.00021688673684173532
8.382702244197826e-06   -2.9896819994466167e-06   -0.00021688673684173532
8.382702244197826e-06   -2.9896819994466167e-06   -0.00021688673684173532
-1.7526498902806567e-05   -3.293585304625646e-07   -0.0001753009290114513
-1.7526498902806567e-05   -3.293585304625646e-07   -0.0001753009290114513
-1.7526498902806567e-05   -3.293585304625646e-07   -0.0001753009290114513
-1.7526498902806567e-05   -3.293585304625646e-07   -0.0001753009290114513
8.382702244197826e-06   4.6333064035800064e-06   -0.00013498425756825697
8.382702244197826e-06   4.6333064035800064e-06   -0.00013498425756825697
8.382702244197826e-06   4.6333064035800064e-06   -0.00013498425756825697
8.382702244197826e-06   4.6333064035800064e-06   -0.00013498425756825697
-4.075878531988953e-05   -2.989681999444882e-06   -0.00022146052988355255
-4.075878531988953e-05   -2.989681999444882e-06   -0.00022146052988355255
-4.075878531988953e-05   -2.989681999444882e-06   -0.00022146052988355255
-4.075878531988953e-05   -2.989681999444882e-06   -0.00022146052988355255
-3.7452240582058066e-05   1.0074493212861718e-05   -0.00013976259822513597
-3.7452240582058066e-05   1.0074493212861718e-05   -0.00013976259822513597
-3.7452240582058066e-05   1.0074493212861718e-05   -0.00013976259822513597
-3.7452240582058066e-05   1.0074493212861718e-05   -0.00013976259822513597
1.278255375047519e-05   1.930673909151387e-06   -0.0002186009638637989
1.278255375047519e-05   1.930673909151387e-06   -0.0002186009638637989
1.278255375047519e-05   1.930673909151387e-06   -0.0002186009638637989
1.278255375047519e-05   1.930673909151387e-06   -0.0002186009638637989
-1.460745692217374e-05   3.573859686495373e-06   -0.00017393685754245694
-1.460745692217374e-05   3.573859686495373e-06   -0.00017393685754245694
-1.460745692217374e-05   3.573859686495373e-06   -0.00017393685754245694
-1.460745692217374e-05   3.573859686495373e-06   -0.00017393685754245694
1.278255375047519e-05   1.0074493212863453e-05   -0.00013487630664290977
1.278255375047519e-05   1.0074493212863453e-05   -0.00013487630664290977
1.278255375047519e-05   1.0074493212863453e-05   -0.00013487630664290977
1.278255375047519e-05   1.0074493212863453e-05   -0.00013487630664290977
-3.7452240582058066e-05   1.9306739091531216e-06   -0.00022348725544602552
-3.7452240582058066e-05   1.9306739091531216e-06   -0.00022348725544602552
-3.7452240582058066e-05   1.9306739091531216e-06   -0.00022348725544602552
-3.7452240582058066e-05   1.9306739091531216e-06   -0.00022348725544602552
-3.428930316942539e-05   1.6280837064850187e-05   -0.0001432529847791575
-3.428930316942539e-05   1.6280837064850187e-05   -0.0001432529847791575
-3.428930316942539e-05   1.6280837064850187e-05   -0.0001432529847791575
-3.428930316942539e-05   1.6280837064850187e-05   -0.0001432529847791575
1.641823078555758e-05   7.751208851708782e-06   -0.0002226477644429114
1.641823078555758e-05   7.751208851708782e-06   -0.0002226477644429114
1.641823078555758e-05   7.751208851708782e-06   -0.0002226477644429114
1.641823078555758e-05   7.751208851708782e-06   -0.0002226477644429114
-1.1364248947269302e-05   7.893972908073685e-06   -0.00017642928998868874
-1.1364248947269302e-05   7.893972908073685e-06   -0.00017642928998868874
-1.1364248947269302e-05   7.893972908073685e-06   -0.00017642928998868874
-1.1364248947269302e-05   7.893972908073685e-06   -0.00017642928998868874
-4.40470082902556e-05   4.646319293170539e-06   -0.00016782445629153799
-4.40470082902556e-05   4.646319293170539e-06   -0.00016782445629153799
-4.40470082902556e-05   4.646319293170539e-06   -0.00016782445629153799
-4.40470082902556e-05   4.646319293170539e-06   -0.00016782445629153799
-9.233594483753871e-05   5.860029511155565e-06   -0.0002475777910728857
-9.233594483753871e-05   5.860029511155565e-06   -0.0002475777910728857
-9.233594483753871e-05   5.860029511155565e-06   -0.0002475777910728857
-9.233594483753871e-05   5.860029511155565e-06   -0.0002475777910728857
-8.90220559701672e-05   1.048621175562224e-05   -0.00016484103956780627
-8.90220559701672e-05   1.048621175562224e-05   -0.00016484103956780627
-8.90220559701672e-05   1.048621175562224e-05   -0.00016484103956780627
-8.90220559701672e-05   1.048621175562224e-05   -0.00016484103956780627
-4.0758785319889635e-05   1.0890509390588249e-05   -0.00024552240256591525
-4.0758785319889635e-05   1.0890509390588249e-05   -0.00024552240256591525
-4.0758785319889635e-05   1.0890509390588249e-05   -0.00024552240256591525
-4.0758785319889635e-05   1.0890509390588249e-05   -0.00024552240256591525
-6.615510915941234e-05   8.99849343084097e-06   -0.00020205998659086368
-6.615510915941234e-05   8.99849343084097e-06   -0.00020205998659086368
-6.615510915941234e-05   8.99849343084097e-06   -0.00020205998659086368
-6.615510915941234e-05   8.99849343084097e-06   -0.00020205998659086368
-4.0758785319889635e-05   1.048621175562224e-05   -0.0001650836181487864
-4.0758785319889635e-05   1.048621175562224e-05   -0.0001650836181487864
-4.0758785319889635e-05   1.048621175562224e-05   -0.0001650836181487864
-4.0758785319889635e-05   1.048621175562224e-05   -0.0001650836181487864
-8.90220559701672e-05   1.0890509390588249e-05   -0.000245279823984936
-8.90220559701672e-05   1.0890509390588249e-05   -0.000245279823984936
-8.90220559701672e-05   1.0890509390588249e-05   -0.000245279823984936
-8.90220559701672e-05   1.0890509390588249e-05   -0.000245279823984936
-8.565818856401069e-05   1.645585819964185e-05   -0.00016527322922577168
-8.565818856401069e-05   1.645585819964185e-05   -0.00016527322922577168
-8.565818856401069e-05   1.645585819964185e-05   -0.00016527322922577168
-8.565818856401069e-05   1.645585819964185e-05   -0.00016527322922577168
-3.7452240582058066e-05   1.6220202028557895e-05   -0.0002454750821597072
-3.7452240582058066e-05   1.6220202028557895e-05   -0.0002454750821597072
-3.7452240582058066e-05   1.6220202028557895e-05   -0.0002454750821597072
-3.7452240582058066e-05   1.6220202028557895e-05   -0.0002454750821597072
-6.323427562297519e-05   1.3384660971876156e-05   -0.00020080369912417408
-6.323427562297519e-05   1.3384660971876156e-05   -0.00020080369912417408
-6.323427562297519e-05   1.3384660971876156e-05   -0.00020080369912417408
-6.323427562297519e-05   1.3384660971876156e-05   -0.00020080369912417408
-3.7452240582058066e-05   1.645585819964185e-05   -0.0001651318355231201
-3.7452240582058066e-05   1.645585819964185e-05   -0.0001651318355231201
-3.7452240582058066e-05   1.645585819964185e-05   -0.0001651318355231201
-3.7452240582058066e-05   1.645585819964185e-05   -0.0001651318355231201
-8.565818856401056e-05   1.622020202855616e-05   -0.00024561647586235965
-8.565818856401056e-05   1.622020202855616e-05   -0.00024561647586235965
-8.565818856401056e-05   1.622020202855616e-05   -0.00024561647586235965
-8.565818856401056e-05   1.622020202855616e-05   -0.00024561647586235965
-8.244991824913567e-05   2.2507454878759395e-05   -0.00016898033903158059
-8.244991824913567e-05   2.2507454878759395e-05   -0.00016898033903158059
-8.244991824913567e-05   2.2507454878759395e-05   -0.00016898033903158059
-8.244991824913567e-05   2.2507454878759395e-05   -0.00016898033903158059
-3.42893031694255e-05   2.1641589709577372e-05   -0.00024872851172958875
-3.42893031694255e-05   2.1641589709577372e-05   -0.00024872851172958875
-3.42893031694255e-05   2.1641589709577372e-05   -0.00024872851172958875
-3.42893031694255e-05   2.1641589709577372e-05   -0.00024872851172958875
-6.051353300927015e-05   1.7836941375684243e-05   -0.00020273867299618043
-6.051353300927015e-05   1.7836941375684243e-05   -0.00020273867299618043
-6.051353300927015e-05   1.7836941375684243e-05   -0.00020273867299618043
-6.051353300927015e-05   1.7836941375684243e-05   -0.00020273867299618043
-9.233594483753889e-05   1.0345547037856132e-05   -0.00014113606149552572
-9.233594483753889e-05   1.0345547037856132e-05   -0.00014113606149552572
-9.233594483753889e-05   1.0345547037856132e-05   -0.00014113606149552572
-9.233594483753889e-05   1.0345547037856132e-05   -0.00014113606149552572
-0.0001399771009410197   1.90507257125834e-05   -0.00021531488112982392
-0.0001399771009410197   1.90507257125834e-05   -0.00021531488112982392
-0.0001399771009410197   1.90507257125834e-05   -0.00021531488112982392
-0.0001399771009410197   1.90507257125834e-05   -0.00021531488112982392
-0.00013619638679533257   1.620056898662091e-05   -0.0001329657993258482
-0.00013619638679533257   1.620056898662091e-05   -0.0001329657993258482
-0.00013619638679533257   1.620056898662091e-05   -0.0001329657993258482
-0.00013619638679533257   1.620056898662091e-05   -0.0001329657993258482
-8.90220559701672e-05   2.4419608465013967e-05   -0.00021652110772149168
-8.90220559701672e-05   2.4419608465013967e-05   -0.00021652110772149168
-8.90220559701672e-05   2.4419608465013967e-05   -0.00021652110772149168
-8.90220559701672e-05   2.4419608465013967e-05   -0.00021652110772149168
-0.00011359164847872573   1.8207950548887117e-05   -0.00017184479212421858
-0.00011359164847872573   1.8207950548887117e-05   -0.00017184479212421858
-0.00011359164847872573   1.8207950548887117e-05   -0.00017184479212421858
-0.00011359164847872573   1.8207950548887117e-05   -0.00017184479212421858
-8.902205597016735e-05   1.620056898662091e-05   -0.00013789722301288387
-8.902205597016735e-05   1.620056898662091e-05   -0.00013789722301288387
-8.902205597016735e-05   1.620056898662091e-05   -0.00013789722301288387
-8.902205597016735e-05   1.620056898662091e-05   -0.00013789722301288387
-0.0001361963867953328   2.4419608465012232e-05   -0.0002115896840344583
-0.0001361963867953328   2.4419608465012232e-05   -0.0002115896840344583
-0.0001361963867953328   2.4419608465012232e-05   -0.0002115896840344583
-0.0001361963867953328   2.4419608465012232e-05   -0.0002115896840344583
-0.00013168576679464534   2.1607484372234906e-05   -0.00013176963794479368
-0.00013168576679464534   2.1607484372234906e-05   -0.00013176963794479368
-0.00013168576679464534   2.1607484372234906e-05   -0.00013176963794479368
-0.00013168576679464534   2.1607484372234906e-05   -0.00013176963794479368
-8.565818856401069e-05   2.9260143998019808e-05   -0.00021307386410465603
-8.565818856401069e-05   2.9260143998019808e-05   -0.00021307386410465603
-8.565818856401069e-05   2.9260143998019808e-05   -0.00021307386410465603
-8.565818856401069e-05   2.9260143998019808e-05   -0.00021307386410465603
-0.00010978924637825664   2.24418336690832e-05   -0.00016876444821688587
-0.00010978924637825664   2.24418336690832e-05   -0.00016876444821688587
-0.00010978924637825664   2.24418336690832e-05   -0.00016876444821688587
-0.00010978924637825664   2.24418336690832e-05   -0.00016876444821688587
-8.565818856401062e-05   2.1607484372234906e-05   -0.00013636123372026427
-8.565818856401062e-05   2.1607484372234906e-05   -0.00013636123372026427
-8.565818856401062e-05   2.1607484372234906e-05   -0.00013636123372026427
-8.565818856401062e-05   2.1607484372234906e-05   -0.00013636123372026427
-0.00013168576679464534   2.9260143998019808e-05   -0.00020848226832918555
-0.00013168576679464534   2.9260143998019808e-05   -0.00020848226832918555
-0.00013168576679464534   2.9260143998019808e-05   -0.00020848226832918555
-0.00013168576679464534   2.9260143998019808e-05   -0.00020848226832918555
-0.00012792371784640705   2.7675729880384872e-05   -0.00013541521729002002
-0.00012792371784640705   2.7675729880384872e-05   -0.00013541521729002002
-0.00012792371784640705   2.7675729880384872e-05   -0.00013541521729002002
-0.00012792371784640705   2.7675729880384872e-05   -0.00013541521729002002
-8.244991824913567e-05   3.468572657814098e-05   -0.0002154108813041254
-8.244991824913567e-05   3.468572657814098e-05   -0.0002154108813041254
-8.244991824913567e-05   3.468572657814098e-05   -0.0002154108813041254
-8.244991824913567e-05   3.468572657814098e-05   -0.0002154108813041254
-0.0001072192683336616   2.6619718397211806e-05   -0.00016928902625469117
-0.0001072192683336616   2.6619718397211806e-05   -0.00016928902625469117
-0.0001072192683336616   2.6619718397211806e-05   -0.00016928902625469117
-0.0001072192683336616   2.6619718397211806e-05   -0.00016928902625469117
-0.0001399771009410197   1.7350676739190038e-05   -7.307391105274962e-05
-0.0001399771009410197   1.7350676739190038e-05   -7.307391105274962e-05
-0.0001399771009410197   1.7350676739190038e-05   -7.307391105274962e-05
-0.0001399771009410197   1.7350676739190038e-05   -7.307391105274962e-05
-0.00019419393526574685   3.27389246425145e-05   -0.00015420235285196725
-0.00019419393526574685   3.27389246425145e-05   -0.00015420235285196725
-0.00019419393526574685   3.27389246425145e-05   -0.00015420235285196725
-0.00019419393526574685   3.27389246425145e-05   -0.00015420235285196725
-0.00018390418991765347   2.2651108385176102e-05   -4.621896228341679e-05
-0.00018390418991765347   2.2651108385176102e-05   -4.621896228341679e-05
-0.00018390418991765347   2.2651108385176102e-05   -4.621896228341679e-05
-0.00018390418991765347   2.2651108385176102e-05   -4.621896228341679e-05
-0.00013619638679533257   3.830501337510027e-05   -0.00013512431048123998
-0.00013619638679533257   3.830501337510027e-05   -0.00013512431048123998
-0.00013619638679533257   3.830501337510027e-05   -0.00013512431048123998
-0.00013619638679533257   3.830501337510027e-05   -0.00013512431048123998
-0.000156911492848466   2.8410148256430984e-05   -9.466221465481576e-05
-0.000156911492848466   2.8410148256430984e-05   -9.466221465481576e-05
-0.000156911492848466   2.8410148256430984e-05   -9.466221465481576e-05
-0.000156911492848466   2.8410148256430984e-05   -9.466221465481576e-05
-0.00013619638679533274   2.2651108385176102e-05   -5.561130527737077e-05
-0.00013619638679533274   2.2651108385176102e-05   -5.561130527737077e-05
-0.00013619638679533274   2.2651108385176102e-05   -5.561130527737077e-05
-0.00013619638679533274   2.2651108385176102e-05   -5.561130527737077e-05
-0.00018390418991765282   3.830501337510027e-05   -0.00012573196748728605
-0.00018390418991765282   3.830501337510027e-05   -0.00012573196748728605
-0.00018390418991765282   3.830501337510027e-05   -0.00012573196748728605
-0.00018390418991765282   3.830501337510027e-05   -0.00012573196748728605
-0.00017539896329680203   2.5078724905380073e-05   -3.813733522845062e-05
-0.00017539896329680203   2.5078724905380073e-05   -3.813733522845062e-05
-0.00017539896329680203   2.5078724905380073e-05   -3.813733522845062e-05
-0.00017539896329680203   2.5078724905380073e-05   -3.813733522845062e-05
-0.00013168576679464512   4.029679218609493e-05   -0.00012012350310047499
-0.00013168576679464512   4.029679218609493e-05   -0.00012012350310047499
-0.00013168576679464512   4.029679218609493e-05   -0.00012012350310047499
-0.00013168576679464512   4.029679218609493e-05   -0.00012012350310047499
-0.0001530889195520868   3.090223753609428e-05   -7.881484904807227e-05
-0.0001530889195520868   3.090223753609428e-05   -7.881484904807227e-05
-0.0001530889195520868   3.090223753609428e-05   -7.881484904807227e-05
-0.0001530889195520868   3.090223753609428e-05   -7.881484904807227e-05
-0.00013168576679464534   2.507872490537834e-05   -4.72681755968804e-05
-0.00013168576679464534   2.507872490537834e-05   -4.72681755968804e-05
-0.00013168576679464534   2.507872490537834e-05   -4.72681755968804e-05
-0.00013168576679464534   2.507872490537834e-05   -4.72681755968804e-05
-0.0001753989632968018   4.029679218609493e-05   -0.00011099266273204619
-0.0001753989632968018   4.029679218609493e-05   -0.00011099266273204619
-0.0001753989632968018   4.029679218609493e-05   -0.00011099266273204619
-0.0001753989632968018   4.029679218609493e-05   -0.00011099266273204619
-0.00016536152296675708   2.8861746416381645e-05   -2.9742256091088576e-05
-0.00016536152296675708   2.8861746416381645e-05   -2.9742256091088576e-05
-0.00016536152296675708   2.8861746416381645e-05   -2.9742256091088576e-05
-0.00016536152296675708   2.8861746416381645e-05   -2.9742256091088576e-05
-0.00012792371784640705   4.2845897785147996e-05   -0.00010052908877959861
-0.00012792371784640705   4.2845897785147996e-05   -0.00010052908877959861
-0.00012792371784640705   4.2845897785147996e-05   -0.00010052908877959861
-0.00012792371784640705   4.2845897785147996e-05   -0.00010052908877959861
-0.0001451176576002263   3.2114092803271765e-05   -6.543343953410979e-05
-0.0001451176576002263   3.2114092803271765e-05   -6.543343953410979e-05
-0.0001451176576002263   3.2114092803271765e-05   -6.543343953410979e-05
-0.0001451176576002263   3.2114092803271765e-05   -6.543343953410979e-05
0.00014821041923769617   -1.94750087725553e-05   -1.932642752067344e-06
0.00014821041923769617   -1.94750087725553e-05   -1.932642752067344e-06
0.00014821041923769617   -1.94750087725553e-05   -1.932642752067344e-06
0.00014821041923769617   -1.94750087725553e-05   -1.932642752067344e-06
6.330660094428604e-05   -3.523843833343719e-05   -0.00015289706431094625
6.330660094428604e-05   -3.523843833343719e-05   -0.00015289706431094625
6.330660094428604e-05   -3.523843833343719e-05   -0.00015289706431094625
6.330660094428604e-05   -3.523843833343719e-05   -0.00015289706431094625
6.786965115789466e-05   -1.5991876926477536e-05   -1.7557975703207107e-05
6.786965115789466e-05   -1.5991876926477536e-05   -1.7557975703207107e-05
6.786965115789466e-05   -1.5991876926477536e-05   -1.7557975703207107e-05
6.786965115789466e-05   -1.5991876926477536e-05   -1.7557975703207107e-05
0.00015955383948740602   -3.275947712344518e-05   -0.00016030439613421094
0.00015955383948740602   -3.275947712344518e-05   -0.00016030439613421094
0.00015955383948740602   -3.275947712344518e-05   -0.00016030439613421094
0.00015955383948740602   -3.275947712344518e-05   -0.00016030439613421094
0.00010531675304051855   -2.3189880983031166e-05   -7.565100974031482e-05
0.00010531675304051855   -2.3189880983031166e-05   -7.565100974031482e-05
0.00010531675304051855   -2.3189880983031166e-05   -7.565100974031482e-05
0.00010531675304051855   -2.3189880983031166e-05   -7.565100974031482e-05
0.00015955383948740623   -1.5991876926477536e-05   -7.497415585026e-06
0.00015955383948740623   -1.5991876926477536e-05   -7.497415585026e-06
0.00015955383948740623   -1.5991876926477536e-05   -7.497415585026e-06
0.00015955383948740623   -1.5991876926477536e-05   -7.497415585026e-06
6.786965115789466e-05   -3.275947712344518e-05   -0.0001703649562523916
6.786965115789466e-05   -3.275947712344518e-05   -0.0001703649562523916
6.786965115789466e-05   -3.275947712344518e-05   -0.0001703649562523916
6.786965115789466e-05   -3.275947712344518e-05   -0.0001703649562523916
7.292035141908673e-05   -1.368161269945517e-05   -2.4386182928406303e-05
7.292035141908673e-05   -1.368161269945517e-05   -2.4386182928406303e-05
7.292035141908673e-05   -1.368161269945517e-05   -2.4386182928406303e-05
7.292035141908673e-05   -1.368161269945517e-05   -2.4386182928406303e-05
0.00016909985231108697   -3.0644754637425276e-05   -0.00017450746591895962
0.00016909985231108697   -3.0644754637425276e-05   -0.00017450746591895962
0.00016909985231108697   -3.0644754637425276e-05   -0.00017450746591895962
0.00016909985231108697   -3.0644754637425276e-05   -0.00017450746591895962
0.00011383909475888446   -2.224960455922409e-05   -8.74432933788763e-05
0.00011383909475888446   -2.224960455922409e-05   -8.74432933788763e-05
0.00011383909475888446   -2.224960455922409e-05   -8.74432933788763e-05
0.00011383909475888446   -2.224960455922409e-05   -8.74432933788763e-05
0.0001690998523110874   -1.368161269945517e-05   -1.4208297765627188e-05
0.0001690998523110874   -1.368161269945517e-05   -1.4208297765627188e-05
0.0001690998523110874   -1.368161269945517e-05   -1.4208297765627188e-05
0.0001690998523110874   -1.368161269945517e-05   -1.4208297765627188e-05
7.292035141908673e-05   -3.064475463742354e-05   -0.00018468535108174308
7.292035141908673e-05   -3.064475463742354e-05   -0.00018468535108174308
7.292035141908673e-05   -3.064475463742354e-05   -0.00018468535108174308
7.292035141908673e-05   -3.064475463742354e-05   -0.00018468535108174308
7.710856645848168e-05   -7.84872955306333e-06   -4.019711640157117e-05
7.710856645848168e-05   -7.84872955306333e-06   -4.019711640157117e-05
7.710856645848168e-05   -7.84872955306333e-06   -4.019711640157117e-05
7.710856645848168e-05   -7.84872955306333e-06   -4.019711640157117e-05
0.00018018143779964285   -2.393946520388296e-05   -0.00020233079391301662
0.00018018143779964285   -2.393946520388296e-05   -0.00020233079391301662
0.00018018143779964285   -2.393946520388296e-05   -0.00020233079391301662
0.00018018143779964285   -2.393946520388296e-05   -0.00020233079391301662
0.00011850460669797969   -1.9645845859537353e-05   -0.00010211224701685458
0.00011850460669797969   -1.9645845859537353e-05   -0.00010211224701685458
0.00011850460669797969   -1.9645845859537353e-05   -0.00010211224701685458
0.00011850460669797969   -1.9645845859537353e-05   -0.00010211224701685458
6.330660094428604e-05   -7.752181642428288e-06   -0.00010447541121128608
6.330660094428604e-05   -7.752181642428288e-06   -0.00010447541121128608
6.330660094428604e-05   -7.752181642428288e-06   -0.00010447541121128608
6.330660094428604e-05   -7.752181642428288e-06   -0.00010447541121128608
-2.6720319861656952e-05   -1.6584155366310138e-05   -0.00025981946345552016
-2.6720319861656952e-05   -1.6584155366310138e-05   -0.00025981946345552016
-2.6720319861656952e-05   -1.6584155366310138e-05   -0.00025981946345552016
-2.6720319861656952e-05   -1.6584155366310138e-05   -0.00025981946345552016
-2.246529139285651e-05   -2.989681999444882e-06   -0.00010665208652892427
-2.246529139285651e-05   -2.989681999444882e-06   -0.00010665208652892427
-2.246529139285651e-05   -2.989681999444882e-06   -0.00010665208652892427
-2.246529139285651e-05   -2.989681999444882e-06   -0.00010665208652892427
6.786965115789466e-05   -1.3166105935040473e-05   -0.00025110446975215236
6.786965115789466e-05   -1.3166105935040473e-05   -0.00025110446975215236
6.786965115789466e-05   -1.3166105935040473e-05   -0.00025110446975215236
6.786965115789466e-05   -1.3166105935040473e-05   -0.00025110446975215236
2.0726308895937032e-05   -8.03386714180905e-06   -0.00017561157592482866
2.0726308895937032e-05   -8.03386714180905e-06   -0.00017561157592482866
2.0726308895937032e-05   -8.03386714180905e-06   -0.00017561157592482866
2.0726308895937032e-05   -8.03386714180905e-06   -0.00017561157592482866
6.786965115789488e-05   -2.989681999444882e-06   -0.00010054623216756552
6.786965115789488e-05   -2.989681999444882e-06   -0.00010054623216756552
6.786965115789488e-05   -2.989681999444882e-06   -0.00010054623216756552
6.786965115789488e-05   -2.989681999444882e-06   -0.00010054623216756552
-2.246529139285651e-05   -1.3166105935040473e-05   -0.0002572103241135085
-2.246529139285651e-05   -1.3166105935040473e-05   -0.0002572103241135085
-2.246529139285651e-05   -1.3166105935040473e-05   -0.0002572103241135085
-2.246529139285651e-05   -1.3166105935040473e-05   -0.0002572103241135085
-1.8402274320263165e-05   1.9306739091531216e-06   -0.00010799537936905142
-1.8402274320263165e-05   1.9306739091531216e-06   -0.00010799537936905142
-1.8402274320263165e-05   1.9306739091531216e-06   -0.00010799537936905142
-1.8402274320263165e-05   1.9306739091531216e-06   -0.00010799537936905142
7.292035141908673e-05   -8.985668034066849e-06   -0.0002536499504353692
7.292035141908673e-05   -8.985668034066849e-06   -0.0002536499504353692
7.292035141908673e-05   -8.985668034066849e-06   -0.0002536499504353692
7.292035141908673e-05   -8.985668034066849e-06   -0.0002536499504353692
2.411434728134918e-05   -5.016734664530648e-06   -0.00017468797022752525
2.411434728134918e-05   -5.016734664530648e-06   -0.00017468797022752525
2.411434728134918e-05   -5.016734664530648e-06   -0.00017468797022752525
2.411434728134918e-05   -5.016734664530648e-06   -0.00017468797022752525
7.292035141908673e-05   1.930673909151387e-06   -0.00010144557420311857
7.292035141908673e-05   1.930673909151387e-06   -0.00010144557420311857
7.292035141908673e-05   1.930673909151387e-06   -0.00010144557420311857
7.292035141908673e-05   1.930673909151387e-06   -0.00010144557420311857
-1.8402274320263165e-05   -8.985668034068583e-06   -0.00026019975560130117
-1.8402274320263165e-05   -8.985668034068583e-06   -0.00026019975560130117
-1.8402274320263165e-05   -8.985668034068583e-06   -0.00026019975560130117
-1.8402274320263165e-05   -8.985668034068583e-06   -0.00026019975560130117
-1.4582440579610193e-05   7.751208851707048e-06   -0.00011163803836445468
-1.4582440579610193e-05   7.751208851707048e-06   -0.00011163803836445468
-1.4582440579610193e-05   7.751208851707048e-06   -0.00011163803836445468
-1.4582440579610193e-05   7.751208851707048e-06   -0.00011163803836445468
7.710856645848168e-05   -3.731112505163045e-06   -0.0002575669906138174
7.710856645848168e-05   -3.731112505163045e-06   -0.0002575669906138174
7.710856645848168e-05   -3.731112505163045e-06   -0.0002575669906138174
7.710856645848168e-05   -3.731112505163045e-06   -0.0002575669906138174
2.832171137071894e-05   -1.2993230622988794e-06   -0.00017771463913326783
2.832171137071894e-05   -1.2993230622988794e-06   -0.00017771463913326783
2.832171137071894e-05   -1.2993230622988794e-06   -0.00017771463913326783
2.832171137071894e-05   -1.2993230622988794e-06   -0.00017771463913326783
-2.672031986165706e-05   5.86002951115383e-06   -0.0001341251407915786
-2.672031986165706e-05   5.86002951115383e-06   -0.0001341251407915786
-2.672031986165706e-05   5.86002951115383e-06   -0.0001341251407915786
-2.672031986165706e-05   5.86002951115383e-06   -0.0001341251407915786
-0.00011516215369612097   2.857091657664304e-06   -0.00028332995989444575
-0.00011516215369612097   2.857091657664304e-06   -0.00028332995989444575
-0.00011516215369612097   2.857091657664304e-06   -0.00028332995989444575
-0.00011516215369612097   2.857091657664304e-06   -0.00028332995989444575
-0.000110581023053745   1.0890509390588249e-05   -0.00013323421908022215
-0.000110581023053745   1.0890509390588249e-05   -0.00013323421908022215
-0.000110581023053745   1.0890509390588249e-05   -0.00013323421908022215
-0.000110581023053745   1.0890509390588249e-05   -0.00013323421908022215
-2.246529139285651e-05   6.690076275699466e-06   -0.0002775735119794351
-2.246529139285651e-05   6.690076275699466e-06   -0.0002775735119794351
-2.246529139285651e-05   6.690076275699466e-06   -0.0002775735119794351
-2.246529139285651e-05   6.690076275699466e-06   -0.0002775735119794351
-6.825841553839907e-05   8.02810443449771e-06   -0.00020205445529881093
-6.825841553839907e-05   8.02810443449771e-06   -0.00020205445529881093
-6.825841553839907e-05   8.02810443449771e-06   -0.00020205445529881093
-6.825841553839907e-05   8.02810443449771e-06   -0.00020205445529881093
-2.246529139285651e-05   1.0890509390588249e-05   -0.0001307139592112887
-2.246529139285651e-05   1.0890509390588249e-05   -0.0001307139592112887
-2.246529139285651e-05   1.0890509390588249e-05   -0.0001307139592112887
-2.246529139285651e-05   1.0890509390588249e-05   -0.0001307139592112887
-0.000110581023053745   6.690076275699466e-06   -0.00028009377184836943
-0.000110581023053745   6.690076275699466e-06   -0.00028009377184836943
-0.000110581023053745   6.690076275699466e-06   -0.00028009377184836943
-0.000110581023053745   6.690076275699466e-06   -0.00028009377184836943
-0.0001061645642636594   1.622020202855616e-05   -0.00013303281486877656
-0.0001061645642636594   1.622020202855616e-05   -0.00013303281486877656
-0.0001061645642636594   1.622020202855616e-05   -0.00013303281486877656
-0.0001061645642636594   1.622020202855616e-05   -0.00013303281486877656
-1.8402274320263273e-05   1.1137520718485297e-05   -0.00027625368932172813
-1.8402274320263273e-05   1.1137520718485297e-05   -0.00027625368932172813
-1.8402274320263273e-05   1.1137520718485297e-05   -0.00027625368932172813
-1.8402274320263273e-05   1.1137520718485297e-05   -0.00027625368932172813
-6.43120551751204e-05   1.1614996402949801e-05   -0.00020002387330764356
-6.43120551751204e-05   1.1614996402949801e-05   -0.00020002387330764356
-6.43120551751204e-05   1.1614996402949801e-05   -0.00020002387330764356
-6.43120551751204e-05   1.1614996402949801e-05   -0.00020002387330764356
-1.8402274320263273e-05   1.6220202028557895e-05   -0.0001299832060827344
-1.8402274320263273e-05   1.6220202028557895e-05   -0.0001299832060827344
-1.8402274320263273e-05   1.6220202028557895e-05   -0.0001299832060827344
-1.8402274320263273e-05   1.6220202028557895e-05   -0.0001299832060827344
-0.0001061645642636594   1.1137520718485297e-05   -0.0002793032981077718
-0.0001061645642636594   1.1137520718485297e-05   -0.0002793032981077718
-0.0001061645642636594   1.1137520718485297e-05   -0.0002793032981077718
-0.0001061645642636594   1.1137520718485297e-05   -0.0002793032981077718
-0.00010208315425342413   2.1641589709577372e-05   -0.00013614468171909734
-0.00010208315425342413   2.1641589709577372e-05   -0.00013614468171909734
-0.00010208315425342413   2.1641589709577372e-05   -0.00013614468171909734
-0.00010208315425342413   2.1641589709577372e-05   -0.00013614468171909734
-1.4582440579610193e-05   1.5735468049823953e-05   -0.00027843553151293745
-1.4582440579610193e-05   1.5735468049823953e-05   -0.00027843553151293745
-1.4582440579610193e-05   1.5735468049823953e-05   -0.00027843553151293745
-1.4582440579610193e-05   1.5735468049823953e-05   -0.00027843553151293745
-6.0782501429395755e-05   1.5295741568069343e-05   -0.0002011715942075783
-6.0782501429395755e-05   1.5295741568069343e-05   -0.0002011715942075783
-6.0782501429395755e-05   1.5295741568069343e-05   -0.0002011715942075783
-6.0782501429395755e-05   1.5295741568069343e-05   -0.0002011715942075783
-0.00011516215369612113   1.90507257125834e-05   -0.00010888710076544742
-0.00011516215369612113   1.90507257125834e-05   -0.00010888710076544742
-0.00011516215369612113   1.90507257125834e-05   -0.00010888710076544742
-0.00011516215369612113   1.90507257125834e-05   -0.00010888710076544742
-0.00020187305420060558   2.299074536592921e-05   -0.0002510412564809142
-0.00020187305420060558   2.299074536592921e-05   -0.0002510412564809142
-0.00020187305420060558   2.299074536592921e-05   -0.0002510412564809142
-0.00020187305420060558   2.299074536592921e-05   -0.0002510412564809142
-0.00019635720460433546   2.4419608465013967e-05   -0.00010240574716542314
-0.00019635720460433546   2.4419608465013967e-05   -0.00010240574716542314
-0.00019635720460433546   2.4419608465013967e-05   -0.00010240574716542314
-0.00019635720460433546   2.4419608465013967e-05   -0.00010240574716542314
-0.0001105810230537452   2.7869201217268352e-05   -0.00024743580540109483
-0.0001105810230537452   2.7869201217268352e-05   -0.00024743580540109483
-0.0001105810230537452   2.7869201217268352e-05   -0.00024743580540109483
-0.0001105810230537452   2.7869201217268352e-05   -0.00024743580540109483
-0.0001548517491733609   2.4614267375298177e-05   -0.00017169830156321892
-0.0001548517491733609   2.4614267375298177e-05   -0.00017169830156321892
-0.0001548517491733609   2.4614267375298177e-05   -0.00017169830156321892
-0.0001548517491733609   2.4614267375298177e-05   -0.00017169830156321892
-0.0001105810230537452   2.4419608465012232e-05   -0.0001044755028167775
-0.0001105810230537452   2.4419608465012232e-05   -0.0001044755028167775
-0.0001105810230537452   2.4419608465012232e-05   -0.0001044755028167775
-0.0001105810230537452   2.4419608465012232e-05   -0.0001044755028167775
-0.00019635720460433578   2.7869201217268352e-05   -0.0002453660497497411
-0.00019635720460433578   2.7869201217268352e-05   -0.0002453660497497411
-0.00019635720460433578   2.7869201217268352e-05   -0.0002453660497497411
-0.00019635720460433578   2.7869201217268352e-05   -0.0002453660497497411
-0.00019026655383782068   2.9260143998019808e-05   -9.880297536565743e-05
-0.00019026655383782068   2.9260143998019808e-05   -9.880297536565743e-05
-0.00019026655383782068   2.9260143998019808e-05   -9.880297536565743e-05
-0.00019026655383782068   2.9260143998019808e-05   -9.880297536565743e-05
-0.00010616456426365957   3.2072190240381784e-05   -0.00024066018573467673
-0.00010616456426365957   3.2072190240381784e-05   -0.00024066018573467673
-0.00010616456426365957   3.2072190240381784e-05   -0.00024066018573467673
-0.00010616456426365957   3.2072190240381784e-05   -0.00024066018573467673
-0.00014928574714436784   2.840575660351813e-05   -0.00016659168741804464
-0.00014928574714436784   2.840575660351813e-05   -0.00016659168741804464
-0.00014928574714436784   2.840575660351813e-05   -0.00016659168741804464
-0.00014928574714436784   2.840575660351813e-05   -0.00016659168741804464
-0.00010616456426365951   2.9260143998019808e-05   -0.00010049020311107392
-0.00010616456426365951   2.9260143998019808e-05   -0.00010049020311107392
-0.00010616456426365951   2.9260143998019808e-05   -0.00010049020311107392
-0.00010616456426365951   2.9260143998019808e-05   -0.00010049020311107392
-0.00019026655383782068   3.207219024038352e-05   -0.0002389729579892596
-0.00019026655383782068   3.207219024038352e-05   -0.0002389729579892596
-0.00019026655383782068   3.207219024038352e-05   -0.0002389729579892596
-0.00019026655383782068   3.207219024038352e-05   -0.0002389729579892596
-0.00018511657479788315   3.468572657814098e-05   -0.00010108063010235476
-0.00018511657479788315   3.468572657814098e-05   -0.00010108063010235476
-0.00018511657479788315   3.468572657814098e-05   -0.00010108063010235476
-0.00018511657479788315   3.468572657814098e-05   -0.00010108063010235476
-0.00010208315425342429   3.6730563394428775e-05   -0.00024069656643289125
-0.00010208315425342429   3.6730563394428775e-05   -0.00024069656643289125
-0.00010208315425342429   3.6730563394428775e-05   -0.00024069656643289125
-0.00010208315425342429   3.6730563394428775e-05   -0.00024069656643289125
-0.00014579199534254259   3.19015400502623e-05   -0.00016495108394452932
-0.00014579199534254259   3.19015400502623e-05   -0.00016495108394452932
-0.00014579199534254259   3.19015400502623e-05   -0.00016495108394452932
-0.00014579199534254259   3.19015400502623e-05   -0.00016495108394452932
-0.00020187305420060558   3.27389246425145e-05   -5.4643509437577245e-05
-0.00020187305420060558   3.27389246425145e-05   -5.4643509437577245e-05
-0.00020187305420060558   3.27389246425145e-05   -5.4643509437577245e-05
-0.00020187305420060558   3.27389246425145e-05   -5.4643509437577245e-05
-0.00029308038317892623   4.531568754996031e-05   -0.00019910966665697902
-0.00029308038317892623   4.531568754996031e-05   -0.00019910966665697902
-0.00029308038317892623   4.531568754996031e-05   -0.00019910966665697902
-0.00029308038317892623   4.531568754996031e-05   -0.00019910966665697902
-0.0002805011386122319   3.830501337510027e-05   -1.7845812534455358e-05
-0.0002805011386122319   3.830501337510027e-05   -1.7845812534455358e-05
-0.0002805011386122319   3.830501337510027e-05   -1.7845812534455358e-05
-0.0002805011386122319   3.830501337510027e-05   -1.7845812534455358e-05
-0.00019635720460433546   5.179594850468483e-05   -0.0001661802636253669
-0.00019635720460433546   5.179594850468483e-05   -0.0001661802636253669
-0.00019635720460433546   5.179594850468483e-05   -0.0001661802636253669
-0.00019635720460433546   5.179594850468483e-05   -0.0001661802636253669
-0.00023290342822434446   4.317652703342452e-05   -0.00010009823804259666
-0.00023290342822434446   4.317652703342452e-05   -0.00010009823804259666
-0.00023290342822434446   4.317652703342452e-05   -0.00010009823804259666
-0.00023290342822434446   4.317652703342452e-05   -0.00010009823804259666
-0.0001963572046043356   3.830501337510027e-05   -2.5940373612205747e-05
-0.0001963572046043356   3.830501337510027e-05   -2.5940373612205747e-05
-0.0001963572046043356   3.830501337510027e-05   -2.5940373612205747e-05
-0.0001963572046043356   3.830501337510027e-05   -2.5940373612205747e-05
-0.00028050113861223145   5.179594850468483e-05   -0.00015808570254761609
-0.00028050113861223145   5.179594850468483e-05   -0.00015808570254761609
-0.00028050113861223145   5.179594850468483e-05   -0.00015808570254761609
-0.00028050113861223145   5.179594850468483e-05   -0.00015808570254761609
-0.0002701479812819967   4.0296792186096664e-05   -2.5249922765762864e-06
-0.0002701479812819967   4.0296792186096664e-05   -2.5249922765762864e-06
-0.0002701479812819967   4.0296792186096664e-05   -2.5249922765762864e-06
-0.0002701479812819967   4.0296792186096664e-05   -2.5249922765762864e-06
-0.00019026655383782068   5.3495488620047826e-05   -0.00014357992254390817
-0.00019026655383782068   5.3495488620047826e-05   -0.00014357992254390817
-0.00019026655383782068   5.3495488620047826e-05   -0.00014357992254390817
-0.00019026655383782068   5.3495488620047826e-05   -0.00014357992254390817
-0.0002285465341391038   4.574133499344983e-05   -7.512746319914129e-05
-0.0002285465341391038   4.574133499344983e-05   -7.512746319914129e-05
-0.0002285465341391038   4.574133499344983e-05   -7.512746319914129e-05
-0.0002285465341391038   4.574133499344983e-05   -7.512746319914129e-05
-0.00019026655383782068   4.0296792186096664e-05   -1.0444210136947851e-05
-0.00019026655383782068   4.0296792186096664e-05   -1.0444210136947851e-05
-0.00019026655383782068   4.0296792186096664e-05   -1.0444210136947851e-05
-0.00019026655383782068   4.0296792186096664e-05   -1.0444210136947851e-05
-0.00027014798128199575   5.3495488620047826e-05   -0.00013566070468353647
-0.00027014798128199575   5.3495488620047826e-05   -0.00013566070468353647
-0.00027014798128199575   5.3495488620047826e-05   -0.00013566070468353647
-0.00027014798128199575   5.3495488620047826e-05   -0.00013566070468353647
-0.0002590013559618733   4.2845897785147996e-05   1.6879314560170472e-05
-0.0002590013559618733   4.2845897785147996e-05   1.6879314560170472e-05
-0.0002590013559618733   4.2845897785147996e-05   1.6879314560170472e-05
-0.0002590013559618733   4.2845897785147996e-05   1.6879314560170472e-05
-0.00018511657479788315   5.498614804623145e-05   -0.00011354613753646465
-0.00018511657479788315   5.498614804623145e-05   -0.00011354613753646465
-0.00018511657479788315   5.498614804623145e-05   -0.00011354613753646465
-0.00018511657479788315   5.498614804623145e-05   -0.00011354613753646465
-0.0002180902719284684   4.616405175716411e-05   -5.329671787871707e-05
-0.0002180902719284684   4.616405175716411e-05   -5.329671787871707e-05
-0.0002180902719284684   4.616405175716411e-05   -5.329671787871707e-05
-0.0002180902719284684   4.616405175716411e-05   -5.329671787871707e-05
0.00025237007239031425   -3.523843833343719e-05   4.921884313798062e-05
0.00025237007239031425   -3.523843833343719e-05   4.921884313798062e-05
0.00025237007239031425   -3.523843833343719e-05   4.921884313798062e-05
0.00025237007239031425   -3.523843833343719e-05   4.921884313798062e-05
0.00012180343757214505   -5.230119417043606e-05   -0.00017862986839450173
0.00012180343757214505   -5.230119417043606e-05   -0.00017862986839450173
0.00012180343757214505   -5.230119417043606e-05   -0.00017862986839450173
0.00012180343757214505   -5.230119417043606e-05   -0.00017862986839450173
0.0001268655187658431   -3.275947712344518e-05   2.33062457224726e-05
0.0001268655187658431   -3.275947712344518e-05   2.33062457224726e-05
0.0001268655187658431   -3.275947712344518e-05   2.33062457224726e-05
0.0001268655187658431   -3.275947712344518e-05   2.33062457224726e-05
0.000264049567839217   -5.1065226756177515e-05   -0.0001943503862868452
0.000264049567839217   -5.1065226756177515e-05   -0.0001943503862868452
0.000264049567839217   -5.1065226756177515e-05   -0.0001943503862868452
0.000264049567839217   -5.1065226756177515e-05   -0.0001943503862868452
0.00018350432840275093   -3.861093564323098e-05   -6.758089522716912e-05
0.00018350432840275093   -3.861093564323098e-05   -6.758089522716912e-05
0.00018350432840275093   -3.861093564323098e-05   -6.758089522716912e-05
0.00018350432840275093   -3.861093564323098e-05   -6.758089522716912e-05
0.0002640495678392174   -3.275947712344518e-05   3.428969550211061e-05
0.0002640495678392174   -3.275947712344518e-05   3.428969550211061e-05
0.0002640495678392174   -3.275947712344518e-05   3.428969550211061e-05
0.0002640495678392174   -3.275947712344518e-05   3.428969550211061e-05
0.00012686551876584277   -5.1065226756177515e-05   -0.00020533383606648452
0.00012686551876584277   -5.1065226756177515e-05   -0.00020533383606648452
0.00012686551876584277   -5.1065226756177515e-05   -0.00020533383606648452
0.00012686551876584277   -5.1065226756177515e-05   -0.00020533383606648452
0.00013189922281738172   -3.064475463742354e-05   1.0662823161904783e-05
0.00013189922281738172   -3.064475463742354e-05   1.0662823161904783e-05
0.00013189922281738172   -3.064475463742354e-05   1.0662823161904783e-05
0.00013189922281738172   -3.064475463742354e-05   1.0662823161904783e-05
0.0002730255855491338   -4.9297285605560265e-05   -0.00021335626281013438
0.0002730255855491338   -4.9297285605560265e-05   -0.00021335626281013438
0.0002730255855491338   -4.9297285605560265e-05   -0.00021335626281013438
0.0002730255855491338   -4.9297285605560265e-05   -0.00021335626281013438
0.0001933287383526932   -3.8486573453924006e-05   -8.701461144038254e-05
0.0001933287383526932   -3.8486573453924006e-05   -8.701461144038254e-05
0.0001933287383526932   -3.8486573453924006e-05   -8.701461144038254e-05
0.0001933287383526932   -3.8486573453924006e-05   -8.701461144038254e-05
0.0002730255855491338   -3.064475463742354e-05   2.185434174278595e-05
0.0002730255855491338   -3.064475463742354e-05   2.185434174278595e-05
0.0002730255855491338   -3.064475463742354e-05   2.185434174278595e-05
0.0002730255855491338   -3.064475463742354e-05   2.185434174278595e-05
0.00013189922281738172   -4.9297285605560265e-05   -0.00022454778139101555
0.00013189922281738172   -4.9297285605560265e-05   -0.00022454778139101555
0.00013189922281738172   -4.9297285605560265e-05   -0.00022454778139101555
0.00013189922281738172   -4.9297285605560265e-05   -0.00022454778139101555
0.00013533060434373914   -2.3939465203881224e-05   -1.486150273513967e-05
0.00013533060434373914   -2.3939465203881224e-05   -1.486150273513967e-05
0.00013533060434373914   -2.3939465203881224e-05   -1.486150273513967e-05
0.00013533060434373914   -2.3939465203881224e-05   -1.486150273513967e-05
0.00028251303142466373   -4.238370966868493e-05   -0.0002490990011911327
0.00028251303142466373   -4.238370966868493e-05   -0.0002490990011911327
0.00028251303142466373   -4.238370966868493e-05   -0.0002490990011911327
0.00028251303142466373   -4.238370966868493e-05   -0.0002490990011911327
0.00019613180703505168   -3.5537847231748715e-05   -0.00010923781133727675
0.00019613180703505168   -3.5537847231748715e-05   -0.00010923781133727675
0.00019613180703505168   -3.5537847231748715e-05   -0.00010923781133727675
0.00019613180703505168   -3.5537847231748715e-05   -0.00010923781133727675
0.00012180343757214526   -1.6584155366311873e-05   -6.264202527446645e-05
0.00012180343757214526   -1.6584155366311873e-05   -6.264202527446645e-05
0.00012180343757214526   -1.6584155366311873e-05   -6.264202527446645e-05
0.00012180343757214526   -1.6584155366311873e-05   -6.264202527446645e-05
-7.040542296261974e-06   -3.4093965979064764e-05   -0.0002878878780894628
-7.040542296261974e-06   -3.4093965979064764e-05   -0.0002878878780894628
-7.040542296261974e-06   -3.4093965979064764e-05   -0.0002878878780894628
-7.040542296261974e-06   -3.4093965979064764e-05   -0.0002878878780894628
-1.837112777857558e-06   -1.3166105935038738e-05   -6.902742503925828e-05
-1.837112777857558e-06   -1.3166105935038738e-05   -6.902742503925828e-05
-1.837112777857558e-06   -1.3166105935038738e-05   -6.902742503925828e-05
-1.837112777857558e-06   -1.3166105935038738e-05   -6.902742503925828e-05
0.0001268655187658431   -3.248970137165533e-05   -0.0002719376536834551
0.0001268655187658431   -3.248970137165533e-05   -0.0002719376536834551
0.0001268655187658431   -3.248970137165533e-05   -0.0002719376536834551
0.0001268655187658431   -3.248970137165533e-05   -0.0002719376536834551
6.013480564496203e-05   -2.061752836527396e-05   -0.00016784310228581544
6.013480564496203e-05   -2.061752836527396e-05   -0.00016784310228581544
6.013480564496203e-05   -2.061752836527396e-05   -0.00016784310228581544
6.013480564496203e-05   -2.061752836527396e-05   -0.00016784310228581544
0.00012686551876584299   -1.3166105935038738e-05   -5.743326777728642e-05
0.00012686551876584299   -1.3166105935038738e-05   -5.743326777728642e-05
0.00012686551876584299   -1.3166105935038738e-05   -5.743326777728642e-05
0.00012686551876584299   -1.3166105935038738e-05   -5.743326777728642e-05
-1.837112777857558e-06   -3.248970137165533e-05   -0.00028353181094542546
-1.837112777857558e-06   -3.248970137165533e-05   -0.00028353181094542546
-1.837112777857558e-06   -3.248970137165533e-05   -0.00028353181094542546
-1.837112777857558e-06   -3.248970137165533e-05   -0.00028353181094542546
2.749326219912327e-06   -8.985668034068583e-06   -7.059981265187393e-05
2.749326219912327e-06   -8.985668034068583e-06   -7.059981265187393e-05
2.749326219912327e-06   -8.985668034068583e-06   -7.059981265187393e-05
2.749326219912327e-06   -8.985668034068583e-06   -7.059981265187393e-05
0.00013189922281738172   -2.9482395467655964e-05   -0.0002735516038541706
0.00013189922281738172   -2.9482395467655964e-05   -0.0002735516038541706
0.00013189922281738172   -2.9482395467655964e-05   -0.0002735516038541706
0.00013189922281738172   -2.9482395467655964e-05   -0.0002735516038541706
6.369423976111173e-05   -1.8955833458469962e-05   -0.00016619256929922875
6.369423976111173e-05   -1.8955833458469962e-05   -0.00016619256929922875
6.369423976111173e-05   -1.8955833458469962e-05   -0.00016619256929922875
6.369423976111173e-05   -1.8955833458469962e-05   -0.00016619256929922875
0.00013189922281738172   -8.985668034068583e-06   -5.8301776191721326e-05
0.00013189922281738172   -8.985668034068583e-06   -5.8301776191721326e-05
0.00013189922281738172   -8.985668034068583e-06   -5.8301776191721326e-05
0.00013189922281738172   -8.985668034068583e-06   -5.8301776191721326e-05
2.749326219912327e-06   -2.9482395467655964e-05   -0.0002858496403143236
2.749326219912327e-06   -2.9482395467655964e-05   -0.0002858496403143236
2.749326219912327e-06   -2.9482395467655964e-05   -0.0002858496403143236
2.749326219912327e-06   -2.9482395467655964e-05   -0.0002858496403143236
6.021232508354518e-06   -3.7311125051647798e-06   -7.332775502377938e-05
6.021232508354518e-06   -3.7311125051647798e-06   -7.332775502377938e-05
6.021232508354518e-06   -3.7311125051647798e-06   -7.332775502377938e-05
6.021232508354518e-06   -3.7311125051647798e-06   -7.332775502377938e-05
0.00013533060434373957   -2.520527413571276e-05   -0.00027595887777109255
0.00013533060434373957   -2.520527413571276e-05   -0.00027595887777109255
0.00013533060434373957   -2.520527413571276e-05   -0.00027595887777109255
0.00013533060434373957   -2.520527413571276e-05   -0.00027595887777109255
6.792879296447786e-05   -1.6014942911918642e-05   -0.00016913672420660274
6.792879296447786e-05   -1.6014942911918642e-05   -0.00016913672420660274
6.792879296447786e-05   -1.6014942911918642e-05   -0.00016913672420660274
6.792879296447786e-05   -1.6014942911918642e-05   -0.00016913672420660274
-7.040542296261974e-06   2.8570916576660388e-06   -9.485664536895005e-05
-7.040542296261974e-06   2.8570916576660388e-06   -9.485664536895005e-05
-7.040542296261974e-06   2.8570916576660388e-06   -9.485664536895005e-05
-7.040542296261974e-06   2.8570916576660388e-06   -9.485664536895005e-05
-0.00013398022866815154   -1.821466606359047e-05   -0.00031906584395485164
-0.00013398022866815154   -1.821466606359047e-05   -0.00031906584395485164
-0.00013398022866815154   -1.821466606359047e-05   -0.00031906584395485164
-0.00013398022866815154   -1.821466606359047e-05   -0.00031906584395485164
-0.00012773978987952754   6.690076275697732e-06   -0.00010320458068767586
-0.00012773978987952754   6.690076275697732e-06   -0.00010320458068767586
-0.00012773978987952754   6.690076275697732e-06   -0.00010320458068767586
-0.00012773978987952754   6.690076275697732e-06   -0.00010320458068767586
-1.837112777857558e-06   -1.63332033617878e-05   -0.0002992284080746341
-1.837112777857558e-06   -1.63332033617878e-05   -0.0002992284080746341
-1.837112777857558e-06   -1.63332033617878e-05   -0.0002992284080746341
-1.837112777857558e-06   -1.63332033617878e-05   -0.0002992284080746341
-6.683485908180498e-05   -3.7255482602822215e-06   -0.00019846342396229047
-6.683485908180498e-05   -3.7255482602822215e-06   -0.00019846342396229047
-6.683485908180498e-05   -3.7255482602822215e-06   -0.00019846342396229047
-6.683485908180498e-05   -3.7255482602822215e-06   -0.00019846342396229047
-1.837112777857558e-06   6.690076275697732e-06   -8.939061290518403e-05
-1.837112777857558e-06   6.690076275697732e-06   -8.939061290518403e-05
-1.837112777857558e-06   6.690076275697732e-06   -8.939061290518403e-05
-1.837112777857558e-06   6.690076275697732e-06   -8.939061290518403e-05
-0.00012773978987952754   -1.63332033617878e-05   -0.00031304237585712616
-0.00012773978987952754   -1.63332033617878e-05   -0.00031304237585712616
-0.00012773978987952754   -1.63332033617878e-05   -0.00031304237585712616
-0.00012773978987952754   -1.63332033617878e-05   -0.00031304237585712616
-0.00012201417908953453   1.1137520718485297e-05   -0.00010136105919658633
-0.00012201417908953453   1.1137520718485297e-05   -0.00010136105919658633
-0.00012201417908953453   1.1137520718485297e-05   -0.00010136105919658633
-0.00012201417908953453   1.1137520718485297e-05   -0.00010136105919658633
2.749326219912327e-06   -1.3374667321992828e-05   -0.0002945929218880459
2.749326219912327e-06   -1.3374667321992828e-05   -0.0002945929218880459
2.749326219912327e-06   -1.3374667321992828e-05   -0.0002945929218880459
2.749326219912327e-06   -1.3374667321992828e-05   -0.0002945929218880459
-6.174605242181236e-05   -1.5604442787555545e-06   -0.0001941891579777807
-6.174605242181236e-05   -1.5604442787555545e-06   -0.0001941891579777807
-6.174605242181236e-05   -1.5604442787555545e-06   -0.0001941891579777807
-6.174605242181236e-05   -1.5604442787555545e-06   -0.0001941891579777807
2.749326219912327e-06   1.1137520718485297e-05   -8.665374637230154e-05
2.749326219912327e-06   1.1137520718485297e-05   -8.665374637230154e-05
2.749326219912327e-06   1.1137520718485297e-05   -8.665374637230154e-05
2.749326219912327e-06   1.1137520718485297e-05   -8.665374637230154e-05
-0.00012201417908953475   -1.3374667321992828e-05   -0.00030930023471233224
-0.00012201417908953475   -1.3374667321992828e-05   -0.00030930023471233224
-0.00012201417908953475   -1.3374667321992828e-05   -0.00030930023471233224
-0.00012201417908953475   -1.3374667321992828e-05   -0.00030930023471233224
-0.00011815115733357535   1.5735468049825688e-05   -0.00010309215578045011
-0.00011815115733357535   1.5735468049825688e-05   -0.00010309215578045011
-0.00011815115733357535   1.5735468049825688e-05   -0.00010309215578045011
-0.00011815115733357535   1.5735468049825688e-05   -0.00010309215578045011
6.021232508354626e-06   -1.0573286402967147e-05   -0.00029426088617866037
6.021232508354626e-06   -1.0573286402967147e-05   -0.00029426088617866037
6.021232508354626e-06   -1.0573286402967147e-05   -0.00029426088617866037
6.021232508354626e-06   -1.0573286402967147e-05   -0.00029426088617866037
-5.810991456459247e-05   8.739282322499375e-07   -0.00019424396983821416
-5.810991456459247e-05   8.739282322499375e-07   -0.00019424396983821416
-5.810991456459247e-05   8.739282322499375e-07   -0.00019424396983821416
-5.810991456459247e-05   8.739282322499375e-07   -0.00019424396983821416
-0.00013398022866815127   2.299074536592921e-05   -7.75750083801775e-05
-0.00013398022866815127   2.299074536592921e-05   -7.75750083801775e-05
-0.00013398022866815127   2.299074536592921e-05   -7.75750083801775e-05
-0.00013398022866815127   2.299074536592921e-05   -7.75750083801775e-05
-0.00026264855626626296   3.953919553755306e-06   -0.00030344431653100187
-0.00026264855626626296   3.953919553755306e-06   -0.00030344431653100187
-0.00026264855626626296   3.953919553755306e-06   -0.00030344431653100187
-0.00026264855626626296   3.953919553755306e-06   -0.00030344431653100187
-0.0002537679012121861   2.7869201217270087e-05   -8.278339322893586e-05
-0.0002537679012121861   2.7869201217270087e-05   -8.278339322893586e-05
-0.0002537679012121861   2.7869201217270087e-05   -8.278339322893586e-05
-0.0002537679012121861   2.7869201217270087e-05   -8.278339322893586e-05
-0.00012773978987952732   7.474569569712944e-06   -0.00028059346646149865
-0.00012773978987952732   7.474569569712944e-06   -0.00028059346646149865
-0.00012773978987952732   7.474569569712944e-06   -0.00028059346646149865
-0.00012773978987952732   7.474569569712944e-06   -0.00028059346646149865
-0.0001924987754863542   1.7269404101485225e-05   -0.0001785387245025168
-0.0001924987754863542   1.7269404101485225e-05   -0.0001785387245025168
-0.0001924987754863542   1.7269404101485225e-05   -0.0001785387245025168
-0.0001924987754863542   1.7269404101485225e-05   -0.0001785387245025168
-0.00012773978987952732   2.7869201217270087e-05   -7.054661424040019e-05
-0.00012773978987952732   2.7869201217270087e-05   -7.054661424040019e-05
-0.00012773978987952732   2.7869201217270087e-05   -7.054661424040019e-05
-0.00012773978987952732   2.7869201217270087e-05   -7.054661424040019e-05
-0.0002537679012121866   7.474569569712944e-06   -0.0002928302454500327
-0.0002537679012121866   7.474569569712944e-06   -0.0002928302454500327
-0.0002537679012121866   7.474569569712944e-06   -0.0002928302454500327
-0.0002537679012121866   7.474569569712944e-06   -0.0002928302454500327
-0.00024519698168925586   3.2072190240381784e-05   -7.552931904686918e-05
-0.00024519698168925586   3.2072190240381784e-05   -7.552931904686918e-05
-0.00024519698168925586   3.2072190240381784e-05   -7.552931904686918e-05
-0.00024519698168925586   3.2072190240381784e-05   -7.552931904686918e-05
-0.00012201417908953475   1.0719903201420952e-05   -0.00026802261782302855
-0.00012201417908953475   1.0719903201420952e-05   -0.00026802261782302855
-0.00012201417908953475   1.0719903201420952e-05   -0.00026802261782302855
-0.00012201417908953475   1.0719903201420952e-05   -0.00026802261782302855
-0.00018449324849476172   2.0331949252241216e-05   -0.00016965806311147502
-0.00018449324849476172   2.0331949252241216e-05   -0.00016965806311147502
-0.00018449324849476172   2.0331949252241216e-05   -0.00016965806311147502
-0.00018449324849476172   2.0331949252241216e-05   -0.00016965806311147502
-0.00012201417908953442   3.2072190240381784e-05   -6.271794682349233e-05
-0.00012201417908953442   3.2072190240381784e-05   -6.271794682349233e-05
-0.00012201417908953442   3.2072190240381784e-05   -6.271794682349233e-05
-0.00012201417908953442   3.2072190240381784e-05   -6.271794682349233e-05
-0.0002451969816892563   1.0719903201420952e-05   -0.00028083399004640713
-0.0002451969816892563   1.0719903201420952e-05   -0.00028083399004640713
-0.0002451969816892563   1.0719903201420952e-05   -0.00028083399004640713
-0.0002451969816892563   1.0719903201420952e-05   -0.00028083399004640713
-0.00023867504834653596   3.673056339442704e-05   -7.576319147572456e-05
-0.00023867504834653596   3.673056339442704e-05   -7.576319147572456e-05
-0.00023867504834653596   3.673056339442704e-05   -7.576319147572456e-05
-0.00023867504834653596   3.673056339442704e-05   -7.576319147572456e-05
-0.00011815115733357557   1.347444044247359e-05   -0.00026268266939282045
-0.00011815115733357557   1.347444044247359e-05   -0.00026268266939282045
-0.00011815115733357557   1.347444044247359e-05   -0.00026268266939282045
-0.00011815115733357557   1.347444044247359e-05   -0.00026268266939282045
-0.00017996175501495525   2.2466843209761195e-05   -0.00016506044825089373
-0.00017996175501495525   2.2466843209761195e-05   -0.00016506044825089373
-0.00017996175501495525   2.2466843209761195e-05   -0.00016506044825089373
-0.00017996175501495525   2.2466843209761195e-05   -0.00016506044825089373
-0.00026264855626626296   4.531568754996031e-05   -4.461157178801533e-05
-0.00026264855626626296   4.531568754996031e-05   -4.461157178801533e-05
-0.00026264855626626296   4.531568754996031e-05   -4.461157178801533e-05
-0.00026264855626626296   4.531568754996031e-05   -4.461157178801533e-05
-0.00039695938984666196   4.265176558863881e-05   -0.0002700613142654759
-0.00039695938984666196   4.265176558863881e-05   -0.0002700613142654759
-0.00039695938984666196   4.265176558863881e-05   -0.0002700613142654759
-0.00039695938984666196   4.265176558863881e-05   -0.0002700613142654759
-0.0003795514448961939   5.179594850468483e-05   -2.1725876256685484e-06
-0.0003795514448961939   5.179594850468483e-05   -2.1725876256685484e-06
-0.0003795514448961939   5.179594850468483e-05   -2.1725876256685484e-06
-0.0003795514448961939   5.179594850468483e-05   -2.1725876256685484e-06
-0.00025376790121218567   5.41709809695045e-05   -0.0002132368465779088
-0.00025376790121218567   5.41709809695045e-05   -0.0002132368465779088
-0.00025376790121218567   5.41709809695045e-05   -0.0002132368465779088
-0.00025376790121218567   5.41709809695045e-05   -0.0002132368465779088
-0.000309284634913942   5.110117797570493e-05   -0.00011886707527870231
-0.000309284634913942   5.110117797570493e-05   -0.00011886707527870231
-0.000309284634913942   5.110117797570493e-05   -0.00011886707527870231
-0.000309284634913942   5.110117797570493e-05   -0.00011886707527870231
-0.0002537679012121863   5.179594850468483e-05   -3.597607104560349e-06
-0.0002537679012121863   5.179594850468483e-05   -3.597607104560349e-06
-0.0002537679012121863   5.179594850468483e-05   -3.597607104560349e-06
-0.0002537679012121863   5.179594850468483e-05   -3.597607104560349e-06
-0.0003795514448961939   5.41709809695045e-05   -0.00021181182709901613
-0.0003795514448961939   5.41709809695045e-05   -0.00021181182709901613
-0.0003795514448961939   5.41709809695045e-05   -0.00021181182709901613
-0.0003795514448961939   5.41709809695045e-05   -0.00021181182709901613
-0.00036509658485526586   5.3495488620047826e-05   2.1817497026690134e-05
-0.00036509658485526586   5.3495488620047826e-05   2.1817497026690134e-05
-0.00036509658485526586   5.3495488620047826e-05   2.1817497026690134e-05
-0.00036509658485526586   5.3495488620047826e-05   2.1817497026690134e-05
-0.00024519698168925586   5.675178966706336e-05   -0.00017996895554486862
-0.00024519698168925586   5.675178966706336e-05   -0.00017996895554486862
-0.00024519698168925586   5.675178966706336e-05   -0.00017996895554486862
-0.00024519698168925586   5.675178966706336e-05   -0.00017996895554486862
-0.0003025949309478031   5.483243843306708e-05   -8.31540960402234e-05
-0.0003025949309478031   5.483243843306708e-05   -8.31540960402234e-05
-0.0003025949309478031   5.483243843306708e-05   -8.31540960402234e-05
-0.0003025949309478031   5.483243843306708e-05   -8.31540960402234e-05
-0.0002451969816892563   5.3495488620047826e-05   1.9863716398481508e-05
-0.0002451969816892563   5.3495488620047826e-05   1.9863716398481508e-05
-0.0002451969816892563   5.3495488620047826e-05   1.9863716398481508e-05
-0.0002451969816892563   5.3495488620047826e-05   1.9863716398481508e-05
-0.0003650965848552652   5.6751789667061625e-05   -0.00017801517491666027
-0.0003650965848552652   5.6751789667061625e-05   -0.00017801517491666027
-0.0003650965848552652   5.6751789667061625e-05   -0.00017801517491666027
-0.0003650965848552652   5.6751789667061625e-05   -0.00017801517491666027
-0.0003499967289601305   5.498614804623145e-05   5.391093211661556e-05
-0.0003499967289601305   5.498614804623145e-05   5.391093211661556e-05
-0.0003499967289601305   5.498614804623145e-05   5.391093211661556e-05
-0.0003499967289601305   5.498614804623145e-05   5.391093211661556e-05
-0.00023867504834653596   6.123714268904158e-05   -0.0001353757990250623
-0.00023867504834653596   6.123714268904158e-05   -0.0001353757990250623
-0.00023867504834653596   6.123714268904158e-05   -0.0001353757990250623
-0.00023867504834653596   6.123714268904158e-05   -0.0001353757990250623
-0.0002880548492132223   5.61079255663819e-05   -4.9998600640325554e-05
-0.0002880548492132223   5.61079255663819e-05   -4.9998600640325554e-05
-0.0002880548492132223   5.61079255663819e-05   -4.9998600640325554e-05
-0.0002880548492132223   5.61079255663819e-05   -4.9998600640325554e-05
0.00034761421696503675   -5.230119417043606e-05   0.00011794383464943867
0.00034761421696503675   -5.230119417043606e-05   0.00011794383464943867
0.00034761421696503675   -5.230119417043606e-05   0.00011794383464943867
0.00034761421696503675   -5.230119417043606e-05   0.00011794383464943867
0.00017492838433043095   -6.623984477124867e-05   -0.0001782290767687227
0.00017492838433043095   -6.623984477124867e-05   -0.0001782290767687227
0.00017492838433043095   -6.623984477124867e-05   -0.0001782290767687227
0.00017492838433043095   -6.623984477124867e-05   -0.0001782290767687227
0.00017926782490643623   -5.106522675617578e-05   8.444318408521757e-05
0.00017926782490643623   -5.106522675617578e-05   8.444318408521757e-05
0.00017926782490643623   -5.106522675617578e-05   8.444318408521757e-05
0.00017926782490643623   -5.106522675617578e-05   8.444318408521757e-05
0.0003563611822628586   -6.789623725708856e-05   -0.0002006138052082719
0.0003563611822628586   -6.789623725708856e-05   -0.0002006138052082719
0.0003563611822628586   -6.789623725708856e-05   -0.0002006138052082719
0.0003563611822628586   -6.789623725708856e-05   -0.0002006138052082719
0.00025401884663280635   -5.342771286979617e-05   -3.8724360457226964e-05
0.00025401884663280635   -5.342771286979617e-05   -3.8724360457226964e-05
0.00025401884663280635   -5.342771286979617e-05   -3.8724360457226964e-05
0.00025401884663280635   -5.342771286979617e-05   -3.8724360457226964e-05
0.0003563611822628586   -5.106522675617578e-05   9.454179038576472e-05
0.0003563611822628586   -5.106522675617578e-05   9.454179038576472e-05
0.0003563611822628586   -5.106522675617578e-05   9.454179038576472e-05
0.0003563611822628586   -5.106522675617578e-05   9.454179038576472e-05
0.00017926782490643623   -6.789623725708856e-05   -0.0002107124115088184
0.00017926782490643623   -6.789623725708856e-05   -0.0002107124115088184
0.00017926782490643623   -6.789623725708856e-05   -0.0002107124115088184
0.00017926782490643623   -6.789623725708856e-05   -0.0002107124115088184
0.00018293725848424994   -4.9297285605560265e-05   6.654610138463225e-05
0.00018293725848424994   -4.9297285605560265e-05   6.654610138463225e-05
0.00018293725848424994   -4.9297285605560265e-05   6.654610138463225e-05
0.00018293725848424994   -4.9297285605560265e-05   6.654610138463225e-05
0.00036181903866744987   -6.729390343146457e-05   -0.00022079222822515908
0.00036181903866744987   -6.729390343146457e-05   -0.00022079222822515908
0.00036181903866744987   -6.729390343146457e-05   -0.00022079222822515908
0.00036181903866744987   -6.729390343146457e-05   -0.00022079222822515908
0.00026303240656875903   -5.513095866849227e-05   -6.34456082517906e-05
0.00026303240656875903   -5.513095866849227e-05   -6.34456082517906e-05
0.00026303240656875903   -5.513095866849227e-05   -6.34456082517906e-05
0.00026303240656875903   -5.513095866849227e-05   -6.34456082517906e-05
0.00036181903866744987   -4.9297285605560265e-05   7.734407208017432e-05
0.00036181903866744987   -4.9297285605560265e-05   7.734407208017432e-05
0.00036181903866744987   -4.9297285605560265e-05   7.734407208017432e-05
0.00036181903866744987   -4.9297285605560265e-05   7.734407208017432e-05
0.00018293725848424994   -6.729390343146457e-05   -0.00023159019892070136
0.00018293725848424994   -6.729390343146457e-05   -0.00023159019892070136
0.00018293725848424994   -6.729390343146457e-05   -0.00023159019892070136
0.00018293725848424994   -6.729390343146457e-05   -0.00023159019892070136
0.00018678058925949992   -4.238370966868493e-05   3.174459843400569e-05
0.00018678058925949992   -4.238370966868493e-05   3.174459843400569e-05
0.00018678058925949992   -4.238370966868493e-05   3.174459843400569e-05
0.00018678058925949992   -4.238370966868493e-05   3.174459843400569e-05
0.0003671923644514625   -6.358738533439323e-05   -0.00025621948815317264
0.0003671923644514625   -6.358738533439323e-05   -0.00025621948815317264
0.0003671923644514625   -6.358738533439323e-05   -0.00025621948815317264
0.0003671923644514625   -6.358738533439323e-05   -0.00025621948815317264
0.00026322549387750347   -5.3078058770122255e-05   -8.924696646847195e-05
0.00026322549387750347   -5.3078058770122255e-05   -8.924696646847195e-05
0.00026322549387750347   -5.3078058770122255e-05   -8.924696646847195e-05
0.00026322549387750347   -5.3078058770122255e-05   -8.924696646847195e-05
0.00017492838433043095   -3.4093965979064764e-05   1.0828520961643669e-05
0.00017492838433043095   -3.4093965979064764e-05   1.0828520961643669e-05
0.00017492838433043095   -3.4093965979064764e-05   1.0828520961643669e-05
0.00017492838433043095   -3.4093965979064764e-05   1.0828520961643669e-05
2.1283760641532053e-05   -6.693921509406085e-05   -0.00026495300132218635
2.1283760641532053e-05   -6.693921509406085e-05   -0.00026495300132218635
2.1283760641532053e-05   -6.693921509406085e-05   -0.00026495300132218635
2.1283760641532053e-05   -6.693921509406085e-05   -0.00026495300132218635
2.6347622181765225e-05   -3.248970137165533e-05   -2.639046177956017e-06
2.6347622181765225e-05   -3.248970137165533e-05   -2.639046177956017e-06
2.6347622181765225e-05   -3.248970137165533e-05   -2.639046177956017e-06
2.6347622181765225e-05   -3.248970137165533e-05   -2.639046177956017e-06
0.00017926782490643666   -6.662038911532664e-05   -0.0002370276380728707
0.00017926782490643666   -6.662038911532664e-05   -0.0002370276380728707
0.00017926782490643666   -6.662038911532664e-05   -0.0002370276380728707
0.00017926782490643666   -6.662038911532664e-05   -0.0002370276380728707
0.0001008603206662695   -4.513235465327878e-05   -0.00011924128501648737
0.0001008603206662695   -4.513235465327878e-05   -0.00011924128501648737
0.0001008603206662695   -4.513235465327878e-05   -0.00011924128501648737
0.0001008603206662695   -4.513235465327878e-05   -0.00011924128501648737
0.00017926782490643623   -3.248970137165706e-05   1.7839366468248505e-05
0.00017926782490643623   -3.248970137165706e-05   1.7839366468248505e-05
0.00017926782490643623   -3.248970137165706e-05   1.7839366468248505e-05
0.00017926782490643623   -3.248970137165706e-05   1.7839366468248505e-05
2.6347622181765117e-05   -6.662038911532837e-05   -0.00025750605071907327
2.6347622181765117e-05   -6.662038911532837e-05   -0.00025750605071907327
2.6347622181765117e-05   -6.662038911532837e-05   -0.00025750605071907327
2.6347622181765117e-05   -6.662038911532837e-05   -0.00025750605071907327
3.091937938106142e-05   -2.9482395467655964e-05   -4.223830027466277e-06
3.091937938106142e-05   -2.9482395467655964e-05   -4.223830027466277e-06
3.091937938106142e-05   -2.9482395467655964e-05   -4.223830027466277e-06
3.091937938106142e-05   -2.9482395467655964e-05   -4.223830027466277e-06
0.00018293725848424994   -6.575924371589499e-05   -0.00023582085291717078
0.00018293725848424994   -6.575924371589499e-05   -0.00023582085291717078
0.00018293725848424994   -6.575924371589499e-05   -0.00023582085291717078
0.00018293725848424994   -6.575924371589499e-05   -0.00023582085291717078
0.00010375678688509863   -4.565866978094302e-05   -0.00011591374461288593
0.00010375678688509863   -4.565866978094302e-05   -0.00011591374461288593
0.00010375678688509863   -4.565866978094302e-05   -0.00011591374461288593
0.00010375678688509863   -4.565866978094302e-05   -0.00011591374461288593
0.00018293725848424994   -2.9482395467655964e-05   1.7542278921476792e-05
0.00018293725848424994   -2.9482395467655964e-05   1.7542278921476792e-05
0.00018293725848424994   -2.9482395467655964e-05   1.7542278921476792e-05
0.00018293725848424994   -2.9482395467655964e-05   1.7542278921476792e-05
3.091937938106131e-05   -6.575924371589499e-05   -0.000257586961866116
3.091937938106131e-05   -6.575924371589499e-05   -0.000257586961866116
3.091937938106131e-05   -6.575924371589499e-05   -0.000257586961866116
3.091937938106131e-05   -6.575924371589499e-05   -0.000257586961866116
3.7737322726926923e-05   -2.520527413571276e-05   -7.335977058755758e-06
3.7737322726926923e-05   -2.520527413571276e-05   -7.335977058755758e-06
3.7737322726926923e-05   -2.520527413571276e-05   -7.335977058755758e-06
3.7737322726926923e-05   -2.520527413571276e-05   -7.335977058755758e-06
0.0001867805892594998   -6.40173501218512e-05   -0.0002324541756880264
0.0001867805892594998   -6.40173501218512e-05   -0.0002324541756880264
0.0001867805892594998   -6.40173501218512e-05   -0.0002324541756880264
0.0001867805892594998   -6.40173501218512e-05   -0.0002324541756880264
0.00010922611828824056   -4.498912501479935e-05   -0.00011461365913349253
0.00010922611828824056   -4.498912501479935e-05   -0.00011461365913349253
0.00010922611828824056   -4.498912501479935e-05   -0.00011461365913349253
0.00010922611828824056   -4.498912501479935e-05   -0.00011461365913349253
2.1283760641532053e-05   -1.821466606359047e-05   -2.741353973999012e-05
2.1283760641532053e-05   -1.821466606359047e-05   -2.741353973999012e-05
2.1283760641532053e-05   -1.821466606359047e-05   -2.741353973999012e-05
2.1283760641532053e-05   -1.821466606359047e-05   -2.741353973999012e-05
-0.0001307942326892766   -8.12675949325558e-05   -0.000318708619279383
-0.0001307942326892766   -8.12675949325558e-05   -0.000318708619279383
-0.0001307942326892766   -8.12675949325558e-05   -0.000318708619279383
-0.0001307942326892766   -8.12675949325558e-05   -0.000318708619279383
-0.00012291204254082555   -1.6333203361786064e-05   -5.839749261016963e-05
-0.00012291204254082555   -1.6333203361786064e-05   -5.839749261016963e-05
-0.00012291204254082555   -1.6333203361786064e-05   -5.839749261016963e-05
-0.00012291204254082555   -1.6333203361786064e-05   -5.839749261016963e-05
2.6347622181765117e-05   -8.310295220012934e-05   -0.00026710175117814774
2.6347622181765117e-05   -8.310295220012934e-05   -0.00026710175117814774
2.6347622181765117e-05   -8.310295220012934e-05   -0.00026710175117814774
2.6347622181765117e-05   -8.310295220012934e-05   -0.00026710175117814774
-4.9740329308447313e-05   -4.6076705552282327e-05   -0.00016250424668316972
-4.9740329308447313e-05   -4.6076705552282327e-05   -0.00016250424668316972
-4.9740329308447313e-05   -4.6076705552282327e-05   -0.00016250424668316972
-4.9740329308447313e-05   -4.6076705552282327e-05   -0.00016250424668316972
2.6347622181765117e-05   -1.6333203361786064e-05   -1.8335643307163148e-05
2.6347622181765117e-05   -1.6333203361786064e-05   -1.8335643307163148e-05
2.6347622181765117e-05   -1.6333203361786064e-05   -1.8335643307163148e-05
2.6347622181765117e-05   -1.6333203361786064e-05   -1.8335643307163148e-05
-0.00012291204254082577   -8.310295220013107e-05   -0.00030716360048115444
-0.00012291204254082577   -8.310295220013107e-05   -0.00030716360048115444
-0.00012291204254082577   -8.310295220013107e-05   -0.00030716360048115444
-0.00012291204254082577   -8.310295220013107e-05   -0.00030716360048115444
-0.00011612636985373746   -1.3374667321991093e-05   -5.459839850105799e-05
-0.00011612636985373746   -1.3374667321991093e-05   -5.459839850105799e-05
-0.00011612636985373746   -1.3374667321991093e-05   -5.459839850105799e-05
-0.00011612636985373746   -1.3374667321991093e-05   -5.459839850105799e-05
3.091937938106131e-05   -8.276014548843844e-05   -0.0002580433603258554
3.091937938106131e-05   -8.276014548843844e-05   -0.0002580433603258554
3.091937938106131e-05   -8.276014548843844e-05   -0.0002580433603258554
3.091937938106131e-05   -8.276014548843844e-05   -0.0002580433603258554
-4.4140194427991144e-05   -4.71539519145657e-05   -0.00015430778678842435
-4.4140194427991144e-05   -4.71539519145657e-05   -0.00015430778678842435
-4.4140194427991144e-05   -4.71539519145657e-05   -0.00015430778678842435
-4.4140194427991144e-05   -4.71539519145657e-05   -0.00015430778678842435
3.091937938106131e-05   -1.3374667321992828e-05   -1.2967111601190108e-05
3.091937938106131e-05   -1.3374667321992828e-05   -1.2967111601190108e-05
3.091937938106131e-05   -1.3374667321992828e-05   -1.2967111601190108e-05
3.091937938106131e-05   -1.3374667321992828e-05   -1.2967111601190108e-05
-0.00011612636985373784   -8.276014548843844e-05   -0.0002996746472257233
-0.00011612636985373784   -8.276014548843844e-05   -0.0002996746472257233
-0.00011612636985373784   -8.276014548843844e-05   -0.0002996746472257233
-0.00011612636985373784   -8.276014548843844e-05   -0.0002996746472257233
-0.00010442271882026791   -1.0573286402967147e-05   -5.4356701672262156e-05
-0.00010442271882026791   -1.0573286402967147e-05   -5.4356701672262156e-05
-0.00010442271882026791   -1.0573286402967147e-05   -5.4356701672262156e-05
-0.00010442271882026791   -1.0573286402967147e-05   -5.4356701672262156e-05
3.7737322726926923e-05   -7.991197504341775e-05   -0.0002496868910666517
3.7737322726926923e-05   -7.991197504341775e-05   -0.0002496868910666517
3.7737322726926923e-05   -7.991197504341775e-05   -0.0002496868910666517
3.7737322726926923e-05   -7.991197504341775e-05   -0.0002496868910666517
-3.686511099360585e-05   -4.6150187271699894e-05   -0.00014560657419546022
-3.686511099360585e-05   -4.6150187271699894e-05   -0.00014560657419546022
-3.686511099360585e-05   -4.6150187271699894e-05   -0.00014560657419546022
-3.686511099360585e-05   -4.6150187271699894e-05   -0.00014560657419546022
-0.00013079423268927642   3.953919553755306e-06   -3.820167415021381e-05
-0.00013079423268927642   3.953919553755306e-06   -3.820167415021381e-05
-0.00013079423268927642   3.953919553755306e-06   -3.820167415021381e-05
-0.00013079423268927642   3.953919553755306e-06   -3.820167415021381e-05
-0.0003006713296494624   -0.00010183172113252363   -0.0003848015534956258
-0.0003006713296494624   -0.00010183172113252363   -0.0003848015534956258
-0.0003006713296494624   -0.00010183172113252363   -0.0003848015534956258
-0.0003006713296494624   -0.00010183172113252363   -0.0003848015534956258
-0.0002912976137203557   7.474569569712944e-06   -9.853323266180436e-05
-0.0002912976137203557   7.474569569712944e-06   -9.853323266180436e-05
-0.0002912976137203557   7.474569569712944e-06   -9.853323266180436e-05
-0.0002912976137203557   7.474569569712944e-06   -9.853323266180436e-05
-0.00012291204254082555   -0.00011349984617572105   -0.00030659120184709215
-0.00012291204254082555   -0.00011349984617572105   -0.00030659120184709215
-0.00012291204254082555   -0.00011349984617572105   -0.00030659120184709215
-0.00012291204254082555   -0.00011349984617572105   -0.00030659120184709215
-0.00020835052561827514   -5.204926971609167e-05   -0.00020106407592712042
-0.00020835052561827514   -5.204926971609167e-05   -0.00020106407592712042
-0.00020835052561827514   -5.204926971609167e-05   -0.00020106407592712042
-0.00020835052561827514   -5.204926971609167e-05   -0.00020106407592712042
-0.00012291204254082555   7.474569569711209e-06   -2.5948583214543096e-05
-0.00012291204254082555   7.474569569711209e-06   -2.5948583214543096e-05
-0.00012291204254082555   7.474569569711209e-06   -2.5948583214543096e-05
-0.00012291204254082555   7.474569569711209e-06   -2.5948583214543096e-05
-0.0002912976137203557   -0.00011349984617571932   -0.0003791758512943543
-0.0002912976137203557   -0.00011349984617571932   -0.0003791758512943543
-0.0002912976137203557   -0.00011349984617571932   -0.0003791758512943543
-0.0002912976137203557   -0.00011349984617571932   -0.0003791758512943543
-0.0002823076367727892   1.0719903201420952e-05   -8.826051303707089e-05
-0.0002823076367727892   1.0719903201420952e-05   -8.826051303707089e-05
-0.0002823076367727892   1.0719903201420952e-05   -8.826051303707089e-05
-0.0002823076367727892   1.0719903201420952e-05   -8.826051303707089e-05
-0.00011612636985373768   -0.00011417964917410928   -0.00029028955981017304
-0.00011612636985373768   -0.00011417964917410928   -0.00029028955981017304
-0.00011612636985373768   -0.00011417964917410928   -0.00029028955981017304
-0.00011612636985373768   -0.00011417964917410928   -0.00029028955981017304
-0.00019921204800070878   -5.226768195570365e-05   -0.0001889606098962644
-0.00019921204800070878   -5.226768195570365e-05   -0.0001889606098962644
-0.00019921204800070878   -5.226768195570365e-05   -0.0001889606098962644
-0.00019921204800070878   -5.226768195570365e-05   -0.0001889606098962644
-0.00011612636985373762   1.0719903201420952e-05   -1.3320781611752576e-05
-0.00011612636985373762   1.0719903201420952e-05   -1.3320781611752576e-05
-0.00011612636985373762   1.0719903201420952e-05   -1.3320781611752576e-05
-0.00011612636985373762   1.0719903201420952e-05   -1.3320781611752576e-05
-0.00028230763677278975   -0.00011417964917410754   -0.00036522929123549135
-0.00028230763677278975   -0.00011417964917410754   -0.00036522929123549135
-0.00028230763677278975   -0.00011417964917410754   -0.00036522929123549135
-0.00028230763677278975   -0.00011417964917410754   -0.00036522929123549135
-0.0002676027407622583   1.347444044247359e-05   -7.776532955027816e-05
-0.0002676027407622583   1.347444044247359e-05   -7.776532955027816e-05
-0.0002676027407622583   1.347444044247359e-05   -7.776532955027816e-05
-0.0002676027407622583   1.347444044247359e-05   -7.776532955027816e-05
-0.00010442271882026835   -0.00010447905511674037   -0.00027895993545140065
-0.00010442271882026835   -0.00010447905511674037   -0.00027895993545140065
-0.00010442271882026835   -0.00010447905511674037   -0.00027895993545140065
-0.00010442271882026835   -0.00010447905511674037   -0.00027895993545140065
-0.00019015224081153753   -4.6363047283658546e-05   -0.00017094700349913053
-0.00019015224081153753   -4.6363047283658546e-05   -0.00017094700349913053
-0.00019015224081153753   -4.6363047283658546e-05   -0.00017094700349913053
-0.00019015224081153753   -4.6363047283658546e-05   -0.00017094700349913053
-0.0003006713296494624   4.265176558863708e-05   -6.669170311966385e-05
-0.0003006713296494624   4.265176558863708e-05   -6.669170311966385e-05
-0.0003006713296494624   4.265176558863708e-05   -6.669170311966385e-05
-0.0003006713296494624   4.265176558863708e-05   -6.669170311966385e-05
-0.0005187747681387797   0.0   -0.0004557884932883758
-0.0005187747681387797   0.0   -0.0004557884932883758
-0.0005187747681387797   0.0   -0.0004557884932883758
-0.0005187747681387797   0.0   -0.0004557884932883758
-0.0005050235152716819   5.417098096950623e-05   -5.144242237138316e-05
-0.0005050235152716819   5.417098096950623e-05   -5.144242237138316e-05
-0.0005050235152716819   5.417098096950623e-05   -5.144242237138316e-05
-0.0005050235152716819   5.417098096950623e-05   -5.144242237138316e-05
-0.0002912976137203553   0.0   -0.00037514966970855735
-0.0002912976137203553   0.0   -0.00037514966970855735
-0.0002912976137203553   0.0   -0.00037514966970855735
-0.0002912976137203553   0.0   -0.00037514966970855735
-0.0003867684118450895   1.6455188859633083e-05   -0.00022590478614977974
-0.0003867684118450895   1.6455188859633083e-05   -0.00022590478614977974
-0.0003867684118450895   1.6455188859633083e-05   -0.00022590478614977974
-0.0003867684118450895   1.6455188859633083e-05   -0.00022590478614977974
-0.0002912976137203555   5.41709809695045e-05   -1.893983378967873e-05
-0.0002912976137203555   5.41709809695045e-05   -1.893983378967873e-05
-0.0002912976137203555   5.41709809695045e-05   -1.893983378967873e-05
-0.0002912976137203555   5.41709809695045e-05   -1.893983378967873e-05
-0.0005050235152716811   0.0   -0.0004076522582902595
-0.0005050235152716811   0.0   -0.0004076522582902595
-0.0005050235152716811   0.0   -0.0004076522582902595
-0.0005050235152716811   0.0   -0.0004076522582902595
-0.0004934134898585511   5.675178966706336e-05   -2.1446552335772223e-05
-0.0004934134898585511   5.675178966706336e-05   -2.1446552335772223e-05
-0.0004934134898585511   5.675178966706336e-05   -2.1446552335772223e-05
-0.0004934134898585511   5.675178966706336e-05   -2.1446552335772223e-05
-0.00028230763677278975   0.0   -0.00033923856701180595
-0.00028230763677278975   0.0   -0.00033923856701180595
-0.00028230763677278975   0.0   -0.00033923856701180595
-0.00028230763677278975   0.0   -0.00033923856701180595
-0.0003825762694445309   2.6207780016199514e-05   -0.00018784884723528573
-0.0003825762694445309   2.6207780016199514e-05   -0.00018784884723528573
-0.0003825762694445309   2.6207780016199514e-05   -0.00018784884723528573
-0.0003825762694445309   2.6207780016199514e-05   -0.00018784884723528573
-0.00028230763677278975   5.675178966706336e-05   1.2604521464464752e-05
-0.00028230763677278975   5.675178966706336e-05   1.2604521464464752e-05
-0.00028230763677278975   5.675178966706336e-05   1.2604521464464752e-05
-0.00028230763677278975   5.675178966706336e-05   1.2604521464464752e-05
-0.0004934134898585503   0.0   -0.00037328964081204206
-0.0004934134898585503   0.0   -0.00037328964081204206
-0.0004934134898585503   0.0   -0.00037328964081204206
-0.0004934134898585503   0.0   -0.00037328964081204206
-0.0004702724505360698   6.123714268904158e-05   2.675292897522715e-05
-0.0004702724505360698   6.123714268904158e-05   2.675292897522715e-05
-0.0004702724505360698   6.123714268904158e-05   2.675292897522715e-05
-0.0004702724505360698   6.123714268904158e-05   2.675292897522715e-05
-0.00026760274076225875   0.0   -0.000274287635034368
-0.00026760274076225875   0.0   -0.000274287635034368
-0.00026760274076225875   0.0   -0.000274287635034368
-0.00026760274076225875   0.0   -0.000274287635034368
-0.0003624590762667509   3.2365451915691845e-05   -0.00013561301367629429
-0.0003624590762667509   3.2365451915691845e-05   -0.00013561301367629429
-0.0003624590762667509   3.2365451915691845e-05   -0.00013561301367629429
-0.0003624590762667509   3.2365451915691845e-05   -0.00013561301367629429
0.00038459567520510683   -6.623984477124867e-05   0.00022993927337908952
0.00038459567520510683   -6.623984477124867e-05   0.00022993927337908952
0.00038459567520510683   -6.623984477124867e-05   0.00022993927337908952
0.00038459567520510683   -6.623984477124867e-05   0.00022993927337908952
0.00019978118316823015   -5.0858346518353054e-05   -6.885598106396926e-05
0.00019978118316823015   -5.0858346518353054e-05   -6.885598106396926e-05
0.00019978118316823015   -5.0858346518353054e-05   -6.885598106396926e-05
0.00019978118316823015   -5.0858346518353054e-05   -6.885598106396926e-05
0.00019470625112793215   -6.789623725708856e-05   0.0002032944860430059
0.00019470625112793215   -6.789623725708856e-05   0.0002032944860430059
0.00019470625112793215   -6.789623725708856e-05   0.0002032944860430059
0.00019470625112793215   -6.789623725708856e-05   0.0002032944860430059
0.0003804145155854495   -5.595141424131686e-05   -0.0001133861818623206
0.0003804145155854495   -5.595141424131686e-05   -0.0001133861818623206
0.0003804145155854495   -5.595141424131686e-05   -0.0001133861818623206
0.0003804145155854495   -5.595141424131686e-05   -0.0001133861818623206
0.00027802502650268107   -5.697776195024394e-05   5.7878775234316334e-05
0.00027802502650268107   -5.697776195024394e-05   5.7878775234316334e-05
0.00027802502650268107   -5.697776195024394e-05   5.7878775234316334e-05
0.00027802502650268107   -5.697776195024394e-05   5.7878775234316334e-05
0.0003804145155854495   -6.789623725708856e-05   0.00019612759223354165
0.0003804145155854495   -6.789623725708856e-05   0.00019612759223354165
0.0003804145155854495   -6.789623725708856e-05   0.00019612759223354165
0.0003804145155854495   -6.789623725708856e-05   0.00019612759223354165
0.00019470625112793215   -5.595141424131686e-05   -0.00010621928805285615
0.00019470625112793215   -5.595141424131686e-05   -0.00010621928805285615
0.00019470625112793215   -5.595141424131686e-05   -0.00010621928805285615
0.00019470625112793215   -5.595141424131686e-05   -0.00010621928805285615
0.0001901199182616657   -6.729390343146457e-05   0.0001826330565410407
0.0001901199182616657   -6.729390343146457e-05   0.0001826330565410407
0.0001901199182616657   -6.729390343146457e-05   0.0001826330565410407
0.0001901199182616657   -6.729390343146457e-05   0.0001826330565410407
0.00037559646099985945   -5.6433926391560515e-05   -0.00013301050091322553
0.00037559646099985945   -5.6433926391560515e-05   -0.00013301050091322553
0.00037559646099985945   -5.6433926391560515e-05   -0.00013301050091322553
0.00037559646099985945   -5.6433926391560515e-05   -0.00013301050091322553
0.00027775619170537357   -5.797655781529347e-05   3.0982193431824956e-05
0.00027775619170537357   -5.797655781529347e-05   3.0982193431824956e-05
0.00027775619170537357   -5.797655781529347e-05   3.0982193431824956e-05
0.00027775619170537357   -5.797655781529347e-05   3.0982193431824956e-05
0.0003755964609998601   -6.729390343146457e-05   0.00017611707031709757
0.0003755964609998601   -6.729390343146457e-05   0.00017611707031709757
0.0003755964609998601   -6.729390343146457e-05   0.00017611707031709757
0.0003755964609998601   -6.729390343146457e-05   0.00017611707031709757
0.0001901199182616657   -5.6433926391560515e-05   -0.00012649451468928208
0.0001901199182616657   -5.6433926391560515e-05   -0.00012649451468928208
0.0001901199182616657   -5.6433926391560515e-05   -0.00012649451468928208
0.0001901199182616657   -5.6433926391560515e-05   -0.00012649451468928208
0.00018452693878952015   -6.358738533439323e-05   0.00014901932133360232
0.00018452693878952015   -6.358738533439323e-05   0.00014901932133360232
0.00018452693878952015   -6.358738533439323e-05   0.00014901932133360232
0.00018452693878952015   -6.358738533439323e-05   0.00014901932133360232
0.00036804903485738495   -5.530353697583319e-05   -0.00016182114779464104
0.00036804903485738495   -5.530353697583319e-05   -0.00016182114779464104
0.00036804903485738495   -5.530353697583319e-05   -0.00016182114779464104
0.00036804903485738495   -5.530353697583319e-05   -0.00016182114779464104
0.00026822238230433715   -5.5135108562641075e-05   4.455549412521334e-06
0.00026822238230433715   -5.5135108562641075e-05   4.455549412521334e-06
0.00026822238230433715   -5.5135108562641075e-05   4.455549412521334e-06
0.00026822238230433715   -5.5135108562641075e-05   4.455549412521334e-06
0.00019978118316823015   -6.693921509406085e-05   0.00017215139724635967
0.00019978118316823015   -6.693921509406085e-05   0.00017215139724635967
0.00019978118316823015   -6.693921509406085e-05   0.00017215139724635967
0.00019978118316823015   -6.693921509406085e-05   0.00017215139724635967
4.3231901901682264e-05   -3.1658543379485884e-05   -6.759566850247402e-05
4.3231901901682264e-05   -3.1658543379485884e-05   -6.759566850247402e-05
4.3231901901682264e-05   -3.1658543379485884e-05   -6.759566850247402e-05
4.3231901901682264e-05   -3.1658543379485884e-05   -6.759566850247402e-05
3.519904421112356e-05   -6.662038911532837e-05   0.000196795644296777
3.519904421112356e-05   -6.662038911532837e-05   0.000196795644296777
3.519904421112356e-05   -6.662038911532837e-05   0.000196795644296777
3.519904421112356e-05   -6.662038911532837e-05   0.000196795644296777
0.00019470625112793215   -3.359308108561755e-05   -8.88660853823937e-05
0.00019470625112793215   -3.359308108561755e-05   -8.88660853823937e-05
0.00019470625112793215   -3.359308108561755e-05   -8.88660853823937e-05
0.00019470625112793215   -3.359308108561755e-05   -8.88660853823937e-05
0.00011807464158196222   -4.7866618152363205e-05   4.741738610093346e-05
0.00011807464158196222   -4.7866618152363205e-05   4.741738610093346e-05
0.00011807464158196222   -4.7866618152363205e-05   4.741738610093346e-05
0.00011807464158196222   -4.7866618152363205e-05   4.741738610093346e-05
0.00019470625112793225   -6.662038911532664e-05   0.00017697925947895467
0.00019470625112793225   -6.662038911532664e-05   0.00017697925947895467
0.00019470625112793225   -6.662038911532664e-05   0.00017697925947895467
0.00019470625112793225   -6.662038911532664e-05   0.00017697925947895467
3.519904421112356e-05   -3.359308108561755e-05   -6.904970056456974e-05
3.519904421112356e-05   -3.359308108561755e-05   -6.904970056456974e-05
3.519904421112356e-05   -3.359308108561755e-05   -6.904970056456974e-05
3.519904421112356e-05   -3.359308108561755e-05   -6.904970056456974e-05
2.9478175915358877e-05   -6.575924371589499e-05   0.000197174933263055
2.9478175915358877e-05   -6.575924371589499e-05   0.000197174933263055
2.9478175915358877e-05   -6.575924371589499e-05   0.000197174933263055
2.9478175915358877e-05   -6.575924371589499e-05   0.000197174933263055
0.0001901199182616657   -3.447169251842054e-05   -8.933383469927447e-05
0.0001901199182616657   -3.447169251842054e-05   -8.933383469927447e-05
0.0001901199182616657   -3.447169251842054e-05   -8.933383469927447e-05
0.0001901199182616657   -3.447169251842054e-05   -8.933383469927447e-05
0.00011120656007373639   -4.6899939795778944e-05   4.9645377313692514e-05
0.00011120656007373639   -4.6899939795778944e-05   4.9645377313692514e-05
0.00011120656007373639   -4.6899939795778944e-05   4.9645377313692514e-05
0.00011120656007373639   -4.6899939795778944e-05   4.9645377313692514e-05
0.00019011991826166602   -6.575924371589673e-05   0.00017840240254457084
0.00019011991826166602   -6.575924371589673e-05   0.00017840240254457084
0.00019011991826166602   -6.575924371589673e-05   0.00017840240254457084
0.00019011991826166602   -6.575924371589673e-05   0.00017840240254457084
2.9478175915358877e-05   -3.447169251842054e-05   -7.056130398078956e-05
2.9478175915358877e-05   -3.447169251842054e-05   -7.056130398078956e-05
2.9478175915358877e-05   -3.447169251842054e-05   -7.056130398078956e-05
2.9478175915358877e-05   -3.447169251842054e-05   -7.056130398078956e-05
2.3111191316262016e-05   -6.40173501218512e-05   0.00020368096776620867
2.3111191316262016e-05   -6.40173501218512e-05   0.00020368096776620867
2.3111191316262016e-05   -6.40173501218512e-05   0.00020368096776620867
2.3111191316262016e-05   -6.40173501218512e-05   0.00020368096776620867
0.00018452693878951993   -3.37271358417969e-05   -8.35194065905903e-05
0.00018452693878951993   -3.37271358417969e-05   -8.35194065905903e-05
0.00018452693878951993   -3.37271358417969e-05   -8.35194065905903e-05
0.00018452693878951993   -3.37271358417969e-05   -8.35194065905903e-05
0.0001069916887569238   -4.486764247851015e-05   5.239031411243206e-05
0.0001069916887569238   -4.486764247851015e-05   5.239031411243206e-05
0.0001069916887569238   -4.486764247851015e-05   5.239031411243206e-05
0.0001069916887569238   -4.486764247851015e-05   5.239031411243206e-05
4.323190190168237e-05   -8.12675949325558e-05   0.00017739593963928858
4.323190190168237e-05   -8.12675949325558e-05   0.00017739593963928858
4.323190190168237e-05   -8.12675949325558e-05   0.00017739593963928858
4.323190190168237e-05   -8.12675949325558e-05   0.00017739593963928858
-0.0001071049190008959   -1.3639224452962478e-05   -3.258840624391964e-05
-0.0001071049190008959   -1.3639224452962478e-05   -3.258840624391964e-05
-0.0001071049190008959   -1.3639224452962478e-05   -3.258840624391964e-05
-0.0001071049190008959   -1.3639224452962478e-05   -3.258840624391964e-05
-0.00011960656120476665   -8.310295220013107e-05   0.00022841412064948836
-0.00011960656120476665   -8.310295220013107e-05   0.00022841412064948836
-0.00011960656120476665   -8.310295220013107e-05   0.00022841412064948836
-0.00011960656120476665   -8.310295220013107e-05   0.00022841412064948836
3.519904421112356e-05   -1.4412657513824742e-05   -7.080939852211355e-05
3.519904421112356e-05   -1.4412657513824742e-05   -7.080939852211355e-05
3.519904421112356e-05   -1.4412657513824742e-05   -7.080939852211355e-05
3.519904421112356e-05   -1.4412657513824742e-05   -7.080939852211355e-05
-3.5704353706233745e-05   -4.6567278128142875e-05   6.665570370874047e-05
-3.5704353706233745e-05   -4.6567278128142875e-05   6.665570370874047e-05
-3.5704353706233745e-05   -4.6567278128142875e-05   6.665570370874047e-05
-3.5704353706233745e-05   -4.6567278128142875e-05   6.665570370874047e-05
3.519904421112356e-05   -8.310295220012934e-05   0.00018719994383770318
3.519904421112356e-05   -8.310295220012934e-05   0.00018719994383770318
3.519904421112356e-05   -8.310295220012934e-05   0.00018719994383770318
3.519904421112356e-05   -8.310295220012934e-05   0.00018719994383770318
-0.00011960656120476643   -1.4412657513824742e-05   -2.9595221710331833e-05
-0.00011960656120476643   -1.4412657513824742e-05   -2.9595221710331833e-05
-0.00011960656120476643   -1.4412657513824742e-05   -2.9595221710331833e-05
-0.00011960656120476643   -1.4412657513824742e-05   -2.9595221710331833e-05
-0.0001272353115848088   -8.276014548843844e-05   0.00023716161813362377
-0.0001272353115848088   -8.276014548843844e-05   0.00023716161813362377
-0.0001272353115848088   -8.276014548843844e-05   0.00023716161813362377
-0.0001272353115848088   -8.276014548843844e-05   0.00023716161813362377
2.9478175915358877e-05   -1.535500660459349e-05   -6.447061103029652e-05
2.9478175915358877e-05   -1.535500660459349e-05   -6.447061103029652e-05
2.9478175915358877e-05   -1.535500660459349e-05   -6.447061103029652e-05
2.9478175915358877e-05   -1.535500660459349e-05   -6.447061103029652e-05
-4.416199653495148e-05   -4.645275679738235e-05   7.692165983589315e-05
-4.416199653495148e-05   -4.645275679738235e-05   7.692165983589315e-05
-4.416199653495148e-05   -4.645275679738235e-05   7.692165983589315e-05
-4.416199653495148e-05   -4.645275679738235e-05   7.692165983589315e-05
2.947817591535877e-05   -8.276014548843844e-05   0.0001967185348033156
2.947817591535877e-05   -8.276014548843844e-05   0.0001967185348033156
2.947817591535877e-05   -8.276014548843844e-05   0.0001967185348033156
2.947817591535877e-05   -8.276014548843844e-05   0.0001967185348033156
-0.00012723531158480848   -1.535500660459349e-05   -2.4027527699990725e-05
-0.00012723531158480848   -1.535500660459349e-05   -2.4027527699990725e-05
-0.00012723531158480848   -1.535500660459349e-05   -2.4027527699990725e-05
-0.00012723531158480848   -1.535500660459349e-05   -2.4027527699990725e-05
-0.00013622244826111136   -7.991197504341775e-05   0.0002485081746453049
-0.00013622244826111136   -7.991197504341775e-05   0.0002485081746453049
-0.00013622244826111136   -7.991197504341775e-05   0.0002485081746453049
-0.00013622244826111136   -7.991197504341775e-05   0.0002485081746453049
2.3111191316262016e-05   -1.529084726668503e-05   -5.5820567983023506e-05
2.3111191316262016e-05   -1.529084726668503e-05   -5.5820567983023506e-05
2.3111191316262016e-05   -1.529084726668503e-05   -5.5820567983023506e-05
2.3111191316262016e-05   -1.529084726668503e-05   -5.5820567983023506e-05
-5.104272360307666e-05   -4.464861753593688e-05   8.538395237742483e-05
-5.104272360307666e-05   -4.464861753593688e-05   8.538395237742483e-05
-5.104272360307666e-05   -4.464861753593688e-05   8.538395237742483e-05
-5.104272360307666e-05   -4.464861753593688e-05   8.538395237742483e-05
-0.00010710491900089612   -0.00010183172113252363   0.0002153514121225695
-0.00010710491900089612   -0.00010183172113252363   0.0002153514121225695
-0.00010710491900089612   -0.00010183172113252363   0.0002153514121225695
-0.00010710491900089612   -0.00010183172113252363   0.0002153514121225695
-0.0002786645589425015   1.3733601228459527e-05   -1.242127696847277e-06
-0.0002786645589425015   1.3733601228459527e-05   -1.242127696847277e-06
-0.0002786645589425015   1.3733601228459527e-05   -1.242127696847277e-06
-0.0002786645589425015   1.3733601228459527e-05   -1.242127696847277e-06
-0.00029364174170333094   -0.00011349984617571932   0.00030478371193414996
-0.00029364174170333094   -0.00011349984617571932   0.00030478371193414996
-0.00029364174170333094   -0.00011349984617571932   0.00030478371193414996
-0.00029364174170333094   -0.00011349984617571932   0.00030478371193414996
-0.00011960656120476643   1.2828808241948514e-05   -6.107211488072723e-05
-0.00011960656120476643   1.2828808241948514e-05   -6.107211488072723e-05
-0.00011960656120476643   1.2828808241948514e-05   -6.107211488072723e-05
-0.00011960656120476643   1.2828808241948514e-05   -6.107211488072723e-05
-0.00019693216987524487   -4.269764624688713e-05   0.00010111977226337217
-0.00019693216987524487   -4.269764624688713e-05   0.00010111977226337217
-0.00019693216987524487   -4.269764624688713e-05   0.00010111977226337217
-0.00019693216987524487   -4.269764624688713e-05   0.00010111977226337217
-0.00011960656120476665   -0.00011349984617571932   0.00022898651928354805
-0.00011960656120476665   -0.00011349984617571932   0.00022898651928354805
-0.00011960656120476665   -0.00011349984617571932   0.00022898651928354805
-0.00011960656120476665   -0.00011349984617571932   0.00022898651928354805
-0.00029364174170333094   1.2828808241948514e-05   1.472507776987663e-05
-0.00029364174170333094   1.2828808241948514e-05   1.472507776987663e-05
-0.00029364174170333094   1.2828808241948514e-05   1.472507776987663e-05
-0.00029364174170333094   1.2828808241948514e-05   1.472507776987663e-05
-0.0003027796251833772   -0.00011417964917410754   0.0003217863884004933
-0.0003027796251833772   -0.00011417964917410754   0.0003217863884004933
-0.0003027796251833772   -0.00011417964917410754   0.0003217863884004933
-0.0003027796251833772   -0.00011417964917410754   0.0003217863884004933
-0.00012723531158480848   1.1219822244763408e-05   -4.6027150448443334e-05
-0.00012723531158480848   1.1219822244763408e-05   -4.6027150448443334e-05
-0.00012723531158480848   1.1219822244763408e-05   -4.6027150448443334e-05
-0.00012723531158480848   1.1219822244763408e-05   -4.6027150448443334e-05
-0.00020669314940773391   -4.900636726173045e-05   0.00012253829296032868
-0.00020669314940773391   -4.900636726173045e-05   0.00012253829296032868
-0.00020669314940773391   -4.900636726173045e-05   0.00012253829296032868
-0.00020669314940773391   -4.900636726173045e-05   0.00012253829296032868
-0.00012723531158480837   -0.00011417964917410928   0.00024654670554917057
-0.00012723531158480837   -0.00011417964917410928   0.00024654670554917057
-0.00012723531158480837   -0.00011417964917410928   0.00024654670554917057
-0.00012723531158480837   -0.00011417964917410928   0.00024654670554917057
-0.0003027796251833768   1.1219822244763408e-05   2.9212532402880277e-05
-0.0003027796251833768   1.1219822244763408e-05   2.9212532402880277e-05
-0.0003027796251833768   1.1219822244763408e-05   2.9212532402880277e-05
-0.0003027796251833768   1.1219822244763408e-05   2.9212532402880277e-05
-0.0003126147495497806   -0.00010447905511674037   0.00032916921984138363
-0.0003126147495497806   -0.00010447905511674037   0.00032916921984138363
-0.0003126147495497806   -0.00010447905511674037   0.00032916921984138363
-0.0003126147495497806   -0.00010447905511674037   0.00032916921984138363
-0.00013622244826111093   9.405738877516986e-06   -3.314882536962181e-05
-0.00013622244826111093   9.405738877516986e-06   -3.314882536962181e-05
-0.00013622244826111093   9.405738877516986e-06   -3.314882536962181e-05
-0.00013622244826111093   9.405738877516986e-06   -3.314882536962181e-05
-0.000216712093582303   -4.9402081860227404e-05   0.00013628527594168062
-0.000216712093582303   -4.9402081860227404e-05   0.00013628527594168062
-0.000216712093582303   -4.9402081860227404e-05   0.00013628527594168062
-0.000216712093582303   -4.9402081860227404e-05   0.00013628527594168062
-0.00027866455894250055   0.0   0.00023929472509959075
-0.00027866455894250055   0.0   0.00023929472509959075
-0.00027866455894250055   0.0   0.00023929472509959075
-0.00027866455894250055   0.0   0.00023929472509959075
-0.0004918781116673258   6.436991371005021e-05   -7.743924788242065e-05
-0.0004918781116673258   6.436991371005021e-05   -7.743924788242065e-05
-0.0004918781116673258   6.436991371005021e-05   -7.743924788242065e-05
-0.0004918781116673258   6.436991371005021e-05   -7.743924788242065e-05
-0.0005126198135934585   0.0   0.0003460243629234711
-0.0005126198135934585   0.0   0.0003460243629234711
-0.0005126198135934585   0.0   0.0003460243629234711
-0.0005126198135934585   0.0   0.0003460243629234711
-0.0002936417417033304   6.202411567254353e-05   -5.61535596302681e-05
-0.0002936417417033304   6.202411567254353e-05   -5.61535596302681e-05
-0.0002936417417033304   6.202411567254353e-05   -5.61535596302681e-05
-0.0002936417417033304   6.202411567254353e-05   -5.61535596302681e-05
-0.0003773744071835018   3.8197534063016264e-05   9.769683180239994e-05
-0.0003773744071835018   3.8197534063016264e-05   9.769683180239994e-05
-0.0003773744071835018   3.8197534063016264e-05   9.769683180239994e-05
-0.0003773744071835018   3.8197534063016264e-05   9.769683180239994e-05
-0.0002936417417033302   0.0   0.0003088098935199457
-0.0002936417417033302   0.0   0.0003088098935199457
-0.0002936417417033302   0.0   0.0003088098935199457
-0.0002936417417033302   0.0   0.0003088098935199457
-0.0005126198135934595   6.202411567254353e-05   -1.893909022674268e-05
-0.0005126198135934595   6.202411567254353e-05   -1.893909022674268e-05
-0.0005126198135934595   6.202411567254353e-05   -1.893909022674268e-05
-0.0005126198135934595   6.202411567254353e-05   -1.893909022674268e-05
-0.0005230766427566342   0.0   0.00038401423899622755
-0.0005230766427566342   0.0   0.00038401423899622755
-0.0005230766427566342   0.0   0.00038401423899622755
-0.0005230766427566342   0.0   0.00038401423899622755
-0.0003027796251833768   6.0395210620078216e-05   -1.938458333124995e-05
-0.0003027796251833768   6.0395210620078216e-05   -1.938458333124995e-05
-0.0003027796251833768   6.0395210620078216e-05   -1.938458333124995e-05
-0.0003027796251833768   6.0395210620078216e-05   -1.938458333124995e-05
-0.0003972698856522778   3.186665851438904e-05   0.0001552163153803372
-0.0003972698856522778   3.186665851438904e-05   0.0001552163153803372
-0.0003972698856522778   3.186665851438904e-05   0.0001552163153803372
-0.0003972698856522778   3.186665851438904e-05   0.0001552163153803372
-0.0003027796251833768   0.0   0.00034777711262418045
-0.0003027796251833768   0.0   0.00034777711262418045
-0.0003027796251833768   0.0   0.00034777711262418045
-0.0003027796251833768   0.0   0.00034777711262418045
-0.000523076642756636   6.039521062007995e-05   1.6852543040797585e-05
-0.000523076642756636   6.039521062007995e-05   1.6852543040797585e-05
-0.000523076642756636   6.039521062007995e-05   1.6852543040797585e-05
-0.000523076642756636   6.039521062007995e-05   1.6852543040797585e-05
-0.0005347617351818346   0.0   0.00043469441766836106
-0.0005347617351818346   0.0   0.00043469441766836106
-0.0005347617351818346   0.0   0.00043469441766836106
-0.0005347617351818346   0.0   0.00043469441766836106
-0.0003126147495497806   5.01346667906976e-05   3.436864154051766e-05
-0.0003126147495497806   5.01346667906976e-05   3.436864154051766e-05
-0.0003126147495497806   5.01346667906976e-05   3.436864154051766e-05
-0.0003126147495497806   5.01346667906976e-05   3.436864154051766e-05
-0.0004007216411389523   2.2294867971112478e-05   0.0001979173401475561
-0.0004007216411389523   2.2294867971112478e-05   0.0001979173401475561
-0.0004007216411389523   2.2294867971112478e-05   0.0001979173401475561
-0.0004007216411389523   2.2294867971112478e-05   0.0001979173401475561
0.00033746686033606435   -5.085834651835132e-05   0.00024029332624186245
0.00033746686033606435   -5.085834651835132e-05   0.00024029332624186245
0.00033746686033606435   -5.085834651835132e-05   0.00024029332624186245
0.00033746686033606435   -5.085834651835132e-05   0.00024029332624186245
0.0001708448733195056   -3.82058519070496e-05   -2.9818488685620648e-05
0.0001708448733195056   -3.82058519070496e-05   -2.9818488685620648e-05
0.0001708448733195056   -3.82058519070496e-05   -2.9818488685620648e-05
0.0001708448733195056   -3.82058519070496e-05   -2.9818488685620648e-05
0.00016628928589917832   -5.5951414241315126e-05   0.00020990199866693926
0.00016628928589917832   -5.5951414241315126e-05   0.00020990199866693926
0.00016628928589917832   -5.5951414241315126e-05   0.00020990199866693926
0.00016628928589917832   -5.5951414241315126e-05   0.00020990199866693926
0.000329312910758281   -4.334250547045719e-05   -6.936938802741478e-05
0.000329312910758281   -4.334250547045719e-05   -6.936938802741478e-05
0.000329312910758281   -4.334250547045719e-05   -6.936938802741478e-05
0.000329312910758281   -4.334250547045719e-05   -6.936938802741478e-05
0.0002398052502434627   -4.5195367597384434e-05   8.092176344010689e-05
0.0002398052502434627   -4.5195367597384434e-05   8.092176344010689e-05
0.0002398052502434627   -4.5195367597384434e-05   8.092176344010689e-05
0.0002398052502434627   -4.5195367597384434e-05   8.092176344010689e-05
0.0003293129107582804   -5.5951414241315126e-05   0.0002023366534044226
0.0003293129107582804   -5.5951414241315126e-05   0.0002023366534044226
0.0003293129107582804   -5.5951414241315126e-05   0.0002023366534044226
0.0003293129107582804   -5.5951414241315126e-05   0.0002023366534044226
0.00016628928589917854   -4.334250547045719e-05   -6.180404276489963e-05
0.00016628928589917854   -4.334250547045719e-05   -6.180404276489963e-05
0.00016628928589917854   -4.334250547045719e-05   -6.180404276489963e-05
0.00016628928589917854   -4.334250547045719e-05   -6.180404276489963e-05
0.00016041821738518446   -5.6433926391560515e-05   0.00018850322877802216
0.00016041821738518446   -5.6433926391560515e-05   0.00018850322877802216
0.00016041821738518446   -5.6433926391560515e-05   0.00018850322877802216
0.00016041821738518446   -5.6433926391560515e-05   0.00018850322877802216
0.00032107590144542654   -4.4115841787314286e-05   -8.665042875159387e-05
0.00032107590144542654   -4.4115841787314286e-05   -8.665042875159387e-05
0.00032107590144542654   -4.4115841787314286e-05   -8.665042875159387e-05
0.00032107590144542654   -4.4115841787314286e-05   -8.665042875159387e-05
0.00023747039971321016   -4.7178400953652375e-05   5.45296096352366e-05
0.00023747039971321016   -4.7178400953652375e-05   5.45296096352366e-05
0.00023747039971321016   -4.7178400953652375e-05   5.45296096352366e-05
0.00023747039971321016   -4.7178400953652375e-05   5.45296096352366e-05
0.00032107590144542654   -5.6433926391560515e-05   0.0001811123780154772
0.00032107590144542654   -5.6433926391560515e-05   0.0001811123780154772
0.00032107590144542654   -5.6433926391560515e-05   0.0001811123780154772
0.00032107590144542654   -5.6433926391560515e-05   0.0001811123780154772
0.00016041821738518446   -4.4115841787314286e-05   -7.925957798904718e-05
0.00016041821738518446   -4.4115841787314286e-05   -7.925957798904718e-05
0.00016041821738518446   -4.4115841787314286e-05   -7.925957798904718e-05
0.00016041821738518446   -4.4115841787314286e-05   -7.925957798904718e-05
0.00015426198745304017   -5.530353697583319e-05   0.0001567983041422822
0.00015426198745304017   -5.530353697583319e-05   0.0001567983041422822
0.00015426198745304017   -5.530353697583319e-05   0.0001567983041422822
0.00015426198745304017   -5.530353697583319e-05   0.0001567983041422822
0.0003107678879431128   -4.3880447674025935e-05   -0.00011089871692225903
0.0003107678879431128   -4.3880447674025935e-05   -0.00011089871692225903
0.0003107678879431128   -4.3880447674025935e-05   -0.00011089871692225903
0.0003107678879431128   -4.3880447674025935e-05   -0.00011089871692225903
0.00022680685019404567   -4.5957975869165973e-05   3.0282862909941383e-05
0.00022680685019404567   -4.5957975869165973e-05   3.0282862909941383e-05
0.00022680685019404567   -4.5957975869165973e-05   3.0282862909941383e-05
0.00022680685019404567   -4.5957975869165973e-05   3.0282862909941383e-05
0.00017084487331950587   -3.1658543379485884e-05   0.00022797673254139512
0.00017084487331950587   -3.1658543379485884e-05   0.00022797673254139512
0.00017084487331950587   -3.1658543379485884e-05   0.00022797673254139512
0.00017084487331950587   -3.1658543379485884e-05   0.00022797673254139512
1.9137301023481657e-05   -1.3533532769281417e-05   -1.3994214919190763e-05
1.9137301023481657e-05   -1.3533532769281417e-05   -1.3994214919190763e-05
1.9137301023481657e-05   -1.3533532769281417e-05   -1.3994214919190763e-05
1.9137301023481657e-05   -1.3533532769281417e-05   -1.3994214919190763e-05
1.4616618894281591e-05   -3.359308108561755e-05   0.00023762905100973945
1.4616618894281591e-05   -3.359308108561755e-05   0.00023762905100973945
1.4616618894281591e-05   -3.359308108561755e-05   0.00023762905100973945
1.4616618894281591e-05   -3.359308108561755e-05   0.00023762905100973945
0.00016628928589917854   -1.6303331631724316e-05   -2.553257700409412e-05
0.00016628928589917854   -1.6303331631724316e-05   -2.553257700409412e-05
0.00016628928589917854   -1.6303331631724316e-05   -2.553257700409412e-05
0.00016628928589917854   -1.6303331631724316e-05   -2.553257700409412e-05
9.183631117404845e-05   -2.2097672028808038e-05   0.00010203231844270575
9.183631117404845e-05   -2.2097672028808038e-05   0.00010203231844270575
9.183631117404845e-05   -2.2097672028808038e-05   0.00010203231844270575
9.183631117404845e-05   -2.2097672028808038e-05   0.00010203231844270575
0.00016628928589917848   -3.359308108561755e-05   0.0002272552013374016
0.00016628928589917848   -3.359308108561755e-05   0.0002272552013374016
0.00016628928589917848   -3.359308108561755e-05   0.0002272552013374016
0.00016628928589917848   -3.359308108561755e-05   0.0002272552013374016
1.4616618894281591e-05   -1.6303331631724316e-05   -1.5158727331756813e-05
1.4616618894281591e-05   -1.6303331631724316e-05   -1.5158727331756813e-05
1.4616618894281591e-05   -1.6303331631724316e-05   -1.5158727331756813e-05
1.4616618894281591e-05   -1.6303331631724316e-05   -1.5158727331756813e-05
8.840691805553683e-06   -3.447169251842054e-05   0.00023546732750667938
8.840691805553683e-06   -3.447169251842054e-05   0.00023546732750667938
8.840691805553683e-06   -3.447169251842054e-05   0.00023546732750667938
8.840691805553683e-06   -3.447169251842054e-05   0.00023546732750667938
0.00016041821738518446   -1.8132661287341423e-05   -2.696530053135284e-05
0.00016041821738518446   -1.8132661287341423e-05   -2.696530053135284e-05
0.00016041821738518446   -1.8132661287341423e-05   -2.696530053135284e-05
0.00016041821738518446   -1.8132661287341423e-05   -2.696530053135284e-05
8.611206768970787e-05   -2.3153056209123876e-05   9.989051924751613e-05
8.611206768970787e-05   -2.3153056209123876e-05   9.989051924751613e-05
8.611206768970787e-05   -2.3153056209123876e-05   9.989051924751613e-05
8.611206768970787e-05   -2.3153056209123876e-05   9.989051924751613e-05
0.0001604182173851842   -3.447169251842054e-05   0.00022566390876803052
0.0001604182173851842   -3.447169251842054e-05   0.00022566390876803052
0.0001604182173851842   -3.447169251842054e-05   0.00022566390876803052
0.0001604182173851842   -3.447169251842054e-05   0.00022566390876803052
8.840691805553683e-06   -1.8132661287341423e-05   -1.716188179270474e-05
8.840691805553683e-06   -1.8132661287341423e-05   -1.716188179270474e-05
8.840691805553683e-06   -1.8132661287341423e-05   -1.716188179270474e-05
8.840691805553683e-06   -1.8132661287341423e-05   -1.716188179270474e-05
2.459517830994784e-06   -3.37271358417969e-05   0.00023900478420182947
2.459517830994784e-06   -3.37271358417969e-05   0.00023900478420182947
2.459517830994784e-06   -3.37271358417969e-05   0.00023900478420182947
2.459517830994784e-06   -3.37271358417969e-05   0.00023900478420182947
0.00015426198745304012   -1.893538939074131e-05   -2.2874379705546503e-05
0.00015426198745304012   -1.893538939074131e-05   -2.2874379705546503e-05
0.00015426198745304012   -1.893538939074131e-05   -2.2874379705546503e-05
0.00015426198745304012   -1.893538939074131e-05   -2.2874379705546503e-05
8.142799901257388e-05   -2.2951827442172293e-05   0.00010092546385942751
8.142799901257388e-05   -2.2951827442172293e-05   0.00010092546385942751
8.142799901257388e-05   -2.2951827442172293e-05   0.00010092546385942751
8.142799901257388e-05   -2.2951827442172293e-05   0.00010092546385942751
1.9137301023481657e-05   -1.3639224452960744e-05   0.00023328197887831532
1.9137301023481657e-05   -1.3639224452960744e-05   0.00023328197887831532
1.9137301023481657e-05   -1.3639224452960744e-05   0.00023328197887831532
1.9137301023481657e-05   -1.3639224452960744e-05   0.00023328197887831532
-0.00012779493256575365   1.1913413106355228e-05   3.7265054318464524e-06
-0.00012779493256575365   1.1913413106355228e-05   3.7265054318464524e-06
-0.00012779493256575365   1.1913413106355228e-05   3.7265054318464524e-06
-0.00012779493256575365   1.1913413106355228e-05   3.7265054318464524e-06
-0.0001328865218160199   -1.4412657513824742e-05   0.0002503828695843511
-0.0001328865218160199   -1.4412657513824742e-05   0.0002503828695843511
-0.0001328865218160199   -1.4412657513824742e-05   0.0002503828695843511
-0.0001328865218160199   -1.4412657513824742e-05   0.0002503828695843511
1.4616618894281591e-05   9.776536706439243e-06   -9.969214798307476e-06
1.4616618894281591e-05   9.776536706439243e-06   -9.969214798307476e-06
1.4616618894281591e-05   9.776536706439243e-06   -9.969214798307476e-06
1.4616618894281591e-05   9.776536706439243e-06   -9.969214798307476e-06
-5.662602670761658e-05   -4.6570897461843674e-07   0.00011491387528015772
-5.662602670761658e-05   -4.6570897461843674e-07   0.00011491387528015772
-5.662602670761658e-05   -4.6570897461843674e-07   0.00011491387528015772
-5.662602670761658e-05   -4.6570897461843674e-07   0.00011491387528015772
1.4616618894281591e-05   -1.4412657513824742e-05   0.00023586935305219478
1.4616618894281591e-05   -1.4412657513824742e-05   0.00023586935305219478
1.4616618894281591e-05   -1.4412657513824742e-05   0.00023586935305219478
1.4616618894281591e-05   -1.4412657513824742e-05   0.00023586935305219478
-0.0001328865218160199   9.776536706439243e-06   4.544301733849267e-06
-0.0001328865218160199   9.776536706439243e-06   4.544301733849267e-06
-0.0001328865218160199   9.776536706439243e-06   4.544301733849267e-06
-0.0001328865218160199   9.776536706439243e-06   4.544301733849267e-06
-0.0001397240790857022   -1.535500660459349e-05   0.00025544335132537434
-0.0001397240790857022   -1.535500660459349e-05   0.00025544335132537434
-0.0001397240790857022   -1.535500660459349e-05   0.00025544335132537434
-0.0001397240790857022   -1.535500660459349e-05   0.00025544335132537434
8.840691805553683e-06   7.787211509076297e-06   -6.049931028254433e-06
8.840691805553683e-06   7.787211509076297e-06   -6.049931028254433e-06
8.840691805553683e-06   7.787211509076297e-06   -6.049931028254433e-06
8.840691805553683e-06   7.787211509076297e-06   -6.049931028254433e-06
-6.16515339859579e-05   -1.078267136427405e-06   0.00011675639914490114
-6.16515339859579e-05   -1.078267136427405e-06   0.00011675639914490114
-6.16515339859579e-05   -1.078267136427405e-06   0.00011675639914490114
-6.16515339859579e-05   -1.078267136427405e-06   0.00011675639914490114
8.840691805553683e-06   -1.535500660459349e-05   0.00024155802045717264
8.840691805553683e-06   -1.535500660459349e-05   0.00024155802045717264
8.840691805553683e-06   -1.535500660459349e-05   0.00024155802045717264
8.840691805553683e-06   -1.535500660459349e-05   0.00024155802045717264
-0.000139724079085702   7.787211509076297e-06   7.835399839947917e-06
-0.000139724079085702   7.787211509076297e-06   7.835399839947917e-06
-0.000139724079085702   7.787211509076297e-06   7.835399839947917e-06
-0.000139724079085702   7.787211509076297e-06   7.835399839947917e-06
-0.0001470092951015243   -1.5290847266686766e-05   0.00026151406949337895
-0.0001470092951015243   -1.5290847266686766e-05   0.00026151406949337895
-0.0001470092951015243   -1.5290847266686766e-05   0.00026151406949337895
-0.0001470092951015243   -1.5290847266686766e-05   0.00026151406949337895
2.4595178309946755e-06   6.350111486672777e-06   -5.851939795019443e-07
2.4595178309946755e-06   6.350111486672777e-06   -5.851939795019443e-07
2.4595178309946755e-06   6.350111486672777e-06   -5.851939795019443e-07
2.4595178309946755e-06   6.350111486672777e-06   -5.851939795019443e-07
-6.806496511678857e-05   -1.5243764365634876e-06   0.0001216803036874171
-6.806496511678857e-05   -1.5243764365634876e-06   0.0001216803036874171
-6.806496511678857e-05   -1.5243764365634876e-06   0.0001216803036874171
-6.806496511678857e-05   -1.5243764365634876e-06   0.0001216803036874171
-0.00012779493256575322   1.3733601228461262e-05   0.0002106206465443865
-0.00012779493256575322   1.3733601228461262e-05   0.0002106206465443865
-0.00012779493256575322   1.3733601228461262e-05   0.0002106206465443865
-0.00012779493256575322   1.3733601228461262e-05   0.0002106206465443865
-0.00027160750417735556   3.89592684427488e-05   -1.3931572479711218e-05
-0.00027160750417735556   3.89592684427488e-05   -1.3931572479711218e-05
-0.00027160750417735556   3.89592684427488e-05   -1.3931572479711218e-05
-0.00027160750417735556   3.89592684427488e-05   -1.3931572479711218e-05
-0.00027904744439664225   1.2828808241948514e-05   0.0002332932564366834
-0.00027904744439664225   1.2828808241948514e-05   0.0002332932564366834
-0.00027904744439664225   1.2828808241948514e-05   0.0002332932564366834
-0.00027904744439664225   1.2828808241948514e-05   0.0002332932564366834
-0.00013288652181601935   3.6807608279829096e-05   -2.4695561220413383e-05
-0.00013288652181601935   3.6807608279829096e-05   -2.4695561220413383e-05
-0.00013288652181601935   3.6807608279829096e-05   -2.4695561220413383e-05
-0.00013288652181601935   3.6807608279829096e-05   -2.4695561220413383e-05
-0.00020121779828280825   2.60545179832615e-05   9.564175373550894e-05
-0.00020121779828280825   2.60545179832615e-05   9.564175373550894e-05
-0.00020121779828280825   2.60545179832615e-05   9.564175373550894e-05
-0.00020121779828280825   2.60545179832615e-05   9.564175373550894e-05
-0.00013288652181601968   1.2828808241950249e-05   0.00021890597641395764
-0.00013288652181601968   1.2828808241950249e-05   0.00021890597641395764
-0.00013288652181601968   1.2828808241950249e-05   0.00021890597641395764
-0.00013288652181601968   1.2828808241950249e-05   0.00021890597641395764
-0.0002790474443966416   3.680760827982736e-05   -1.0308281197686335e-05
-0.0002790474443966416   3.680760827982736e-05   -1.0308281197686335e-05
-0.0002790474443966416   3.680760827982736e-05   -1.0308281197686335e-05
-0.0002790474443966416   3.680760827982736e-05   -1.0308281197686335e-05
-0.00028815675401737927   1.1219822244763408e-05   0.0002476076142566286
-0.00028815675401737927   1.1219822244763408e-05   0.0002476076142566286
-0.00028815675401737927   1.1219822244763408e-05   0.0002476076142566286
-0.00028815675401737927   1.1219822244763408e-05   0.0002476076142566286
-0.000139724079085702   3.4826298377605563e-05   -1.3944062975872456e-05
-0.000139724079085702   3.4826298377605563e-05   -1.3944062975872456e-05
-0.000139724079085702   3.4826298377605563e-05   -1.3944062975872456e-05
-0.000139724079085702   3.4826298377605563e-05   -1.3944062975872456e-05
-0.000206776260680364   2.5538521122426758e-05   0.00010338223936833587
-0.000206776260680364   2.5538521122426758e-05   0.00010338223936833587
-0.000206776260680364   2.5538521122426758e-05   0.00010338223936833587
-0.000206776260680364   2.5538521122426758e-05   0.00010338223936833587
-0.00013972407908570178   1.1219822244763408e-05   0.0002334437285769226
-0.00013972407908570178   1.1219822244763408e-05   0.0002334437285769226
-0.00013972407908570178   1.1219822244763408e-05   0.0002334437285769226
-0.00013972407908570178   1.1219822244763408e-05   0.0002334437285769226
-0.00028815675401737927   3.4826298377605563e-05   2.1982270383309743e-07
-0.00028815675401737927   3.4826298377605563e-05   2.1982270383309743e-07
-0.00028815675401737927   3.4826298377605563e-05   2.1982270383309743e-07
-0.00028815675401737927   3.4826298377605563e-05   2.1982270383309743e-07
-0.00029780457860986785   9.405738877518721e-06   0.0002590732982549783
-0.00029780457860986785   9.405738877518721e-06   0.0002590732982549783
-0.00029780457860986785   9.405738877518721e-06   0.0002590732982549783
-0.00029780457860986785   9.405738877518721e-06   0.0002590732982549783
-0.00014700929510152387   3.217267690124731e-05   -5.912337073165231e-06
-0.00014700929510152387   3.217267690124731e-05   -5.912337073165231e-06
-0.00014700929510152387   3.217267690124731e-05   -5.912337073165231e-06
-0.00014700929510152387   3.217267690124731e-05   -5.912337073165231e-06
-0.00021597538570784395   2.392369101524537e-05   0.00011398053880231013
-0.00021597538570784395   2.392369101524537e-05   0.00011398053880231013
-0.00021597538570784395   2.392369101524537e-05   0.00011398053880231013
-0.00021597538570784395   2.392369101524537e-05   0.00011398053880231013
-0.00027160750417735556   6.436991371004848e-05   0.00011093697846135606
-0.00027160750417735556   6.436991371004848e-05   0.00011093697846135606
-0.00027160750417735556   6.436991371004848e-05   0.00011093697846135606
-0.00027160750417735556   6.436991371004848e-05   0.00011093697846135606
-0.0004091739518783747   6.335999570808264e-05   -0.0001189463851748564
-0.0004091739518783747   6.335999570808264e-05   -0.0001189463851748564
-0.0004091739518783747   6.335999570808264e-05   -0.0001189463851748564
-0.0004091739518783747   6.335999570808264e-05   -0.0001189463851748564
-0.00042251547247187916   6.202411567254353e-05   0.00016391918937248492
-0.00042251547247187916   6.202411567254353e-05   0.00016391918937248492
-0.00042251547247187916   6.202411567254353e-05   0.00016391918937248492
-0.00042251547247187916   6.202411567254353e-05   0.00016391918937248492
-0.0002790474443966416   6.453173289912295e-05   -7.669876108885886e-05
-0.0002790474443966416   6.453173289912295e-05   -7.669876108885886e-05
-0.0002790474443966416   6.453173289912295e-05   -7.669876108885886e-05
-0.0002790474443966416   6.453173289912295e-05   -7.669876108885886e-05
-0.0003316759688227912   6.461130294549595e-05   1.096770426023191e-05
-0.0003316759688227912   6.461130294549595e-05   1.096770426023191e-05
-0.0003316759688227912   6.461130294549595e-05   1.096770426023191e-05
-0.0003316759688227912   6.461130294549595e-05   1.096770426023191e-05
-0.0002790474443966414   6.202411567254179e-05   0.00016241461903653692
-0.0002790474443966414   6.202411567254179e-05   0.00016241461903653692
-0.0002790474443966414   6.202411567254179e-05   0.00016241461903653692
-0.0002790474443966414   6.202411567254179e-05   0.00016241461903653692
-0.00042251547247187916   6.453173289912122e-05   -7.519419075291238e-05
-0.00042251547247187916   6.453173289912122e-05   -7.519419075291238e-05
-0.00042251547247187916   6.453173289912122e-05   -7.519419075291238e-05
-0.00042251547247187916   6.453173289912122e-05   -7.519419075291238e-05
-0.00043559982740047707   6.0395210620078216e-05   0.00020120486153123868
-0.00043559982740047707   6.0395210620078216e-05   0.00020120486153123868
-0.00043559982740047707   6.0395210620078216e-05   0.00020120486153123868
-0.00043559982740047707   6.0395210620078216e-05   0.00020120486153123868
-0.0002881567540173787   6.405248230131715e-05   -4.672795711600135e-05
-0.0002881567540173787   6.405248230131715e-05   -4.672795711600135e-05
-0.0002881567540173787   6.405248230131715e-05   -4.672795711600135e-05
-0.0002881567540173787   6.405248230131715e-05   -4.672795711600135e-05
-0.00034689380216241925   6.456310484706344e-05   5.0860749598289484e-05
-0.00034689380216241925   6.456310484706344e-05   5.0860749598289484e-05
-0.00034689380216241925   6.456310484706344e-05   5.0860749598289484e-05
-0.00034689380216241925   6.456310484706344e-05   5.0860749598289484e-05
-0.0002881567540173787   6.0395210620078216e-05   0.00019901049852249792
-0.0002881567540173787   6.0395210620078216e-05   0.00019901049852249792
-0.0002881567540173787   6.0395210620078216e-05   0.00019901049852249792
-0.0002881567540173787   6.0395210620078216e-05   0.00019901049852249792
-0.00043559982740047707   6.405248230131715e-05   -4.4533594107259294e-05
-0.00043559982740047707   6.405248230131715e-05   -4.4533594107259294e-05
-0.00043559982740047707   6.405248230131715e-05   -4.4533594107259294e-05
-0.00043559982740047707   6.405248230131715e-05   -4.4533594107259294e-05
-0.00045102354908794573   5.0134666790695864e-05   0.0002635316904395484
-0.00045102354908794573   5.0134666790695864e-05   0.0002635316904395484
-0.00045102354908794573   5.0134666790695864e-05   0.0002635316904395484
-0.00045102354908794573   5.0134666790695864e-05   0.0002635316904395484
-0.00029780457860986687   5.892100290900808e-05   2.8949379717627902e-06
-0.00029780457860986687   5.892100290900808e-05   2.8949379717627902e-06
-0.00029780457860986687   5.892100290900808e-05   2.8949379717627902e-06
-0.00029780457860986687   5.892100290900808e-05   2.8949379717627902e-06
-0.0003524660965384075   6.146577915222724e-05   9.247060210673566e-05
-0.0003524660965384075   6.146577915222724e-05   9.247060210673566e-05
-0.0003524660965384075   6.146577915222724e-05   9.247060210673566e-05
-0.0003524660965384075   6.146577915222724e-05   9.247060210673566e-05
0.0002728061272680354   -3.82058519070496e-05   0.00021124085670836887
0.0002728061272680354   -3.82058519070496e-05   0.00021124085670836887
0.0002728061272680354   -3.82058519070496e-05   0.00021124085670836887
0.0002728061272680354   -3.82058519070496e-05   0.00021124085670836887
0.0001352017314001187   -2.7893699543372202e-05   -1.1912511653287654e-05
0.0001352017314001187   -2.7893699543372202e-05   -1.1912511653287654e-05
0.0001352017314001187   -2.7893699543372202e-05   -1.1912511653287654e-05
0.0001352017314001187   -2.7893699543372202e-05   -1.1912511653287654e-05
0.00012995663196663503   -4.3342505470455456e-05   0.00018380372053902055
0.00012995663196663503   -4.3342505470455456e-05   0.00018380372053902055
0.00012995663196663503   -4.3342505470455456e-05   0.00018380372053902055
0.00012995663196663503   -4.3342505470455456e-05   0.00018380372053902055
0.00026315323289784166   -3.2401086619494174e-05   -4.4755465656898906e-05
0.00026315323289784166   -3.2401086619494174e-05   -4.4755465656898906e-05
0.00026315323289784166   -3.2401086619494174e-05   -4.4755465656898906e-05
0.00026315323289784166   -3.2401086619494174e-05   -4.4755465656898906e-05
0.00019110773782190452   -3.510056495367904e-05   7.694004647017206e-05
0.00019110773782190452   -3.510056495367904e-05   7.694004647017206e-05
0.00019110773782190452   -3.510056495367904e-05   7.694004647017206e-05
0.00019110773782190452   -3.510056495367904e-05   7.694004647017206e-05
0.0002631532328978412   -4.334250547045719e-05   0.00017723886922844413
0.0002631532328978412   -4.334250547045719e-05   0.00017723886922844413
0.0002631532328978412   -4.334250547045719e-05   0.00017723886922844413
0.0002631532328978412   -4.334250547045719e-05   0.00017723886922844413
0.00012995663196663546   -3.2401086619494174e-05   -3.8190614346322524e-05
0.00012995663196663546   -3.2401086619494174e-05   -3.8190614346322524e-05
0.00012995663196663546   -3.2401086619494174e-05   -3.8190614346322524e-05
0.00012995663196663546   -3.2401086619494174e-05   -3.8190614346322524e-05
0.0001241323431885009   -4.4115841787314286e-05   0.000164793405365073
0.0001241323431885009   -4.4115841787314286e-05   0.000164793405365073
0.0001241323431885009   -4.4115841787314286e-05   0.000164793405365073
0.0001241323431885009   -4.4115841787314286e-05   0.000164793405365073
0.0002544206189945624   -3.331334111913477e-05   -5.883522137927101e-05
0.0002544206189945624   -3.331334111913477e-05   -5.883522137927101e-05
0.0002544206189945624   -3.331334111913477e-05   -5.883522137927101e-05
0.0002544206189945624   -3.331334111913477e-05   -5.883522137927101e-05
0.000187430594084079   -3.684429918422022e-05   5.4933394977250624e-05
0.000187430594084079   -3.684429918422022e-05   5.4933394977250624e-05
0.000187430594084079   -3.684429918422022e-05   5.4933394977250624e-05
0.000187430594084079   -3.684429918422022e-05   5.4933394977250624e-05
0.00025442061899456155   -4.4115841787314286e-05   0.00015831190496416476
0.00025442061899456155   -4.4115841787314286e-05   0.00015831190496416476
0.00025442061899456155   -4.4115841787314286e-05   0.00015831190496416476
0.00025442061899456155   -4.4115841787314286e-05   0.00015831190496416476
0.0001241323431885011   -3.331334111913477e-05   -5.2353720978362724e-05
0.0001241323431885011   -3.331334111913477e-05   -5.2353720978362724e-05
0.0001241323431885011   -3.331334111913477e-05   -5.2353720978362724e-05
0.0001241323431885011   -3.331334111913477e-05   -5.2353720978362724e-05
0.00011853429332860332   -4.3880447674025935e-05   0.0001383395568542306
0.00011853429332860332   -4.3880447674025935e-05   0.0001383395568542306
0.00011853429332860332   -4.3880447674025935e-05   0.0001383395568542306
0.00011853429332860332   -4.3880447674025935e-05   0.0001383395568542306
0.0002445381140458414   -3.3716436129330174e-05   -7.776521793464929e-05
0.0002445381140458414   -3.3716436129330174e-05   -7.776521793464929e-05
0.0002445381140458414   -3.3716436129330174e-05   -7.776521793464929e-05
0.0002445381140458414   -3.3716436129330174e-05   -7.776521793464929e-05
0.0001776912536914795   -3.623565018310085e-05   3.515774442155214e-05
0.0001776912536914795   -3.623565018310085e-05   3.515774442155214e-05
0.0001776912536914795   -3.623565018310085e-05   3.515774442155214e-05
0.0001776912536914795   -3.623565018310085e-05   3.515774442155214e-05
0.0001352017314001187   -1.3533532769281417e-05   0.0002223774155268813
0.0001352017314001187   -1.3533532769281417e-05   0.0002223774155268813
0.0001352017314001187   -1.3533532769281417e-05   0.0002223774155268813
0.0001352017314001187   -1.3533532769281417e-05   0.0002223774155268813
6.046038790123243e-06   -5.321638361317771e-06   1.2045064488334402e-05
6.046038790123243e-06   -5.321638361317771e-06   1.2045064488334402e-05
6.046038790123243e-06   -5.321638361317771e-06   1.2045064488334402e-05
6.046038790123243e-06   -5.321638361317771e-06   1.2045064488334402e-05
1.0151398978263315e-06   -1.6303331631724316e-05   0.0002247413483372658
1.0151398978263315e-06   -1.6303331631724316e-05   0.0002247413483372658
1.0151398978263315e-06   -1.6303331631724316e-05   0.0002247413483372658
1.0151398978263315e-06   -1.6303331631724316e-05   0.0002247413483372658
0.00012995663196663546   -8.526394902659204e-06   5.1726995184781465e-06
0.00012995663196663546   -8.526394902659204e-06   5.1726995184781465e-06
0.00012995663196663546   -8.526394902659204e-06   5.1726995184781465e-06
0.00012995663196663546   -8.526394902659204e-06   5.1726995184781465e-06
6.723145336169092e-05   -1.0512426282732051e-05   0.0001109062826880967
6.723145336169092e-05   -1.0512426282732051e-05   0.0001109062826880967
6.723145336169092e-05   -1.0512426282732051e-05   0.0001109062826880967
6.723145336169092e-05   -1.0512426282732051e-05   0.0001109062826880967
0.00012995663196663535   -1.6303331631724316e-05   0.0002200751862998264
0.00012995663196663535   -1.6303331631724316e-05   0.0002200751862998264
0.00012995663196663535   -1.6303331631724316e-05   0.0002200751862998264
0.00012995663196663535   -1.6303331631724316e-05   0.0002200751862998264
1.0151398978263315e-06   -8.526394902659204e-06   9.838861555918482e-06
1.0151398978263315e-06   -8.526394902659204e-06   9.838861555918482e-06
1.0151398978263315e-06   -8.526394902659204e-06   9.838861555918482e-06
1.0151398978263315e-06   -8.526394902659204e-06   9.838861555918482e-06
-4.213844851073088e-06   -1.8132661287341423e-05   0.00022141653264084842
-4.213844851073088e-06   -1.8132661287341423e-05   0.00022141653264084842
-4.213844851073088e-06   -1.8132661287341423e-05   0.00022141653264084842
-4.213844851073088e-06   -1.8132661287341423e-05   0.00022141653264084842
0.0001241323431885011   -1.0917911590536608e-05   3.1773694234761172e-06
0.0001241323431885011   -1.0917911590536608e-05   3.1773694234761172e-06
0.0001241323431885011   -1.0917911590536608e-05   3.1773694234761172e-06
0.0001241323431885011   -1.0917911590536608e-05   3.1773694234761172e-06
6.14660431077559e-05   -1.219645659194385e-05   0.00010838832989223143
6.14660431077559e-05   -1.219645659194385e-05   0.00010838832989223143
6.14660431077559e-05   -1.219645659194385e-05   0.00010838832989223143
6.14660431077559e-05   -1.219645659194385e-05   0.00010838832989223143
0.0001241323431885009   -1.8132661287341423e-05   0.00021708768282276657
0.0001241323431885009   -1.8132661287341423e-05   0.00021708768282276657
0.0001241323431885009   -1.8132661287341423e-05   0.00021708768282276657
0.0001241323431885009   -1.8132661287341423e-05   0.00021708768282276657
-4.213844851073088e-06   -1.0917911590536608e-05   7.506219241558074e-06
-4.213844851073088e-06   -1.0917911590536608e-05   7.506219241558074e-06
-4.213844851073088e-06   -1.0917911590536608e-05   7.506219241558074e-06
-4.213844851073088e-06   -1.0917911590536608e-05   7.506219241558074e-06
-9.657464570887015e-06   -1.893538939074131e-05   0.00022318075220132544
-9.657464570887015e-06   -1.893538939074131e-05   0.00022318075220132544
-9.657464570887015e-06   -1.893538939074131e-05   0.00022318075220132544
-9.657464570887015e-06   -1.893538939074131e-05   0.00022318075220132544
0.0001185342933286036   -1.2817536538298202e-05   5.857110657372922e-06
0.0001185342933286036   -1.2817536538298202e-05   5.857110657372922e-06
0.0001185342933286036   -1.2817536538298202e-05   5.857110657372922e-06
0.0001185342933286036   -1.2817536538298202e-05   5.857110657372922e-06
5.7114098692083676e-05   -1.3113854699339442e-05   0.00010840189261486922
5.7114098692083676e-05   -1.3113854699339442e-05   0.00010840189261486922
5.7114098692083676e-05   -1.3113854699339442e-05   0.00010840189261486922
5.7114098692083676e-05   -1.3113854699339442e-05   0.00010840189261486922
6.0460387901231346e-06   1.1913413106355228e-05   0.00022969368998710608
6.0460387901231346e-06   1.1913413106355228e-05   0.00022969368998710608
6.0460387901231346e-06   1.1913413106355228e-05   0.00022969368998710608
6.0460387901231346e-06   1.1913413106355228e-05   0.00022969368998710608
-0.00011930783202702196   1.738009138169648e-05   2.4050578923735626e-05
-0.00011930783202702196   1.738009138169648e-05   2.4050578923735626e-05
-0.00011930783202702196   1.738009138169648e-05   2.4050578923735626e-05
-0.00011930783202702196   1.738009138169648e-05   2.4050578923735626e-05
-0.00012456185486579743   9.776536706439243e-06   0.00023288542010483325
-0.00012456185486579743   9.776536706439243e-06   0.00023288542010483325
-0.00012456185486579743   9.776536706439243e-06   0.00023288542010483325
-0.00012456185486579743   9.776536706439243e-06   0.00023288542010483325
1.0151398978263315e-06   1.4700802096635074e-05   2.0635869598009237e-05
1.0151398978263315e-06   1.4700802096635074e-05   2.0635869598009237e-05
1.0151398978263315e-06   1.4700802096635074e-05   2.0635869598009237e-05
1.0151398978263315e-06   1.4700802096635074e-05   2.0635869598009237e-05
-5.929477790971781e-05   1.3607166315283276e-05   0.00012180858074606078
-5.929477790971781e-05   1.3607166315283276e-05   0.00012180858074606078
-5.929477790971781e-05   1.3607166315283276e-05   0.00012180858074606078
-5.929477790971781e-05   1.3607166315283276e-05   0.00012180858074606078
1.0151398978263315e-06   9.776536706439243e-06   0.00022993086087071558
1.0151398978263315e-06   9.776536706439243e-06   0.00022993086087071558
1.0151398978263315e-06   9.776536706439243e-06   0.00022993086087071558
1.0151398978263315e-06   9.776536706439243e-06   0.00022993086087071558
-0.00012456185486579743   1.4700802096635074e-05   2.3590428832126475e-05
-0.00012456185486579743   1.4700802096635074e-05   2.3590428832126475e-05
-0.00012456185486579743   1.4700802096635074e-05   2.3590428832126475e-05
-0.00012456185486579743   1.4700802096635074e-05   2.3590428832126475e-05
-0.00013011327533861807   7.787211509076297e-06   0.0002351153450406325
-0.00013011327533861807   7.787211509076297e-06   0.0002351153450406325
-0.00013011327533861807   7.787211509076297e-06   0.0002351153450406325
-0.00013011327533861807   7.787211509076297e-06   0.0002351153450406325
-4.213844851073088e-06   1.2098647567964846e-05   2.2696099259392156e-05
-4.213844851073088e-06   1.2098647567964846e-05   2.2696099259392156e-05
-4.213844851073088e-06   1.2098647567964846e-05   2.2696099259392156e-05
-4.213844851073088e-06   1.2098647567964846e-05   2.2696099259392156e-05
-6.417768670112078e-05   1.2070663640256774e-05   0.00012265262603276166
-6.417768670112078e-05   1.2070663640256774e-05   0.00012265262603276166
-6.417768670112078e-05   1.2070663640256774e-05   0.00012265262603276166
-6.417768670112078e-05   1.2070663640256774e-05   0.00012265262603276166
-4.213844851073088e-06   7.787211509076297e-06   0.00023252848340529937
-4.213844851073088e-06   7.787211509076297e-06   0.00023252848340529937
-4.213844851073088e-06   7.787211509076297e-06   0.00023252848340529937
-4.213844851073088e-06   7.787211509076297e-06   0.00023252848340529937
-0.00013011327533861828   1.2098647567964846e-05   2.5282960894724635e-05
-0.00013011327533861828   1.2098647567964846e-05   2.5282960894724635e-05
-0.00013011327533861828   1.2098647567964846e-05   2.5282960894724635e-05
-0.00013011327533861828   1.2098647567964846e-05   2.5282960894724635e-05
-0.00013584376130245865   6.350111486672777e-06   0.00023865380209335194
-0.00013584376130245865   6.350111486672777e-06   0.00023865380209335194
-0.00013584376130245865   6.350111486672777e-06   0.00023865380209335194
-0.00013584376130245865   6.350111486672777e-06   0.00023865380209335194
-9.657464570887015e-06   9.78163154770166e-06   2.628439550411612e-05
-9.657464570887015e-06   9.78163154770166e-06   2.628439550411612e-05
-9.657464570887015e-06   9.78163154770166e-06   2.628439550411612e-05
-9.657464570887015e-06   9.78163154770166e-06   2.628439550411612e-05
-6.946148756620095e-05   1.0597217319689364e-05   0.0001254684156997846
-6.946148756620095e-05   1.0597217319689364e-05   0.0001254684156997846
-6.946148756620095e-05   1.0597217319689364e-05   0.0001254684156997846
-6.946148756620095e-05   1.0597217319689364e-05   0.0001254684156997846
-0.00011930783202702229   3.89592684427488e-05   0.00020018021871218063
-0.00011930783202702229   3.89592684427488e-05   0.00020018021871218063
-0.00011930783202702229   3.89592684427488e-05   0.00020018021871218063
-0.00011930783202702229   3.89592684427488e-05   0.00020018021871218063
-0.00024058557885894144   3.9449369882510466e-05   -1.6552984771611018e-06
-0.00024058557885894144   3.9449369882510466e-05   -1.6552984771611018e-06
-0.00024058557885894144   3.9449369882510466e-05   -1.6552984771611018e-06
-0.00024058557885894144   3.9449369882510466e-05   -1.6552984771611018e-06
-0.00024668677996081694   3.680760827982736e-05   0.00020368877665502723
-0.00024668677996081694   3.680760827982736e-05   0.00020368877665502723
-0.00024668677996081694   3.680760827982736e-05   0.00020368877665502723
-0.00024668677996081694   3.680760827982736e-05   0.00020368877665502723
-0.00012456185486579765   3.687964078725667e-05   1.0401532553739982e-07
-0.00012456185486579765   3.687964078725667e-05   1.0401532553739982e-07
-0.00012456185486579765   3.687964078725667e-05   1.0401532553739982e-07
-0.00012456185486579765   3.687964078725667e-05   1.0401532553739982e-07
-0.0001819680912800399   3.794830688621728e-05   9.513987635656517e-05
-0.0001819680912800399   3.794830688621728e-05   9.513987635656517e-05
-0.0001819680912800399   3.794830688621728e-05   9.513987635656517e-05
-0.0001819680912800399   3.794830688621728e-05   9.513987635656517e-05
-0.00012456185486579765   3.680760827982736e-05   0.00020364555715057017
-0.00012456185486579765   3.680760827982736e-05   0.00020364555715057017
-0.00012456185486579765   3.680760827982736e-05   0.00020364555715057017
-0.00012456185486579765   3.680760827982736e-05   0.00020364555715057017
-0.0002466867799608167   3.687964078725667e-05   1.4723482999468018e-07
-0.0002466867799608167   3.687964078725667e-05   1.4723482999468018e-07
-0.0002466867799608167   3.687964078725667e-05   1.4723482999468018e-07
-0.0002466867799608167   3.687964078725667e-05   1.4723482999468018e-07
-0.00025345501555188517   3.4826298377605563e-05   0.00021315227312337925
-0.00025345501555188517   3.4826298377605563e-05   0.00021315227312337925
-0.00025345501555188517   3.4826298377605563e-05   0.00021315227312337925
-0.00025345501555188517   3.4826298377605563e-05   0.00021315227312337925
-0.00013011327533861828   3.452028320855005e-05   7.766315202701159e-06
-0.00013011327533861828   3.452028320855005e-05   7.766315202701159e-06
-0.00013011327533861828   3.452028320855005e-05   7.766315202701159e-06
-0.00013011327533861828   3.452028320855005e-05   7.766315202701159e-06
-0.00018639893414803318   3.649060258159066e-05   0.00010039355492790208
-0.00018639893414803318   3.649060258159066e-05   0.00010039355492790208
-0.00018639893414803318   3.649060258159066e-05   0.00010039355492790208
-0.00018639893414803318   3.649060258159066e-05   0.00010039355492790208
-0.00013011327533861828   3.482629837760383e-05   0.0002133358822248117
-0.00013011327533861828   3.482629837760383e-05   0.0002133358822248117
-0.00013011327533861828   3.482629837760383e-05   0.0002133358822248117
-0.00013011327533861828   3.482629837760383e-05   0.0002133358822248117
-0.00025345501555188474   3.452028320855005e-05   7.582706101268502e-06
-0.00025345501555188474   3.452028320855005e-05   7.582706101268502e-06
-0.00025345501555188474   3.452028320855005e-05   7.582706101268502e-06
-0.00025345501555188474   3.452028320855005e-05   7.582706101268502e-06
-0.00025990912896274327   3.217267690124731e-05   0.000220027103896403
-0.00025990912896274327   3.217267690124731e-05   0.000220027103896403
-0.00025990912896274327   3.217267690124731e-05   0.000220027103896403
-0.00025990912896274327   3.217267690124731e-05   0.000220027103896403
-0.00013584376130245908   3.1647710482462024e-05   1.3566470980533448e-05
-0.00013584376130245908   3.1647710482462024e-05   1.3566470980533448e-05
-0.00013584376130245908   3.1647710482462024e-05   1.3566470980533448e-05
-0.00013584376130245908   3.1647710482462024e-05   1.3566470980533448e-05
-0.00019340356329907284   3.460984222240435e-05   0.00010772219526426676
-0.00019340356329907284   3.460984222240435e-05   0.00010772219526426676
-0.00019340356329907284   3.460984222240435e-05   0.00010772219526426676
-0.00019340356329907284   3.460984222240435e-05   0.00010772219526426676
-0.00024058557885894122   6.335999570808264e-05   9.606541768207057e-05
-0.00024058557885894122   6.335999570808264e-05   9.606541768207057e-05
-0.00024058557885894122   6.335999570808264e-05   9.606541768207057e-05
-0.00024058557885894122   6.335999570808264e-05   9.606541768207057e-05
-0.0003555972023868421   5.668698503080716e-05   -9.962442793746279e-05
-0.0003555972023868421   5.668698503080716e-05   -9.962442793746279e-05
-0.0003555972023868421   5.668698503080716e-05   -9.962442793746279e-05
-0.0003555972023868421   5.668698503080716e-05   -9.962442793746279e-05
-0.00036520253103825093   6.453173289912122e-05   0.00013293076672163048
-0.00036520253103825093   6.453173289912122e-05   0.00013293076672163048
-0.00036520253103825093   6.453173289912122e-05   0.00013293076672163048
-0.00036520253103825093   6.453173289912122e-05   0.00013293076672163048
-0.00024668677996081694   5.725251616208252e-05   -6.02279550318708e-05
-0.00024668677996081694   5.725251616208252e-05   -6.02279550318708e-05
-0.00024668677996081694   5.725251616208252e-05   -6.02279550318708e-05
-0.00024668677996081694   5.725251616208252e-05   -6.02279550318708e-05
-0.0002904593256338791   6.012607374012921e-05   1.1002153209736971e-05
-0.0002904593256338791   6.012607374012921e-05   1.1002153209736971e-05
-0.0002904593256338791   6.012607374012921e-05   1.1002153209736971e-05
-0.0002904593256338791   6.012607374012921e-05   1.1002153209736971e-05
-0.0002466867799608165   6.453173289912295e-05   0.00013729829676385405
-0.0002466867799608165   6.453173289912295e-05   0.00013729829676385405
-0.0002466867799608165   6.453173289912295e-05   0.00013729829676385405
-0.0002466867799608165   6.453173289912295e-05   0.00013729829676385405
-0.00036520253103825224   5.725251616208252e-05   -6.459548507409523e-05
-0.00036520253103825224   5.725251616208252e-05   -6.459548507409523e-05
-0.00036520253103825224   5.725251616208252e-05   -6.459548507409523e-05
-0.00036520253103825224   5.725251616208252e-05   -6.459548507409523e-05
-0.000374590830224709   6.405248230131541e-05   0.00016174042443461469
-0.000374590830224709   6.405248230131541e-05   0.00016174042443461469
-0.000374590830224709   6.405248230131541e-05   0.00016174042443461469
-0.000374590830224709   6.405248230131541e-05   0.00016174042443461469
-0.00025345501555188517   5.661236751976738e-05   -3.568853115116285e-05
-0.00025345501555188517   5.661236751976738e-05   -3.568853115116285e-05
-0.00025345501555188517   5.661236751976738e-05   -3.568853115116285e-05
-0.00025345501555188517   5.661236751976738e-05   -3.568853115116285e-05
-0.00030219649401055286   6.120968320860731e-05   4.2788876866652406e-05
-0.00030219649401055286   6.120968320860731e-05   4.2788876866652406e-05
-0.00030219649401055286   6.120968320860731e-05   4.2788876866652406e-05
-0.00030219649401055286   6.120968320860731e-05   4.2788876866652406e-05
-0.00025345501555188517   6.405248230131715e-05   0.0001662044933035461
-0.00025345501555188517   6.405248230131715e-05   0.0001662044933035461
-0.00025345501555188517   6.405248230131715e-05   0.0001662044933035461
-0.00025345501555188517   6.405248230131715e-05   0.0001662044933035461
-0.0003745908302247103   5.661236751976738e-05   -4.015260002009427e-05
-0.0003745908302247103   5.661236751976738e-05   -4.015260002009427e-05
-0.0003745908302247103   5.661236751976738e-05   -4.015260002009427e-05
-0.0003745908302247103   5.661236751976738e-05   -4.015260002009427e-05
-0.0003855644818156218   5.892100290900808e-05   0.0002111546041577688
-0.0003855644818156218   5.892100290900808e-05   0.0002111546041577688
-0.0003855644818156218   5.892100290900808e-05   0.0002111546041577688
-0.0003855644818156218   5.892100290900808e-05   0.0002111546041577688
-0.00025990912896274327   5.2221649626803604e-05   5.748628038962714e-06
-0.00025990912896274327   5.2221649626803604e-05   5.748628038962714e-06
-0.00025990912896274327   5.2221649626803604e-05   5.748628038962714e-06
-0.00025990912896274327   5.2221649626803604e-05   5.748628038962714e-06
-0.00030527364221698836   5.9400428131564306e-05   7.704888302651836e-05
-0.00030527364221698836   5.9400428131564306e-05   7.704888302651836e-05
-0.00030527364221698836   5.9400428131564306e-05   7.704888302651836e-05
-0.00030527364221698836   5.9400428131564306e-05   7.704888302651836e-05
0.00020624089321948322   -2.7893699543372202e-05   0.00017575332208999515
0.00020624089321948322   -2.7893699543372202e-05   0.00017575332208999515
0.00020624089321948322   -2.7893699543372202e-05   0.00017575332208999515
0.00020624089321948322   -2.7893699543372202e-05   0.00017575332208999515
9.717013281766956e-05   -1.8328424878772537e-05   -2.9211378093415424e-07
9.717013281766956e-05   -1.8328424878772537e-05   -2.9211378093415424e-07
9.717013281766956e-05   -1.8328424878772537e-05   -2.9211378093415424e-07
9.717013281766956e-05   -1.8328424878772537e-05   -2.9211378093415424e-07
9.249286148006188e-05   -3.240108661949591e-05   0.0001545190175405494
9.249286148006188e-05   -3.240108661949591e-05   0.0001545190175405494
9.249286148006188e-05   -3.240108661949591e-05   0.0001545190175405494
9.249286148006188e-05   -3.240108661949591e-05   0.0001545190175405494
0.00019719738733479122   -2.2284702447132598e-05   -2.6058356054082783e-05
0.00019719738733479122   -2.2284702447132598e-05   -2.6058356054082783e-05
0.00019719738733479122   -2.2284702447132598e-05   -2.6058356054082783e-05
0.00019719738733479122   -2.2284702447132598e-05   -2.6058356054082783e-05
0.00014129713302269727   -2.542669040854137e-05   6.89939272429184e-05
0.00014129713302269727   -2.542669040854137e-05   6.89939272429184e-05
0.00014129713302269727   -2.542669040854137e-05   6.89939272429184e-05
0.00014129713302269727   -2.542669040854137e-05   6.89939272429184e-05
0.00019719738733479122   -3.2401086619494174e-05   0.00014844918703713333
0.00019719738733479122   -3.2401086619494174e-05   0.00014844918703713333
0.00019719738733479122   -3.2401086619494174e-05   0.00014844918703713333
0.00019719738733479122   -3.2401086619494174e-05   0.00014844918703713333
9.249286148006207e-05   -2.2284702447132598e-05   -1.9988525550664916e-05
9.249286148006207e-05   -2.2284702447132598e-05   -1.9988525550664916e-05
9.249286148006207e-05   -2.2284702447132598e-05   -1.9988525550664916e-05
9.249286148006207e-05   -2.2284702447132598e-05   -1.9988525550664916e-05
8.733622524020261e-05   -3.331334111913477e-05   0.00013958342322030644
8.733622524020261e-05   -3.331334111913477e-05   0.00013958342322030644
8.733622524020261e-05   -3.331334111913477e-05   0.00013958342322030644
8.733622524020261e-05   -3.331334111913477e-05   0.00013958342322030644
0.0001892792403572984   -2.334743631139495e-05   -3.630114485949536e-05
0.0001892792403572984   -2.334743631139495e-05   -3.630114485949536e-05
0.0001892792403572984   -2.334743631139495e-05   -3.630114485949536e-05
0.0001892792403572984   -2.334743631139495e-05   -3.630114485949536e-05
0.00013750877489097712   -2.7028596504108382e-05   5.219166036667068e-05
0.00013750877489097712   -2.7028596504108382e-05   5.219166036667068e-05
0.00013750877489097712   -2.7028596504108382e-05   5.219166036667068e-05
0.00013750877489097712   -2.7028596504108382e-05   5.219166036667068e-05
0.0001892792403572981   -3.331334111913477e-05   0.00013360388033566498
0.0001892792403572981   -3.331334111913477e-05   0.00013360388033566498
0.0001892792403572981   -3.331334111913477e-05   0.00013360388033566498
0.0001892792403572981   -3.331334111913477e-05   0.00013360388033566498
8.733622524020277e-05   -2.334743631139495e-05   -3.032160197485173e-05
8.733622524020277e-05   -2.334743631139495e-05   -3.032160197485173e-05
8.733622524020277e-05   -2.334743631139495e-05   -3.032160197485173e-05
8.733622524020277e-05   -2.334743631139495e-05   -3.032160197485173e-05
8.257811072023545e-05   -3.371643612933191e-05   0.00011940995701450671
8.257811072023545e-05   -3.371643612933191e-05   0.00011940995701450671
8.257811072023545e-05   -3.371643612933191e-05   0.00011940995701450671
8.257811072023545e-05   -3.371643612933191e-05   0.00011940995701450671
0.00018044333697642451   -2.4367615347110905e-05   -4.93080458818063e-05
0.00018044333697642451   -2.4367615347110905e-05   -4.93080458818063e-05
0.00018044333697642451   -2.4367615347110905e-05   -4.93080458818063e-05
0.00018044333697642451   -2.4367615347110905e-05   -4.93080458818063e-05
0.00012928470061307539   -2.6887672153827133e-05   3.7468382141140916e-05
0.00012928470061307539   -2.6887672153827133e-05   3.7468382141140916e-05
0.00012928470061307539   -2.6887672153827133e-05   3.7468382141140916e-05
0.00012928470061307539   -2.6887672153827133e-05   3.7468382141140916e-05
9.717013281766924e-05   -5.321638361317771e-06   0.00020052292638559743
9.717013281766924e-05   -5.321638361317771e-06   0.00020052292638559743
9.717013281766924e-05   -5.321638361317771e-06   0.00020052292638559743
9.717013281766924e-05   -5.321638361317771e-06   0.00020052292638559743
-6.111133218724405e-06   -3.810453128201552e-08   3.1557603289628956e-05
-6.111133218724405e-06   -3.810453128201552e-08   3.1557603289628956e-05
-6.111133218724405e-06   -3.810453128201552e-08   3.1557603289628956e-05
-6.111133218724405e-06   -3.810453128201552e-08   3.1557603289628956e-05
-1.0505103032347365e-05   -8.526394902659204e-06   0.00020090440157204733
-1.0505103032347365e-05   -8.526394902659204e-06   0.00020090440157204733
-1.0505103032347365e-05   -8.526394902659204e-06   0.00020090440157204733
-1.0505103032347365e-05   -8.526394902659204e-06   0.00020090440157204733
9.249286148006207e-05   -3.4896112914954702e-06   2.6219057218002052e-05
9.249286148006207e-05   -3.4896112914954702e-06   2.6219057218002052e-05
9.249286148006207e-05   -3.4896112914954702e-06   2.6219057218002052e-05
9.249286148006207e-05   -3.4896112914954702e-06   2.6219057218002052e-05
4.256263287597266e-05   -4.4675594858129e-06   0.00011002287380807308
4.256263287597266e-05   -4.4675594858129e-06   0.00011002287380807308
4.256263287597266e-05   -4.4675594858129e-06   0.00011002287380807308
4.256263287597266e-05   -4.4675594858129e-06   0.00011002287380807308
9.249286148006183e-05   -8.526394902659204e-06   0.00019788233140534926
9.249286148006183e-05   -8.526394902659204e-06   0.00019788233140534926
9.249286148006183e-05   -8.526394902659204e-06   0.00019788233140534926
9.249286148006183e-05   -8.526394902659204e-06   0.00019788233140534926
-1.0505103032347365e-05   -3.4896112914954702e-06   2.924112738469757e-05
-1.0505103032347365e-05   -3.4896112914954702e-06   2.924112738469757e-05
-1.0505103032347365e-05   -3.4896112914954702e-06   2.924112738469757e-05
-1.0505103032347365e-05   -3.4896112914954702e-06   2.924112738469757e-05
-1.4991202527062726e-05   -1.0917911590536608e-05   0.0001979331862417555
-1.4991202527062726e-05   -1.0917911590536608e-05   0.0001979331862417555
-1.4991202527062726e-05   -1.0917911590536608e-05   0.0001979331862417555
-1.4991202527062726e-05   -1.0917911590536608e-05   0.0001979331862417555
8.733622524020277e-05   -6.220123891190199e-06   2.4568800676704502e-05
8.733622524020277e-05   -6.220123891190199e-06   2.4568800676704502e-05
8.733622524020277e-05   -6.220123891190199e-06   2.4568800676704502e-05
8.733622524020277e-05   -6.220123891190199e-06   2.4568800676704502e-05
3.764313104109192e-05   -6.6028341178994004e-06   0.00010762025047792128
3.764313104109192e-05   -6.6028341178994004e-06   0.00010762025047792128
3.764313104109192e-05   -6.6028341178994004e-06   0.00010762025047792128
3.764313104109192e-05   -6.6028341178994004e-06   0.00010762025047792128
8.733622524020261e-05   -1.0917911590536608e-05   0.0001951145136221454
8.733622524020261e-05   -1.0917911590536608e-05   0.0001951145136221454
8.733622524020261e-05   -1.0917911590536608e-05   0.0001951145136221454
8.733622524020261e-05   -1.0917911590536608e-05   0.0001951145136221454
-1.4991202527062726e-05   -6.220123891190199e-06   2.7387473296312977e-05
-1.4991202527062726e-05   -6.220123891190199e-06   2.7387473296312977e-05
-1.4991202527062726e-05   -6.220123891190199e-06   2.7387473296312977e-05
-1.4991202527062726e-05   -6.220123891190199e-06   2.7387473296312977e-05
-1.9500808880785364e-05   -1.2817536538298202e-05   0.00019936768546320593
-1.9500808880785364e-05   -1.2817536538298202e-05   0.00019936768546320593
-1.9500808880785364e-05   -1.2817536538298202e-05   0.00019936768546320593
-1.9500808880785364e-05   -1.2817536538298202e-05   0.00019936768546320593
8.257811072023556e-05   -8.761191899141901e-06   2.6802346011343796e-05
8.257811072023556e-05   -8.761191899141901e-06   2.6802346011343796e-05
8.257811072023556e-05   -8.761191899141901e-06   2.6802346011343796e-05
8.257811072023556e-05   -8.761191899141901e-06   2.6802346011343796e-05
3.38715826330271e-05   -8.195287678303825e-06   0.00010764035029085935
3.38715826330271e-05   -8.195287678303825e-06   0.00010764035029085935
3.38715826330271e-05   -8.195287678303825e-06   0.00010764035029085935
3.38715826330271e-05   -8.195287678303825e-06   0.00010764035029085935
-6.111133218724514e-06   1.738009138169648e-05   0.00021241855415381553
-6.111133218724514e-06   1.738009138169648e-05   0.00021241855415381553
-6.111133218724514e-06   1.738009138169648e-05   0.00021241855415381553
-6.111133218724514e-06   1.738009138169648e-05   0.00021241855415381553
-0.00010722686323000883   1.7867216393172014e-05   4.4184612475228584e-05
-0.00010722686323000883   1.7867216393172014e-05   4.4184612475228584e-05
-0.00010722686323000883   1.7867216393172014e-05   4.4184612475228584e-05
-0.00010722686323000883   1.7867216393172014e-05   4.4184612475228584e-05
-0.00011164115197035752   1.4700802096635074e-05   0.00021177495402671404
-0.00011164115197035752   1.4700802096635074e-05   0.00021177495402671404
-0.00011164115197035752   1.4700802096635074e-05   0.00021177495402671404
-0.00011164115197035752   1.4700802096635074e-05   0.00021177495402671404
-1.0505103032347365e-05   1.482337611759428e-05   4.314132805078837e-05
-1.0505103032347365e-05   1.482337611759428e-05   4.314132805078837e-05
-1.0505103032347365e-05   1.482337611759428e-05   4.314132805078837e-05
-1.0505103032347365e-05   1.482337611759428e-05   4.314132805078837e-05
-5.90245744396609e-05   1.591642398080309e-05   0.00012335128501171893
-5.90245744396609e-05   1.591642398080309e-05   0.00012335128501171893
-5.90245744396609e-05   1.591642398080309e-05   0.00012335128501171893
-5.90245744396609e-05   1.591642398080309e-05   0.00012335128501171893
-1.0505103032347365e-05   1.4700802096635074e-05   0.00021170140961413939
-1.0505103032347365e-05   1.4700802096635074e-05   0.00021170140961413939
-1.0505103032347365e-05   1.4700802096635074e-05   0.00021170140961413939
-1.0505103032347365e-05   1.4700802096635074e-05   0.00021170140961413939
-0.00011164115197035752   1.482337611759428e-05   4.321487246336346e-05
-0.00011164115197035752   1.482337611759428e-05   4.321487246336346e-05
-0.00011164115197035752   1.482337611759428e-05   4.321487246336346e-05
-0.00011164115197035752   1.482337611759428e-05   4.321487246336346e-05
-0.00011616748742287021   1.2098647567964846e-05   0.00021296027495862607
-0.00011616748742287021   1.2098647567964846e-05   0.00021296027495862607
-0.00011616748742287021   1.2098647567964846e-05   0.00021296027495862607
-0.00011616748742287021   1.2098647567964846e-05   0.00021296027495862607
-1.4991202527062726e-05   1.1827328733027623e-05   4.449592476657481e-05
-1.4991202527062726e-05   1.1827328733027623e-05   4.449592476657481e-05
-1.4991202527062726e-05   1.1827328733027623e-05   4.449592476657481e-05
-1.4991202527062726e-05   1.1827328733027623e-05   4.449592476657481e-05
-6.312613207029431e-05   1.3864992737949722e-05   0.00012349820893567962
-6.312613207029431e-05   1.3864992737949722e-05   0.00012349820893567962
-6.312613207029431e-05   1.3864992737949722e-05   0.00012349820893567962
-6.312613207029431e-05   1.3864992737949722e-05   0.00012349820893567962
-1.4991202527062726e-05   1.2098647567964846e-05   0.00021312306625958805
-1.4991202527062726e-05   1.2098647567964846e-05   0.00021312306625958805
-1.4991202527062726e-05   1.2098647567964846e-05   0.00021312306625958805
-1.4991202527062726e-05   1.2098647567964846e-05   0.00021312306625958805
-0.00011616748742287021   1.1827328733027623e-05   4.433313346561413e-05
-0.00011616748742287021   1.1827328733027623e-05   4.433313346561413e-05
-0.00011616748742287021   1.1827328733027623e-05   4.433313346561413e-05
-0.00011616748742287021   1.1827328733027623e-05   4.433313346561413e-05
-0.00012069367947109728   9.781631547699926e-06   0.00021564536505412884
-0.00012069367947109728   9.781631547699926e-06   0.00021564536505412884
-0.00012069367947109728   9.781631547699926e-06   0.00021564536505412884
-0.00012069367947109728   9.781631547699926e-06   0.00021564536505412884
-1.9500808880785364e-05   8.983475640446034e-06   4.746947428129595e-05
-1.9500808880785364e-05   8.983475640446034e-06   4.746947428129595e-05
-1.9500808880785364e-05   8.983475640446034e-06   4.746947428129595e-05
-1.9500808880785364e-05   8.983475640446034e-06   4.746947428129595e-05
-6.741855861052846e-05   1.1864604140645815e-05   0.0001256037133974177
-6.741855861052846e-05   1.1864604140645815e-05   0.0001256037133974177
-6.741855861052846e-05   1.1864604140645815e-05   0.0001256037133974177
-6.741855861052846e-05   1.1864604140645815e-05   0.0001256037133974177
-0.0001072268632300085   3.9449369882510466e-05   0.00018671089089594695
-0.0001072268632300085   3.9449369882510466e-05   0.00018671089089594695
-0.0001072268632300085   3.9449369882510466e-05   0.00018671089089594695
-0.0001072268632300085   3.9449369882510466e-05   0.00018671089089594695
-0.00020601472572189103   3.508231109427412e-05   1.9444218136535282e-05
-0.00020601472572189103   3.508231109427412e-05   1.9444218136535282e-05
-0.00020601472572189103   3.508231109427412e-05   1.9444218136535282e-05
-0.00020601472572189103   3.508231109427412e-05   1.9444218136535282e-05
-0.00021076176553343207   3.687964078725667e-05   0.00018545532410229291
-0.00021076176553343207   3.687964078725667e-05   0.00018545532410229291
-0.00021076176553343207   3.687964078725667e-05   0.00018545532410229291
-0.00021076176553343207   3.687964078725667e-05   0.00018545532410229291
-0.00011164115197035763   3.2157613424203466e-05   2.3087517915001228e-05
-0.00011164115197035763   3.2157613424203466e-05   2.3087517915001228e-05
-0.00011164115197035763   3.2157613424203466e-05   2.3087517915001228e-05
-0.00011164115197035763   3.2157613424203466e-05   2.3087517915001228e-05
-0.00015838868879939076   3.543590638925738e-05   9.90331035176917e-05
-0.00015838868879939076   3.543590638925738e-05   9.90331035176917e-05
-0.00015838868879939076   3.543590638925738e-05   9.90331035176917e-05
-0.00015838868879939076   3.543590638925738e-05   9.90331035176917e-05
-0.00011164115197035752   3.687964078725667e-05   0.00018828854052012605
-0.00011164115197035752   3.687964078725667e-05   0.00018828854052012605
-0.00011164115197035752   3.687964078725667e-05   0.00018828854052012605
-0.00011164115197035752   3.687964078725667e-05   0.00018828854052012605
-0.00021076176553343207   3.2157613424203466e-05   2.025430149716831e-05
-0.00021076176553343207   3.2157613424203466e-05   2.025430149716831e-05
-0.00021076176553343207   3.2157613424203466e-05   2.025430149716831e-05
-0.00021076176553343207   3.2157613424203466e-05   2.025430149716831e-05
-0.00021599208486368458   3.452028320855005e-05   0.0001923963820928097
-0.00021599208486368458   3.452028320855005e-05   0.0001923963820928097
-0.00021599208486368458   3.452028320855005e-05   0.0001923963820928097
-0.00021599208486368458   3.452028320855005e-05   0.0001923963820928097
-0.00011616748742287032   2.9441537918895033e-05   2.906930019857916e-05
-0.00011616748742287032   2.9441537918895033e-05   2.906930019857916e-05
-0.00011616748742287032   2.9441537918895033e-05   2.906930019857916e-05
-0.00011616748742287032   2.9441537918895033e-05   2.906930019857916e-05
-0.0001618155249153364   3.3564570248244274e-05   0.00010267554328841685
-0.0001618155249153364   3.3564570248244274e-05   0.00010267554328841685
-0.0001618155249153364   3.3564570248244274e-05   0.00010267554328841685
-0.0001618155249153364   3.3564570248244274e-05   0.00010267554328841685
-0.00011616748742287021   3.452028320855005e-05   0.00019544362926660324
-0.00011616748742287021   3.452028320855005e-05   0.00019544362926660324
-0.00011616748742287021   3.452028320855005e-05   0.00019544362926660324
-0.00011616748742287021   3.452028320855005e-05   0.00019544362926660324
-0.00021599208486368458   2.9441537918895033e-05   2.6022053024786496e-05
-0.00021599208486368458   2.9441537918895033e-05   2.6022053024786496e-05
-0.00021599208486368458   2.9441537918895033e-05   2.6022053024786496e-05
-0.00021599208486368458   2.9441537918895033e-05   2.6022053024786496e-05
-0.00022077987040637582   3.1647710482462024e-05   0.00019765206237300909
-0.00022077987040637582   3.1647710482462024e-05   0.00019765206237300909
-0.00022077987040637582   3.1647710482462024e-05   0.00019765206237300909
-0.00022077987040637582   3.1647710482462024e-05   0.00019765206237300909
-0.00012069367947109739   2.628693361426092e-05   3.405821026846562e-05
-0.00012069367947109739   2.628693361426092e-05   3.405821026846562e-05
-0.00012069367947109739   2.628693361426092e-05   3.405821026846562e-05
-0.00012069367947109739   2.628693361426092e-05   3.405821026846562e-05
-0.0001672278537865234   3.1463732411687526e-05   0.00010850908818239554
-0.0001672278537865234   3.1463732411687526e-05   0.00010850908818239554
-0.0001672278537865234   3.1463732411687526e-05   0.00010850908818239554
-0.0001672278537865234   3.1463732411687526e-05   0.00010850908818239554
-0.00020601472572189103   5.668698503080716e-05   9.01253325690703e-05
-0.00020601472572189103   5.668698503080716e-05   9.01253325690703e-05
-0.00020601472572189103   5.668698503080716e-05   9.01253325690703e-05
-0.00020601472572189103   5.668698503080716e-05   9.01253325690703e-05
-0.00029960566981166   4.823024247740601e-05   -7.093361977925225e-05
-0.00029960566981166   4.823024247740601e-05   -7.093361977925225e-05
-0.00029960566981166   4.823024247740601e-05   -7.093361977925225e-05
-0.00029960566981166   4.823024247740601e-05   -7.093361977925225e-05
-0.00030812614514038206   5.725251616208252e-05   0.00011950106512369045
-0.00030812614514038206   5.725251616208252e-05   0.00011950106512369045
-0.00030812614514038206   5.725251616208252e-05   0.00011950106512369045
-0.00030812614514038206   5.725251616208252e-05   0.00011950106512369045
-0.00021076176553343207   4.7954067634189274e-05   -3.7193831771157194e-05
-0.00021076176553343207   4.7954067634189274e-05   -3.7193831771157194e-05
-0.00021076176553343207   4.7954067634189274e-05   -3.7193831771157194e-05
-0.00021076176553343207   4.7954067634189274e-05   -3.7193831771157194e-05
-0.0002463877698911862   5.1775456780988466e-05   1.9890008670353336e-05
-0.0002463877698911862   5.1775456780988466e-05   1.9890008670353336e-05
-0.0002463877698911862   5.1775456780988466e-05   1.9890008670353336e-05
-0.0002463877698911862   5.1775456780988466e-05   1.9890008670353336e-05
-0.00021076176553343185   5.725251616208252e-05   0.00012508013424042744
-0.00021076176553343185   5.725251616208252e-05   0.00012508013424042744
-0.00021076176553343185   5.725251616208252e-05   0.00012508013424042744
-0.00021076176553343185   5.725251616208252e-05   0.00012508013424042744
-0.00030812614514038206   4.7954067634189274e-05   -4.2772900887893314e-05
-0.00030812614514038206   4.7954067634189274e-05   -4.2772900887893314e-05
-0.00030812614514038206   4.7954067634189274e-05   -4.2772900887893314e-05
-0.00030812614514038206   4.7954067634189274e-05   -4.2772900887893314e-05
-0.0003157650418772731   5.661236751976738e-05   0.00014333685177009975
-0.0003157650418772731   5.661236751976738e-05   0.00014333685177009975
-0.0003157650418772731   5.661236751976738e-05   0.00014333685177009975
-0.0003157650418772731   5.661236751976738e-05   0.00014333685177009975
-0.00021599208486368458   4.696521240263665e-05   -1.7163116848938672e-05
-0.00021599208486368458   4.696521240263665e-05   -1.7163116848938672e-05
-0.00021599208486368458   4.696521240263665e-05   -1.7163116848938672e-05
-0.00021599208486368458   4.696521240263665e-05   -1.7163116848938672e-05
-0.0002561311244208374   5.2334486214226233e-05   4.6513718126037565e-05
-0.0002561311244208374   5.2334486214226233e-05   4.6513718126037565e-05
-0.0002561311244208374   5.2334486214226233e-05   4.6513718126037565e-05
-0.0002561311244208374   5.2334486214226233e-05   4.6513718126037565e-05
-0.00021599208486368458   5.6612367519765644e-05   0.00014912514484037923
-0.00021599208486368458   5.6612367519765644e-05   0.00014912514484037923
-0.00021599208486368458   5.6612367519765644e-05   0.00014912514484037923
-0.00021599208486368458   5.6612367519765644e-05   0.00014912514484037923
-0.00031576504187727375   4.696521240263665e-05   -2.2951409919216414e-05
-0.00031576504187727375   4.696521240263665e-05   -2.2951409919216414e-05
-0.00031576504187727375   4.696521240263665e-05   -2.2951409919216414e-05
-0.00031576504187727375   4.696521240263665e-05   -2.2951409919216414e-05
-0.000324552165086429   5.2221649626803604e-05   0.00018439490681433288
-0.000324552165086429   5.2221649626803604e-05   0.00018439490681433288
-0.000324552165086429   5.2221649626803604e-05   0.00018439490681433288
-0.000324552165086429   5.2221649626803604e-05   0.00018439490681433288
-0.00022077987040637582   4.263116217950898e-05   1.719537481595021e-05
-0.00022077987040637582   4.263116217950898e-05   1.719537481595021e-05
-0.00022077987040637582   4.263116217950898e-05   1.719537481595021e-05
-0.00022077987040637582   4.263116217950898e-05   1.719537481595021e-05
-0.000258295787598319   5.054087306064631e-05   7.497607694051216e-05
-0.000258295787598319   5.054087306064631e-05   7.497607694051216e-05
-0.000258295787598319   5.054087306064631e-05   7.497607694051216e-05
-0.000258295787598319   5.054087306064631e-05   7.497607694051216e-05
0.00014127775004755036   -1.832842487877427e-05   0.00014251881599313277
0.00014127775004755036   -1.832842487877427e-05   0.00014251881599313277
0.00014127775004755036   -1.832842487877427e-05   0.00014251881599313277
0.00014127775004755036   -1.832842487877427e-05   0.00014251881599313277
5.8570412466433055e-05   -8.892571179265271e-06   1.0334765577641077e-05
5.8570412466433055e-05   -8.892571179265271e-06   1.0334765577641077e-05
5.8570412466433055e-05   -8.892571179265271e-06   1.0334765577641077e-05
5.8570412466433055e-05   -8.892571179265271e-06   1.0334765577641077e-05
5.481898410322498e-05   -2.2284702447132598e-05   0.0001282317698756575
5.481898410322498e-05   -2.2284702447132598e-05   0.0001282317698756575
5.481898410322498e-05   -2.2284702447132598e-05   0.0001282317698756575
5.481898410322498e-05   -2.2284702447132598e-05   0.0001282317698756575
0.0001333059020333288   -1.2418109280758205e-05   -8.499715907672799e-06
0.0001333059020333288   -1.2418109280758205e-05   -8.499715907672799e-06
0.0001333059020333288   -1.2418109280758205e-05   -8.499715907672799e-06
0.0001333059020333288   -1.2418109280758205e-05   -8.499715907672799e-06
9.216174002185465e-05   -1.586069361213943e-05   6.213943804361577e-05
9.216174002185465e-05   -1.586069361213943e-05   6.213943804361577e-05
9.216174002185465e-05   -1.586069361213943e-05   6.213943804361577e-05
9.216174002185465e-05   -1.586069361213943e-05   6.213943804361577e-05
0.00013330590203332907   -2.2284702447132598e-05   0.00012231181397583373
0.00013330590203332907   -2.2284702447132598e-05   0.00012231181397583373
0.00013330590203332907   -2.2284702447132598e-05   0.00012231181397583373
0.00013330590203332907   -2.2284702447132598e-05   0.00012231181397583373
5.481898410322476e-05   -1.2418109280758205e-05   -2.579760007848271e-06
5.481898410322476e-05   -1.2418109280758205e-05   -2.579760007848271e-06
5.481898410322476e-05   -1.2418109280758205e-05   -2.579760007848271e-06
5.481898410322476e-05   -1.2418109280758205e-05   -2.579760007848271e-06
5.061233481572309e-05   -2.334743631139495e-05   0.00011760924522687122
5.061233481572309e-05   -2.334743631139495e-05   0.00011760924522687122
5.061233481572309e-05   -2.334743631139495e-05   0.00011760924522687122
5.061233481572309e-05   -2.334743631139495e-05   0.00011760924522687122
0.0001264695404050609   -1.3638928030388492e-05   -1.4644535723962334e-05
0.0001264695404050609   -1.3638928030388492e-05   -1.4644535723962334e-05
0.0001264695404050609   -1.3638928030388492e-05   -1.4644535723962334e-05
0.0001264695404050609   -1.3638928030388492e-05   -1.4644535723962334e-05
8.85818423968232e-05   -1.7353554370887203e-05   5.073040342740189e-05
8.85818423968232e-05   -1.7353554370887203e-05   5.073040342740189e-05
8.85818423968232e-05   -1.7353554370887203e-05   5.073040342740189e-05
8.85818423968232e-05   -1.7353554370887203e-05   5.073040342740189e-05
0.00012646954040506113   -2.334743631139495e-05   0.00011178414025826613
0.00012646954040506113   -2.334743631139495e-05   0.00011178414025826613
0.00012646954040506113   -2.334743631139495e-05   0.00011178414025826613
0.00012646954040506113   -2.334743631139495e-05   0.00011178414025826613
5.061233481572301e-05   -1.3638928030388492e-05   -8.819430755357786e-06
5.061233481572301e-05   -1.3638928030388492e-05   -8.819430755357786e-06
5.061233481572301e-05   -1.3638928030388492e-05   -8.819430755357786e-06
5.061233481572301e-05   -1.3638928030388492e-05   -8.819430755357786e-06
4.6844364731916884e-05   -2.4367615347110905e-05   0.00010386868102293771
4.6844364731916884e-05   -2.4367615347110905e-05   0.00010386868102293771
4.6844364731916884e-05   -2.4367615347110905e-05   0.00010386868102293771
4.6844364731916884e-05   -2.4367615347110905e-05   0.00010386868102293771
0.00011872743448450637   -1.5275750418628636e-05   -2.1391554188466113e-05
0.00011872743448450637   -1.5275750418628636e-05   -2.1391554188466113e-05
0.00011872743448450637   -1.5275750418628636e-05   -2.1391554188466113e-05
0.00011872743448450637   -1.5275750418628636e-05   -2.1391554188466113e-05
8.205187207325092e-05   -1.7661851594141104e-05   4.116604386893505e-05
8.205187207325092e-05   -1.7661851594141104e-05   4.116604386893505e-05
8.205187207325092e-05   -1.7661851594141104e-05   4.116604386893505e-05
8.205187207325092e-05   -1.7661851594141104e-05   4.116604386893505e-05
5.8570412466433245e-05   -3.810453128201552e-08   0.00017685992498537965
5.8570412466433245e-05   -3.810453128201552e-08   0.00017685992498537965
5.8570412466433245e-05   -3.810453128201552e-08   0.00017685992498537965
5.8570412466433245e-05   -3.810453128201552e-08   0.00017685992498537965
-1.910381237416644e-05   4.732618832818669e-06   5.026531760284059e-05
-1.910381237416644e-05   4.732618832818669e-06   5.026531760284059e-05
-1.910381237416644e-05   4.732618832818669e-06   5.026531760284059e-05
-1.910381237416644e-05   4.732618832818669e-06   5.026531760284059e-05
-2.254790226182519e-05   -3.4896112914954702e-06   0.00017722361775369434
-2.254790226182519e-05   -3.4896112914954702e-06   0.00017722361775369434
-2.254790226182519e-05   -3.4896112914954702e-06   0.00017722361775369434
-2.254790226182519e-05   -3.4896112914954702e-06   0.00017722361775369434
5.481898410322476e-05   1.1508305574545186e-06   4.549454203590773e-05
5.481898410322476e-05   1.1508305574545186e-06   4.549454203590773e-05
5.481898410322476e-05   1.1508305574545186e-06   4.549454203590773e-05
5.481898410322476e-05   1.1508305574545186e-06   4.549454203590773e-05
1.7383023847607963e-05   2.8430621414575474e-07   0.00010840772373459193
1.7383023847607963e-05   2.8430621414575474e-07   0.00010840772373459193
1.7383023847607963e-05   2.8430621414575474e-07   0.00010840772373459193
1.7383023847607963e-05   2.8430621414575474e-07   0.00010840772373459193
5.48189841032249e-05   -3.4896112914954702e-06   0.0001744393526443254
5.48189841032249e-05   -3.4896112914954702e-06   0.0001744393526443254
5.48189841032249e-05   -3.4896112914954702e-06   0.0001744393526443254
5.48189841032249e-05   -3.4896112914954702e-06   0.0001744393526443254
-2.2547902261825297e-05   1.1508305574545186e-06   4.8278807145278255e-05
-2.2547902261825297e-05   1.1508305574545186e-06   4.8278807145278255e-05
-2.2547902261825297e-05   1.1508305574545186e-06   4.8278807145278255e-05
-2.2547902261825297e-05   1.1508305574545186e-06   4.8278807145278255e-05
-2.6067708736397972e-05   -6.220123891190199e-06   0.0001751580383644027
-2.6067708736397972e-05   -6.220123891190199e-06   0.0001751580383644027
-2.6067708736397972e-05   -6.220123891190199e-06   0.0001751580383644027
-2.6067708736397972e-05   -6.220123891190199e-06   0.0001751580383644027
5.061233481572301e-05   -1.7894730812272747e-06   4.469957529155955e-05
5.061233481572301e-05   -1.7894730812272747e-06   4.469957529155955e-05
5.061233481572301e-05   -1.7894730812272747e-06   4.469957529155955e-05
5.061233481572301e-05   -1.7894730812272747e-06   4.469957529155955e-05
1.3603207620577752e-05   -2.1103237611737324e-06   0.00010657396435810715
1.3603207620577752e-05   -2.1103237611737324e-06   0.00010657396435810715
1.3603207620577752e-05   -2.1103237611737324e-06   0.00010657396435810715
1.3603207620577752e-05   -2.1103237611737324e-06   0.00010657396435810715
5.061233481572317e-05   -6.220123891190199e-06   0.0001724996478784267
5.061233481572317e-05   -6.220123891190199e-06   0.0001724996478784267
5.061233481572317e-05   -6.220123891190199e-06   0.0001724996478784267
5.061233481572317e-05   -6.220123891190199e-06   0.0001724996478784267
-2.606770873639808e-05   -1.7894730812272747e-06   4.7357965777535677e-05
-2.606770873639808e-05   -1.7894730812272747e-06   4.7357965777535677e-05
-2.606770873639808e-05   -1.7894730812272747e-06   4.7357965777535677e-05
-2.606770873639808e-05   -1.7894730812272747e-06   4.7357965777535677e-05
-2.9556783299428385e-05   -8.761191899141901e-06   0.00017680710182163464
-2.9556783299428385e-05   -8.761191899141901e-06   0.00017680710182163464
-2.9556783299428385e-05   -8.761191899141901e-06   0.00017680710182163464
-2.9556783299428385e-05   -8.761191899141901e-06   0.00017680710182163464
4.684436473191667e-05   -4.698989607679685e-06   4.703453372784916e-05
4.684436473191667e-05   -4.698989607679685e-06   4.703453372784916e-05
4.684436473191667e-05   -4.698989607679685e-06   4.703453372784916e-05
4.684436473191667e-05   -4.698989607679685e-06   4.703453372784916e-05
1.0605904294587993e-05   -4.118136654828949e-06   0.00010708345601835275
1.0605904294587993e-05   -4.118136654828949e-06   0.00010708345601835275
1.0605904294587993e-05   -4.118136654828949e-06   0.00010708345601835275
1.0605904294587993e-05   -4.118136654828949e-06   0.00010708345601835275
-1.9103812374166333e-05   1.7867216393172014e-05   0.0001920570931825535
-1.9103812374166333e-05   1.7867216393172014e-05   0.0001920570931825535
-1.9103812374166333e-05   1.7867216393172014e-05   0.0001920570931825535
-1.9103812374166333e-05   1.7867216393172014e-05   0.0001920570931825535
-9.552226223187663e-05   1.7550699633930508e-05   6.450310003082525e-05
-9.552226223187663e-05   1.7550699633930508e-05   6.450310003082525e-05
-9.552226223187663e-05   1.7550699633930508e-05   6.450310003082525e-05
-9.552226223187663e-05   1.7550699633930508e-05   6.450310003082525e-05
-9.891680751869785e-05   1.482337611759428e-05   0.00019080104639572666
-9.891680751869785e-05   1.482337611759428e-05   0.00019080104639572666
-9.891680751869785e-05   1.482337611759428e-05   0.00019080104639572666
-9.891680751869785e-05   1.482337611759428e-05   0.00019080104639572666
-2.254790226182519e-05   1.4285422744163626e-05   6.384230965833038e-05
-2.254790226182519e-05   1.4285422744163626e-05   6.384230965833038e-05
-2.254790226182519e-05   1.4285422744163626e-05   6.384230965833038e-05
-2.254790226182519e-05   1.4285422744163626e-05   6.384230965833038e-05
-5.916890125491495e-05   1.5739122012152842e-05   0.00012400508841935772
-5.916890125491495e-05   1.5739122012152842e-05   0.00012400508841935772
-5.916890125491495e-05   1.5739122012152842e-05   0.00012400508841935772
-5.916890125491495e-05   1.5739122012152842e-05   0.00012400508841935772
-2.254790226182519e-05   1.482337611759428e-05   0.00019112381841978558
-2.254790226182519e-05   1.482337611759428e-05   0.00019112381841978558
-2.254790226182519e-05   1.482337611759428e-05   0.00019112381841978558
-2.254790226182519e-05   1.482337611759428e-05   0.00019112381841978558
-9.891680751869785e-05   1.4285422744163626e-05   6.351953763427363e-05
-9.891680751869785e-05   1.4285422744163626e-05   6.351953763427363e-05
-9.891680751869785e-05   1.4285422744163626e-05   6.351953763427363e-05
-9.891680751869785e-05   1.4285422744163626e-05   6.351953763427363e-05
-0.00010239435322857574   1.1827328733027623e-05   0.00019180445388993373
-0.00010239435322857574   1.1827328733027623e-05   0.00019180445388993373
-0.00010239435322857574   1.1827328733027623e-05   0.00019180445388993373
-0.00010239435322857574   1.1827328733027623e-05   0.00019180445388993373
-2.6067708736397972e-05   1.1057268825139313e-05   6.505541568103805e-05
-2.6067708736397972e-05   1.1057268825139313e-05   6.505541568103805e-05
-2.6067708736397972e-05   1.1057268825139313e-05   6.505541568103805e-05
-2.6067708736397972e-05   1.1057268825139313e-05   6.505541568103805e-05
-6.228108256678454e-05   1.336464537706264e-05   0.00012402661280053098
-6.228108256678454e-05   1.336464537706264e-05   0.00012402661280053098
-6.228108256678454e-05   1.336464537706264e-05   0.00012402661280053098
-6.228108256678454e-05   1.336464537706264e-05   0.00012402661280053098
-2.6067708736397972e-05   1.1827328733027623e-05   0.00019226648983466758
-2.6067708736397972e-05   1.1827328733027623e-05   0.00019226648983466758
-2.6067708736397972e-05   1.1827328733027623e-05   0.00019226648983466758
-2.6067708736397972e-05   1.1827328733027623e-05   0.00019226648983466758
-0.00010239435322857574   1.1057268825141048e-05   6.459337973630571e-05
-0.00010239435322857574   1.1057268825141048e-05   6.459337973630571e-05
-0.00010239435322857574   1.1057268825141048e-05   6.459337973630571e-05
-0.00010239435322857574   1.1057268825141048e-05   6.459337973630571e-05
-0.00010583277217296851   8.983475640446034e-06   0.0001944190809489597
-0.00010583277217296851   8.983475640446034e-06   0.0001944190809489597
-0.00010583277217296851   8.983475640446034e-06   0.0001944190809489597
-0.00010583277217296851   8.983475640446034e-06   0.0001944190809489597
-2.9556783299428385e-05   7.947905041891593e-06   6.791377518552662e-05
-2.9556783299428385e-05   7.947905041891593e-06   6.791377518552662e-05
-2.9556783299428385e-05   7.947905041891593e-06   6.791377518552662e-05
-2.9556783299428385e-05   7.947905041891593e-06   6.791377518552662e-05
-6.553465091338375e-05   1.1044812722814379e-05   0.00012601874326689626
-6.553465091338375e-05   1.1044812722814379e-05   0.00012601874326689626
-6.553465091338375e-05   1.1044812722814379e-05   0.00012601874326689626
-6.553465091338375e-05   1.1044812722814379e-05   0.00012601874326689626
-9.552226223187663e-05   3.508231109427412e-05   0.00016974702406125693
-9.552226223187663e-05   3.508231109427412e-05   0.00016974702406125693
-9.552226223187663e-05   3.508231109427412e-05   0.00016974702406125693
-9.552226223187663e-05   3.508231109427412e-05   0.00016974702406125693
-0.00017058566983845684   3.0012499378425164e-05   4.1599457687447206e-05
-0.00017058566983845684   3.0012499378425164e-05   4.1599457687447206e-05
-0.00017058566983845684   3.0012499378425164e-05   4.1599457687447206e-05
-0.00017058566983845684   3.0012499378425164e-05   4.1599457687447206e-05
-0.00017422292348844254   3.2157613424203466e-05   0.00016746826821088974
-0.00017422292348844254   3.2157613424203466e-05   0.00016746826821088974
-0.00017422292348844254   3.2157613424203466e-05   0.00016746826821088974
-0.00017422292348844254   3.2157613424203466e-05   0.00016746826821088974
-9.891680751869742e-05   2.681524069674847e-05   4.5163498564457054e-05
-9.891680751869742e-05   2.681524069674847e-05   4.5163498564457054e-05
-9.891680751869742e-05   2.681524069674847e-05   4.5163498564457054e-05
-9.891680751869742e-05   2.681524069674847e-05   4.5163498564457054e-05
-0.00013443334281342575   3.050086003189914e-05   0.00010214635245458202
-0.00013443334281342575   3.050086003189914e-05   0.00010214635245458202
-0.00013443334281342575   3.050086003189914e-05   0.00010214635245458202
-0.00013443334281342575   3.050086003189914e-05   0.00010214635245458202
-9.891680751869785e-05   3.215761342420173e-05   0.00017067369184736465
-9.891680751869785e-05   3.215761342420173e-05   0.00017067369184736465
-9.891680751869785e-05   3.215761342420173e-05   0.00017067369184736465
-9.891680751869785e-05   3.215761342420173e-05   0.00017067369184736465
-0.00017422292348844189   2.681524069674847e-05   4.1958074927983015e-05
-0.00017422292348844189   2.681524069674847e-05   4.1958074927983015e-05
-0.00017422292348844189   2.681524069674847e-05   4.1958074927983015e-05
-0.00017422292348844189   2.681524069674847e-05   4.1958074927983015e-05
-0.00017832009080325883   2.9441537918895033e-05   0.0001731945589528083
-0.00017832009080325883   2.9441537918895033e-05   0.0001731945589528083
-0.00017832009080325883   2.9441537918895033e-05   0.0001731945589528083
-0.00017832009080325883   2.9441537918895033e-05   0.0001731945589528083
-0.0001023943532285753   2.3864768468741943e-05   4.999772466509527e-05
-0.0001023943532285753   2.3864768468741943e-05   4.999772466509527e-05
-0.0001023943532285753   2.3864768468741943e-05   4.999772466509527e-05
-0.0001023943532285753   2.3864768468741943e-05   4.999772466509527e-05
-0.0001369693475981635   2.8319460584938852e-05   0.00010494990001136059
-0.0001369693475981635   2.8319460584938852e-05   0.00010494990001136059
-0.0001369693475981635   2.8319460584938852e-05   0.00010494990001136059
-0.0001369693475981635   2.8319460584938852e-05   0.00010494990001136059
-0.00010239435322857552   2.9441537918895033e-05   0.00017654062062289876
-0.00010239435322857552   2.9441537918895033e-05   0.00017654062062289876
-0.00010239435322857552   2.9441537918895033e-05   0.00017654062062289876
-0.00010239435322857552   2.9441537918895033e-05   0.00017654062062289876
-0.00017832009080325862   2.3864768468743677e-05   4.6651662995003933e-05
-0.00017832009080325862   2.3864768468743677e-05   4.6651662995003933e-05
-0.00017832009080325862   2.3864768468743677e-05   4.6651662995003933e-05
-0.00017832009080325862   2.3864768468743677e-05   4.6651662995003933e-05
-0.0001819687508474799   2.628693361426092e-05   0.00017805916391210388
-0.0001819687508474799   2.628693361426092e-05   0.00017805916391210388
-0.0001819687508474799   2.628693361426092e-05   0.00017805916391210388
-0.0001819687508474799   2.628693361426092e-05   0.00017805916391210388
-0.00010583277217296829   2.0574356000294114e-05   5.459341268963238e-05
-0.00010583277217296829   2.0574356000294114e-05   5.459341268963238e-05
-0.00010583277217296829   2.0574356000294114e-05   5.459341268963238e-05
-0.00010583277217296829   2.0574356000294114e-05   5.459341268963238e-05
-0.0001410665236571602   2.6032387449618014e-05   0.00011004151296036034
-0.0001410665236571602   2.6032387449618014e-05   0.00011004151296036034
-0.0001410665236571602   2.6032387449618014e-05   0.00011004151296036034
-0.0001410665236571602   2.6032387449618014e-05   0.00011004151296036034
-0.00017058566983845684   4.823024247740601e-05   8.140134464800115e-05
-0.00017058566983845684   4.823024247740601e-05   8.140134464800115e-05
-0.00017058566983845684   4.823024247740601e-05   8.140134464800115e-05
-0.00017058566983845684   4.823024247740601e-05   8.140134464800115e-05
-0.0002407567040163235   3.925101841119501e-05   -4.0937913421501635e-05
-0.0002407567040163235   3.925101841119501e-05   -4.0937913421501635e-05
-0.0002407567040163235   3.925101841119501e-05   -4.0937913421501635e-05
-0.0002407567040163235   3.925101841119501e-05   -4.0937913421501635e-05
-0.0002483463079013368   4.7954067634189274e-05   0.00010417062628949314
-0.0002483463079013368   4.7954067634189274e-05   0.00010417062628949314
-0.0002483463079013368   4.7954067634189274e-05   0.00010417062628949314
-0.0002483463079013368   4.7954067634189274e-05   0.00010417062628949314
-0.00017422292348844167   3.8204886545739614e-05   -1.351883907892799e-05
-0.00017422292348844167   3.8204886545739614e-05   -1.351883907892799e-05
-0.00017422292348844167   3.8204886545739614e-05   -1.351883907892799e-05
-0.00017422292348844167   3.8204886545739614e-05   -1.351883907892799e-05
-0.00020067004108853754   4.263336814215937e-05   2.79026012967175e-05
-0.00020067004108853754   4.263336814215937e-05   2.79026012967175e-05
-0.00020067004108853754   4.263336814215937e-05   2.79026012967175e-05
-0.00020067004108853754   4.263336814215937e-05   2.79026012967175e-05
-0.00017422292348844232   4.7954067634189274e-05   0.00011002013494256467
-0.00017422292348844232   4.7954067634189274e-05   0.00011002013494256467
-0.00017422292348844232   4.7954067634189274e-05   0.00011002013494256467
-0.00017422292348844232   4.7954067634189274e-05   0.00011002013494256467
-0.00024834630790133766   3.8204886545739614e-05   -1.9368347731997353e-05
-0.00024834630790133766   3.8204886545739614e-05   -1.9368347731997353e-05
-0.00024834630790133766   3.8204886545739614e-05   -1.9368347731997353e-05
-0.00024834630790133766   3.8204886545739614e-05   -1.9368347731997353e-05
-0.00025497834969744906   4.696521240263665e-05   0.0001240037764412387
-0.00025497834969744906   4.696521240263665e-05   0.0001240037764412387
-0.00025497834969744906   4.696521240263665e-05   0.0001240037764412387
-0.00025497834969744906   4.696521240263665e-05   0.0001240037764412387
-0.0001783200908032584   3.695585800623201e-05   2.2456242554339152e-06
-0.0001783200908032584   3.695585800623201e-05   2.2456242554339152e-06
-0.0001783200908032584   3.695585800623201e-05   2.2456242554339152e-06
-0.0001783200908032584   3.695585800623201e-05   2.2456242554339152e-06
-0.00020867264601174976   4.264603409732774e-05   4.941911061493538e-05
-0.00020867264601174976   4.264603409732774e-05   4.941911061493538e-05
-0.00020867264601174976   4.264603409732774e-05   4.941911061493538e-05
-0.00020867264601174976   4.264603409732774e-05   4.941911061493538e-05
-0.00017832009080325883   4.696521240263665e-05   0.00013000938907908443
-0.00017832009080325883   4.696521240263665e-05   0.00013000938907908443
-0.00017832009080325883   4.696521240263665e-05   0.00013000938907908443
-0.00017832009080325883   4.696521240263665e-05   0.00013000938907908443
-0.00025497834969744906   3.695585800623201e-05   -3.759988382410085e-06
-0.00025497834969744906   3.695585800623201e-05   -3.759988382410085e-06
-0.00025497834969744906   3.695585800623201e-05   -3.759988382410085e-06
-0.00025497834969744906   3.695585800623201e-05   -3.759988382410085e-06
-0.00026268044147238203   4.263116217950898e-05   0.00015850663965471905
-0.00026268044147238203   4.263116217950898e-05   0.00015850663965471905
-0.00026268044147238203   4.263116217950898e-05   0.00015850663965471905
-0.00026268044147238203   4.263116217950898e-05   0.00015850663965471905
-0.00018196875084747926   3.2787570636527014e-05   2.9893310205670633e-05
-0.00018196875084747926   3.2787570636527014e-05   2.9893310205670633e-05
-0.00018196875084747926   3.2787570636527014e-05   2.9893310205670633e-05
-0.00018196875084747926   3.2787570636527014e-05   2.9893310205670633e-05
-0.00021052359759431507   4.083292792769755e-05   7.265750707569421e-05
-0.00021052359759431507   4.083292792769755e-05   7.265750707569421e-05
-0.00021052359759431507   4.083292792769755e-05   7.265750707569421e-05
-0.00021052359759431507   4.083292792769755e-05   7.265750707569421e-05
7.756704969405943e-05   -8.892571179265271e-06   0.00011163109554009672
7.756704969405943e-05   -8.892571179265271e-06   0.00011163109554009672
7.756704969405943e-05   -8.892571179265271e-06   0.00011163109554009672
7.756704969405943e-05   -8.892571179265271e-06   0.00011163109554009672
1.9936333715395074e-05   4.0657012893331734e-07   2.1159387027244216e-05
1.9936333715395074e-05   4.0657012893331734e-07   2.1159387027244216e-05
1.9936333715395074e-05   4.0657012893331734e-07   2.1159387027244216e-05
1.9936333715395074e-05   4.0657012893331734e-07   2.1159387027244216e-05
1.714462210456018e-05   -1.2418109280758205e-05   0.00010419959689551318
1.714462210456018e-05   -1.2418109280758205e-05   0.00010419959689551318
1.714462210456018e-05   -1.2418109280758205e-05   0.00010419959689551318
1.714462210456018e-05   -1.2418109280758205e-05   0.00010419959689551318
7.067671994201007e-05   -2.743956449778248e-06   9.174942134510845e-06
7.067671994201007e-05   -2.743956449778248e-06   9.174942134510845e-06
7.067671994201007e-05   -2.743956449778248e-06   9.174942134510845e-06
7.067671994201007e-05   -2.743956449778248e-06   9.174942134510845e-06
4.3579418671283396e-05   -6.358207911527983e-06   5.6505661796108734e-05
4.3579418671283396e-05   -6.358207911527983e-06   5.6505661796108734e-05
4.3579418671283396e-05   -6.358207911527983e-06   5.6505661796108734e-05
4.3579418671283396e-05   -6.358207911527983e-06   5.6505661796108734e-05
7.067671994201018e-05   -1.2418109280758205e-05   9.839510519692608e-05
7.067671994201018e-05   -1.2418109280758205e-05   9.839510519692608e-05
7.067671994201018e-05   -1.2418109280758205e-05   9.839510519692608e-05
7.067671994201018e-05   -1.2418109280758205e-05   9.839510519692608e-05
1.7144622104560165e-05   -2.743956449778248e-06   1.497943383309882e-05
1.7144622104560165e-05   -2.743956449778248e-06   1.497943383309882e-05
1.7144622104560165e-05   -2.743956449778248e-06   1.497943383309882e-05
1.7144622104560165e-05   -2.743956449778248e-06   1.497943383309882e-05
1.3897667682121606e-05   -1.3638928030388492e-05   9.787569209719887e-05
1.3897667682121606e-05   -1.3638928030388492e-05   9.787569209719887e-05
1.3897667682121606e-05   -1.3638928030388492e-05   9.787569209719887e-05
1.3897667682121606e-05   -1.3638928030388492e-05   9.787569209719887e-05
6.485032705379505e-05   -4.112564267928949e-06   7.238774886934255e-06
6.485032705379505e-05   -4.112564267928949e-06   7.238774886934255e-06
6.485032705379505e-05   -4.112564267928949e-06   7.238774886934255e-06
6.485032705379505e-05   -4.112564267928949e-06   7.238774886934255e-06
4.0224773954746076e-05   -7.732418857235232e-06   5.0453276138932846e-05
4.0224773954746076e-05   -7.732418857235232e-06   5.0453276138932846e-05
4.0224773954746076e-05   -7.732418857235232e-06   5.0453276138932846e-05
4.0224773954746076e-05   -7.732418857235232e-06   5.0453276138932846e-05
6.485032705379516e-05   -1.3638928030388492e-05   9.215987383972158e-05
6.485032705379516e-05   -1.3638928030388492e-05   9.215987383972158e-05
6.485032705379516e-05   -1.3638928030388492e-05   9.215987383972158e-05
6.485032705379516e-05   -1.3638928030388492e-05   9.215987383972158e-05
1.3897667682121552e-05   -4.112564267928949e-06   1.2954593144409374e-05
1.3897667682121552e-05   -4.112564267928949e-06   1.2954593144409374e-05
1.3897667682121552e-05   -4.112564267928949e-06   1.2954593144409374e-05
1.3897667682121552e-05   -4.112564267928949e-06   1.2954593144409374e-05
1.1087879038698396e-05   -1.527575041863037e-05   9.062992541021726e-05
1.1087879038698396e-05   -1.527575041863037e-05   9.062992541021726e-05
1.1087879038698396e-05   -1.527575041863037e-05   9.062992541021726e-05
1.1087879038698396e-05   -1.527575041863037e-05   9.062992541021726e-05
5.8038491199312726e-05   -6.411630104634705e-06   7.060432954131561e-06
5.8038491199312726e-05   -6.411630104634705e-06   7.060432954131561e-06
5.8038491199312726e-05   -6.411630104634705e-06   7.060432954131561e-06
5.8038491199312726e-05   -6.411630104634705e-06   7.060432954131561e-06
3.535109046938286e-05   -8.460039091138377e-06   4.610181289591773e-05
3.535109046938286e-05   -8.460039091138377e-06   4.610181289591773e-05
3.535109046938286e-05   -8.460039091138377e-06   4.610181289591773e-05
3.535109046938286e-05   -8.460039091138377e-06   4.610181289591773e-05
1.9936333715395087e-05   4.732618832818669e-06   0.00015427869833175602
1.9936333715395087e-05   4.732618832818669e-06   0.00015427869833175602
1.9936333715395087e-05   4.732618832818669e-06   0.00015427869833175602
1.9936333715395087e-05   4.732618832818669e-06   0.00015427869833175602
-3.2626114666603045e-05   8.922313710326563e-06   6.918843462159867e-05
-3.2626114666603045e-05   8.922313710326563e-06   6.918843462159867e-05
-3.2626114666603045e-05   8.922313710326563e-06   6.918843462159867e-05
-3.2626114666603045e-05   8.922313710326563e-06   6.918843462159867e-05
-3.5074956029664786e-05   1.1508305574545186e-06   0.00015479255383328734
-3.5074956029664786e-05   1.1508305574545186e-06   0.00015479255383328734
-3.5074956029664786e-05   1.1508305574545186e-06   0.00015479255383328734
-3.5074956029664786e-05   1.1508305574545186e-06   0.00015479255383328734
1.7144622104560165e-05   5.348588714149116e-06   6.524126871556291e-05
1.7144622104560165e-05   5.348588714149116e-06   6.524126871556291e-05
1.7144622104560165e-05   5.348588714149116e-06   6.524126871556291e-05
1.7144622104560165e-05   5.348588714149116e-06   6.524126871556291e-05
-8.043873174056155e-06   4.688165437867486e-06   0.00010761834814569725
-8.043873174056155e-06   4.688165437867486e-06   0.00010761834814569725
-8.043873174056155e-06   4.688165437867486e-06   0.00010761834814569725
-8.043873174056155e-06   4.688165437867486e-06   0.00010761834814569725
1.7144622104560165e-05   1.1508305574545186e-06   0.0001522738989392699
1.7144622104560165e-05   1.1508305574545186e-06   0.0001522738989392699
1.7144622104560165e-05   1.1508305574545186e-06   0.0001522738989392699
1.7144622104560165e-05   1.1508305574545186e-06   0.0001522738989392699
-3.5074956029664786e-05   5.348588714149116e-06   6.775992360958001e-05
-3.5074956029664786e-05   5.348588714149116e-06   6.775992360958001e-05
-3.5074956029664786e-05   5.348588714149116e-06   6.775992360958001e-05
-3.5074956029664786e-05   5.348588714149116e-06   6.775992360958001e-05
-3.759379040496483e-05   -1.7894730812272747e-06   0.00015385426091147746
-3.759379040496483e-05   -1.7894730812272747e-06   0.00015385426091147746
-3.759379040496483e-05   -1.7894730812272747e-06   0.00015385426091147746
-3.759379040496483e-05   -1.7894730812272747e-06   0.00015385426091147746
1.3897667682121552e-05   2.3097981977082682e-06   6.557560133230546e-05
1.3897667682121552e-05   2.3097981977082682e-06   6.557560133230546e-05
1.3897667682121552e-05   2.3097981977082682e-06   6.557560133230546e-05
1.3897667682121552e-05   2.3097981977082682e-06   6.557560133230546e-05
-1.0653592806573525e-05   2.189337760428664e-06   0.00010656664507583378
-1.0653592806573525e-05   2.189337760428664e-06   0.00010656664507583378
-1.0653592806573525e-05   2.189337760428664e-06   0.00010656664507583378
-1.0653592806573525e-05   2.189337760428664e-06   0.00010656664507583378
1.3897667682121606e-05   -1.7894730812290094e-06   0.00015139469814411718
1.3897667682121606e-05   -1.7894730812290094e-06   0.00015139469814411718
1.3897667682121606e-05   -1.7894730812290094e-06   0.00015139469814411718
1.3897667682121606e-05   -1.7894730812290094e-06   0.00015139469814411718
-3.759379040496494e-05   2.3097981977082682e-06   6.803516409966803e-05
-3.759379040496494e-05   2.3097981977082682e-06   6.803516409966803e-05
-3.759379040496494e-05   2.3097981977082682e-06   6.803516409966803e-05
-3.759379040496494e-05   2.3097981977082682e-06   6.803516409966803e-05
-4.007331425292171e-05   -4.69898960767795e-06   0.00015593553423539751
-4.007331425292171e-05   -4.69898960767795e-06   0.00015593553423539751
-4.007331425292171e-05   -4.69898960767795e-06   0.00015593553423539751
-4.007331425292171e-05   -4.69898960767795e-06   0.00015593553423539751
1.1087879038698369e-05   -8.079231644201462e-07   6.833223888341066e-05
1.1087879038698369e-05   -8.079231644201462e-07   6.833223888341066e-05
1.1087879038698369e-05   -8.079231644201462e-07   6.833223888341066e-05
1.1087879038698369e-05   -8.079231644201462e-07   6.833223888341066e-05
-1.2870246988571553e-05   -6.457987068199389e-08   0.00010781644295262038
-1.2870246988571553e-05   -6.457987068199389e-08   0.00010781644295262038
-1.2870246988571553e-05   -6.457987068199389e-08   0.00010781644295262038
-1.2870246988571553e-05   -6.457987068199389e-08   0.00010781644295262038
-3.2626114666603045e-05   1.7550699633930508e-05   0.00017122020774178962
-3.2626114666603045e-05   1.7550699633930508e-05   0.00017122020774178962
-3.2626114666603045e-05   1.7550699633930508e-05   0.00017122020774178962
-3.2626114666603045e-05   1.7550699633930508e-05   0.00017122020774178962
-8.433743328640402e-05   1.651252161112473e-05   8.441176989510421e-05
-8.433743328640402e-05   1.651252161112473e-05   8.441176989510421e-05
-8.433743328640402e-05   1.651252161112473e-05   8.441176989510421e-05
-8.433743328640402e-05   1.651252161112473e-05   8.441176989510421e-05
-8.668384002424151e-05   1.428542274416536e-05   0.00016970931293170278
-8.668384002424151e-05   1.428542274416536e-05   0.00016970931293170278
-8.668384002424151e-05   1.428542274416536e-05   0.00016970931293170278
-8.668384002424151e-05   1.428542274416536e-05   0.00016970931293170278
-3.507495602966468e-05   1.3207517053102046e-05   8.434124968871386e-05
-3.507495602966468e-05   1.3207517053102046e-05   8.434124968871386e-05
-3.507495602966468e-05   1.3207517053102046e-05   8.434124968871386e-05
-3.507495602966468e-05   1.3207517053102046e-05   8.434124968871386e-05
-5.978879635348621e-05   1.5030701647494524e-05   0.00012443707280511938
-5.978879635348621e-05   1.5030701647494524e-05   0.00012443707280511938
-5.978879635348621e-05   1.5030701647494524e-05   0.00012443707280511938
-5.978879635348621e-05   1.5030701647494524e-05   0.00012443707280511938
-3.5074956029664786e-05   1.428542274416536e-05   0.00017035605634634077
-3.5074956029664786e-05   1.428542274416536e-05   0.00017035605634634077
-3.5074956029664786e-05   1.428542274416536e-05   0.00017035605634634077
-3.5074956029664786e-05   1.428542274416536e-05   0.00017035605634634077
-8.66838400242413e-05   1.3207517053102913e-05   8.369450627407609e-05
-8.66838400242413e-05   1.3207517053102913e-05   8.369450627407609e-05
-8.66838400242413e-05   1.3207517053102913e-05   8.369450627407609e-05
-8.66838400242413e-05   1.3207517053102913e-05   8.369450627407609e-05
-8.91084286912616e-05   1.1057268825139313e-05   0.00017086882881362474
-8.91084286912616e-05   1.1057268825139313e-05   0.00017086882881362474
-8.91084286912616e-05   1.1057268825139313e-05   0.00017086882881362474
-8.91084286912616e-05   1.1057268825139313e-05   0.00017086882881362474
-3.759379040496472e-05   9.91913215621365e-06   8.569398033781892e-05
-3.759379040496472e-05   9.91913215621365e-06   8.569398033781892e-05
-3.759379040496472e-05   9.91913215621365e-06   8.569398033781892e-05
-3.759379040496472e-05   9.91913215621365e-06   8.569398033781892e-05
-6.188051679969982e-05   1.2512057394158116e-05   0.000124616102519611
-6.188051679969982e-05   1.2512057394158116e-05   0.000124616102519611
-6.188051679969982e-05   1.2512057394158116e-05   0.000124616102519611
-6.188051679969982e-05   1.2512057394158116e-05   0.000124616102519611
-3.759379040496494e-05   1.1057268825139313e-05   0.00017155171081497961
-3.759379040496494e-05   1.1057268825139313e-05   0.00017155171081497961
-3.759379040496494e-05   1.1057268825139313e-05   0.00017155171081497961
-3.759379040496494e-05   1.1057268825139313e-05   0.00017155171081497961
-8.910842869126138e-05   9.91913215621365e-06   8.501109833646426e-05
-8.910842869126138e-05   9.91913215621365e-06   8.501109833646426e-05
-8.910842869126138e-05   9.91913215621365e-06   8.501109833646426e-05
-8.910842869126138e-05   9.91913215621365e-06   8.501109833646426e-05
-9.149600135832658e-05   7.947905041889858e-06   0.00017366933912837165
-9.149600135832658e-05   7.947905041889858e-06   0.00017366933912837165
-9.149600135832658e-05   7.947905041889858e-06   0.00017366933912837165
-9.149600135832658e-05   7.947905041889858e-06   0.00017366933912837165
-4.007331425292171e-05   6.767713058844146e-06   8.867297580919227e-05
-4.007331425292171e-05   6.767713058844146e-06   8.867297580919227e-05
-4.007331425292171e-05   6.767713058844146e-06   8.867297580919227e-05
-4.007331425292171e-05   6.767713058844146e-06   8.867297580919227e-05
-6.41039785310274e-05   1.0042506776292842e-05   0.0001267592067089006
-6.41039785310274e-05   1.0042506776292842e-05   0.0001267592067089006
-6.41039785310274e-05   1.0042506776292842e-05   0.0001267592067089006
-6.41039785310274e-05   1.0042506776292842e-05   0.0001267592067089006
-8.433743328640402e-05   3.0012499378425164e-05   0.00015073554561423775
-8.433743328640402e-05   3.0012499378425164e-05   0.00015073554561423775
-8.433743328640402e-05   3.0012499378425164e-05   0.00015073554561423775
-8.433743328640402e-05   3.0012499378425164e-05   0.00015073554561423775
-0.00013505196098113144   2.4456745333386112e-05   6.287788036266886e-05
-0.00013505196098113144   2.4456745333386112e-05   6.287788036266886e-05
-0.00013505196098113144   2.4456745333386112e-05   6.287788036266886e-05
-0.00013505196098113144   2.4456745333386112e-05   6.287788036266886e-05
-0.00013760590545175812   2.681524069674847e-05   0.00014793548925204174
-0.00013760590545175812   2.681524069674847e-05   0.00014793548925204174
-0.00013760590545175812   2.681524069674847e-05   0.00014793548925204174
-0.00013760590545175812   2.681524069674847e-05   0.00014793548925204174
-8.668384002424108e-05   2.1118933013675525e-05   6.648316481602627e-05
-8.668384002424108e-05   2.1118933013675525e-05   6.648316481602627e-05
-8.668384002424108e-05   2.1118933013675525e-05   6.648316481602627e-05
-8.668384002424108e-05   2.1118933013675525e-05   6.648316481602627e-05
-0.00011065377350392958   2.519744566589939e-05   0.00010398594635751147
-0.00011065377350392958   2.519744566589939e-05   0.00010398594635751147
-0.00011065377350392958   2.519744566589939e-05   0.00010398594635751147
-0.00011065377350392958   2.519744566589939e-05   0.00010398594635751147
-8.668384002424151e-05   2.681524069674847e-05   0.0001513532738618862
-8.668384002424151e-05   2.681524069674847e-05   0.0001513532738618862
-8.668384002424151e-05   2.681524069674847e-05   0.0001513532738618862
-8.668384002424151e-05   2.681524069674847e-05   0.0001513532738618862
-0.00013760590545175812   2.1118933013674658e-05   6.306538020618268e-05
-0.00013760590545175812   2.1118933013674658e-05   6.306538020618268e-05
-0.00013760590545175812   2.1118933013674658e-05   6.306538020618268e-05
-0.00013760590545175812   2.1118933013674658e-05   6.306538020618268e-05
-0.00014063480522073335   2.3864768468743677e-05   0.00015280903906800432
-0.00014063480522073335   2.3864768468743677e-05   0.00015280903906800432
-0.00014063480522073335   2.3864768468743677e-05   0.00015280903906800432
-0.00014063480522073335   2.3864768468743677e-05   0.00015280903906800432
-8.910842869126116e-05   1.8091210678062263e-05   7.039587952662905e-05
-8.910842869126116e-05   1.8091210678062263e-05   7.039587952662905e-05
-8.910842869126116e-05   1.8091210678062263e-05   7.039587952662905e-05
-8.910842869126116e-05   1.8091210678062263e-05   7.039587952662905e-05
-0.000112320031862142   2.2832890142442802e-05   0.00010623687713280216
-0.000112320031862142   2.2832890142442802e-05   0.00010623687713280216
-0.000112320031862142   2.2832890142442802e-05   0.00010623687713280216
-0.000112320031862142   2.2832890142442802e-05   0.00010623687713280216
-8.91084286912616e-05   2.3864768468743677e-05   0.00015627317374241386
-8.91084286912616e-05   2.3864768468743677e-05   0.00015627317374241386
-8.91084286912616e-05   2.3864768468743677e-05   0.00015627317374241386
-8.91084286912616e-05   2.3864768468743677e-05   0.00015627317374241386
-0.00014063480522073291   1.8091210678062263e-05   6.693174485221951e-05
-0.00014063480522073291   1.8091210678062263e-05   6.693174485221951e-05
-0.00014063480522073291   1.8091210678062263e-05   6.693174485221951e-05
-0.00014063480522073291   1.8091210678062263e-05   6.693174485221951e-05
-0.00014323941532060546   2.057435600029585e-05   0.0001575434476359487
-0.00014323941532060546   2.057435600029585e-05   0.0001575434476359487
-0.00014323941532060546   2.057435600029585e-05   0.0001575434476359487
-0.00014323941532060546   2.057435600029585e-05   0.0001575434476359487
-9.149600135832615e-05   1.4862903740860828e-05   7.473129572114481e-05
-9.149600135832615e-05   1.4862903740860828e-05   7.473129572114481e-05
-9.149600135832615e-05   1.4862903740860828e-05   7.473129572114481e-05
-9.149600135832615e-05   1.4862903740860828e-05   7.473129572114481e-05
-0.00011516401417498005   2.0472824282044208e-05   0.00011081203142419751
-0.00011516401417498005   2.0472824282044208e-05   0.00011081203142419751
-0.00011516401417498005   2.0472824282044208e-05   0.00011081203142419751
-0.00011516401417498005   2.0472824282044208e-05   0.00011081203142419751
-0.0001350519609811321   3.925101841119674e-05   7.025225651799069e-05
-0.0001350519609811321   3.925101841119674e-05   7.025225651799069e-05
-0.0001350519609811321   3.925101841119674e-05   7.025225651799069e-05
-0.0001350519609811321   3.925101841119674e-05   7.025225651799069e-05
-0.00018056722230143287   2.9975779788520875e-05   -1.1171655522783548e-05
-0.00018056722230143287   2.9975779788520875e-05   -1.1171655522783548e-05
-0.00018056722230143287   2.9975779788520875e-05   -1.1171655522783548e-05
-0.00018056722230143287   2.9975779788520875e-05   -1.1171655522783548e-05
-0.00018710484967169629   3.8204886545739614e-05   8.648758807020679e-05
-0.00018710484967169629   3.8204886545739614e-05   8.648758807020679e-05
-0.00018710484967169629   3.8204886545739614e-05   8.648758807020679e-05
-0.00018710484967169629   3.8204886545739614e-05   8.648758807020679e-05
-0.0001376059054517579   2.8253241254199563e-05   9.960334878568282e-06
-0.0001376059054517579   2.8253241254199563e-05   9.960334878568282e-06
-0.0001376059054517579   2.8253241254199563e-05   9.960334878568282e-06
-0.0001376059054517579   2.8253241254199563e-05   9.960334878568282e-06
-0.00015425863266256893   3.331358248353025e-05   3.46786754923281e-05
-0.00015425863266256893   3.331358248353025e-05   3.46786754923281e-05
-0.00015425863266256893   3.331358248353025e-05   3.46786754923281e-05
-0.00015425863266256893   3.331358248353025e-05   3.46786754923281e-05
-0.0001376059054517579   3.8204886545739614e-05   9.245857524513117e-05
-0.0001376059054517579   3.8204886545739614e-05   9.245857524513117e-05
-0.0001376059054517579   3.8204886545739614e-05   9.245857524513117e-05
-0.0001376059054517579   3.8204886545739614e-05   9.245857524513117e-05
-0.00018710484967169629   2.8253241254199563e-05   3.989347703643904e-06
-0.00018710484967169629   2.8253241254199563e-05   3.989347703643904e-06
-0.00018710484967169629   2.8253241254199563e-05   3.989347703643904e-06
-0.00018710484967169629   2.8253241254199563e-05   3.989347703643904e-06
-0.00019274343314291866   3.6955858006230274e-05   0.00010232641821378632
-0.00019274343314291866   3.6955858006230274e-05   0.00010232641821378632
-0.00019274343314291866   3.6955858006230274e-05   0.00010232641821378632
-0.00019274343314291866   3.6955858006230274e-05   0.00010232641821378632
-0.00014063480522073291   2.682822114848365e-05   2.1555287124792617e-05
-0.00014063480522073291   2.682822114848365e-05   2.1555287124792617e-05
-0.00014063480522073291   2.682822114848365e-05   2.1555287124792617e-05
-0.00014063480522073291   2.682822114848365e-05   2.1555287124792617e-05
-0.00016051411595679023   3.2857593248345265e-05   5.106984842497518e-05
-0.00016051411595679023   3.2857593248345265e-05   5.106984842497518e-05
-0.00016051411595679023   3.2857593248345265e-05   5.106984842497518e-05
-0.00016051411595679023   3.2857593248345265e-05   5.106984842497518e-05
-0.00014063480522073313   3.6955858006230274e-05   0.00010840300032843517
-0.00014063480522073313   3.6955858006230274e-05   0.00010840300032843517
-0.00014063480522073313   3.6955858006230274e-05   0.00010840300032843517
-0.00014063480522073313   3.6955858006230274e-05   0.00010840300032843517
-0.00019274343314291866   2.682822114848365e-05   1.5478705010145508e-05
-0.00019274343314291866   2.682822114848365e-05   1.5478705010145508e-05
-0.00019274343314291866   2.682822114848365e-05   1.5478705010145508e-05
-0.00019274343314291866   2.682822114848365e-05   1.5478705010145508e-05
-0.00019950277338076422   3.2787570636527014e-05   0.00013038360773578138
-0.00019950277338076422   3.2787570636527014e-05   0.00013038360773578138
-0.00019950277338076422   3.2787570636527014e-05   0.00013038360773578138
-0.00019950277338076422   3.2787570636527014e-05   0.00013038360773578138
-0.00014323941532060525   2.2975430662218292e-05   4.249862828677002e-05
-0.00014323941532060525   2.2975430662218292e-05   4.249862828677002e-05
-0.00014323941532060525   2.2975430662218292e-05   4.249862828677002e-05
-0.00014323941532060525   2.2975430662218292e-05   4.249862828677002e-05
-0.00016211883662259948   3.11056852770903e-05   6.908617768783959e-05
-0.00016211883662259948   3.11056852770903e-05   6.908617768783959e-05
-0.00016211883662259948   3.11056852770903e-05   6.908617768783959e-05
-0.00016211883662259948   3.11056852770903e-05   6.908617768783959e-05
1.4161371951689611e-05   4.065701289341847e-07   8.282036172515758e-05
1.4161371951689611e-05   4.065701289341847e-07   8.282036172515758e-05
1.4161371951689611e-05   4.065701289341847e-07   8.282036172515758e-05
1.4161371951689611e-05   4.065701289341847e-07   8.282036172515758e-05
-1.840221756203526e-05   9.3001085694263e-06   3.388383559991236e-05
-1.840221756203526e-05   9.3001085694263e-06   3.388383559991236e-05
-1.840221756203526e-05   9.3001085694263e-06   3.388383559991236e-05
-1.840221756203526e-05   9.3001085694263e-06   3.388383559991236e-05
-2.0358228066791266e-05   -2.743956449777381e-06   8.186603609252165e-05
-2.0358228066791266e-05   -2.743956449777381e-06   8.186603609252165e-05
-2.0358228066791266e-05   -2.743956449777381e-06   8.186603609252165e-05
-2.0358228066791266e-05   -2.743956449777381e-06   8.186603609252165e-05
8.19109381428371e-06   6.362511260215795e-06   2.881995233140061e-05
8.19109381428371e-06   6.362511260215795e-06   2.881995233140061e-05
8.19109381428371e-06   6.362511260215795e-06   2.881995233140061e-05
8.19109381428371e-06   6.362511260215795e-06   2.881995233140061e-05
-4.825536214970065e-06   2.8335581385456263e-06   5.263170758649236e-05
-4.825536214970065e-06   2.8335581385456263e-06   5.263170758649236e-05
-4.825536214970065e-06   2.8335581385456263e-06   5.263170758649236e-05
-4.825536214970065e-06   2.8335581385456263e-06   5.263170758649236e-05
8.19109381428371e-06   -2.743956449777381e-06   7.640215546652566e-05
8.19109381428371e-06   -2.743956449777381e-06   7.640215546652566e-05
8.19109381428371e-06   -2.743956449777381e-06   7.640215546652566e-05
8.19109381428371e-06   -2.743956449777381e-06   7.640215546652566e-05
-2.0358228066791266e-05   6.362511260215795e-06   3.428383295739704e-05
-2.0358228066791266e-05   6.362511260215795e-06   3.428383295739704e-05
-2.0358228066791266e-05   6.362511260215795e-06   3.428383295739704e-05
-2.0358228066791266e-05   6.362511260215795e-06   3.428383295739704e-05
-2.2770975246178438e-05   -4.112564267928949e-06   7.983727370001028e-05
-2.2770975246178438e-05   -4.112564267928949e-06   7.983727370001028e-05
-2.2770975246178438e-05   -4.112564267928949e-06   7.983727370001028e-05
-2.2770975246178438e-05   -4.112564267928949e-06   7.983727370001028e-05
3.0196991704097118e-06   4.730896462380556e-06   3.154673990084494e-05
3.0196991704097118e-06   4.730896462380556e-06   3.154673990084494e-05
3.0196991704097118e-06   4.730896462380556e-06   3.154673990084494e-05
3.0196991704097118e-06   4.730896462380556e-06   3.154673990084494e-05
-8.062641340378928e-06   1.5807287924718416e-06   5.190740802077094e-05
-8.062641340378928e-06   1.5807287924718416e-06   5.190740802077094e-05
-8.062641340378928e-06   1.5807287924718416e-06   5.190740802077094e-05
-8.062641340378928e-06   1.5807287924718416e-06   5.190740802077094e-05
3.0196991704097118e-06   -4.112564267928949e-06   7.453119726182327e-05
3.0196991704097118e-06   -4.112564267928949e-06   7.453119726182327e-05
3.0196991704097118e-06   -4.112564267928949e-06   7.453119726182327e-05
3.0196991704097118e-06   -4.112564267928949e-06   7.453119726182327e-05
-2.2770975246178384e-05   4.730896462380556e-06   3.685281633903151e-05
-2.2770975246178384e-05   4.730896462380556e-06   3.685281633903151e-05
-2.2770975246178384e-05   4.730896462380556e-06   3.685281633903151e-05
-2.2770975246178384e-05   4.730896462380556e-06   3.685281633903151e-05
-2.478144570786022e-05   -6.411630104634705e-06   7.928222855263165e-05
-2.478144570786022e-05   -6.411630104634705e-06   7.928222855263165e-05
-2.478144570786022e-05   -6.411630104634705e-06   7.928222855263165e-05
-2.478144570786022e-05   -6.411630104634705e-06   7.928222855263165e-05
-3.460833244897611e-06   1.2561993694096968e-06   3.9147176763267445e-05
-3.460833244897611e-06   1.2561993694096968e-06   3.9147176763267445e-05
-3.460833244897611e-06   1.2561993694096968e-06   3.9147176763267445e-05
-3.460833244897611e-06   1.2561993694096968e-06   3.9147176763267445e-05
-1.14978622400596e-05   4.109538097648441e-07   5.304937242432456e-05
-1.14978622400596e-05   4.109538097648441e-07   5.304937242432456e-05
-1.14978622400596e-05   4.109538097648441e-07   5.304937242432456e-05
-1.14978622400596e-05   4.109538097648441e-07   5.304937242432456e-05
-1.840221756203526e-05   8.922313710325695e-06   0.00013367171545730291
-1.840221756203526e-05   8.922313710325695e-06   0.00013367171545730291
-1.840221756203526e-05   8.922313710325695e-06   0.00013367171545730291
-1.840221756203526e-05   8.922313710325695e-06   0.00013367171545730291
-4.568720249612803e-05   1.0649200000743993e-05   8.923287234139949e-05
-4.568720249612803e-05   1.0649200000743993e-05   8.923287234139949e-05
-4.568720249612803e-05   1.0649200000743993e-05   8.923287234139949e-05
-4.568720249612803e-05   1.0649200000743993e-05   8.923287234139949e-05
-4.715487893787104e-05   5.348588714149116e-06   0.00013333519303416856
-4.715487893787104e-05   5.348588714149116e-06   0.00013333519303416856
-4.715487893787104e-05   5.348588714149116e-06   0.00013333519303416856
-4.715487893787104e-05   5.348588714149116e-06   0.00013333519303416856
-2.0358228066791266e-05   7.360792146119191e-06   8.746678618985401e-05
-2.0358228066791266e-05   7.360792146119191e-06   8.746678618985401e-05
-2.0358228066791266e-05   7.360792146119191e-06   8.746678618985401e-05
-2.0358228066791266e-05   7.360792146119191e-06   8.746678618985401e-05
-3.308167514298782e-05   7.697035006944478e-06   0.00010847078560035305
-3.308167514298782e-05   7.697035006944478e-06   0.00010847078560035305
-3.308167514298782e-05   7.697035006944478e-06   0.00010847078560035305
-3.308167514298782e-05   7.697035006944478e-06   0.00010847078560035305
-2.0358228066791266e-05   5.348588714149116e-06   0.00013212787097498582
-2.0358228066791266e-05   5.348588714149116e-06   0.00013212787097498582
-2.0358228066791266e-05   5.348588714149116e-06   0.00013212787097498582
-2.0358228066791266e-05   5.348588714149116e-06   0.00013212787097498582
-4.7154878937870934e-05   7.360792146119191e-06   8.8674108249036e-05
-4.7154878937870934e-05   7.360792146119191e-06   8.8674108249036e-05
-4.7154878937870934e-05   7.360792146119191e-06   8.8674108249036e-05
-4.7154878937870934e-05   7.360792146119191e-06   8.8674108249036e-05
-4.866763429833094e-05   2.3097981977082682e-06   0.0001336596566024282
-4.866763429833094e-05   2.3097981977082682e-06   0.0001336596566024282
-4.866763429833094e-05   2.3097981977082682e-06   0.0001336596566024282
-4.866763429833094e-05   2.3097981977082682e-06   0.0001336596566024282
-2.2770975246178384e-05   4.3120893885775086e-06   8.929718346765281e-05
-2.2770975246178384e-05   4.3120893885775086e-06   8.929718346765281e-05
-2.2770975246178384e-05   4.3120893885775086e-06   8.929718346765281e-05
-2.2770975246178384e-05   4.3120893885775086e-06   8.929718346765281e-05
-3.457787981536297e-05   5.2860943476912975e-06   0.00010839095477416032
-3.457787981536297e-05   5.2860943476912975e-06   0.00010839095477416032
-3.457787981536297e-05   5.2860943476912975e-06   0.00010839095477416032
-3.457787981536297e-05   5.2860943476912975e-06   0.00010839095477416032
-2.2770975246178438e-05   2.3097981977082682e-06   0.0001324582818879056
-2.2770975246178438e-05   2.3097981977082682e-06   0.0001324582818879056
-2.2770975246178438e-05   2.3097981977082682e-06   0.0001324582818879056
-2.2770975246178438e-05   2.3097981977082682e-06   0.0001324582818879056
-4.866763429833094e-05   4.3120893885775086e-06   9.049855818217415e-05
-4.866763429833094e-05   4.3120893885775086e-06   9.049855818217415e-05
-4.866763429833094e-05   4.3120893885775086e-06   9.049855818217415e-05
-4.866763429833094e-05   4.3120893885775086e-06   9.049855818217415e-05
-5.0148741590748305e-05   -8.079231644201462e-07   0.00013631741286822784
-5.0148741590748305e-05   -8.079231644201462e-07   0.00013631741286822784
-5.0148741590748305e-05   -8.079231644201462e-07   0.00013631741286822784
-5.0148741590748305e-05   -8.079231644201462e-07   0.00013631741286822784
-2.4781445707860192e-05   9.951611267683402e-07   9.295673582203546e-05
-2.4781445707860192e-05   9.951611267683402e-07   9.295673582203546e-05
-2.4781445707860192e-05   9.951611267683402e-07   9.295673582203546e-05
-2.4781445707860192e-05   9.951611267683402e-07   9.295673582203546e-05
-3.607714972390168e-05   2.9038002931306567e-06   0.00011063772568228739
-3.607714972390168e-05   2.9038002931306567e-06   0.00011063772568228739
-3.607714972390168e-05   2.9038002931306567e-06   0.00011063772568228739
-3.607714972390168e-05   2.9038002931306567e-06   0.00011063772568228739
-4.568720249612792e-05   1.651252161112473e-05   0.00015055408931874317
-4.568720249612792e-05   1.651252161112473e-05   0.00015055408931874317
-4.568720249612792e-05   1.651252161112473e-05   0.00015055408931874317
-4.568720249612792e-05   1.651252161112473e-05   0.00015055408931874317
-7.295240088159554e-05   1.2683264109497605e-05   0.00010281453750865576
-7.295240088159554e-05   1.2683264109497605e-05   0.00010281453750865576
-7.295240088159554e-05   1.2683264109497605e-05   0.00010281453750865576
-7.295240088159554e-05   1.2683264109497605e-05   0.00010281453750865576
-7.418963870257358e-05   1.3207517053102046e-05   0.00014776727524977527
-7.418963870257358e-05   1.3207517053102046e-05   0.00014776727524977527
-7.418963870257358e-05   1.3207517053102046e-05   0.00014776727524977527
-7.418963870257358e-05   1.3207517053102046e-05   0.00014776727524977527
-4.7154878937870934e-05   9.625443947226288e-06   0.00010485858617213079
-4.7154878937870934e-05   9.625443947226288e-06   0.00010485858617213079
-4.7154878937870934e-05   9.625443947226288e-06   0.00010485858617213079
-4.7154878937870934e-05   9.625443947226288e-06   0.00010485858617213079
-6.0021022294802614e-05   1.2767123428672998e-05   0.00012441715074481522
-6.0021022294802614e-05   1.2767123428672998e-05   0.00012441715074481522
-6.0021022294802614e-05   1.2767123428672998e-05   0.00012441715074481522
-6.0021022294802614e-05   1.2767123428672998e-05   0.00012441715074481522
-4.7154878937870934e-05   1.3207517053102046e-05   0.00014991651911330176
-4.7154878937870934e-05   1.3207517053102046e-05   0.00014991651911330176
-4.7154878937870934e-05   1.3207517053102046e-05   0.00014991651911330176
-4.7154878937870934e-05   1.3207517053102046e-05   0.00014991651911330176
-7.418963870257358e-05   9.625443947226288e-06   0.00010270934230860495
-7.418963870257358e-05   9.625443947226288e-06   0.00010270934230860495
-7.418963870257358e-05   9.625443947226288e-06   0.00010270934230860495
-7.418963870257358e-05   9.625443947226288e-06   0.00010270934230860495
-7.551733042179386e-05   9.91913215621365e-06   0.0001492769204763959
-7.551733042179386e-05   9.91913215621365e-06   0.0001492769204763959
-7.551733042179386e-05   9.91913215621365e-06   0.0001492769204763959
-7.551733042179386e-05   9.91913215621365e-06   0.0001492769204763959
-4.866763429833094e-05   6.5165448825746375e-06   0.00010656897930147501
-4.866763429833094e-05   6.5165448825746375e-06   0.00010656897930147501
-4.866763429833094e-05   6.5165448825746375e-06   0.00010656897930147501
-4.866763429833094e-05   6.5165448825746375e-06   0.00010656897930147501
-6.107780626492915e-05   1.0312830143616343e-05   0.00012497482808918004
-6.107780626492915e-05   1.0312830143616343e-05   0.00012497482808918004
-6.107780626492915e-05   1.0312830143616343e-05   0.00012497482808918004
-6.107780626492915e-05   1.0312830143616343e-05   0.00012497482808918004
-4.866763429833094e-05   9.91913215621365e-06   0.0001513184728405793
-4.866763429833094e-05   9.91913215621365e-06   0.0001513184728405793
-4.866763429833094e-05   9.91913215621365e-06   0.0001513184728405793
-4.866763429833094e-05   9.91913215621365e-06   0.0001513184728405793
-7.551733042179386e-05   6.516544882575505e-06   0.00010452742693729117
-7.551733042179386e-05   6.516544882575505e-06   0.00010452742693729117
-7.551733042179386e-05   6.516544882575505e-06   0.00010452742693729117
-7.551733042179386e-05   6.516544882575505e-06   0.00010452742693729117
-7.681748992303147e-05   6.767713058843279e-06   0.00015240133708594675
-7.681748992303147e-05   6.767713058843279e-06   0.00015240133708594675
-7.681748992303147e-05   6.767713058843279e-06   0.00015240133708594675
-7.681748992303147e-05   6.767713058843279e-06   0.00015240133708594675
-5.0148741590748196e-05   3.5640916553310656e-06   0.000109875596040916
-5.0148741590748196e-05   3.5640916553310656e-06   0.000109875596040916
-5.0148741590748196e-05   3.5640916553310656e-06   0.000109875596040916
-5.0148741590748196e-05   3.5640916553310656e-06   0.000109875596040916
-6.225566916961701e-05   7.8933290868239e-06   0.00012745626621346812
-6.225566916961701e-05   7.8933290868239e-06   0.00012745626621346812
-6.225566916961701e-05   7.8933290868239e-06   0.00012745626621346812
-6.225566916961701e-05   7.8933290868239e-06   0.00012745626621346812
-7.295240088159576e-05   2.445674533338698e-05   0.0001300560977123555
-7.295240088159576e-05   2.445674533338698e-05   0.0001300560977123555
-7.295240088159576e-05   2.445674533338698e-05   0.0001300560977123555
-7.295240088159576e-05   2.445674533338698e-05   0.0001300560977123555
-9.973389833949509e-05   1.7089978046575666e-05   8.100020824376979e-05
-9.973389833949509e-05   1.7089978046575666e-05   8.100020824376979e-05
-9.973389833949509e-05   1.7089978046575666e-05   8.100020824376979e-05
-9.973389833949509e-05   1.7089978046575666e-05   8.100020824376979e-05
-0.00010109166485027811   2.1118933013675525e-05   0.00012620754616399568
-0.00010109166485027811   2.1118933013675525e-05   0.00012620754616399568
-0.00010109166485027811   2.1118933013675525e-05   0.00012620754616399568
-0.00010109166485027811   2.1118933013675525e-05   0.00012620754616399568
-7.418963870257358e-05   1.3871620300789402e-05   8.571922354555202e-05
-7.418963870257358e-05   1.3871620300789402e-05   8.571922354555202e-05
-7.418963870257358e-05   1.3871620300789402e-05   8.571922354555202e-05
-7.418963870257358e-05   1.3871620300789402e-05   8.571922354555202e-05
-8.680790586717971e-05   1.898591566446093e-05   0.00010368109160169324
-8.680790586717971e-05   1.898591566446093e-05   0.00010368109160169324
-8.680790586717971e-05   1.898591566446093e-05   0.00010368109160169324
-8.680790586717971e-05   1.898591566446093e-05   0.00010368109160169324
-7.418963870257358e-05   2.1118933013675525e-05   0.00013055593379172632
-7.418963870257358e-05   2.1118933013675525e-05   0.00013055593379172632
-7.418963870257358e-05   2.1118933013675525e-05   0.00013055593379172632
-7.418963870257358e-05   2.1118933013675525e-05   0.00013055593379172632
-0.00010109166485027768   1.3871620300788534e-05   8.137083591782095e-05
-0.00010109166485027768   1.3871620300788534e-05   8.137083591782095e-05
-0.00010109166485027768   1.3871620300788534e-05   8.137083591782095e-05
-0.00010109166485027768   1.3871620300788534e-05   8.137083591782095e-05
-0.0001029780804489924   1.8091210678062263e-05   0.00013041525658654893
-0.0001029780804489924   1.8091210678062263e-05   0.00013041525658654893
-0.0001029780804489924   1.8091210678062263e-05   0.00013041525658654893
-0.0001029780804489924   1.8091210678062263e-05   0.00013041525658654893
-7.551733042179386e-05   1.1013802211374407e-05   8.889378495456407e-05
-7.551733042179386e-05   1.1013802211374407e-05   8.889378495456407e-05
-7.551733042179386e-05   1.1013802211374407e-05   8.889378495456407e-05
-7.551733042179386e-05   1.1013802211374407e-05   8.889378495456407e-05
-8.754672436641524e-05   1.6606909704420907e-05   0.00010558691036643888
-8.754672436641524e-05   1.6606909704420907e-05   0.00010558691036643888
-8.754672436641524e-05   1.6606909704420907e-05   0.00010558691036643888
-8.754672436641524e-05   1.6606909704420907e-05   0.00010558691036643888
-7.551733042179386e-05   1.8091210678062263e-05   0.00013466170166656025
-7.551733042179386e-05   1.8091210678062263e-05   0.00013466170166656025
-7.551733042179386e-05   1.8091210678062263e-05   0.00013466170166656025
-7.551733042179386e-05   1.8091210678062263e-05   0.00013466170166656025
-0.00010297808044899175   1.1013802211374407e-05   8.464733987455187e-05
-0.00010297808044899175   1.1013802211374407e-05   8.464733987455187e-05
-0.00010297808044899175   1.1013802211374407e-05   8.464733987455187e-05
-0.00010297808044899175   1.1013802211374407e-05   8.464733987455187e-05
-0.00010449270305611384   1.4862903740861695e-05   0.00013511497163231842
-0.00010449270305611384   1.4862903740861695e-05   0.00013511497163231842
-0.00010449270305611384   1.4862903740861695e-05   0.00013511497163231842
-0.00010449270305611384   1.4862903740861695e-05   0.00013511497163231842
-7.681748992303147e-05   8.108236148512797e-06   9.304241696592424e-05
-7.681748992303147e-05   8.108236148512797e-06   9.304241696592424e-05
-7.681748992303147e-05   8.108236148512797e-06   9.304241696592424e-05
-7.681748992303147e-05   8.108236148512797e-06   9.304241696592424e-05
-8.910362762440415e-05   1.4350923529402038e-05   0.00010977370070634805
-8.910362762440415e-05   1.4350923529402038e-05   0.00010977370070634805
-8.910362762440415e-05   1.4350923529402038e-05   0.00010977370070634805
-8.910362762440415e-05   1.4350923529402038e-05   0.00010977370070634805
-9.973389833949509e-05   2.9975779788520875e-05   5.715164462842277e-05
-9.973389833949509e-05   2.9975779788520875e-05   5.715164462842277e-05
-9.973389833949509e-05   2.9975779788520875e-05   5.715164462842277e-05
-9.973389833949509e-05   2.9975779788520875e-05   5.715164462842277e-05
-0.00012049617144327396   2.009313219525962e-05   1.6618267566168802e-05
-0.00012049617144327396   2.009313219525962e-05   1.6618267566168802e-05
-0.00012049617144327396   2.009313219525962e-05   1.6618267566168802e-05
-0.00012049617144327396   2.009313219525962e-05   1.6618267566168802e-05
-0.0001256820092322298   2.8253241254199563e-05   6.692059574418124e-05
-0.0001256820092322298   2.8253241254199563e-05   6.692059574418124e-05
-0.0001256820092322298   2.8253241254199563e-05   6.692059574418124e-05
-0.0001256820092322298   2.8253241254199563e-05   6.692059574418124e-05
-0.0001010916648502779   1.7950066100533985e-05   3.211859353312611e-05
-0.0001010916648502779   1.7950066100533985e-05   3.211859353312611e-05
-0.0001010916648502779   1.7950066100533985e-05   3.211859353312611e-05
-0.0001010916648502779   1.7950066100533985e-05   3.211859353312611e-05
-0.00010788002257183609   2.384438307886233e-05   3.9895932882059656e-05
-0.00010788002257183609   2.384438307886233e-05   3.9895932882059656e-05
-0.00010788002257183609   2.384438307886233e-05   3.9895932882059656e-05
-0.00010788002257183609   2.384438307886233e-05   3.9895932882059656e-05
-0.0001010916648502779   2.8253241254198695e-05   7.310250083637955e-05
-0.0001010916648502779   2.8253241254198695e-05   7.310250083637955e-05
-0.0001010916648502779   2.8253241254198695e-05   7.310250083637955e-05
-0.0001010916648502779   2.8253241254198695e-05   7.310250083637955e-05
-0.00012568200923223066   1.7950066100533985e-05   2.593668844092737e-05
-0.00012568200923223066   1.7950066100533985e-05   2.593668844092737e-05
-0.00012568200923223066   1.7950066100533985e-05   2.593668844092737e-05
-0.00012568200923223066   1.7950066100533985e-05   2.593668844092737e-05
-0.00013014186505097124   2.6828221148484516e-05   7.883187995365998e-05
-0.00013014186505097124   2.6828221148484516e-05   7.883187995365998e-05
-0.00013014186505097124   2.6828221148484516e-05   7.883187995365998e-05
-0.00013014186505097124   2.6828221148484516e-05   7.883187995365998e-05
-0.00010297808044899218   1.6483356306050065e-05   3.9765824522488245e-05
-0.00010297808044899218   1.6483356306050065e-05   3.9765824522488245e-05
-0.00010297808044899218   1.6483356306050065e-05   3.9765824522488245e-05
-0.00010297808044899218   1.6483356306050065e-05   3.9765824522488245e-05
-0.00011226105346119988   2.2993792995119888e-05   5.1331184196061995e-05
-0.00011226105346119988   2.2993792995119888e-05   5.1331184196061995e-05
-0.00011226105346119988   2.2993792995119888e-05   5.1331184196061995e-05
-0.00011226105346119988   2.2993792995119888e-05   5.1331184196061995e-05
-0.00010297808044899218   2.682822114848365e-05   8.503879885911943e-05
-0.00010297808044899218   2.682822114848365e-05   8.503879885911943e-05
-0.00010297808044899218   2.682822114848365e-05   8.503879885911943e-05
-0.00010297808044899218   2.682822114848365e-05   8.503879885911943e-05
-0.00013014186505097168   1.6483356306050065e-05   3.355890561702879e-05
-0.00013014186505097168   1.6483356306050065e-05   3.355890561702879e-05
-0.00013014186505097168   1.6483356306050065e-05   3.355890561702879e-05
-0.00013014186505097168   1.6483356306050065e-05   3.355890561702879e-05
-0.00013583753380596057   2.2975430662217425e-05   0.00010040818794728335
-0.00013583753380596057   2.2975430662217425e-05   0.00010040818794728335
-0.00013583753380596057   2.2975430662217425e-05   0.00010040818794728335
-0.00013583753380596057   2.2975430662217425e-05   0.00010040818794728335
-0.00010449270305611341   1.3140451318352508e-05   5.406779097052571e-05
-0.00010449270305611341   1.3140451318352508e-05   5.406779097052571e-05
-0.00010449270305611341   1.3140451318352508e-05   5.406779097052571e-05
-0.00010449270305611341   1.3140451318352508e-05   5.406779097052571e-05
-0.0001135352195183139   2.1396906786701198e-05   6.418477845984965e-05
-0.0001135352195183139   2.1396906786701198e-05   6.418477845984965e-05
-0.0001135352195183139   2.1396906786701198e-05   6.418477845984965e-05
-0.0001135352195183139   2.1396906786701198e-05   6.418477845984965e-05
-5.174775023107349e-05   9.3001085694263e-06   5.862308311385244e-05
-5.174775023107349e-05   9.3001085694263e-06   5.862308311385244e-05
-5.174775023107349e-05   9.3001085694263e-06   5.862308311385244e-05
-5.174775023107349e-05   9.3001085694263e-06   5.862308311385244e-05
-5.5534911533643746e-05   1.7373640421770083e-05   5.715526672097531e-05
-5.5534911533643746e-05   1.7373640421770083e-05   5.715526672097531e-05
-5.5534911533643746e-05   1.7373640421770083e-05   5.715526672097531e-05
-5.5534911533643746e-05   1.7373640421770083e-05   5.715526672097531e-05
-5.691006892674221e-05   6.362511260215795e-06   6.326320587051728e-05
-5.691006892674221e-05   6.362511260215795e-06   6.326320587051728e-05
-5.691006892674221e-05   6.362511260215795e-06   6.326320587051728e-05
-5.691006892674221e-05   6.362511260215795e-06   6.326320587051728e-05
-5.763944166278204e-05   1.3611782157977887e-05   6.012926455859337e-05
-5.763944166278204e-05   1.3611782157977887e-05   6.012926455859337e-05
-5.763944166278204e-05   1.3611782157977887e-05   6.012926455859337e-05
-5.763944166278204e-05   1.3611782157977887e-05   6.012926455859337e-05
-5.404888392000214e-05   1.0920229826193e-05   5.575993305303111e-05
-5.404888392000214e-05   1.0920229826193e-05   5.575993305303111e-05
-5.404888392000214e-05   1.0920229826193e-05   5.575993305303111e-05
-5.404888392000214e-05   1.0920229826193e-05   5.575993305303111e-05
-5.763944166278215e-05   6.362511260216662e-06   5.891364333185942e-05
-5.763944166278215e-05   6.362511260216662e-06   5.891364333185942e-05
-5.763944166278215e-05   6.362511260216662e-06   5.891364333185942e-05
-5.763944166278215e-05   6.362511260216662e-06   5.891364333185942e-05
-5.691006892674221e-05   1.3611782157977887e-05   6.447882709725026e-05
-5.691006892674221e-05   1.3611782157977887e-05   6.447882709725026e-05
-5.691006892674221e-05   1.3611782157977887e-05   6.447882709725026e-05
-5.691006892674221e-05   1.3611782157977887e-05   6.447882709725026e-05
-5.869692726314158e-05   4.730896462381423e-06   6.543144085416385e-05
-5.869692726314158e-05   4.730896462381423e-06   6.543144085416385e-05
-5.869692726314158e-05   4.730896462381423e-06   6.543144085416385e-05
-5.869692726314158e-05   4.730896462381423e-06   6.543144085416385e-05
-6.33573964163539e-05   1.0996094119425457e-05   6.94397708486228e-05
-6.33573964163539e-05   1.0996094119425457e-05   6.94397708486228e-05
-6.33573964163539e-05   1.0996094119425457e-05   6.94397708486228e-05
-6.33573964163539e-05   1.0996094119425457e-05   6.94397708486228e-05
-5.756156135515007e-05   9.293137608180554e-06   6.08018196533616e-05
-5.756156135515007e-05   9.293137608180554e-06   6.08018196533616e-05
-5.756156135515007e-05   9.293137608180554e-06   6.08018196533616e-05
-5.756156135515007e-05   9.293137608180554e-06   6.08018196533616e-05
-6.3357396416354e-05   4.730896462381423e-06   6.167232225993535e-05
-6.3357396416354e-05   4.730896462381423e-06   6.167232225993535e-05
-6.3357396416354e-05   4.730896462381423e-06   6.167232225993535e-05
-6.3357396416354e-05   4.730896462381423e-06   6.167232225993535e-05
-5.869692726314158e-05   1.0996094119425457e-05   7.319888944284968e-05
-5.869692726314158e-05   1.0996094119425457e-05   7.319888944284968e-05
-5.869692726314158e-05   1.0996094119425457e-05   7.319888944284968e-05
-5.869692726314158e-05   1.0996094119425457e-05   7.319888944284968e-05
-5.981493556040247e-05   1.2561993694105641e-06   7.220617050099527e-05
-5.981493556040247e-05   1.2561993694105641e-06   7.220617050099527e-05
-5.981493556040247e-05   1.2561993694105641e-06   7.220617050099527e-05
-5.981493556040247e-05   1.2561993694105641e-06   7.220617050099527e-05
-6.943769399116715e-05   4.55420446055909e-06   8.626529816424555e-05
-6.943769399116715e-05   4.55420446055909e-06   8.626529816424555e-05
-6.943769399116715e-05   4.55420446055909e-06   8.626529816424555e-05
-6.943769399116715e-05   4.55420446055909e-06   8.626529816424555e-05
-5.996812398289976e-05   7.277193657111158e-06   6.884888796586692e-05
-5.996812398289976e-05   7.277193657111158e-06   6.884888796586692e-05
-5.996812398289976e-05   7.277193657111158e-06   6.884888796586692e-05
-5.996812398289976e-05   7.277193657111158e-06   6.884888796586692e-05
-5.553491153364364e-05   1.064920000074486e-05   0.00011778010719249539
-5.553491153364364e-05   1.064920000074486e-05   0.00011778010719249539
-5.553491153364364e-05   1.064920000074486e-05   0.00011778010719249539
-5.553491153364364e-05   1.064920000074486e-05   0.00011778010719249539
-5.5646251888771575e-05   4.487209699898572e-06   0.00011389734575344189
-5.5646251888771575e-05   4.487209699898572e-06   0.00011389734575344189
-5.5646251888771575e-05   4.487209699898572e-06   0.00011389734575344189
-5.5646251888771575e-05   4.487209699898572e-06   0.00011389734575344189
-5.60428004638435e-05   7.360792146119191e-06   0.00011333745899879668
-5.60428004638435e-05   7.360792146119191e-06   0.00011333745899879668
-5.60428004638435e-05   7.360792146119191e-06   0.00011333745899879668
-5.60428004638435e-05   7.360792146119191e-06   0.00011333745899879668
-5.691006892674221e-05   2.179625305821168e-06   0.00011789160654113943
-5.691006892674221e-05   2.179625305821168e-06   0.00011789160654113943
-5.691006892674221e-05   2.179625305821168e-06   0.00011789160654113943
-5.691006892674221e-05   2.179625305821168e-06   0.00011789160654113943
-5.584781586027189e-05   5.4665666384817735e-06   0.00011414901996409236
-5.584781586027189e-05   5.4665666384817735e-06   0.00011414901996409236
-5.584781586027189e-05   5.4665666384817735e-06   0.00011414901996409236
-5.584781586027189e-05   5.4665666384817735e-06   0.00011414901996409236
-5.6910068926742185e-05   7.360792146119191e-06   0.00011644615910297263
-5.6910068926742185e-05   7.360792146119191e-06   0.00011644615910297263
-5.6910068926742185e-05   7.360792146119191e-06   0.00011644615910297263
-5.6910068926742185e-05   7.360792146119191e-06   0.00011644615910297263
-5.604280046384339e-05   2.179625305821168e-06   0.00011478290643696077
-5.604280046384339e-05   2.179625305821168e-06   0.00011478290643696077
-5.604280046384339e-05   2.179625305821168e-06   0.00011478290643696077
-5.604280046384339e-05   2.179625305821168e-06   0.00011478290643696077
-5.653970441022089e-05   4.3120893885775086e-06   0.00011497552430543394
-5.653970441022089e-05   4.3120893885775086e-06   0.00011497552430543394
-5.653970441022089e-05   4.3120893885775086e-06   0.00011497552430543394
-5.653970441022089e-05   4.3120893885775086e-06   0.00011497552430543394
-5.869692726314158e-05   -5.21716740342279e-07   0.00012147117940431931
-5.869692726314158e-05   -5.21716740342279e-07   0.00012147117940431931
-5.869692726314158e-05   -5.21716740342279e-07   0.00012147117940431931
-5.869692726314158e-05   -5.21716740342279e-07   0.00012147117940431931
-5.6339839391819754e-05   3.5413360008895722e-06   0.00011510486797404256
-5.6339839391819754e-05   3.5413360008895722e-06   0.00011510486797404256
-5.6339839391819754e-05   3.5413360008895722e-06   0.00011510486797404256
-5.6339839391819754e-05   3.5413360008895722e-06   0.00011510486797404256
-5.869692726314158e-05   4.312089388576641e-06   0.0001178758079827839
-5.869692726314158e-05   4.312089388576641e-06   0.0001178758079827839
-5.869692726314158e-05   4.312089388576641e-06   0.0001178758079827839
-5.869692726314158e-05   4.312089388576641e-06   0.0001178758079827839
-5.6539704410220565e-05   -5.21716740342279e-07   0.00011857089572696777
-5.6539704410220565e-05   -5.21716740342279e-07   0.00011857089572696777
-5.6539704410220565e-05   -5.21716740342279e-07   0.00011857089572696777
-5.6539704410220565e-05   -5.21716740342279e-07   0.00011857089572696777
-5.688499162036676e-05   9.951611267683402e-07   0.00011836560474182004
-5.688499162036676e-05   9.951611267683402e-07   0.00011836560474182004
-5.688499162036676e-05   9.951611267683402e-07   0.00011836560474182004
-5.688499162036676e-05   9.951611267683402e-07   0.00011836560474182004
-5.981493556040242e-05   -4.087217429090198e-06   0.00012629827177539348
-5.981493556040242e-05   -4.087217429090198e-06   0.00012629827177539348
-5.981493556040242e-05   -4.087217429090198e-06   0.00012629827177539348
-5.981493556040242e-05   -4.087217429090198e-06   0.00012629827177539348
-5.7143569162560335e-05   1.2634828924365862e-06   0.00011863557425273756
-5.7143569162560335e-05   1.2634828924365862e-06   0.00011863557425273756
-5.7143569162560335e-05   1.2634828924365862e-06   0.00011863557425273756
-5.7143569162560335e-05   1.2634828924365862e-06   0.00011863557425273756
-5.564625188877179e-05   1.2683264109498472e-05   0.00012996213268022007
-5.564625188877179e-05   1.2683264109498472e-05   0.00012996213268022007
-5.564625188877179e-05   1.2683264109498472e-05   0.00012996213268022007
-5.564625188877179e-05   1.2683264109498472e-05   0.00012996213268022007
-5.9405199694723436e-05   1.2345101755304247e-06   0.00011682796730992022
-5.9405199694723436e-05   1.2345101755304247e-06   0.00011682796730992022
-5.9405199694723436e-05   1.2345101755304247e-06   0.00011682796730992022
-5.9405199694723436e-05   1.2345101755304247e-06   0.00011682796730992022
-5.950982059610855e-05   9.625443947226288e-06   0.00012330835276690676
-5.950982059610855e-05   9.625443947226288e-06   0.00012330835276690676
-5.950982059610855e-05   9.625443947226288e-06   0.00012330835276690676
-5.950982059610855e-05   9.625443947226288e-06   0.00012330835276690676
-5.604280046384339e-05   -7.305296444133982e-07   0.00012374357003478212
-5.604280046384339e-05   -7.305296444133982e-07   0.00012374357003478212
-5.604280046384339e-05   -7.305296444133982e-07   0.00012374357003478212
-5.604280046384339e-05   -7.305296444133982e-07   0.00012374357003478212
-5.754541862750944e-05   5.518932948015212e-06   0.00012249825608543494
-5.754541862750944e-05   5.518932948015212e-06   0.00012249825608543494
-5.754541862750944e-05   5.518932948015212e-06   0.00012249825608543494
-5.754541862750944e-05   5.518932948015212e-06   0.00012249825608543494
-5.60428004638435e-05   9.625443947226288e-06   0.00012952193692189083
-5.60428004638435e-05   9.625443947226288e-06   0.00012952193692189083
-5.60428004638435e-05   9.625443947226288e-06   0.00012952193692189083
-5.60428004638435e-05   9.625443947226288e-06   0.00012952193692189083
-5.950982059610833e-05   -7.305296444138319e-07   0.00011752998587979827
-5.950982059610833e-05   -7.305296444138319e-07   0.00011752998587979827
-5.950982059610833e-05   -7.305296444138319e-07   0.00011752998587979827
-5.950982059610833e-05   -7.305296444138319e-07   0.00011752998587979827
-5.973300163908857e-05   6.5165448825746375e-06   0.00012528513994436094
-5.973300163908857e-05   6.5165448825746375e-06   0.00012528513994436094
-5.973300163908857e-05   6.5165448825746375e-06   0.00012528513994436094
-5.973300163908857e-05   6.5165448825746375e-06   0.00012528513994436094
-5.653970441022078e-05   -3.0847975847148393e-06   0.00012572378337662106
-5.653970441022078e-05   -3.0847975847148393e-06   0.00012572378337662106
-5.653970441022078e-05   -3.0847975847148393e-06   0.00012572378337662106
-5.653970441022078e-05   -3.0847975847148393e-06   0.00012572378337662106
-5.7537070815942874e-05   3.5658018349453077e-06   0.0001233957010676912
-5.7537070815942874e-05   3.5658018349453077e-06   0.0001233957010676912
-5.7537070815942874e-05   3.5658018349453077e-06   0.0001233957010676912
-5.7537070815942874e-05   3.5658018349453077e-06   0.0001233957010676912
-5.653970441022089e-05   6.516544882575505e-06   0.00013104594542473307
-5.653970441022089e-05   6.516544882575505e-06   0.00013104594542473307
-5.653970441022089e-05   6.516544882575505e-06   0.00013104594542473307
-5.653970441022089e-05   6.516544882575505e-06   0.00013104594542473307
-5.973300163908835e-05   -3.0847975847148393e-06   0.00011996297789624677
-5.973300163908835e-05   -3.0847975847148393e-06   0.00011996297789624677
-5.973300163908835e-05   -3.0847975847148393e-06   0.00011996297789624677
-5.973300163908835e-05   -3.0847975847148393e-06   0.00011996297789624677
-5.985931877373137e-05   3.5640916553310656e-06   0.00012878890022037515
-5.985931877373137e-05   3.5640916553310656e-06   0.00012878890022037515
-5.985931877373137e-05   3.5640916553310656e-06   0.00012878890022037515
-5.985931877373137e-05   3.5640916553310656e-06   0.00012878890022037515
-5.688499162036676e-05   -5.458765287357642e-06   0.00012924540246371302
-5.688499162036676e-05   -5.458765287357642e-06   0.00012924540246371302
-5.688499162036676e-05   -5.458765287357642e-06   0.00012924540246371302
-5.688499162036676e-05   -5.458765287357642e-06   0.00012924540246371302
-5.7622144755321944e-05   1.5556504968329207e-06   0.00012626534155145376
-5.7622144755321944e-05   1.5556504968329207e-06   0.00012626534155145376
-5.7622144755321944e-05   1.5556504968329207e-06   0.00012626534155145376
-5.7622144755321944e-05   1.5556504968329207e-06   0.00012626534155145376
-5.9405199694723436e-05   1.7089978046575666e-05   0.0001056986114270405
-5.9405199694723436e-05   1.7089978046575666e-05   0.0001056986114270405
-5.9405199694723436e-05   1.7089978046575666e-05   0.0001056986114270405
-5.9405199694723436e-05   1.7089978046575666e-05   0.0001056986114270405
-6.506485779398741e-05   5.584870824926376e-06   8.936278359527846e-05
-6.506485779398741e-05   5.584870824926376e-06   8.936278359527846e-05
-6.506485779398741e-05   5.584870824926376e-06   8.936278359527846e-05
-6.506485779398741e-05   5.584870824926376e-06   8.936278359527846e-05
-6.512883756105612e-05   1.3871620300788534e-05   9.979608889587946e-05
-6.512883756105612e-05   1.3871620300788534e-05   9.979608889587946e-05
-6.512883756105612e-05   1.3871620300788534e-05   9.979608889587946e-05
-6.512883756105612e-05   1.3871620300788534e-05   9.979608889587946e-05
-5.950982059610855e-05   3.0013784541637126e-06   9.695320572894245e-05
-5.950982059610855e-05   3.0013784541637126e-06   9.695320572894245e-05
-5.950982059610855e-05   3.0013784541637126e-06   9.695320572894245e-05
-5.950982059610855e-05   3.0013784541637126e-06   9.695320572894245e-05
-6.211315597403505e-05   1.0134634137006979e-05   9.701214461578078e-05
-6.211315597403505e-05   1.0134634137006979e-05   9.701214461578078e-05
-6.211315597403505e-05   1.0134634137006979e-05   9.701214461578078e-05
-6.211315597403505e-05   1.0134634137006979e-05   9.701214461578078e-05
-5.950982059610855e-05   1.3871620300788534e-05   0.0001063182340038534
-5.950982059610855e-05   1.3871620300788534e-05   0.0001063182340038534
-5.950982059610855e-05   1.3871620300788534e-05   0.0001063182340038534
-5.950982059610855e-05   1.3871620300788534e-05   0.0001063182340038534
-6.512883756105612e-05   3.0013784541637126e-06   9.04310606209672e-05
-6.512883756105612e-05   3.0013784541637126e-06   9.04310606209672e-05
-6.512883756105612e-05   3.0013784541637126e-06   9.04310606209672e-05
-6.512883756105612e-05   3.0013784541637126e-06   9.04310606209672e-05
-6.580027089644522e-05   1.1013802211375275e-05   0.0001035185617062704
-6.580027089644522e-05   1.1013802211375275e-05   0.0001035185617062704
-6.580027089644522e-05   1.1013802211375275e-05   0.0001035185617062704
-6.580027089644522e-05   1.1013802211375275e-05   0.0001035185617062704
-5.973300163908857e-05   7.922417857679498e-07   9.953938253270522e-05
-5.973300163908857e-05   7.922417857679498e-07   9.953938253270522e-05
-5.973300163908857e-05   7.922417857679498e-07   9.953938253270522e-05
-5.973300163908857e-05   7.922417857679498e-07   9.953938253270522e-05
-6.189727247665603e-05   8.004725259144231e-06   9.881901051128714e-05
-6.189727247665603e-05   8.004725259144231e-06   9.881901051128714e-05
-6.189727247665603e-05   8.004725259144231e-06   9.881901051128714e-05
-6.189727247665603e-05   8.004725259144231e-06   9.881901051128714e-05
-5.973300163908835e-05   1.1013802211374407e-05   0.0001096514979616308
-5.973300163908835e-05   1.1013802211374407e-05   0.0001096514979616308
-5.973300163908835e-05   1.1013802211374407e-05   0.0001096514979616308
-5.973300163908835e-05   1.1013802211374407e-05   0.0001096514979616308
-6.580027089644522e-05   7.922417857675161e-07   9.340644627734134e-05
-6.580027089644522e-05   7.922417857675161e-07   9.340644627734134e-05
-6.580027089644522e-05   7.922417857675161e-07   9.340644627734134e-05
-6.580027089644522e-05   7.922417857675161e-07   9.340644627734134e-05
-6.618882552078998e-05   8.108236148512797e-06   0.00010815332912005992
-6.618882552078998e-05   8.108236148512797e-06   0.00010815332912005992
-6.618882552078998e-05   8.108236148512797e-06   0.00010815332912005992
-6.618882552078998e-05   8.108236148512797e-06   0.00010815332912005992
-5.985931877373115e-05   -1.4327052972069182e-06   0.00010332871607572538
-5.985931877373115e-05   -1.4327052972069182e-06   0.00010332871607572538
-5.985931877373115e-05   -1.4327052972069182e-06   0.00010332871607572538
-5.985931877373115e-05   -1.4327052972069182e-06   0.00010332871607572538
-6.216675601833149e-05   6.106551918608552e-06   0.00010265089048723443
-6.216675601833149e-05   6.106551918608552e-06   0.00010265089048723443
-6.216675601833149e-05   6.106551918608552e-06   0.00010265089048723443
-6.216675601833149e-05   6.106551918608552e-06   0.00010265089048723443
-6.50648577939872e-05   2.0093132195260488e-05   4.034319497240625e-05
-6.50648577939872e-05   2.0093132195260488e-05   4.034319497240625e-05
-6.50648577939872e-05   2.0093132195260488e-05   4.034319497240625e-05
-6.50648577939872e-05   2.0093132195260488e-05   4.034319497240625e-05
-6.365548763853993e-05   9.133437932160732e-06   3.611632867362574e-05
-6.365548763853993e-05   9.133437932160732e-06   3.611632867362574e-05
-6.365548763853993e-05   9.133437932160732e-06   3.611632867362574e-05
-6.365548763853993e-05   9.133437932160732e-06   3.611632867362574e-05
-6.69257978104e-05   1.7950066100533985e-05   4.416229830534347e-05
-6.69257978104e-05   1.7950066100533985e-05   4.416229830534347e-05
-6.69257978104e-05   1.7950066100533985e-05   4.416229830534347e-05
-6.69257978104e-05   1.7950066100533985e-05   4.416229830534347e-05
-6.51288375610559e-05   7.314152424132796e-06   4.754891276227864e-05
-6.51288375610559e-05   7.314152424132796e-06   4.754891276227864e-05
-6.51288375610559e-05   7.314152424132796e-06   4.754891276227864e-05
-6.51288375610559e-05   7.314152424132796e-06   4.754891276227864e-05
-6.308143222725354e-05   1.4110030883845298e-05   4.005904346344666e-05
-6.308143222725354e-05   1.4110030883845298e-05   4.005904346344666e-05
-6.308143222725354e-05   1.4110030883845298e-05   4.005904346344666e-05
-6.308143222725354e-05   1.4110030883845298e-05   4.005904346344666e-05
-6.512883756105568e-05   1.7950066100533985e-05   5.054384651118288e-05
-6.512883756105568e-05   1.7950066100533985e-05   5.054384651118288e-05
-6.512883756105568e-05   1.7950066100533985e-05   5.054384651118288e-05
-6.512883756105568e-05   1.7950066100533985e-05   5.054384651118288e-05
-6.69257978104e-05   7.314152424132796e-06   4.116736455643836e-05
-6.69257978104e-05   7.314152424132796e-06   4.116736455643836e-05
-6.69257978104e-05   7.314152424132796e-06   4.116736455643836e-05
-6.69257978104e-05   7.314152424132796e-06   4.116736455643836e-05
-6.980201530783128e-05   1.6483356306050065e-05   5.2420405721143384e-05
-6.980201530783128e-05   1.6483356306050065e-05   5.2420405721143384e-05
-6.980201530783128e-05   1.6483356306050065e-05   5.2420405721143384e-05
-6.980201530783128e-05   1.6483356306050065e-05   5.2420405721143384e-05
-6.5800270896445e-05   6.122288584277033e-06   5.196747233522821e-05
-6.5800270896445e-05   6.122288584277033e-06   5.196747233522821e-05
-6.5800270896445e-05   6.122288584277033e-06   5.196747233522821e-05
-6.5800270896445e-05   6.122288584277033e-06   5.196747233522821e-05
-6.539643505503226e-05   1.3033312268780246e-05   4.714779838883593e-05
-6.539643505503226e-05   1.3033312268780246e-05   4.714779838883593e-05
-6.539643505503226e-05   1.3033312268780246e-05   4.714779838883593e-05
-6.539643505503226e-05   1.3033312268780246e-05   4.714779838883593e-05
-6.5800270896445e-05   1.6483356306050065e-05   5.86370463542046e-05
-6.5800270896445e-05   1.6483356306050065e-05   5.86370463542046e-05
-6.5800270896445e-05   1.6483356306050065e-05   5.86370463542046e-05
-6.5800270896445e-05   1.6483356306050065e-05   5.86370463542046e-05
-6.980201530783171e-05   6.122288584277033e-06   4.5750831702163954e-05
-6.980201530783171e-05   6.122288584277033e-06   4.5750831702163954e-05
-6.980201530783171e-05   6.122288584277033e-06   4.5750831702163954e-05
-6.980201530783171e-05   6.122288584277033e-06   4.5750831702163954e-05
-7.41149314575527e-05   1.3140451318352508e-05   6.759813922430948e-05
-7.41149314575527e-05   1.3140451318352508e-05   6.759813922430948e-05
-7.41149314575527e-05   1.3140451318352508e-05   6.759813922430948e-05
-7.41149314575527e-05   1.3140451318352508e-05   6.759813922430948e-05
-6.618882552078998e-05   3.7515105587530156e-06   6.002132711879597e-05
-6.618882552078998e-05   3.7515105587530156e-06   6.002132711879597e-05
-6.618882552078998e-05   3.7515105587530156e-06   6.002132711879597e-05
-6.618882552078998e-05   3.7515105587530156e-06   6.002132711879597e-05
-6.61755366417701e-05   1.1773746383870153e-05   5.518583749202031e-05
-6.61755366417701e-05   1.1773746383870153e-05   5.518583749202031e-05
-6.61755366417701e-05   1.1773746383870153e-05   5.518583749202031e-05
-6.61755366417701e-05   1.1773746383870153e-05   5.518583749202031e-05
-0.00013130219103114405   1.7373640421770517e-05   4.864703116279562e-05
-0.00013130219103114405   1.7373640421770517e-05   4.864703116279562e-05
-0.00013130219103114405   1.7373640421770517e-05   4.864703116279562e-05
-0.00013130219103114405   1.7373640421770517e-05   4.864703116279562e-05
-8.813655151665428e-05   2.411930072061981e-05   0.00012463715986625492
-8.813655151665428e-05   2.411930072061981e-05   0.00012463715986625492
-8.813655151665428e-05   2.411930072061981e-05   0.00012463715986625492
-8.813655151665428e-05   2.411930072061981e-05   0.00012463715986625492
-8.805895679490214e-05   1.3611782157977887e-05   5.573919501222031e-05
-8.805895679490214e-05   1.3611782157977887e-05   5.573919501222031e-05
-8.805895679490214e-05   1.3611782157977887e-05   5.573919501222031e-05
-8.805895679490214e-05   1.3611782157977887e-05   5.573919501222031e-05
-0.00014434501205024404   1.0026358567128682e-05   0.00015170054125896706
-0.00014434501205024404   1.0026358567128682e-05   0.00015170054125896706
-0.00014434501205024404   1.0026358567128682e-05   0.00015170054125896706
-0.00014434501205024404   1.0026358567128682e-05   0.00015170054125896706
-0.00010714228123481254   1.4352034836033391e-05   8.710058413857231e-05
-0.00010714228123481254   1.4352034836033391e-05   8.710058413857231e-05
-0.00010714228123481254   1.4352034836033391e-05   8.710058413857231e-05
-0.00010714228123481254   1.4352034836033391e-05   8.710058413857231e-05
-0.0001443450120502443   1.3611782157977887e-05   5.789044916672996e-05
-0.0001443450120502443   1.3611782157977887e-05   5.789044916672996e-05
-0.0001443450120502443   1.3611782157977887e-05   5.789044916672996e-05
-0.0001443450120502443   1.3611782157977887e-05   5.789044916672996e-05
-8.805895679490214e-05   1.0026358567128682e-05   0.00014954928710445795
-8.805895679490214e-05   1.0026358567128682e-05   0.00014954928710445795
-8.805895679490214e-05   1.0026358567128682e-05   0.00014954928710445795
-8.805895679490214e-05   1.0026358567128682e-05   0.00014954928710445795
-8.917015989026272e-05   1.0996094119425457e-05   6.257204446945687e-05
-8.917015989026272e-05   1.0996094119425457e-05   6.257204446945687e-05
-8.917015989026272e-05   1.0996094119425457e-05   6.257204446945687e-05
-8.917015989026272e-05   1.0996094119425457e-05   6.257204446945687e-05
-0.00014477138991206338   7.285398539922305e-06   0.00015746717852015916
-0.00014477138991206338   7.285398539922305e-06   0.00015746717852015916
-0.00014477138991206338   7.285398539922305e-06   0.00015746717852015916
-0.00014477138991206338   7.285398539922305e-06   0.00015746717852015916
-0.00011418541465385542   9.060347234309853e-06   0.00010542558387317911
-0.00011418541465385542   9.060347234309853e-06   0.00010542558387317911
-0.00011418541465385542   9.060347234309853e-06   0.00010542558387317911
-0.00011418541465385542   9.060347234309853e-06   0.00010542558387317911
-0.00014477138991206366   1.0996094119425457e-05   6.479846181715876e-05
-0.00014477138991206366   1.0996094119425457e-05   6.479846181715876e-05
-0.00014477138991206366   1.0996094119425457e-05   6.479846181715876e-05
-0.00014477138991206366   1.0996094119425457e-05   6.479846181715876e-05
-8.917015989026258e-05   7.285398539922305e-06   0.0001552407611724578
-8.917015989026258e-05   7.285398539922305e-06   0.0001552407611724578
-8.917015989026258e-05   7.285398539922305e-06   0.0001552407611724578
-8.917015989026258e-05   7.285398539922305e-06   0.0001552407611724578
-8.81295869626773e-05   4.55420446055909e-06   7.454082423282078e-05
-8.81295869626773e-05   4.55420446055909e-06   7.454082423282078e-05
-8.81295869626773e-05   4.55420446055909e-06   7.454082423282078e-05
-8.81295869626773e-05   4.55420446055909e-06   7.454082423282078e-05
-0.00014619738779843172   -4.317282360845852e-06   0.00017664338438525402
-0.00014619738779843172   -4.317282360845852e-06   0.00017664338438525402
-0.00014619738779843172   -4.317282360845852e-06   0.00017664338438525402
-0.00014619738779843172   -4.317282360845852e-06   0.00017664338438525402
-0.00011235130179311587   4.507155069003593e-06   0.00011493857858515147
-0.00011235130179311587   4.507155069003593e-06   0.00011493857858515147
-0.00011235130179311587   4.507155069003593e-06   0.00011493857858515147
-0.00011235130179311587   4.507155069003593e-06   0.00011493857858515147
-8.813655151665442e-05   4.487209699898572e-06   0.0001131337005550793
-8.813655151665442e-05   4.487209699898572e-06   0.0001131337005550793
-8.813655151665442e-05   4.487209699898572e-06   0.0001131337005550793
-8.813655151665442e-05   4.487209699898572e-06   0.0001131337005550793
-5.3835784341742503e-05   -2.6414377005871178e-05   0.00015176069382313775
-5.3835784341742503e-05   -2.6414377005871178e-05   0.00015176069382313775
-5.3835784341742503e-05   -2.6414377005871178e-05   0.00015176069382313775
-5.3835784341742503e-05   -2.6414377005871178e-05   0.00015176069382313775
-5.388758144450265e-05   2.179625305821168e-06   9.491242633145923e-05
-5.388758144450265e-05   2.179625305821168e-06   9.491242633145923e-05
-5.388758144450265e-05   2.179625305821168e-06   9.491242633145923e-05
-5.388758144450265e-05   2.179625305821168e-06   9.491242633145923e-05
-8.805895679490214e-05   -2.1552954901929433e-05   0.00016610426670677622
-8.805895679490214e-05   -2.1552954901929433e-05   0.00016610426670677622
-8.805895679490214e-05   -2.1552954901929433e-05   0.00016610426670677622
-8.805895679490214e-05   -2.1552954901929433e-05   0.00016610426670677622
-7.058172193309338e-05   -1.3046379204281321e-05   0.00013187159651850667
-7.058172193309338e-05   -1.3046379204281321e-05   0.00013187159651850667
-7.058172193309338e-05   -1.3046379204281321e-05   0.00013187159651850667
-7.058172193309338e-05   -1.3046379204281321e-05   0.00013187159651850667
-8.80589567949022e-05   2.179625305821168e-06   0.00010915197445610829
-8.80589567949022e-05   2.179625305821168e-06   0.00010915197445610829
-8.80589567949022e-05   2.179625305821168e-06   0.00010915197445610829
-8.80589567949022e-05   2.179625305821168e-06   0.00010915197445610829
-5.388758144450254e-05   -2.1552954901929433e-05   0.0001518647185821257
-5.388758144450254e-05   -2.1552954901929433e-05   0.0001518647185821257
-5.388758144450254e-05   -2.1552954901929433e-05   0.0001518647185821257
-5.388758144450254e-05   -2.1552954901929433e-05   0.0001518647185821257
-5.401778259072861e-05   -5.21716740342279e-07   9.791707882010137e-05
-5.401778259072861e-05   -5.21716740342279e-07   9.791707882010137e-05
-5.401778259072861e-05   -5.21716740342279e-07   9.791707882010137e-05
-5.401778259072861e-05   -5.21716740342279e-07   9.791707882010137e-05
-8.917015989026258e-05   -2.2067142758384504e-05   0.0001694316299301491
-8.917015989026258e-05   -2.2067142758384504e-05   0.0001694316299301491
-8.917015989026258e-05   -2.2067142758384504e-05   0.0001694316299301491
-8.917015989026258e-05   -2.2067142758384504e-05   0.0001694316299301491
-7.000834522114278e-05   -1.1394637835248668e-05   0.00013109176919440073
-7.000834522114278e-05   -1.1394637835248668e-05   0.00013109176919440073
-7.000834522114278e-05   -1.1394637835248668e-05   0.00013109176919440073
-7.000834522114278e-05   -1.1394637835248668e-05   0.00013109176919440073
-8.917015989026272e-05   -5.21716740342279e-07   0.00011084433443092623
-8.917015989026272e-05   -5.21716740342279e-07   0.00011084433443092623
-8.917015989026272e-05   -5.21716740342279e-07   0.00011084433443092623
-8.917015989026272e-05   -5.21716740342279e-07   0.00011084433443092623
-5.401778259072861e-05   -2.2067142758384504e-05   0.00015650437431932339
-5.401778259072861e-05   -2.2067142758384504e-05   0.00015650437431932339
-5.401778259072861e-05   -2.2067142758384504e-05   0.00015650437431932339
-5.401778259072861e-05   -2.2067142758384504e-05   0.00015650437431932339
-5.339276571996441e-05   -4.087217429090198e-06   0.00010164419498984991
-5.339276571996441e-05   -4.087217429090198e-06   0.00010164419498984991
-5.339276571996441e-05   -4.087217429090198e-06   0.00010164419498984991
-5.339276571996441e-05   -4.087217429090198e-06   0.00010164419498984991
-8.812958696267705e-05   -2.2338550428140135e-05   0.00017048969686046648
-8.812958696267705e-05   -2.2338550428140135e-05   0.00017048969686046648
-8.812958696267705e-05   -2.2338550428140135e-05   0.00017048969686046648
-8.812958696267705e-05   -2.2338550428140135e-05   0.00017048969686046648
-7.024771198236226e-05   -1.2842780015478311e-05   0.00013498910964567846
-7.024771198236226e-05   -1.2842780015478311e-05   0.00013498910964567846
-7.024771198236226e-05   -1.2842780015478311e-05   0.00013498910964567846
-7.024771198236226e-05   -1.2842780015478311e-05   0.00013498910964567846
-5.3835784341742503e-05   1.2345101755304247e-06   0.0001043926224484769
-5.3835784341742503e-05   1.2345101755304247e-06   0.0001043926224484769
-5.3835784341742503e-05   1.2345101755304247e-06   0.0001043926224484769
-5.3835784341742503e-05   1.2345101755304247e-06   0.0001043926224484769
-3.933169181802028e-05   -2.0626465150713237e-05   0.00011544952479226791
-3.933169181802028e-05   -2.0626465150713237e-05   0.00011544952479226791
-3.933169181802028e-05   -2.0626465150713237e-05   0.00011544952479226791
-3.933169181802028e-05   -2.0626465150713237e-05   0.00011544952479226791
-3.891632359607068e-05   -7.305296444133982e-07   9.215706108717551e-05
-3.891632359607068e-05   -7.305296444133982e-07   9.215706108717551e-05
-3.891632359607068e-05   -7.305296444133982e-07   9.215706108717551e-05
-3.891632359607068e-05   -7.305296444133982e-07   9.215706108717551e-05
-5.388758144450254e-05   -2.0257244381254686e-05   0.0001288251863433346
-5.388758144450254e-05   -2.0257244381254686e-05   0.0001288251863433346
-5.388758144450254e-05   -2.0257244381254686e-05   0.0001288251863433346
-5.388758144450254e-05   -2.0257244381254686e-05   0.0001288251863433346
-4.6197472517132726e-05   -1.0440370457118556e-05   0.00011011821377657086
-4.6197472517132726e-05   -1.0440370457118556e-05   0.00011011821377657086
-4.6197472517132726e-05   -1.0440370457118556e-05   0.00011011821377657086
-4.6197472517132726e-05   -1.0440370457118556e-05   0.00011011821377657086
-5.388758144450254e-05   -7.305296444133982e-07   0.00010387308992928015
-5.388758144450254e-05   -7.305296444133982e-07   0.00010387308992928015
-5.388758144450254e-05   -7.305296444133982e-07   0.00010387308992928015
-5.388758144450254e-05   -7.305296444133982e-07   0.00010387308992928015
-3.89163235960709e-05   -2.0257244381254903e-05   0.00011710915750122995
-3.89163235960709e-05   -2.0257244381254903e-05   0.00011710915750122995
-3.89163235960709e-05   -2.0257244381254903e-05   0.00011710915750122995
-3.89163235960709e-05   -2.0257244381254903e-05   0.00011710915750122995
-3.853847841404348e-05   -3.0847975847148393e-06   9.438658137162544e-05
-3.853847841404348e-05   -3.0847975847148393e-06   9.438658137162544e-05
-3.853847841404348e-05   -3.0847975847148393e-06   9.438658137162544e-05
-3.853847841404348e-05   -3.0847975847148393e-06   9.438658137162544e-05
-5.401778259072861e-05   -2.0890439414929327e-05   0.00013086880676422869
-5.401778259072861e-05   -2.0890439414929327e-05   0.00013086880676422869
-5.401778259072861e-05   -2.0890439414929327e-05   0.00013086880676422869
-5.401778259072861e-05   -2.0890439414929327e-05   0.00013086880676422869
-4.572533824205127e-05   -1.1167786543784825e-05   0.0001112144744604103
-4.572533824205127e-05   -1.1167786543784825e-05   0.0001112144744604103
-4.572533824205127e-05   -1.1167786543784825e-05   0.0001112144744604103
-4.572533824205127e-05   -1.1167786543784825e-05   0.0001112144744604103
-5.401778259072861e-05   -3.0847975847148393e-06   0.00010506996646975422
-5.401778259072861e-05   -3.0847975847148393e-06   0.00010506996646975422
-5.401778259072861e-05   -3.0847975847148393e-06   0.00010506996646975422
-5.401778259072861e-05   -3.0847975847148393e-06   0.00010506996646975422
-3.853847841404348e-05   -2.0890439414929544e-05   0.00012018542166610056
-3.853847841404348e-05   -2.0890439414929544e-05   0.00012018542166610056
-3.853847841404348e-05   -2.0890439414929544e-05   0.00012018542166610056
-3.853847841404348e-05   -2.0890439414929544e-05   0.00012018542166610056
-3.7693053018607184e-05   -5.458765287358076e-06   9.782916678295617e-05
-3.7693053018607184e-05   -5.458765287358076e-06   9.782916678295617e-05
-3.7693053018607184e-05   -5.458765287358076e-06   9.782916678295617e-05
-3.7693053018607184e-05   -5.458765287358076e-06   9.782916678295617e-05
-5.339276571996441e-05   -2.181140866857104e-05   0.00013380694064727837
-5.339276571996441e-05   -2.181140866857104e-05   0.00013380694064727837
-5.339276571996441e-05   -2.181140866857104e-05   0.00013380694064727837
-5.339276571996441e-05   -2.181140866857104e-05   0.00013380694064727837
-4.516856593026218e-05   -1.22137030483839e-05   0.00011434131762566319
-4.516856593026218e-05   -1.22137030483839e-05   0.00011434131762566319
-4.516856593026218e-05   -1.22137030483839e-05   0.00011434131762566319
-4.516856593026218e-05   -1.22137030483839e-05   0.00011434131762566319
-3.933169181802028e-05   5.584870824926376e-06   7.071391787107821e-05
-3.933169181802028e-05   5.584870824926376e-06   7.071391787107821e-05
-3.933169181802028e-05   5.584870824926376e-06   7.071391787107821e-05
-3.933169181802028e-05   5.584870824926376e-06   7.071391787107821e-05
-3.246914846652491e-05   -8.435981534592315e-06   7.373897870785917e-05
-3.246914846652491e-05   -8.435981534592315e-06   7.373897870785917e-05
-3.246914846652491e-05   -8.435981534592315e-06   7.373897870785917e-05
-3.246914846652491e-05   -8.435981534592315e-06   7.373897870785917e-05
-3.169813148141791e-05   3.0013784541637126e-06   6.383879351708373e-05
-3.169813148141791e-05   3.0013784541637126e-06   6.383879351708373e-05
-3.169813148141791e-05   3.0013784541637126e-06   6.383879351708373e-05
-3.169813148141791e-05   3.0013784541637126e-06   6.383879351708373e-05
-3.891632359607068e-05   -9.901100577896366e-06   8.361060112740829e-05
-3.891632359607068e-05   -9.901100577896366e-06   8.361060112740829e-05
-3.891632359607068e-05   -9.901100577896366e-06   8.361060112740829e-05
-3.891632359607068e-05   -9.901100577896366e-06   8.361060112740829e-05
-3.534072842870627e-05   -1.9199879360397992e-06   7.286260826335498e-05
-3.534072842870627e-05   -1.9199879360397992e-06   7.286260826335498e-05
-3.534072842870627e-05   -1.9199879360397992e-06   7.286260826335498e-05
-3.534072842870627e-05   -1.9199879360397992e-06   7.286260826335498e-05
-3.891632359607068e-05   3.0013784541637126e-06   7.158028093631969e-05
-3.891632359607068e-05   3.0013784541637126e-06   7.158028093631969e-05
-3.891632359607068e-05   3.0013784541637126e-06   7.158028093631969e-05
-3.891632359607068e-05   3.0013784541637126e-06   7.158028093631969e-05
-3.169813148141791e-05   -9.901100577896366e-06   7.586911370817211e-05
-3.169813148141791e-05   -9.901100577896366e-06   7.586911370817211e-05
-3.169813148141791e-05   -9.901100577896366e-06   7.586911370817211e-05
-3.169813148141791e-05   -9.901100577896366e-06   7.586911370817211e-05
-3.130815417231843e-05   7.922417857675161e-07   6.687743339373487e-05
-3.130815417231843e-05   7.922417857675161e-07   6.687743339373487e-05
-3.130815417231843e-05   7.922417857675161e-07   6.687743339373487e-05
-3.130815417231843e-05   7.922417857675161e-07   6.687743339373487e-05
-3.853847841404348e-05   -1.1017012571480633e-05   8.60135264109576e-05
-3.853847841404348e-05   -1.1017012571480633e-05   8.60135264109576e-05
-3.853847841404348e-05   -1.1017012571480633e-05   8.60135264109576e-05
-3.853847841404348e-05   -1.1017012571480633e-05   8.60135264109576e-05
-3.457859176077846e-05   -3.5045826194579806e-06   7.490625735096564e-05
-3.457859176077846e-05   -3.5045826194579806e-06   7.490625735096564e-05
-3.457859176077846e-05   -3.5045826194579806e-06   7.490625735096564e-05
-3.457859176077846e-05   -3.5045826194579806e-06   7.490625735096564e-05
-3.853847841404348e-05   7.922417857675161e-07   7.396298600808324e-05
-3.853847841404348e-05   7.922417857675161e-07   7.396298600808324e-05
-3.853847841404348e-05   7.922417857675161e-07   7.396298600808324e-05
-3.853847841404348e-05   7.922417857675161e-07   7.396298600808324e-05
-3.130815417231843e-05   -1.1017012571480633e-05   7.892797379660879e-05
-3.130815417231843e-05   -1.1017012571480633e-05   7.892797379660879e-05
-3.130815417231843e-05   -1.1017012571480633e-05   7.892797379660879e-05
-3.130815417231843e-05   -1.1017012571480633e-05   7.892797379660879e-05
-3.071070957514407e-05   -1.4327052972064845e-06   7.069357797918202e-05
-3.071070957514407e-05   -1.4327052972064845e-06   7.069357797918202e-05
-3.071070957514407e-05   -1.4327052972064845e-06   7.069357797918202e-05
-3.071070957514407e-05   -1.4327052972064845e-06   7.069357797918202e-05
-3.7693053018607184e-05   -1.2487066266207844e-05   8.896343363301975e-05
-3.7693053018607184e-05   -1.2487066266207844e-05   8.896343363301975e-05
-3.7693053018607184e-05   -1.2487066266207844e-05   8.896343363301975e-05
-3.7693053018607184e-05   -1.2487066266207844e-05   8.896343363301975e-05
-3.3961555177836967e-05   -4.886512937460688e-06   7.818393856782319e-05
-3.3961555177836967e-05   -4.886512937460688e-06   7.818393856782319e-05
-3.3961555177836967e-05   -4.886512937460688e-06   7.818393856782319e-05
-3.3961555177836967e-05   -4.886512937460688e-06   7.818393856782319e-05
-3.246914846652491e-05   9.133437932161165e-06   1.5630768091573835e-05
-3.246914846652491e-05   9.133437932161165e-06   1.5630768091573835e-05
-3.246914846652491e-05   9.133437932161165e-06   1.5630768091573835e-05
-3.246914846652491e-05   9.133437932161165e-06   1.5630768091573835e-05
-1.8277564934344234e-05   -9.891545590826143e-07   3.320985181712831e-05
-1.8277564934344234e-05   -9.891545590826143e-07   3.320985181712831e-05
-1.8277564934344234e-05   -9.891545590826143e-07   3.320985181712831e-05
-1.8277564934344234e-05   -9.891545590826143e-07   3.320985181712831e-05
-1.925791627939216e-05   7.314152424132796e-06   1.5752021536027255e-05
-1.925791627939216e-05   7.314152424132796e-06   1.5752021536027255e-05
-1.925791627939216e-05   7.314152424132796e-06   1.5752021536027255e-05
-1.925791627939216e-05   7.314152424132796e-06   1.5752021536027255e-05
-3.169813148141791e-05   -1.3602211131474862e-06   4.1690337661772284e-05
-3.169813148141791e-05   -1.3602211131474862e-06   4.1690337661772284e-05
-3.169813148141791e-05   -1.3602211131474862e-06   4.1690337661772284e-05
-3.169813148141791e-05   -1.3602211131474862e-06   4.1690337661772284e-05
-2.4552802000414164e-05   4.6839220136808e-06   2.6154969317337788e-05
-2.4552802000414164e-05   4.6839220136808e-06   2.6154969317337788e-05
-2.4552802000414164e-05   4.6839220136808e-06   2.6154969317337788e-05
-2.4552802000414164e-05   4.6839220136808e-06   2.6154969317337788e-05
-3.169813148141791e-05   7.314152424132796e-06   2.0956645658393863e-05
-3.169813148141791e-05   7.314152424132796e-06   2.0956645658393863e-05
-3.169813148141791e-05   7.314152424132796e-06   2.0956645658393863e-05
-3.169813148141791e-05   7.314152424132796e-06   2.0956645658393863e-05
-1.9257916279391725e-05   -1.3602211131474862e-06   3.648571353940394e-05
-1.9257916279391725e-05   -1.3602211131474862e-06   3.648571353940394e-05
-1.9257916279391725e-05   -1.3602211131474862e-06   3.648571353940394e-05
-1.9257916279391725e-05   -1.3602211131474862e-06   3.648571353940394e-05
-2.0053063020266434e-05   6.122288584277033e-06   2.0643789647481828e-05
-2.0053063020266434e-05   6.122288584277033e-06   2.0643789647481828e-05
-2.0053063020266434e-05   6.122288584277033e-06   2.0643789647481828e-05
-2.0053063020266434e-05   6.122288584277033e-06   2.0643789647481828e-05
-3.130815417231843e-05   -1.8688277559583168e-06   4.419694470504231e-05
-3.130815417231843e-05   -1.8688277559583168e-06   4.419694470504231e-05
-3.130815417231843e-05   -1.8688277559583168e-06   4.419694470504231e-05
-3.130815417231843e-05   -1.8688277559583168e-06   4.419694470504231e-05
-2.490899795245193e-05   3.7725091106936837e-06   3.0146882218605453e-05
-2.490899795245193e-05   3.7725091106936837e-06   3.0146882218605453e-05
-2.490899795245193e-05   3.7725091106936837e-06   3.0146882218605453e-05
-2.490899795245193e-05   3.7725091106936837e-06   3.0146882218605453e-05
-3.130815417231843e-05   6.122288584277033e-06   2.543845945162217e-05
-3.130815417231843e-05   6.122288584277033e-06   2.543845945162217e-05
-3.130815417231843e-05   6.122288584277033e-06   2.543845945162217e-05
-3.130815417231843e-05   6.122288584277033e-06   2.543845945162217e-05
-2.0053063020266e-05   -1.8688277559583168e-06   3.940227490090067e-05
-2.0053063020266e-05   -1.8688277559583168e-06   3.940227490090067e-05
-2.0053063020266e-05   -1.8688277559583168e-06   3.940227490090067e-05
-2.0053063020266e-05   -1.8688277559583168e-06   3.940227490090067e-05
-2.2135912035431936e-05   3.7515105587530156e-06   2.9381022167278628e-05
-2.2135912035431936e-05   3.7515105587530156e-06   2.9381022167278628e-05
-2.2135912035431936e-05   3.7515105587530156e-06   2.9381022167278628e-05
-2.2135912035431936e-05   3.7515105587530156e-06   2.9381022167278628e-05
-3.071070957514407e-05   -2.4647089785900106e-06   4.7402083122536406e-05
-3.071070957514407e-05   -2.4647089785900106e-06   4.7402083122536406e-05
-3.071070957514407e-05   -2.4647089785900106e-06   4.7402083122536406e-05
-3.071070957514407e-05   -2.4647089785900106e-06   4.7402083122536406e-05
-2.4902149331334665e-05   3.167135799726599e-06   3.43420425158651e-05
-2.4902149331334665e-05   3.167135799726599e-06   3.43420425158651e-05
-2.4902149331334665e-05   3.167135799726599e-06   3.43420425158651e-05
-2.4902149331334665e-05   3.167135799726599e-06   3.43420425158651e-05
-0.0003047295413617357   2.4119300720620027e-05   0.00012720608057294593
-0.0003047295413617357   2.4119300720620027e-05   0.00012720608057294593
-0.0003047295413617357   2.4119300720620027e-05   0.00012720608057294593
-0.0003047295413617357   2.4119300720620027e-05   0.00012720608057294593
-7.202789253628653e-05   -0.00014476387465524548   0.0004137122567231757
-7.202789253628653e-05   -0.00014476387465524548   0.0004137122567231757
-7.202789253628653e-05   -0.00014476387465524548   0.0004137122567231757
-7.202789253628653e-05   -0.00014476387465524548   0.0004137122567231757
-8.427605445338558e-05   1.0026358567128682e-05   7.01672980044603e-05
-8.427605445338558e-05   1.0026358567128682e-05   7.01672980044603e-05
-8.427605445338558e-05   1.0026358567128682e-05   7.01672980044603e-05
-8.427605445338558e-05   1.0026358567128682e-05   7.01672980044603e-05
-0.00027791942784355817   -0.00011189184056330587   0.000466057173133008
-0.00027791942784355817   -0.00011189184056330587   0.000466057173133008
-0.00027791942784355817   -0.00011189184056330587   0.000466057173133008
-0.00027791942784355817   -0.00011189184056330587   0.000466057173133008
-0.00018540429735892355   -5.57331017982998e-05   0.00027817004573294673
-0.00018540429735892355   -5.57331017982998e-05   0.00027817004573294673
-0.00018540429735892355   -5.57331017982998e-05   0.00027817004573294673
-0.00018540429735892355   -5.57331017982998e-05   0.00027817004573294673
-0.0002779194278435577   1.0026358567128682e-05   0.00014331821748272088
-0.0002779194278435577   1.0026358567128682e-05   0.00014331821748272088
-0.0002779194278435577   1.0026358567128682e-05   0.00014331821748272088
-0.0002779194278435577   1.0026358567128682e-05   0.00014331821748272088
-8.427605445338575e-05   -0.00011189184056330587   0.0003929062536547474
-8.427605445338575e-05   -0.00011189184056330587   0.0003929062536547474
-8.427605445338575e-05   -0.00011189184056330587   0.0003929062536547474
-8.427605445338575e-05   -0.00011189184056330587   0.0003929062536547474
-8.604859368106392e-05   7.285398539922305e-06   7.708163511024099e-05
-8.604859368106392e-05   7.285398539922305e-06   7.708163511024099e-05
-8.604859368106392e-05   7.285398539922305e-06   7.708163511024099e-05
-8.604859368106392e-05   7.285398539922305e-06   7.708163511024099e-05
-0.00026219533204085017   -9.596879765089062e-05   0.0004326120500910385
-0.00026219533204085017   -9.596879765089062e-05   0.0004326120500910385
-0.00026219533204085017   -9.596879765089062e-05   0.0004326120500910385
-0.00026219533204085017   -9.596879765089062e-05   0.0004326120500910385
-0.00017975425206268324   -5.2735047589173205e-05   0.00026927000009039666
-0.00017975425206268324   -5.2735047589173205e-05   0.00026927000009039666
-0.00017975425206268324   -5.2735047589173205e-05   0.00026927000009039666
-0.00017975425206268324   -5.2735047589173205e-05   0.00026927000009039666
-0.0002621953320408497   7.285398539922305e-06   0.00013903415282472847
-0.0002621953320408497   7.285398539922305e-06   0.00013903415282472847
-0.0002621953320408497   7.285398539922305e-06   0.00013903415282472847
-0.0002621953320408497   7.285398539922305e-06   0.00013903415282472847
-8.604859368106403e-05   -9.596879765089062e-05   0.0003706595323765507
-8.604859368106403e-05   -9.596879765089062e-05   0.0003706595323765507
-8.604859368106403e-05   -9.596879765089062e-05   0.0003706595323765507
-8.604859368106403e-05   -9.596879765089062e-05   0.0003706595323765507
-9.398504066357319e-05   -4.317282360845852e-06   9.664859834961385e-05
-9.398504066357319e-05   -4.317282360845852e-06   9.664859834961385e-05
-9.398504066357319e-05   -4.317282360845852e-06   9.664859834961385e-05
-9.398504066357319e-05   -4.317282360845852e-06   9.664859834961385e-05
-0.00024208412112863685   -7.487663797374967e-05   0.0003858160124924616
-0.00024208412112863685   -7.487663797374967e-05   0.0003858160124924616
-0.00024208412112863685   -7.487663797374967e-05   0.0003858160124924616
-0.00024208412112863685   -7.487663797374967e-05   0.0003858160124924616
-0.00017275771430097996   -4.86496596709226e-05   0.0002545358141313374
-0.00017275771430097996   -4.86496596709226e-05   0.0002545358141313374
-0.00017275771430097996   -4.86496596709226e-05   0.0002545358141313374
-0.00017275771430097996   -4.86496596709226e-05   0.0002545358141313374
-7.202789253628642e-05   -2.6414377005871178e-05   7.154066132777069e-05
-7.202789253628642e-05   -2.6414377005871178e-05   7.154066132777069e-05
-7.202789253628642e-05   -2.6414377005871178e-05   7.154066132777069e-05
-7.202789253628642e-05   -2.6414377005871178e-05   7.154066132777069e-05
-2.5204157185525905e-05   -4.373201016941107e-05   0.00013918964034758145
-2.5204157185525905e-05   -4.373201016941107e-05   0.00013918964034758145
-2.5204157185525905e-05   -4.373201016941107e-05   0.00013918964034758145
-2.5204157185525905e-05   -4.373201016941107e-05   0.00013918964034758145
-2.7999072044504166e-05   -2.1552954901929216e-05   6.457840442315754e-05
-2.7999072044504166e-05   -2.1552954901929216e-05   6.457840442315754e-05
-2.7999072044504166e-05   -2.1552954901929216e-05   6.457840442315754e-05
-2.7999072044504166e-05   -2.1552954901929216e-05   6.457840442315754e-05
-8.427605445338575e-05   -5.845941020796394e-05   0.00018051724828824727
-8.427605445338575e-05   -5.845941020796394e-05   0.00018051724828824727
-8.427605445338575e-05   -5.845941020796394e-05   0.00018051724828824727
-8.427605445338575e-05   -5.845941020796394e-05   0.00018051724828824727
-4.964783365516627e-05   -3.080123736115927e-05   0.00010620864324979815
-4.964783365516627e-05   -3.080123736115927e-05   0.00010620864324979815
-4.964783365516627e-05   -3.080123736115927e-05   0.00010620864324979815
-4.964783365516627e-05   -3.080123736115927e-05   0.00010620864324979815
-8.427605445338553e-05   -2.1552954901929216e-05   8.672227760677764e-05
-8.427605445338553e-05   -2.1552954901929216e-05   8.672227760677764e-05
-8.427605445338553e-05   -2.1552954901929216e-05   8.672227760677764e-05
-8.427605445338553e-05   -2.1552954901929216e-05   8.672227760677764e-05
-2.7999072044504166e-05   -5.845941020796394e-05   0.00015837337510462646
-2.7999072044504166e-05   -5.845941020796394e-05   0.00015837337510462646
-2.7999072044504166e-05   -5.845941020796394e-05   0.00015837337510462646
-2.7999072044504166e-05   -5.845941020796394e-05   0.00015837337510462646
-3.038159595058988e-05   -2.2067142758384287e-05   7.259264544062197e-05
-3.038159595058988e-05   -2.2067142758384287e-05   7.259264544062197e-05
-3.038159595058988e-05   -2.2067142758384287e-05   7.259264544062197e-05
-3.038159595058988e-05   -2.2067142758384287e-05   7.259264544062197e-05
-8.604859368106403e-05   -5.3200240137235243e-05   0.000184050833418722
-8.604859368106403e-05   -5.3200240137235243e-05   0.000184050833418722
-8.604859368106403e-05   -5.3200240137235243e-05   0.000184050833418722
-8.604859368106403e-05   -5.3200240137235243e-05   0.000184050833418722
-5.5808299755747776e-05   -3.780842409706374e-05   0.00012441525391909322
-5.5808299755747776e-05   -3.780842409706374e-05   0.00012441525391909322
-5.5808299755747776e-05   -3.780842409706374e-05   0.00012441525391909322
-5.5808299755747776e-05   -3.780842409706374e-05   0.00012441525391909322
-8.604859368106392e-05   -2.2067142758384287e-05   9.127250386793261e-05
-8.604859368106392e-05   -2.2067142758384287e-05   9.127250386793261e-05
-8.604859368106392e-05   -2.2067142758384287e-05   9.127250386793261e-05
-8.604859368106392e-05   -2.2067142758384287e-05   9.127250386793261e-05
-3.038159595058988e-05   -5.3200240137235243e-05   0.00016537097499141158
-3.038159595058988e-05   -5.3200240137235243e-05   0.00016537097499141158
-3.038159595058988e-05   -5.3200240137235243e-05   0.00016537097499141158
-3.038159595058988e-05   -5.3200240137235243e-05   0.00016537097499141158
-3.423098941227791e-05   -2.2338550428140352e-05   7.927418378205191e-05
-3.423098941227791e-05   -2.2338550428140352e-05   7.927418378205191e-05
-3.423098941227791e-05   -2.2338550428140352e-05   7.927418378205191e-05
-3.423098941227791e-05   -2.2338550428140352e-05   7.927418378205191e-05
-9.39850406635733e-05   -4.9911248987503375e-05   0.00019540788833649462
-9.39850406635733e-05   -4.9911248987503375e-05   0.00019540788833649462
-9.39850406635733e-05   -4.9911248987503375e-05   0.00019540788833649462
-9.39850406635733e-05   -4.9911248987503375e-05   0.00019540788833649462
-5.9313818752330114e-05   -3.449581553799841e-05   0.00012837325841472016
-5.9313818752330114e-05   -3.449581553799841e-05   0.00012837325841472016
-5.9313818752330114e-05   -3.449581553799841e-05   0.00012837325841472016
-5.9313818752330114e-05   -3.449581553799841e-05   0.00012837325841472016
-2.5204157185525905e-05   -2.0626465150713237e-05   3.79554975945232e-05
-2.5204157185525905e-05   -2.0626465150713237e-05   3.79554975945232e-05
-2.5204157185525905e-05   -2.0626465150713237e-05   3.79554975945232e-05
-2.5204157185525905e-05   -2.0626465150713237e-05   3.79554975945232e-05
-1.3991583168054952e-05   -1.1570712401378204e-05   6.207657260657619e-05
-1.3991583168054952e-05   -1.1570712401378204e-05   6.207657260657619e-05
-1.3991583168054952e-05   -1.1570712401378204e-05   6.207657260657619e-05
-1.3991583168054952e-05   -1.1570712401378204e-05   6.207657260657619e-05
-1.3367623233941691e-05   -2.0257244381254903e-05   4.447833654527616e-05
-1.3367623233941691e-05   -2.0257244381254903e-05   4.447833654527616e-05
-1.3367623233941691e-05   -2.0257244381254903e-05   4.447833654527616e-05
-1.3367623233941691e-05   -2.0257244381254903e-05   4.447833654527616e-05
-2.7999072044504166e-05   -1.5358137113072616e-05   6.592462020197027e-05
-2.7999072044504166e-05   -1.5358137113072616e-05   6.592462020197027e-05
-2.7999072044504166e-05   -1.5358137113072616e-05   6.592462020197027e-05
-2.7999072044504166e-05   -1.5358137113072616e-05   6.592462020197027e-05
-1.8873726095604954e-05   -1.6151055957382013e-05   5.119146159372279e-05
-1.8873726095604954e-05   -1.6151055957382013e-05   5.119146159372279e-05
-1.8873726095604954e-05   -1.6151055957382013e-05   5.119146159372279e-05
-1.8873726095604954e-05   -1.6151055957382013e-05   5.119146159372279e-05
-2.7999072044504057e-05   -2.0257244381254686e-05   4.153887218436643e-05
-2.7999072044504057e-05   -2.0257244381254686e-05   4.153887218436643e-05
-2.7999072044504057e-05   -2.0257244381254686e-05   4.153887218436643e-05
-2.7999072044504057e-05   -2.0257244381254686e-05   4.153887218436643e-05
-1.3367623233941691e-05   -1.5358137113072616e-05   6.886408456287956e-05
-1.3367623233941691e-05   -1.5358137113072616e-05   6.886408456287956e-05
-1.3367623233941691e-05   -1.5358137113072616e-05   6.886408456287956e-05
-1.3367623233941691e-05   -1.5358137113072616e-05   6.886408456287956e-05
-1.3309182292879336e-05   -2.0890439414929544e-05   4.750311583724253e-05
-1.3309182292879336e-05   -2.0890439414929544e-05   4.750311583724253e-05
-1.3309182292879336e-05   -2.0890439414929544e-05   4.750311583724253e-05
-1.3309182292879336e-05   -2.0890439414929544e-05   4.750311583724253e-05
-3.038159595058988e-05   -1.9980376162070576e-05   7.541110064837727e-05
-3.038159595058988e-05   -1.9980376162070576e-05   7.541110064837727e-05
-3.038159595058988e-05   -1.9980376162070576e-05   7.541110064837727e-05
-3.038159595058988e-05   -1.9980376162070576e-05   7.541110064837727e-05
-1.9912412317343268e-05   -1.766395788555257e-05   5.657261029372242e-05
-1.9912412317343268e-05   -1.766395788555257e-05   5.657261029372242e-05
-1.9912412317343268e-05   -1.766395788555257e-05   5.657261029372242e-05
-1.9912412317343268e-05   -1.766395788555257e-05   5.657261029372242e-05
-3.038159595058988e-05   -2.0890439414929544e-05   4.6957077885526836e-05
-3.038159595058988e-05   -2.0890439414929544e-05   4.6957077885526836e-05
-3.038159595058988e-05   -2.0890439414929544e-05   4.6957077885526836e-05
-3.038159595058988e-05   -2.0890439414929544e-05   4.6957077885526836e-05
-1.3309182292879336e-05   -1.9980376162070576e-05   7.595713860009275e-05
-1.3309182292879336e-05   -1.9980376162070576e-05   7.595713860009275e-05
-1.3309182292879336e-05   -1.9980376162070576e-05   7.595713860009275e-05
-1.3309182292879336e-05   -1.9980376162070576e-05   7.595713860009275e-05
-1.3365335006338417e-05   -2.181140866857104e-05   5.199782340484195e-05
-1.3365335006338417e-05   -2.181140866857104e-05   5.199782340484195e-05
-1.3365335006338417e-05   -2.181140866857104e-05   5.199782340484195e-05
-1.3365335006338417e-05   -2.181140866857104e-05   5.199782340484195e-05
-3.423098941227791e-05   -2.438541527432375e-05   8.831831804485867e-05
-3.423098941227791e-05   -2.438541527432375e-05   8.831831804485867e-05
-3.423098941227791e-05   -2.438541527432375e-05   8.831831804485867e-05
-3.423098941227791e-05   -2.438541527432375e-05   8.831831804485867e-05
-2.107640934172233e-05   -1.9364347599937237e-05   6.338137732263467e-05
-2.107640934172233e-05   -1.9364347599937237e-05   6.338137732263467e-05
-2.107640934172233e-05   -1.9364347599937237e-05   6.338137732263467e-05
-2.107640934172233e-05   -1.9364347599937237e-05   6.338137732263467e-05
-1.3991583168054952e-05   -8.435981534592532e-06   1.0090914575427035e-05
-1.3991583168054952e-05   -8.435981534592532e-06   1.0090914575427035e-05
-1.3991583168054952e-05   -8.435981534592532e-06   1.0090914575427035e-05
-1.3991583168054952e-05   -8.435981534592532e-06   1.0090914575427035e-05
-1.0235768711445124e-05   2.7300593417683386e-06   2.305022986225959e-05
-1.0235768711445124e-05   2.7300593417683386e-06   2.305022986225959e-05
-1.0235768711445124e-05   2.7300593417683386e-06   2.305022986225959e-05
-1.0235768711445124e-05   2.7300593417683386e-06   2.305022986225959e-05
-8.21607451885779e-06   -9.901100577896366e-06   1.7778373255153326e-05
-8.21607451885779e-06   -9.901100577896366e-06   1.7778373255153326e-05
-8.21607451885779e-06   -9.901100577896366e-06   1.7778373255153326e-05
-8.21607451885779e-06   -9.901100577896366e-06   1.7778373255153326e-05
-1.3367623233941691e-05   1.4298878949347703e-06   1.9565694696593687e-05
-1.3367623233941691e-05   1.4298878949347703e-06   1.9565694696593687e-05
-1.3367623233941691e-05   1.4298878949347703e-06   1.9565694696593687e-05
-1.3367623233941691e-05   1.4298878949347703e-06   1.9565694696593687e-05
-1.0751821240864733e-05   -3.7401243858940694e-06   1.8308032076628112e-05
-1.0751821240864733e-05   -3.7401243858940694e-06   1.8308032076628112e-05
-1.0751821240864733e-05   -3.7401243858940694e-06   1.8308032076628112e-05
-1.0751821240864733e-05   -3.7401243858940694e-06   1.8308032076628112e-05
-1.3367623233941691e-05   -9.901100577896366e-06   1.0979780171454286e-05
-1.3367623233941691e-05   -9.901100577896366e-06   1.0979780171454286e-05
-1.3367623233941691e-05   -9.901100577896366e-06   1.0979780171454286e-05
-1.3367623233941691e-05   -9.901100577896366e-06   1.0979780171454286e-05
-8.21607451885779e-06   1.4298878949347703e-06   2.6364287780292726e-05
-8.21607451885779e-06   1.4298878949347703e-06   2.6364287780292726e-05
-8.21607451885779e-06   1.4298878949347703e-06   2.6364287780292726e-05
-8.21607451885779e-06   1.4298878949347703e-06   2.6364287780292726e-05
-7.0795119573524926e-06   -1.1017012571480633e-05   1.9523299280849258e-05
-7.0795119573524926e-06   -1.1017012571480633e-05   1.9523299280849258e-05
-7.0795119573524926e-06   -1.1017012571480633e-05   1.9523299280849258e-05
-7.0795119573524926e-06   -1.1017012571480633e-05   1.9523299280849258e-05
-1.3309182292879336e-05   -6.96881406898783e-07   2.3714004474644813e-05
-1.3309182292879336e-05   -6.96881406898783e-07   2.3714004474644813e-05
-1.3309182292879336e-05   -6.96881406898783e-07   2.3714004474644813e-05
-1.3309182292879336e-05   -6.96881406898783e-07   2.3714004474644813e-05
-9.68385440869475e-06   -4.838660613948808e-06   2.015685885856707e-05
-9.68385440869475e-06   -4.838660613948808e-06   2.015685885856707e-05
-9.68385440869475e-06   -4.838660613948808e-06   2.015685885856707e-05
-9.68385440869475e-06   -4.838660613948808e-06   2.015685885856707e-05
-1.3309182292879336e-05   -1.1017012571480633e-05   1.3331220582099134e-05
-1.3309182292879336e-05   -1.1017012571480633e-05   1.3331220582099134e-05
-1.3309182292879336e-05   -1.1017012571480633e-05   1.3331220582099134e-05
-1.3309182292879336e-05   -1.1017012571480633e-05   1.3331220582099134e-05
-7.0795119573524926e-06   -6.96881406898783e-07   2.9906083173393636e-05
-7.0795119573524926e-06   -6.96881406898783e-07   2.9906083173393636e-05
-7.0795119573524926e-06   -6.96881406898783e-07   2.9906083173393636e-05
-7.0795119573524926e-06   -6.96881406898783e-07   2.9906083173393636e-05
-5.3320777806203055e-06   -1.2487066266207627e-05   2.136981356018865e-05
-5.3320777806203055e-06   -1.2487066266207627e-05   2.136981356018865e-05
-5.3320777806203055e-06   -1.2487066266207627e-05   2.136981356018865e-05
-5.3320777806203055e-06   -1.2487066266207627e-05   2.136981356018865e-05
-1.3365335006338417e-05   -5.1472143647451625e-06   3.0354664462173015e-05
-1.3365335006338417e-05   -5.1472143647451625e-06   3.0354664462173015e-05
-1.3365335006338417e-05   -5.1472143647451625e-06   3.0354664462173015e-05
-1.3365335006338417e-05   -5.1472143647451625e-06   3.0354664462173015e-05
-8.78158161912398e-06   -6.5505686527294205e-06   2.355708805627495e-05
-8.78158161912398e-06   -6.5505686527294205e-06   2.355708805627495e-05
-8.78158161912398e-06   -6.5505686527294205e-06   2.355708805627495e-05
-8.78158161912398e-06   -6.5505686527294205e-06   2.355708805627495e-05
-1.0235768711445124e-05   -9.891545590823975e-07   -1.766503229474049e-05
-1.0235768711445124e-05   -9.891545590823975e-07   -1.766503229474049e-05
-1.0235768711445124e-05   -9.891545590823975e-07   -1.766503229474049e-05
-1.0235768711445124e-05   -9.891545590823975e-07   -1.766503229474049e-05
-1.7407958668113309e-06   1.531249689510993e-06   -1.9945016711958585e-06
-1.7407958668113309e-06   1.531249689510993e-06   -1.9945016711958585e-06
-1.7407958668113309e-06   1.531249689510993e-06   -1.9945016711958585e-06
-1.7407958668113309e-06   1.531249689510993e-06   -1.9945016711958585e-06
2.4850462573442963e-07   -1.3602211131474862e-06   -1.3979245535301194e-05
2.4850462573442963e-07   -1.3602211131474862e-06   -1.3979245535301194e-05
2.4850462573442963e-07   -1.3602211131474862e-06   -1.3979245535301194e-05
2.4850462573442963e-07   -1.3602211131474862e-06   -1.3979245535301194e-05
-8.21607451885779e-06   2.6750409800943965e-06   -2.292770883594031e-06
-8.21607451885779e-06   2.6750409800943965e-06   -2.292770883594031e-06
-8.21607451885779e-06   2.6750409800943965e-06   -2.292770883594031e-06
-8.21607451885779e-06   2.6750409800943965e-06   -2.292770883594031e-06
-4.558585835388439e-06   6.883394426757811e-07   -7.196564433593292e-06
-4.558585835388439e-06   6.883394426757811e-07   -7.196564433593292e-06
-4.558585835388439e-06   6.883394426757811e-07   -7.196564433593292e-06
-4.558585835388439e-06   6.883394426757811e-07   -7.196564433593292e-06
-8.21607451885779e-06   -1.3602211131474862e-06   -1.640040279124802e-05
-8.21607451885779e-06   -1.3602211131474862e-06   -1.640040279124802e-05
-8.21607451885779e-06   -1.3602211131474862e-06   -1.640040279124802e-05
-8.21607451885779e-06   -1.3602211131474862e-06   -1.640040279124802e-05
2.4850462573442963e-07   2.6750409800943965e-06   1.283863723506272e-07
2.4850462573442963e-07   2.6750409800943965e-06   1.283863723506272e-07
2.4850462573442963e-07   2.6750409800943965e-06   1.283863723506272e-07
2.4850462573442963e-07   2.6750409800943965e-06   1.283863723506272e-07
1.3201482335343552e-06   -1.8688277559583168e-06   -1.2669810600491986e-05
1.3201482335343552e-06   -1.8688277559583168e-06   -1.2669810600491986e-05
1.3201482335343552e-06   -1.8688277559583168e-06   -1.2669810600491986e-05
1.3201482335343552e-06   -1.8688277559583168e-06   -1.2669810600491986e-05
-7.0795119573524926e-06   2.3610375944188024e-06   -1.2082961592398654e-06
-7.0795119573524926e-06   2.3610375944188024e-06   -1.2082961592398654e-06
-7.0795119573524926e-06   2.3610375944188024e-06   -1.2082961592398654e-06
-7.0795119573524926e-06   2.3610375944188024e-06   -1.2082961592398654e-06
-3.0739258692583527e-06   4.5530996495963226e-07   -6.740836395052914e-06
-3.0739258692583527e-06   4.5530996495963226e-07   -6.740836395052914e-06
-3.0739258692583527e-06   4.5530996495963226e-07   -6.740836395052914e-06
-3.0739258692583527e-06   4.5530996495963226e-07   -6.740836395052914e-06
-7.0795119573524926e-06   -1.8688277559583168e-06   -1.5207729810716789e-05
-7.0795119573524926e-06   -1.8688277559583168e-06   -1.5207729810716789e-05
-7.0795119573524926e-06   -1.8688277559583168e-06   -1.5207729810716789e-05
-7.0795119573524926e-06   -1.8688277559583168e-06   -1.5207729810716789e-05
1.3201482335343552e-06   2.3610375944188024e-06   1.329623050986238e-06
1.3201482335343552e-06   2.3610375944188024e-06   1.329623050986238e-06
1.3201482335343552e-06   2.3610375944188024e-06   1.329623050986238e-06
1.3201482335343552e-06   2.3610375944188024e-06   1.329623050986238e-06
2.673192295246044e-06   -2.4647089785900106e-06   -1.0784213274854168e-05
2.673192295246044e-06   -2.4647089785900106e-06   -1.0784213274854168e-05
2.673192295246044e-06   -2.4647089785900106e-06   -1.0784213274854168e-05
2.673192295246044e-06   -2.4647089785900106e-06   -1.0784213274854168e-05
-5.3320777806203055e-06   2.159802844809138e-06   -2.1680357578440432e-07
-5.3320777806203055e-06   2.159802844809138e-06   -2.1680357578440432e-07
-5.3320777806203055e-06   2.159802844809138e-06   -2.1680357578440432e-07
-5.3320777806203055e-06   2.159802844809138e-06   -2.1680357578440432e-07
-1.7234228646826385e-06   1.8689272824950684e-07   -5.047482365743913e-06
-1.7234228646826385e-06   1.8689272824950684e-07   -5.047482365743913e-06
-1.7234228646826385e-06   1.8689272824950684e-07   -5.047482365743913e-06
-1.7234228646826385e-06   1.8689272824950684e-07   -5.047482365743913e-06
              </DataArray>   
             <DataArray type="Float64" NumberOfComponents="3" Name="Stress" format="ascii">   
-15.759388676963326   -3.9398471692408314   -3.9398471692408314
-15.759388676963326   -3.9398471692408314   -3.9398471692408314
-15.759388676963326   -3.9398471692408314   -3.9398471692408314
-15.759388676963326   -3.9398471692408314   -3.9398471692408314
-9.121654665796422   -0.2851182121399445   -0.18136377483054378
-9.121654665796422   -0.2851182121399445   -0.18136377483054378
-9.121654665796422   -0.2851182121399445   -0.18136377483054378
-9.121654665796422   -0.2851182121399445   -0.18136377483054378
-9.83557191361436   -2.45889297840359   -2.45889297840359
-9.83557191361436   -2.45889297840359   -2.45889297840359
-9.83557191361436   -2.45889297840359   -2.45889297840359
-9.83557191361436   -2.45889297840359   -2.45889297840359
-15.1902473460007   -1.244392235945921   -0.4749339859321944
-15.1902473460007   -1.244392235945921   -0.4749339859321944
-15.1902473460007   -1.244392235945921   -0.4749339859321944
-15.1902473460007   -1.244392235945921   -0.4749339859321944
-11.914572471414377   -1.9515129093046262   -0.032688118967579324
-11.914572471414377   -1.9515129093046262   -0.032688118967579324
-11.914572471414377   -1.9515129093046262   -0.032688118967579324
-11.914572471414377   -1.9515129093046262   -0.032688118967579324
-16.49598011291678   -4.123995028229195   -4.123995028229195
-16.49598011291678   -4.123995028229195   -4.123995028229195
-16.49598011291678   -4.123995028229195   -4.123995028229195
-16.49598011291678   -4.123995028229195   -4.123995028229195
-8.839182274205157   0.11136668637282954   -0.04720444613399788
-8.839182274205157   0.11136668637282954   -0.04720444613399788
-8.839182274205157   0.11136668637282954   -0.04720444613399788
-8.839182274205157   0.11136668637282954   -0.04720444613399788
-9.86596302146546   -2.466490755366365   -2.466490755366365
-9.86596302146546   -2.466490755366365   -2.466490755366365
-9.86596302146546   -2.466490755366365   -2.466490755366365
-9.86596302146546   -2.466490755366365   -2.466490755366365
-15.703742112575926   -1.257161618745287   -0.6963033284270749
-15.703742112575926   -1.257161618745287   -0.6963033284270749
-15.703742112575926   -1.257161618745287   -0.6963033284270749
-15.703742112575926   -1.257161618745287   -0.6963033284270749
-12.361805248538507   -1.8383370569073185   -0.6563171334252776
-12.361805248538507   -1.8383370569073185   -0.6563171334252776
-12.361805248538507   -1.8383370569073185   -0.6563171334252776
-12.361805248538507   -1.8383370569073185   -0.6563171334252776
-17.014499025712755   -4.253624756428189   -4.253624756428189
-17.014499025712755   -4.253624756428189   -4.253624756428189
-17.014499025712755   -4.253624756428189   -4.253624756428189
-17.014499025712755   -4.253624756428189   -4.253624756428189
-8.815965476641246   0.26921301400394526   0.04779319938438997
-8.815965476641246   0.26921301400394526   0.04779319938438997
-8.815965476641246   0.26921301400394526   0.04779319938438997
-8.815965476641246   0.26921301400394526   0.04779319938438997
-9.863767986919695   -2.465941996729924   -2.465941996729924
-9.863767986919695   -2.465941996729924   -2.465941996729924
-9.863767986919695   -2.465941996729924   -2.465941996729924
-9.863767986919695   -2.465941996729924   -2.465941996729924
-16.620195882126115   -1.1045880698225528   -0.4163469874152862
-16.620195882126115   -1.1045880698225528   -0.4163469874152862
-16.620195882126115   -1.1045880698225528   -0.4163469874152862
-16.620195882126115   -1.1045880698225528   -0.4163469874152862
-12.6946676124622   -1.8105401884140733   -1.1866970954740272
-12.6946676124622   -1.8105401884140733   -1.1866970954740272
-12.6946676124622   -1.8105401884140733   -1.1866970954740272
-12.6946676124622   -1.8105401884140733   -1.1866970954740272
-10.031509187113713   -2.507877296778428   -2.507877296778428
-10.031509187113713   -2.507877296778428   -2.507877296778428
-10.031509187113713   -2.507877296778428   -2.507877296778428
-10.031509187113713   -2.507877296778428   -2.507877296778428
-4.181910776689965   -0.27570708719602444   -0.08983720008529422
-4.181910776689965   -0.27570708719602444   -0.08983720008529422
-4.181910776689965   -0.27570708719602444   -0.08983720008529422
-4.181910776689965   -0.27570708719602444   -0.08983720008529422
-4.393460832817566   -1.0983652082043915   -1.0983652082043915
-4.393460832817566   -1.0983652082043915   -1.0983652082043915
-4.393460832817566   -1.0983652082043915   -1.0983652082043915
-4.393460832817566   -1.0983652082043915   -1.0983652082043915
-9.134903966116706   -1.0728801890435942   -0.3415660302753277
-9.134903966116706   -1.0728801890435942   -0.3415660302753277
-9.134903966116706   -1.0728801890435942   -0.3415660302753277
-9.134903966116706   -1.0728801890435942   -0.3415660302753277
-6.735643092895212   -1.2751098555072855   0.05307693587654537
-6.735643092895212   -1.2751098555072855   0.05307693587654537
-6.735643092895212   -1.2751098555072855   0.05307693587654537
-6.735643092895212   -1.2751098555072855   0.05307693587654537
-9.83557191361435   -2.4588929784035876   -2.4588929784035876
-9.83557191361435   -2.4588929784035876   -2.4588929784035876
-9.83557191361435   -2.4588929784035876   -2.4588929784035876
-9.83557191361435   -2.4588929784035876   -2.4588929784035876
-3.9479138696507277   0.03252659682479109   -0.0015221973993820581
-3.9479138696507277   0.03252659682479109   -0.0015221973993820581
-3.9479138696507277   0.03252659682479109   -0.0015221973993820581
-3.9479138696507277   0.03252659682479109   -0.0015221973993820581
-4.298015248962881   -1.0745038122407202   -1.0745038122407202
-4.298015248962881   -1.0745038122407202   -1.0745038122407202
-4.298015248962881   -1.0745038122407202   -1.0745038122407202
-4.298015248962881   -1.0745038122407202   -1.0745038122407202
-9.11450281301565   -0.8759488144275176   -0.299731654056166
-9.11450281301565   -0.8759488144275176   -0.299731654056166
-9.11450281301565   -0.8759488144275176   -0.299731654056166
-9.11450281301565   -0.8759488144275176   -0.299731654056166
-6.644453526421907   -1.0740129706566788   -0.34768354565413373
-6.644453526421907   -1.0740129706566788   -0.34768354565413373
-6.644453526421907   -1.0740129706566788   -0.34768354565413373
-6.644453526421907   -1.0740129706566788   -0.34768354565413373
-9.86596302146546   -2.466490755366365   -2.466490755366365
-9.86596302146546   -2.466490755366365   -2.466490755366365
-9.86596302146546   -2.466490755366365   -2.466490755366365
-9.86596302146546   -2.466490755366365   -2.466490755366365
-3.793647618226262   0.268945550984937   0.10388497821671872
-3.793647618226262   0.268945550984937   0.10388497821671872
-3.793647618226262   0.268945550984937   0.10388497821671872
-3.793647618226262   0.268945550984937   0.10388497821671872
-4.211542838482739   -1.0528857096206847   -1.0528857096206847
-4.211542838482739   -1.0528857096206847   -1.0528857096206847
-4.211542838482739   -1.0528857096206847   -1.0528857096206847
-4.211542838482739   -1.0528857096206847   -1.0528857096206847
-9.05037333383211   -0.6766497943062246   -0.1882609337158207
-9.05037333383211   -0.6766497943062246   -0.1882609337158207
-9.05037333383211   -0.6766497943062246   -0.1882609337158207
-9.05037333383211   -0.6766497943062246   -0.1882609337158207
-6.680116634994919   -0.9511789808083473   -0.7750160092828084
-6.680116634994919   -0.9511789808083473   -0.7750160092828084
-6.680116634994919   -0.9511789808083473   -0.7750160092828084
-6.680116634994919   -0.9511789808083473   -0.7750160092828084
-4.56533546581523   -1.1413338664538075   -1.1413338664538075
-4.56533546581523   -1.1413338664538075   -1.1413338664538075
-4.56533546581523   -1.1413338664538075   -1.1413338664538075
-4.56533546581523   -1.1413338664538075   -1.1413338664538075
0.549629999650406   0.0372854424512543   0.0043879861746923925
0.549629999650406   0.0372854424512543   0.0043879861746923925
0.549629999650406   0.0372854424512543   0.0043879861746923925
0.549629999650406   0.0372854424512543   0.0043879861746923925
0.709916693318566   0.1774791733296415   0.1774791733296415
0.709916693318566   0.1774791733296415   0.1774791733296415
0.709916693318566   0.1774791733296415   0.1774791733296415
0.709916693318566   0.1774791733296415   0.1774791733296415
-4.130344470720477   -0.7139717370592875   -0.16717686886404776
-4.130344470720477   -0.7139717370592875   -0.16717686886404776
-4.130344470720477   -0.7139717370592875   -0.16717686886404776
-4.130344470720477   -0.7139717370592875   -0.16717686886404776
-1.7641906507865808   -0.4477016217288826   0.3014406059134539
-1.7641906507865808   -0.4477016217288826   0.3014406059134539
-1.7641906507865808   -0.4477016217288826   0.3014406059134539
-1.7641906507865808   -0.4477016217288826   0.3014406059134539
-4.393460832817566   -1.0983652082043915   -1.0983652082043915
-4.393460832817566   -1.0983652082043915   -1.0983652082043915
-4.393460832817566   -1.0983652082043915   -1.0983652082043915
-4.393460832817566   -1.0983652082043915   -1.0983652082043915
0.7221829582840028   0.31102254734309187   0.10526712414336939
0.7221829582840028   0.31102254734309187   0.10526712414336939
0.7221829582840028   0.31102254734309187   0.10526712414336939
0.7221829582840028   0.31102254734309187   0.10526712414336939
0.7951833116785861   0.19879582791964653   0.19879582791964653
0.7951833116785861   0.19879582791964653   0.19879582791964653
0.7951833116785861   0.19879582791964653   0.19879582791964653
0.7951833116785861   0.19879582791964653   0.19879582791964653
-3.986946123765698   -0.4815233590901823   -0.11213863940537308
-3.986946123765698   -0.4815233590901823   -0.11213863940537308
-3.986946123765698   -0.4815233590901823   -0.11213863940537308
-3.986946123765698   -0.4815233590901823   -0.11213863940537308
-1.6950711991826255   -0.2770885159112255   -0.10214305743919905
-1.6950711991826255   -0.2770885159112255   -0.10214305743919905
-1.6950711991826255   -0.2770885159112255   -0.10214305743919905
-1.6950711991826255   -0.2770885159112255   -0.10214305743919905
-4.298015248962881   -1.0745038122407202   -1.0745038122407202
-4.298015248962881   -1.0745038122407202   -1.0745038122407202
-4.298015248962881   -1.0745038122407202   -1.0745038122407202
-4.298015248962881   -1.0745038122407202   -1.0745038122407202
0.8604451820826958   0.545969026277115   0.17793198158272017
0.8604451820826958   0.545969026277115   0.17793198158272017
0.8604451820826958   0.545969026277115   0.17793198158272017
0.8604451820826958   0.545969026277115   0.17793198158272017
0.9107906517375849   0.22769766293439622   0.22769766293439622
0.9107906517375849   0.22769766293439622   0.22769766293439622
0.9107906517375849   0.22769766293439622   0.22769766293439622
0.9107906517375849   0.22769766293439622   0.22769766293439622
-3.830840785686279   -0.20409865815567396   0.0018375028965923745
-3.830840785686279   -0.20409865815567396   0.0018375028965923745
-3.830840785686279   -0.20409865815567396   0.0018375028965923745
-3.830840785686279   -0.20409865815567396   0.0018375028965923745
-1.6471997056384904   -0.11261589188325044   -0.5021272925523006
-1.6471997056384904   -0.11261589188325044   -0.5021272925523006
-1.6471997056384904   -0.11261589188325044   -0.5021272925523006
-1.6471997056384904   -0.11261589188325044   -0.5021272925523006
0.6014392376946863   0.15035980942367158   0.15035980942367158
0.6014392376946863   0.15035980942367158   0.15035980942367158
0.6014392376946863   0.15035980942367158   0.15035980942367158
0.6014392376946863   0.15035980942367158   0.15035980942367158
5.726901648716463   0.5251143613317512   0.17502356682657924
5.726901648716463   0.5251143613317512   0.17502356682657924
5.726901648716463   0.5251143613317512   0.17502356682657924
5.726901648716463   0.5251143613317512   0.17502356682657924
6.215248461419374   1.5538121153548434   1.5538121153548434
6.215248461419374   1.5538121153548434   1.5538121153548434
6.215248461419374   1.5538121153548434   1.5538121153548434
6.215248461419374   1.5538121153548434   1.5538121153548434
0.5411234932993002   -0.4035310415427312   -0.08547661189432587
0.5411234932993002   -0.4035310415427312   -0.08547661189432587
0.5411234932993002   -0.4035310415427312   -0.08547661189432587
0.5411234932993002   -0.4035310415427312   -0.08547661189432587
3.2676925410204656   0.4066657002616624   0.5942496818340303
3.2676925410204656   0.4066657002616624   0.5942496818340303
3.2676925410204656   0.4066657002616624   0.5942496818340303
3.2676925410204656   0.4066657002616624   0.5942496818340303
0.7099166933185684   0.1774791733296421   0.1774791733296421
0.7099166933185684   0.1774791733296421   0.1774791733296421
0.7099166933185684   0.1774791733296421   0.1774791733296421
0.7099166933185684   0.1774791733296421   0.1774791733296421
5.791542623946935   0.7178892630292997   0.2712057803181931
5.791542623946935   0.7178892630292997   0.2712057803181931
5.791542623946935   0.7178892630292997   0.2712057803181931
5.791542623946935   0.7178892630292997   0.2712057803181931
6.1856756036469625   1.5464189009117406   1.5464189009117406
6.1856756036469625   1.5464189009117406   1.5464189009117406
6.1856756036469625   1.5464189009117406   1.5464189009117406
6.1856756036469625   1.5464189009117406   1.5464189009117406
0.680278089361909   -0.17634674719535884   -0.0005877085487395045
0.680278089361909   -0.17634674719535884   -0.0005877085487395045
0.680278089361909   -0.17634674719535884   -0.0005877085487395045
0.680278089361909   -0.17634674719535884   -0.0005877085487395045
3.2405686330569963   0.5325929036160342   0.1551675934965025
3.2405686330569963   0.5325929036160342   0.1551675934965025
3.2405686330569963   0.5325929036160342   0.1551675934965025
3.2405686330569963   0.5325929036160342   0.1551675934965025
0.7951833116785869   0.19879582791964673   0.19879582791964673
0.7951833116785869   0.19879582791964673   0.19879582791964673
0.7951833116785869   0.19879582791964673   0.19879582791964673
0.7951833116785869   0.19879582791964673   0.19879582791964673
5.818290781319541   0.918796725785992   0.3371169644003825
5.818290781319541   0.918796725785992   0.3371169644003825
5.818290781319541   0.918796725785992   0.3371169644003825
5.818290781319541   0.918796725785992   0.3371169644003825
6.302635269532532   1.575658817383133   1.575658817383133
6.302635269532532   1.575658817383133   1.575658817383133
6.302635269532532   1.575658817383133   1.575658817383133
6.302635269532532   1.575658817383133   1.575658817383133
0.863456873159887   0.12448826536463373   0.09423816761566212
0.863456873159887   0.12448826536463373   0.09423816761566212
0.863456873159887   0.12448826536463373   0.09423816761566212
0.863456873159887   0.12448826536463373   0.09423816761566212
3.2879785533083945   0.7217777016772708   -0.2519767428603085
3.2879785533083945   0.7217777016772708   -0.2519767428603085
3.2879785533083945   0.7217777016772708   -0.2519767428603085
3.2879785533083945   0.7217777016772708   -0.2519767428603085
6.207637847871997   1.5519094619679992   1.5519094619679992
6.207637847871997   1.5519094619679992   1.5519094619679992
6.207637847871997   1.5519094619679992   1.5519094619679992
6.207637847871997   1.5519094619679992   1.5519094619679992
12.859168554609145   0.9792618481308792   0.33230496995206177
12.859168554609145   0.9792618481308792   0.33230496995206177
12.859168554609145   0.9792618481308792   0.33230496995206177
12.859168554609145   0.9792618481308792   0.33230496995206177
13.140525434164648   3.285131358541162   3.285131358541162
13.140525434164648   3.285131358541162   3.285131358541162
13.140525434164648   3.285131358541162   3.285131358541162
13.140525434164648   3.285131358541162   3.285131358541162
5.523975701158409   -0.31512922970312873   -0.03361034089200837
5.523975701158409   -0.31512922970312873   -0.03361034089200837
5.523975701158409   -0.31512922970312873   -0.03361034089200837
5.523975701158409   -0.31512922970312873   -0.03361034089200837
9.173480612845198   1.2973455868322787   1.0366900928112643
9.173480612845198   1.2973455868322787   1.0366900928112643
9.173480612845198   1.2973455868322787   1.0366900928112643
9.173480612845198   1.2973455868322787   1.0366900928112643
6.215248461419368   1.553812115354842   1.553812115354842
6.215248461419368   1.553812115354842   1.553812115354842
6.215248461419368   1.553812115354842   1.553812115354842
6.215248461419368   1.553812115354842   1.553812115354842
12.176115170010204   1.143052509589747   0.6051588867205593
12.176115170010204   1.143052509589747   0.6051588867205593
12.176115170010204   1.143052509589747   0.6051588867205593
12.176115170010204   1.143052509589747   0.6051588867205593
12.744464452177985   3.186116113044496   3.186116113044496
12.744464452177985   3.186116113044496   3.186116113044496
12.744464452177985   3.186116113044496   3.186116113044496
12.744464452177985   3.186116113044496   3.186116113044496
5.540506896447874   -0.17535543032040146   0.04234969614843903
5.540506896447874   -0.17535543032040146   0.04234969614843903
5.540506896447874   -0.17535543032040146   0.04234969614843903
5.540506896447874   -0.17535543032040146   0.04234969614843903
8.898103634205604   1.333888368937735   0.4972757464962503
8.898103634205604   1.333888368937735   0.4972757464962503
8.898103634205604   1.333888368937735   0.4972757464962503
8.898103634205604   1.333888368937735   0.4972757464962503
6.1856756036469625   1.5464189009117406   1.5464189009117406
6.1856756036469625   1.5464189009117406   1.5464189009117406
6.1856756036469625   1.5464189009117406   1.5464189009117406
6.1856756036469625   1.5464189009117406   1.5464189009117406
11.780911357181981   1.1459573940154792   0.40850935709370356
11.780911357181981   1.1459573940154792   0.40850935709370356
11.780911357181981   1.1459573940154792   0.40850935709370356
11.780911357181981   1.1459573940154792   0.40850935709370356
12.156905628490714   3.0392264071226784   3.0392264071226784
12.156905628490714   3.0392264071226784   3.0392264071226784
12.156905628490714   3.0392264071226784   3.0392264071226784
12.156905628490714   3.0392264071226784   3.0392264071226784
5.7425429743664935   0.1772067509029176   0.1736494080331582
5.7425429743664935   0.1772067509029176   0.1736494080331582
5.7425429743664935   0.1772067509029176   0.1736494080331582
5.7425429743664935   0.1772067509029176   0.1736494080331582
8.517259876155336   1.445211821168819   -0.12972021270195672
8.517259876155336   1.445211821168819   -0.12972021270195672
8.517259876155336   1.445211821168819   -0.12972021270195672
8.517259876155336   1.445211821168819   -0.12972021270195672
-12.480995076527519   -0.8932859961351427   0.1371377159245925
-12.480995076527519   -0.8932859961351427   0.1371377159245925
-12.480995076527519   -0.8932859961351427   0.1371377159245925
-12.480995076527519   -0.8932859961351427   0.1371377159245925
-7.941027420562224   -0.18000428496148135   -0.05017567575827481
-7.941027420562224   -0.18000428496148135   -0.05017567575827481
-7.941027420562224   -0.18000428496148135   -0.05017567575827481
-7.941027420562224   -0.18000428496148135   -0.05017567575827481
-7.997547993274397   0.3221152835480705   0.16490425881146265
-7.997547993274397   0.3221152835480705   0.16490425881146265
-7.997547993274397   0.3221152835480705   0.16490425881146265
-7.997547993274397   0.3221152835480705   0.16490425881146265
-12.668189882524374   -0.862436089387608   -0.14851778570593627
-12.668189882524374   -0.862436089387608   -0.14851778570593627
-12.668189882524374   -0.862436089387608   -0.14851778570593627
-12.668189882524374   -0.862436089387608   -0.14851778570593627
-9.867391163761637   -0.3359660755596332   -0.037386033937995666
-9.867391163761637   -0.3359660755596332   -0.037386033937995666
-9.867391163761637   -0.3359660755596332   -0.037386033937995666
-9.867391163761637   -0.3359660755596332   -0.037386033937995666
-12.577631939373566   -0.6154293244182978   0.05726516507878876
-12.577631939373566   -0.6154293244182978   0.05726516507878876
-12.577631939373566   -0.6154293244182978   0.05726516507878876
-12.577631939373566   -0.6154293244182978   0.05726516507878876
-8.101560184728106   0.06165427027588222   -0.09469568518475219
-8.101560184728106   0.06165427027588222   -0.09469568518475219
-8.101560184728106   0.06165427027588222   -0.09469568518475219
-8.101560184728106   0.06165427027588222   -0.09469568518475219
-8.008817976910342   0.4587530096701262   0.18834567798441992
-8.008817976910342   0.4587530096701262   0.18834567798441992
-8.008817976910342   0.4587530096701262   0.18834567798441992
-8.008817976910342   0.4587530096701262   0.18834567798441992
-12.747422046034645   -0.7602997531323559   -0.19623401312619104
-12.747422046034645   -0.7602997531323559   -0.19623401312619104
-12.747422046034645   -0.7602997531323559   -0.19623401312619104
-12.747422046034645   -0.7602997531323559   -0.19623401312619104
-10.146662096993026   -0.2256177823385106   -0.09538820888521815
-10.146662096993026   -0.2256177823385106   -0.09538820888521815
-10.146662096993026   -0.2256177823385106   -0.09538820888521815
-10.146662096993026   -0.2256177823385106   -0.09538820888521815
-12.52027886075053   -0.3711432255520086   0.550325385713935
-12.52027886075053   -0.3711432255520086   0.550325385713935
-12.52027886075053   -0.3711432255520086   0.550325385713935
-12.52027886075053   -0.3711432255520086   0.550325385713935
-8.140924180342104   0.16463346394212586   -0.17806579344632434
-8.140924180342104   0.16463346394212586   -0.17806579344632434
-8.140924180342104   0.16463346394212586   -0.17806579344632434
-8.140924180342104   0.16463346394212586   -0.17806579344632434
-7.865095900351787   0.7984648191496506   0.3438174756714193
-7.865095900351787   0.7984648191496506   0.3438174756714193
-7.865095900351787   0.7984648191496506   0.3438174756714193
-7.865095900351787   0.7984648191496506   0.3438174756714193
-12.398776887422466   -0.6149805027584416   -0.3218182262699122
-12.398776887422466   -0.6149805027584416   -0.3218182262699122
-12.398776887422466   -0.6149805027584416   -0.3218182262699122
-12.398776887422466   -0.6149805027584416   -0.3218182262699122
-9.761331709084429   0.08942032979676195   0.21575205845777812
-9.761331709084429   0.08942032979676195   0.21575205845777812
-9.761331709084429   0.08942032979676195   0.21575205845777812
-9.761331709084429   0.08942032979676195   0.21575205845777812
-8.13925900132148   -1.0778973875070654   -0.14344047700898138
-8.13925900132148   -1.0778973875070654   -0.14344047700898138
-8.13925900132148   -1.0778973875070654   -0.14344047700898138
-8.13925900132148   -1.0778973875070654   -0.14344047700898138
-3.7454878873557305   -0.08116392295487784   0.04025648644945709
-3.7454878873557305   -0.08116392295487784   0.04025648644945709
-3.7454878873557305   -0.08116392295487784   0.04025648644945709
-3.7454878873557305   -0.08116392295487784   0.04025648644945709
-3.8021976788186223   0.07314962693408644   0.05587676231499644
-3.8021976788186223   0.07314962693408644   0.05587676231499644
-3.8021976788186223   0.07314962693408644   0.05587676231499644
-3.8021976788186223   0.07314962693408644   0.05587676231499644
-8.301647607098667   -0.7893163922404574   -0.24416213452135876
-8.301647607098667   -0.7893163922404574   -0.24416213452135876
-8.301647607098667   -0.7893163922404574   -0.24416213452135876
-8.301647607098667   -0.7893163922404574   -0.24416213452135876
-5.996825369413311   -0.48589320733075547   -0.13660673589017266
-5.996825369413311   -0.48589320733075547   -0.13660673589017266
-5.996825369413311   -0.48589320733075547   -0.13660673589017266
-5.996825369413311   -0.48589320733075547   -0.13660673589017266
-8.29417642369942   -0.8630383303818296   -0.1330842793837868
-8.29417642369942   -0.8630383303818296   -0.1330842793837868
-8.29417642369942   -0.8630383303818296   -0.1330842793837868
-8.29417642369942   -0.8630383303818296   -0.1330842793837868
-3.7948374435845684   0.16170298370876302   0.004124581710614195
-3.7948374435845684   0.16170298370876302   0.004124581710614195
-3.7948374435845684   0.16170298370876302   0.004124581710614195
-3.7948374435845684   0.16170298370876302   0.004124581710614195
-3.7894460505508416   0.2643146648831265   0.07652898003226077
-3.7894460505508416   0.2643146648831265   0.07652898003226077
-3.7894460505508416   0.2643146648831265   0.07652898003226077
-3.7894460505508416   0.2643146648831265   0.07652898003226077
-8.306888961575526   -0.5793032842182915   -0.26395295145307673
-8.306888961575526   -0.5793032842182915   -0.26395295145307673
-8.306888961575526   -0.5793032842182915   -0.26395295145307673
-8.306888961575526   -0.5793032842182915   -0.26395295145307673
-5.986788474500031   -0.27077838644679364   -0.06487983919079049
-5.986788474500031   -0.27077838644679364   -0.06487983919079049
-5.986788474500031   -0.27077838644679364   -0.06487983919079049
-5.986788474500031   -0.27077838644679364   -0.06487983919079049
-8.274696968573977   -0.6537504740505651   -0.028545796613061836
-8.274696968573977   -0.6537504740505651   -0.028545796613061836
-8.274696968573977   -0.6537504740505651   -0.028545796613061836
-8.274696968573977   -0.6537504740505651   -0.028545796613061836
-3.794119537539507   0.36628036072829817   -0.04880415075617661
-3.794119537539507   0.36628036072829817   -0.04880415075617661
-3.794119537539507   0.36628036072829817   -0.04880415075617661
-3.794119537539507   0.36628036072829817   -0.04880415075617661
-3.7274863542156647   0.45650563804645716   0.1546292484311415
-3.7274863542156647   0.45650563804645716   0.1546292484311415
-3.7274863542156647   0.45650563804645716   0.1546292484311415
-3.7274863542156647   0.45650563804645716   0.1546292484311415
-8.219704283057865   -0.33667592660954626   -0.2940836920998123
-8.219704283057865   -0.33667592660954626   -0.2940836920998123
-8.219704283057865   -0.33667592660954626   -0.2940836920998123
-8.219704283057865   -0.33667592660954626   -0.2940836920998123
-5.963496060879859   -0.06724534751361122   0.03001856214308779
-5.963496060879859   -0.06724534751361122   0.03001856214308779
-5.963496060879859   -0.06724534751361122   0.03001856214308779
-5.963496060879859   -0.06724534751361122   0.03001856214308779
-3.950293717289006   -0.8971368461716106   -0.1677997400002198
-3.950293717289006   -0.8971368461716106   -0.1677997400002198
-3.950293717289006   -0.8971368461716106   -0.1677997400002198
-3.950293717289006   -0.8971368461716106   -0.1677997400002198
0.4179731358637871   0.09509786136795642   0.1539023682415181
0.4179731358637871   0.09509786136795642   0.1539023682415181
0.4179731358637871   0.09509786136795642   0.1539023682415181
0.4179731358637871   0.09509786136795642   0.1539023682415181
0.39774969682371686   0.2274931642147724   0.012053469962058166
0.39774969682371686   0.2274931642147724   0.012053469962058166
0.39774969682371686   0.2274931642147724   0.012053469962058166
0.39774969682371686   0.2274931642147724   0.012053469962058166
-3.968404652130715   -0.5949286628306816   -0.10707981448070054
-3.968404652130715   -0.5949286628306816   -0.10707981448070054
-3.968404652130715   -0.5949286628306816   -0.10707981448070054
-3.968404652130715   -0.5949286628306816   -0.10707981448070054
-1.7928892317635474   -0.29686263781387623   -0.05627479674712804
-1.7928892317635474   -0.29686263781387623   -0.05627479674712804
-1.7928892317635474   -0.29686263781387623   -0.05627479674712804
-1.7928892317635474   -0.29686263781387623   -0.05627479674712804
-3.9958122329584267   -0.6845326600200481   -0.15451372142989278
-3.9958122329584267   -0.6845326600200481   -0.15451372142989278
-3.9958122329584267   -0.6845326600200481   -0.15451372142989278
-3.9958122329584267   -0.6845326600200481   -0.15451372142989278
0.4405107374091911   0.3324506211619001   0.12090121594230197
0.4405107374091911   0.3324506211619001   0.12090121594230197
0.4405107374091911   0.3324506211619001   0.12090121594230197
0.4405107374091911   0.3324506211619001   0.12090121594230197
0.42723402363805674   0.438078087313287   0.07168844520821921
0.42723402363805674   0.438078087313287   0.07168844520821921
0.42723402363805674   0.438078087313287   0.07168844520821921
0.42723402363805674   0.438078087313287   0.07168844520821921
-3.95711995651657   -0.3640444727464347   -0.1334814121668257
-3.95711995651657   -0.3640444727464347   -0.1334814121668257
-3.95711995651657   -0.3640444727464347   -0.1334814121668257
-3.95711995651657   -0.3640444727464347   -0.1334814121668257
-1.7662408854298128   -0.0729664863297722   0.02147033038041303
-1.7662408854298128   -0.0729664863297722   0.02147033038041303
-1.7662408854298128   -0.0729664863297722   0.02147033038041303
-1.7662408854298128   -0.0729664863297722   0.02147033038041303
-3.9675944813685167   -0.4710041704702249   -0.07889433870276699
-3.9675944813685167   -0.4710041704702249   -0.07889433870276699
-3.9675944813685167   -0.4710041704702249   -0.07889433870276699
-3.9675944813685167   -0.4710041704702249   -0.07889433870276699
0.45421408088683957   0.5615433174339133   0.08312350133150377
0.45421408088683957   0.5615433174339133   0.08312350133150377
0.45421408088683957   0.5615433174339133   0.08312350133150377
0.45421408088683957   0.5615433174339133   0.08312350133150377
0.43564371703263416   0.6724857484085892   0.11827503299900267
0.43564371703263416   0.6724857484085892   0.11827503299900267
0.43564371703263416   0.6724857484085892   0.11827503299900267
0.43564371703263416   0.6724857484085892   0.11827503299900267
-3.9067354591563577   -0.11710602583387186   -0.1680046123919822
-3.9067354591563577   -0.11710602583387186   -0.1680046123919822
-3.9067354591563577   -0.11710602583387186   -0.1680046123919822
-3.9067354591563577   -0.11710602583387186   -0.1680046123919822
-1.7233985935635432   0.16118286937743842   0.10657861820941583
-1.7233985935635432   0.16118286937743842   0.10657861820941583
-1.7233985935635432   0.16118286937743842   0.10657861820941583
-1.7233985935635432   0.16118286937743842   0.10657861820941583
0.19567404881807596   -0.6571957609475473   -0.20529944467153394
0.19567404881807596   -0.6571957609475473   -0.20529944467153394
0.19567404881807596   -0.6571957609475473   -0.20529944467153394
0.19567404881807596   -0.6571957609475473   -0.20529944467153394
4.720735865788908   0.3267347210664048   0.28194572366592485
4.720735865788908   0.3267347210664048   0.28194572366592485
4.720735865788908   0.3267347210664048   0.28194572366592485
4.720735865788908   0.3267347210664048   0.28194572366592485
4.713829409924325   0.4391486599182334   -0.04478402121455119
4.713829409924325   0.4391486599182334   -0.04478402121455119
4.713829409924325   0.4391486599182334   -0.04478402121455119
4.713829409924325   0.4391486599182334   -0.04478402121455119
0.2761526216575299   -0.39579786231731495   0.027359120663210834
0.2761526216575299   -0.39579786231731495   0.027359120663210834
0.2761526216575299   -0.39579786231731495   0.027359120663210834
0.2761526216575299   -0.39579786231731495   0.027359120663210834
2.4461727736736822   -0.055675252344212556   0.005665585071039536
2.4461727736736822   -0.055675252344212556   0.005665585071039536
2.4461727736736822   -0.055675252344212556   0.005665585071039536
2.4461727736736822   -0.055675252344212556   0.005665585071039536
0.22314641254100778   -0.4806042439690531   -0.1528655432676586
0.22314641254100778   -0.4806042439690531   -0.1528655432676586
0.22314641254100778   -0.4806042439690531   -0.1528655432676586
0.22314641254100778   -0.4806042439690531   -0.1528655432676586
4.794339823142469   0.5514592456715861   0.2454574591227771
4.794339823142469   0.5514592456715861   0.2454574591227771
4.794339823142469   0.5514592456715861   0.2454574591227771
4.794339823142469   0.5514592456715861   0.2454574591227771
4.749416344376084   0.647332270705059   0.048669125939174857
4.749416344376084   0.647332270705059   0.048669125939174857
4.749416344376084   0.647332270705059   0.048669125939174857
4.749416344376084   0.647332270705059   0.048669125939174857
0.2844307381864086   -0.18953748883508204   -0.014712405901652507
0.2844307381864086   -0.18953748883508204   -0.014712405901652507
0.2844307381864086   -0.18953748883508204   -0.014712405901652507
0.2844307381864086   -0.18953748883508204   -0.014712405901652507
2.4772670520348012   0.1433799460733146   0.10120304780967534
2.4772670520348012   0.1433799460733146   0.10120304780967534
2.4772670520348012   0.1433799460733146   0.10120304780967534
2.4772670520348012   0.1433799460733146   0.10120304780967534
0.24596866252438518   -0.28533595455207156   -0.11122431849477928
0.24596866252438518   -0.28533595455207156   -0.11122431849477928
0.24596866252438518   -0.28533595455207156   -0.11122431849477928
0.24596866252438518   -0.28533595455207156   -0.11122431849477928
4.807766792305239   0.7630191086891721   0.22473452760075655
4.807766792305239   0.7630191086891721   0.22473452760075655
4.807766792305239   0.7630191086891721   0.22473452760075655
4.807766792305239   0.7630191086891721   0.22473452760075655
4.671890088261865   0.8876487197794033   0.10160722458753121
4.671890088261865   0.8876487197794033   0.10160722458753121
4.671890088261865   0.8876487197794033   0.10160722458753121
4.671890088261865   0.8876487197794033   0.10160722458753121
0.2805936825842899   0.06618320915138293   -0.050672599985512226
0.2805936825842899   0.06618320915138293   -0.050672599985512226
0.2805936825842899   0.06618320915138293   -0.050672599985512226
0.2805936825842899   0.06618320915138293   -0.050672599985512226
2.5123781075527742   0.3710003529742294   0.1895484103742549
2.5123781075527742   0.3710003529742294   0.1895484103742549
2.5123781075527742   0.3710003529742294   0.1895484103742549
2.5123781075527742   0.3710003529742294   0.1895484103742549
4.350440726501484   -0.864586468185019   -0.37820878351976844
4.350440726501484   -0.864586468185019   -0.37820878351976844
4.350440726501484   -0.864586468185019   -0.37820878351976844
4.350440726501484   -0.864586468185019   -0.37820878351976844
8.950549035939217   0.5911104873221282   0.27317726206482895
8.950549035939217   0.5911104873221282   0.27317726206482895
8.950549035939217   0.5911104873221282   0.27317726206482895
8.950549035939217   0.5911104873221282   0.27317726206482895
9.050087329447805   0.28306503665820304   -0.5687506373747457
9.050087329447805   0.28306503665820304   -0.5687506373747457
9.050087329447805   0.28306503665820304   -0.5687506373747457
9.050087329447805   0.28306503665820304   -0.5687506373747457
4.631589318791466   -0.1796710725115438   0.16283525555084527
4.631589318791466   -0.1796710725115438   0.16283525555084527
4.631589318791466   -0.1796710725115438   0.16283525555084527
4.631589318791466   -0.1796710725115438   0.16283525555084527
6.410612499067721   -0.11030627247223457   -0.15911216718042687
6.410612499067721   -0.11030627247223457   -0.15911216718042687
6.410612499067721   -0.11030627247223457   -0.15911216718042687
6.410612499067721   -0.11030627247223457   -0.15911216718042687
4.471095286083586   -0.5690370338664119   -0.25026894663361815
4.471095286083586   -0.5690370338664119   -0.25026894663361815
4.471095286083586   -0.5690370338664119   -0.25026894663361815
4.471095286083586   -0.5690370338664119   -0.25026894663361815
9.292424581830312   0.7542742176877131   0.1717264435082822
9.292424581830312   0.7542742176877131   0.1717264435082822
9.292424581830312   0.7542742176877131   0.1717264435082822
9.292424581830312   0.7542742176877131   0.1717264435082822
9.147289944955334   0.5121749042809742   -0.12678167935217205
9.147289944955334   0.5121749042809742   -0.12678167935217205
9.147289944955334   0.5121749042809742   -0.12678167935217205
9.147289944955334   0.5121749042809742   -0.12678167935217205
4.611452082567559   -0.07700664522662648   0.08318673282815253
4.611452082567559   -0.07700664522662648   0.08318673282815253
4.611452082567559   -0.07700664522662648   0.08318673282815253
4.611452082567559   -0.07700664522662648   0.08318673282815253
6.743419836605155   0.16829138074089256   0.11048662638404255
6.743419836605155   0.16829138074089256   0.11048662638404255
6.743419836605155   0.16829138074089256   0.11048662638404255
6.743419836605155   0.16829138074089256   0.11048662638404255
4.482954715091277   -0.4354976298144748   -0.2008091199653605
4.482954715091277   -0.4354976298144748   -0.2008091199653605
4.482954715091277   -0.4354976298144748   -0.2008091199653605
4.482954715091277   -0.4354976298144748   -0.2008091199653605
9.264772057621931   0.8596506340591445   0.11315315420263622
9.264772057621931   0.8596506340591445   0.11315315420263622
9.264772057621931   0.8596506340591445   0.11315315420263622
9.264772057621931   0.8596506340591445   0.11315315420263622
9.129157126071892   0.7808261521365458   -0.1948677375041058
9.129157126071892   0.7808261521365458   -0.1948677375041058
9.129157126071892   0.7808261521365458   -0.1948677375041058
9.129157126071892   0.7808261521365458   -0.1948677375041058
4.515219506939307   0.1602348241369389   0.04566821361712345
4.515219506939307   0.1602348241369389   0.04566821361712345
4.515219506939307   0.1602348241369389   0.04566821361712345
4.515219506939307   0.1602348241369389   0.04566821361712345
6.5690258120652025   0.29393317059396007   0.08090872078925038
6.5690258120652025   0.29393317059396007   0.08090872078925038
6.5690258120652025   0.29393317059396007   0.08090872078925038
6.5690258120652025   0.29393317059396007   0.08090872078925038
-9.830258620152655   -0.4474002633319998   0.5020756319795322
-9.830258620152655   -0.4474002633319998   0.5020756319795322
-9.830258620152655   -0.4474002633319998   0.5020756319795322
-9.830258620152655   -0.4474002633319998   0.5020756319795322
-6.52228646116654   -0.24522788215245472   -0.13064405353552472
-6.52228646116654   -0.24522788215245472   -0.13064405353552472
-6.52228646116654   -0.24522788215245472   -0.13064405353552472
-6.52228646116654   -0.24522788215245472   -0.13064405353552472
-6.2892968320779445   0.5273753516969168   0.4216463692702606
-6.2892968320779445   0.5273753516969168   0.4216463692702606
-6.2892968320779445   0.5273753516969168   0.4216463692702606
-6.2892968320779445   0.5273753516969168   0.4216463692702606
-9.876306533235761   -0.7041909643160167   -0.20495412278896047
-9.876306533235761   -0.7041909643160167   -0.20495412278896047
-9.876306533235761   -0.7041909643160167   -0.20495412278896047
-9.876306533235761   -0.7041909643160167   -0.20495412278896047
-7.799020530342402   -0.12064106606963554   -0.012597040757835853
-7.799020530342402   -0.12064106606963554   -0.012597040757835853
-7.799020530342402   -0.12064106606963554   -0.012597040757835853
-7.799020530342402   -0.12064106606963554   -0.012597040757835853
-9.60324840897039   -0.10709594224270691   0.5632414764645866
-9.60324840897039   -0.10709594224270691   0.5632414764645866
-9.60324840897039   -0.10709594224270691   0.5632414764645866
-9.60324840897039   -0.10709594224270691   0.5632414764645866
-6.519308554740472   -0.026673268773548697   -0.1743636235719102
-6.519308554740472   -0.026673268773548697   -0.1743636235719102
-6.519308554740472   -0.026673268773548697   -0.1743636235719102
-6.519308554740472   -0.026673268773548697   -0.1743636235719102
-6.264424759714759   0.6537777249056314   0.3911560907438594
-6.264424759714759   0.6537777249056314   0.3911560907438594
-6.264424759714759   0.6537777249056314   0.3911560907438594
-6.264424759714759   0.6537777249056314   0.3911560907438594
-9.725128967289189   -0.5896988990948708   -0.28089985568759757
-9.725128967289189   -0.5896988990948708   -0.28089985568759757
-9.725128967289189   -0.5896988990948708   -0.28089985568759757
-9.725128967289189   -0.5896988990948708   -0.28089985568759757
-7.817097399688779   0.027893986792502545   0.09097811883043255
-7.817097399688779   0.027893986792502545   0.09097811883043255
-7.817097399688779   0.027893986792502545   0.09097811883043255
-7.817097399688779   0.027893986792502545   0.09097811883043255
-9.470742265240197   0.012124963953560108   0.38920979150894053
-9.470742265240197   0.012124963953560108   0.38920979150894053
-9.470742265240197   0.012124963953560108   0.38920979150894053
-9.470742265240197   0.012124963953560108   0.38920979150894053
-6.504614173418852   0.0661511502021197   -0.22216440307304586
-6.504614173418852   0.0661511502021197   -0.22216440307304586
-6.504614173418852   0.0661511502021197   -0.22216440307304586
-6.504614173418852   0.0661511502021197   -0.22216440307304586
-6.271190308832892   0.7369701206529937   0.3103483121976901
-6.271190308832892   0.7369701206529937   0.3103483121976901
-6.271190308832892   0.7369701206529937   0.3103483121976901
-6.271190308832892   0.7369701206529937   0.3103483121976901
-9.528411057411136   -0.4685010002729897   -0.35845588719841365
-9.528411057411136   -0.4685010002729897   -0.35845588719841365
-9.528411057411136   -0.4685010002729897   -0.35845588719841365
-9.528411057411136   -0.4685010002729897   -0.35845588719841365
-7.593677476401846   0.16068834642622054   0.18777609443539722
-7.593677476401846   0.16068834642622054   0.18777609443539722
-7.593677476401846   0.16068834642622054   0.18777609443539722
-7.593677476401846   0.16068834642622054   0.18777609443539722
-6.5429264648730365   -0.6204311054936028   0.14135915127313833
-6.5429264648730365   -0.6204311054936028   0.14135915127313833
-6.5429264648730365   -0.6204311054936028   0.14135915127313833
-6.5429264648730365   -0.6204311054936028   0.14135915127313833
-3.2984962271045664   -0.11782192701825045   0.006599731430579264
-3.2984962271045664   -0.11782192701825045   0.006599731430579264
-3.2984962271045664   -0.11782192701825045   0.006599731430579264
-3.2984962271045664   -0.11782192701825045   0.006599731430579264
-3.2059691984495   0.32451074808123337   0.22929515843792708
-3.2059691984495   0.32451074808123337   0.22929515843792708
-3.2059691984495   0.32451074808123337   0.22929515843792708
-3.2059691984495   0.32451074808123337   0.22929515843792708
-6.647267608305195   -0.611864544696974   -0.22896761547215974
-6.647267608305195   -0.611864544696974   -0.22896761547215974
-6.647267608305195   -0.611864544696974   -0.22896761547215974
-6.647267608305195   -0.611864544696974   -0.22896761547215974
-4.905974521719968   -0.2407241041954521   -0.09856122060547659
-4.905974521719968   -0.2407241041954521   -0.09856122060547659
-4.905974521719968   -0.2407241041954521   -0.09856122060547659
-4.905974521719968   -0.2407241041954521   -0.09856122060547659
-6.5231315698045185   -0.35734262617541623   0.13719065850969797
-6.5231315698045185   -0.35734262617541623   0.13719065850969797
-6.5231315698045185   -0.35734262617541623   0.13719065850969797
-6.5231315698045185   -0.35734262617541623   0.13719065850969797
-3.30488235349578   0.09521171301409148   -0.035971581726308044
-3.30488235349578   0.09521171301409148   -0.035971581726308044
-3.30488235349578   0.09521171301409148   -0.035971581726308044
-3.30488235349578   0.09521171301409148   -0.035971581726308044
-3.196458234104914   0.5352764759785461   0.19851512206050026
-3.196458234104914   0.5352764759785461   0.19851512206050026
-3.196458234104914   0.5352764759785461   0.19851512206050026
-3.196458234104914   0.5352764759785461   0.19851512206050026
-6.61046362869419   -0.41500045386643625   -0.2702600753812314
-6.61046362869419   -0.41500045386643625   -0.2702600753812314
-6.61046362869419   -0.41500045386643625   -0.2702600753812314
-6.61046362869419   -0.41500045386643625   -0.2702600753812314
-4.853120913543722   -0.027236071464031175   0.00010829779398774386
-4.853120913543722   -0.027236071464031175   0.00010829779398774386
-4.853120913543722   -0.027236071464031175   0.00010829779398774386
-4.853120913543722   -0.027236071464031175   0.00010829779398774386
-6.483774623099314   -0.14354410540590878   0.09172860413262529
-6.483774623099314   -0.14354410540590878   0.09172860413262529
-6.483774623099314   -0.14354410540590878   0.09172860413262529
-6.483774623099314   -0.14354410540590878   0.09172860413262529
-3.302603659431762   0.284363707786058   -0.08129923638118886
-3.302603659431762   0.284363707786058   -0.08129923638118886
-3.302603659431762   0.284363707786058   -0.08129923638118886
-3.302603659431762   0.284363707786058   -0.08129923638118886
-3.1961372061535416   0.7566265373607833   0.14886155084751346
-3.1961372061535416   0.7566265373607833   0.14886155084751346
-3.1961372061535416   0.7566265373607833   0.14886155084751346
-3.1961372061535416   0.7566265373607833   0.14886155084751346
-6.579384910004795   -0.2027548271484898   -0.2908997458603564
-6.579384910004795   -0.2027548271484898   -0.2908997458603564
-6.579384910004795   -0.2027548271484898   -0.2908997458603564
-6.579384910004795   -0.2027548271484898   -0.2908997458603564
-4.857048211177662   0.16830165464396596   0.07540882797127463
-4.857048211177662   0.16830165464396596   0.07540882797127463
-4.857048211177662   0.16830165464396596   0.07540882797127463
-4.857048211177662   0.16830165464396596   0.07540882797127463
-3.4218604285804526   -0.7077149714688515   -0.020328231498282025
-3.4218604285804526   -0.7077149714688515   -0.020328231498282025
-3.4218604285804526   -0.7077149714688515   -0.020328231498282025
-3.4218604285804526   -0.7077149714688515   -0.020328231498282025
-0.10498152227104683   0.03689617227413529   0.146189107310209
-0.10498152227104683   0.03689617227413529   0.146189107310209
-0.10498152227104683   0.03689617227413529   0.146189107310209
-0.10498152227104683   0.03689617227413529   0.146189107310209
-0.11811096074962153   0.21049920174033976   0.06976581699331305
-0.11811096074962153   0.21049920174033976   0.06976581699331305
-0.11811096074962153   0.21049920174033976   0.06976581699331305
-0.11811096074962153   0.21049920174033976   0.06976581699331305
-3.424790928383011   -0.4543399331057806   -0.08596281004261572
-3.424790928383011   -0.4543399331057806   -0.08596281004261572
-3.424790928383011   -0.4543399331057806   -0.08596281004261572
-3.424790928383011   -0.4543399331057806   -0.08596281004261572
-1.772814808481666   -0.22131226226293116   -0.05498834149658251
-1.772814808481666   -0.22131226226293116   -0.05498834149658251
-1.772814808481666   -0.22131226226293116   -0.05498834149658251
-1.772814808481666   -0.22131226226293116   -0.05498834149658251
-3.4211116152322085   -0.4736961066947641   -0.048210070699619204
-3.4211116152322085   -0.4736961066947641   -0.048210070699619204
-3.4211116152322085   -0.4736961066947641   -0.048210070699619204
-3.4211116152322085   -0.4736961066947641   -0.048210070699619204
-0.10297346466193541   0.24867218456780205   0.10728031460428297
-0.10297346466193541   0.24867218456780205   0.10728031460428297
-0.10297346466193541   0.24867218456780205   0.10728031460428297
-0.10297346466193541   0.24867218456780205   0.10728031460428297
-0.1031530879026834   0.44018838410335104   0.0337160034682157
-0.1031530879026834   0.44018838410335104   0.0337160034682157
-0.1031530879026834   0.44018838410335104   0.0337160034682157
-0.1031530879026834   0.44018838410335104   0.0337160034682157
-3.4168357115226957   -0.24224266092943647   -0.1258531281203968
-3.4168357115226957   -0.24224266092943647   -0.1258531281203968
-3.4168357115226957   -0.24224266092943647   -0.1258531281203968
-3.4168357115226957   -0.24224266092943647   -0.1258531281203968
-1.7562124549220306   -0.00882833553813761   0.024699171189588975
-1.7562124549220306   -0.00882833553813761   0.024699171189588975
-1.7562124549220306   -0.00882833553813761   0.024699171189588975
-1.7562124549220306   -0.00882833553813761   0.024699171189588975
-3.4116740914596133   -0.2472637958738021   -0.09502389286061949
-3.4116740914596133   -0.2472637958738021   -0.09502389286061949
-3.4116740914596133   -0.2472637958738021   -0.09502389286061949
-3.4116740914596133   -0.2472637958738021   -0.09502389286061949
-0.09277154014889386   0.46075268686458887   0.06505943947592804
-0.09277154014889386   0.46075268686458887   0.06505943947592804
-0.09277154014889386   0.46075268686458887   0.06505943947592804
-0.09277154014889386   0.46075268686458887   0.06505943947592804
-0.1004854403912899   0.676791549078497   -0.004766756595205368
-0.1004854403912899   0.676791549078497   -0.004766756595205368
-0.1004854403912899   0.676791549078497   -0.004766756595205368
-0.1004854403912899   0.676791549078497   -0.004766756595205368
-3.415753297827365   -0.026492053786101644   -0.1661003163747414
-3.415753297827365   -0.026492053786101644   -0.1661003163747414
-3.415753297827365   -0.026492053786101644   -0.1661003163747414
-3.415753297827365   -0.026492053786101644   -0.1661003163747414
-1.7434648391099878   0.20385336823562744   0.09776273717712017
-1.7434648391099878   0.20385336823562744   0.09776273717712017
-1.7434648391099878   0.20385336823562744   0.09776273717712017
-1.7434648391099878   0.20385336823562744   0.09776273717712017
-0.3302521502169601   -0.7737546657474981   -0.16951319439772225
-0.3302521502169601   -0.7737546657474981   -0.16951319439772225
-0.3302521502169601   -0.7737546657474981   -0.16951319439772225
-0.3302521502169601   -0.7737546657474981   -0.16951319439772225
3.077698024624619   0.21821993140855223   0.2778208727959405
3.077698024624619   0.21821993140855223   0.2778208727959405
3.077698024624619   0.21821993140855223   0.2778208727959405
3.077698024624619   0.21821993140855223   0.2778208727959405
2.977233293372084   0.1172146884237597   -0.10865879734597045
2.977233293372084   0.1172146884237597   -0.10865879734597045
2.977233293372084   0.1172146884237597   -0.10865879734597045
2.977233293372084   0.1172146884237597   -0.10865879734597045
-0.21919630131277631   -0.2842738342742963   0.05911215019217678
-0.21919630131277631   -0.2842738342742963   0.05911215019217678
-0.21919630131277631   -0.2842738342742963   0.05911215019217678
-0.21919630131277631   -0.2842738342742963   0.05911215019217678
1.3569552000536087   -0.17796878143042139   -0.030837229287656434
1.3569552000536087   -0.17796878143042139   -0.030837229287656434
1.3569552000536087   -0.17796878143042139   -0.030837229287656434
1.3569552000536087   -0.17796878143042139   -0.030837229287656434
-0.32967975681633066   -0.564959962053923   -0.21261899954596855
-0.32967975681633066   -0.564959962053923   -0.21261899954596855
-0.32967975681633066   -0.564959962053923   -0.21261899954596855
-0.32967975681633066   -0.564959962053923   -0.21261899954596855
3.10911224012413   0.41929630745186736   0.24865431738615013
3.10911224012413   0.41929630745186736   0.24865431738615013
3.10911224012413   0.41929630745186736   0.24865431738615013
3.10911224012413   0.41929630745186736   0.24865431738615013
3.0242100460894603   0.33082165087649   -0.15269601524684384
3.0242100460894603   0.33082165087649   -0.15269601524684384
3.0242100460894603   0.33082165087649   -0.15269601524684384
3.0242100460894603   0.33082165087649   -0.15269601524684384
-0.21346968556323367   -0.09427102853470044   0.016592427803519737
-0.21346968556323367   -0.09427102853470044   0.016592427803519737
-0.21346968556323367   -0.09427102853470044   0.016592427803519737
-0.21346968556323367   -0.09427102853470044   0.016592427803519737
1.367911059474692   0.014070050064963313   0.04827359314292684
1.367911059474692   0.014070050064963313   0.04827359314292684
1.367911059474692   0.014070050064963313   0.04827359314292684
1.367911059474692   0.014070050064963313   0.04827359314292684
-0.32090138758129494   -0.35885737914382004   -0.2559797316776698
-0.32090138758129494   -0.35885737914382004   -0.2559797316776698
-0.32090138758129494   -0.35885737914382004   -0.2559797316776698
-0.32090138758129494   -0.35885737914382004   -0.2559797316776698
3.154951836587342   0.6187180899654348   0.21311649815362027
3.154951836587342   0.6187180899654348   0.21311649815362027
3.154951836587342   0.6187180899654348   0.21311649815362027
3.154951836587342   0.6187180899654348   0.21311649815362027
3.052838377152488   0.5989538256547914   -0.15906421203666818
3.052838377152488   0.5989538256547914   -0.15906421203666818
3.052838377152488   0.5989538256547914   -0.15906421203666818
3.052838377152488   0.5989538256547914   -0.15906421203666818
-0.2144453724262798   0.12804249721734232   -0.02581736490899845
-0.2144453724262798   0.12804249721734232   -0.02581736490899845
-0.2144453724262798   0.12804249721734232   -0.02581736490899845
-0.2144453724262798   0.12804249721734232   -0.02581736490899845
1.4140496838996863   0.2285116831422518   0.14234780390705534
1.4140496838996863   0.2285116831422518   0.14234780390705534
1.4140496838996863   0.2285116831422518   0.14234780390705534
1.4140496838996863   0.2285116831422518   0.14234780390705534
2.75910452476418   -0.7676660052878248   -0.3292606898098666
2.75910452476418   -0.7676660052878248   -0.3292606898098666
2.75910452476418   -0.7676660052878248   -0.3292606898098666
2.75910452476418   -0.7676660052878248   -0.3292606898098666
6.056565014501292   0.4498422710842864   0.30772440369599624
6.056565014501292   0.4498422710842864   0.30772440369599624
6.056565014501292   0.4498422710842864   0.30772440369599624
6.056565014501292   0.4498422710842864   0.30772440369599624
6.009086507328152   -0.024381410561177486   -0.4382136232340408
6.009086507328152   -0.024381410561177486   -0.4382136232340408
6.009086507328152   -0.024381410561177486   -0.4382136232340408
6.009086507328152   -0.024381410561177486   -0.4382136232340408
3.0035887403251884   -0.06585158650916889   0.20618471235251012
3.0035887403251884   -0.06585158650916889   0.20618471235251012
3.0035887403251884   -0.06585158650916889   0.20618471235251012
3.0035887403251884   -0.06585158650916889   0.20618471235251012
4.240798409701085   -0.14873555915540138   -0.13837185139413116
4.240798409701085   -0.14873555915540138   -0.13837185139413116
4.240798409701085   -0.14873555915540138   -0.13837185139413116
4.240798409701085   -0.14873555915540138   -0.13837185139413116
2.7610639218350115   -0.6673344969454207   -0.40495646966211574
2.7610639218350115   -0.6673344969454207   -0.40495646966211574
2.7610639218350115   -0.6673344969454207   -0.40495646966211574
2.7610639218350115   -0.6673344969454207   -0.40495646966211574
6.26906313125622   0.5945533053129664   0.24273478053215558
6.26906313125622   0.5945533053129664   0.24273478053215558
6.26906313125622   0.5945533053129664   0.24273478053215558
6.26906313125622   0.5945533053129664   0.24273478053215558
6.1542336373116875   0.09745729309372142   -0.5872751303142363
6.1542336373116875   0.09745729309372142   -0.5872751303142363
6.1542336373116875   0.09745729309372142   -0.5872751303142363
6.1542336373116875   0.09745729309372142   -0.5872751303142363
3.0246599924213675   0.027058967445010018   0.15331639984422618
3.0246599924213675   0.027058967445010018   0.15331639984422618
3.0246599924213675   0.027058967445010018   0.15331639984422618
3.0246599924213675   0.027058967445010018   0.15331639984422618
4.430833174881105   -0.017206481617770275   -0.042645833062392474
4.430833174881105   -0.017206481617770275   -0.042645833062392474
4.430833174881105   -0.017206481617770275   -0.042645833062392474
4.430833174881105   -0.017206481617770275   -0.042645833062392474
2.7913840597083905   -0.5457153796826872   -0.44028891659298336
2.7913840597083905   -0.5457153796826872   -0.44028891659298336
2.7913840597083905   -0.5457153796826872   -0.44028891659298336
2.7913840597083905   -0.5457153796826872   -0.44028891659298336
6.426025681528412   0.7087477517251703   0.16039463213798333
6.426025681528412   0.7087477517251703   0.16039463213798333
6.426025681528412   0.7087477517251703   0.16039463213798333
6.426025681528412   0.7087477517251703   0.16039463213798333
6.384826700953158   0.41465563690384977   -0.5518349165621743
6.384826700953158   0.41465563690384977   -0.5518349165621743
6.384826700953158   0.41465563690384977   -0.5518349165621743
6.384826700953158   0.41465563690384977   -0.5518349165621743
3.0338098760495766   0.23300218337552397   0.11174492472808815
3.0338098760495766   0.23300218337552397   0.11174492472808815
3.0338098760495766   0.23300218337552397   0.11174492472808815
3.0338098760495766   0.23300218337552397   0.11174492472808815
4.461650278427799   0.13348595607769886   0.06298507589279612
4.461650278427799   0.13348595607769886   0.06298507589279612
4.461650278427799   0.13348595607769886   0.06298507589279612
4.461650278427799   0.13348595607769886   0.06298507589279612
-7.04357159201225   -0.23215613119864864   0.4559998320792155
-7.04357159201225   -0.23215613119864864   0.4559998320792155
-7.04357159201225   -0.23215613119864864   0.4559998320792155
-7.04357159201225   -0.23215613119864864   0.4559998320792155
-4.919983231027133   -0.3265469957315459   -0.1727241240284505
-4.919983231027133   -0.3265469957315459   -0.1727241240284505
-4.919983231027133   -0.3265469957315459   -0.1727241240284505
-4.919983231027133   -0.3265469957315459   -0.1727241240284505
-4.632197266006092   0.4634433188261672   0.38910802569228914
-4.632197266006092   0.4634433188261672   0.38910802569228914
-4.632197266006092   0.4634433188261672   0.38910802569228914
-4.632197266006092   0.4634433188261672   0.38910802569228914
-7.044214302224637   -0.5793551291354511   -0.25254873252858767
-7.044214302224637   -0.5793551291354511   -0.25254873252858767
-7.044214302224637   -0.5793551291354511   -0.25254873252858767
-7.044214302224637   -0.5793551291354511   -0.25254873252858767
-5.667423537581359   -0.09080023311246377   -0.010807216773772
-5.667423537581359   -0.09080023311246377   -0.010807216773772
-5.667423537581359   -0.09080023311246377   -0.010807216773772
-5.667423537581359   -0.09080023311246377   -0.010807216773772
-6.7825575653025485   0.04235468201474912   0.43402514093165484
-6.7825575653025485   0.04235468201474912   0.43402514093165484
-6.7825575653025485   0.04235468201474912   0.43402514093165484
-6.7825575653025485   0.04235468201474912   0.43402514093165484
-4.872605072649723   -0.1370175620455676   -0.21247012665408382
-4.872605072649723   -0.1370175620455676   -0.21247012665408382
-4.872605072649723   -0.1370175620455676   -0.21247012665408382
-4.872605072649723   -0.1370175620455676   -0.21247012665408382
-4.588648673939415   0.5595809708137565   0.3290192005057623
-4.588648673939415   0.5595809708137565   0.3290192005057623
-4.588648673939415   0.5595809708137565   0.3290192005057623
-4.588648673939415   0.5595809708137565   0.3290192005057623
-6.8785626320438755   -0.47223689571261374   -0.3195240415137593
-6.8785626320438755   -0.47223689571261374   -0.3195240415137593
-6.8785626320438755   -0.47223689571261374   -0.3195240415137593
-6.8785626320438755   -0.47223689571261374   -0.3195240415137593
-5.6285771783222796   0.036110541651150685   0.060592284532009544
-5.6285771783222796   0.036110541651150685   0.060592284532009544
-5.6285771783222796   0.036110541651150685   0.060592284532009544
-5.6285771783222796   0.036110541651150685   0.060592284532009544
-6.619002330154308   0.1574287615949319   0.3486118106265331
-6.619002330154308   0.1574287615949319   0.3486118106265331
-6.619002330154308   0.1574287615949319   0.3486118106265331
-6.619002330154308   0.1574287615949319   0.3486118106265331
-4.82896277574367   -0.05083848640846944   -0.2621318512932432
-4.82896277574367   -0.05083848640846944   -0.2621318512932432
-4.82896277574367   -0.05083848640846944   -0.2621318512932432
-4.82896277574367   -0.05083848640846944   -0.2621318512932432
-4.564499869640936   0.6526021460928704   0.2831486568606875
-4.564499869640936   0.6526021460928704   0.2831486568606875
-4.564499869640936   0.6526021460928704   0.2831486568606875
-4.564499869640936   0.6526021460928704   0.2831486568606875
-6.6563883731003015   -0.3308852001951046   -0.3827199904881517
-6.6563883731003015   -0.3308852001951046   -0.3827199904881517
-6.6563883731003015   -0.3308852001951046   -0.3827199904881517
-6.6563883731003015   -0.3308852001951046   -0.3827199904881517
-5.417913493475246   0.15475955195144708   0.1610979837150543
-5.417913493475246   0.15475955195144708   0.1610979837150543
-5.417913493475246   0.15475955195144708   0.1610979837150543
-5.417913493475246   0.15475955195144708   0.1610979837150543
-4.865861066959909   -0.39862241763351713   0.16996211820958876
-4.865861066959909   -0.39862241763351713   0.16996211820958876
-4.865861066959909   -0.39862241763351713   0.16996211820958876
-4.865861066959909   -0.39862241763351713   0.16996211820958876
-2.814063084731645   -0.21164843026962976   -0.027845789781305363
-2.814063084731645   -0.21164843026962976   -0.027845789781305363
-2.814063084731645   -0.21164843026962976   -0.027845789781305363
-2.814063084731645   -0.21164843026962976   -0.027845789781305363
-2.6712618641266164   0.2710961719991021   0.20983022382964275
-2.6712618641266164   0.2710961719991021   0.20983022382964275
-2.6712618641266164   0.2710961719991021   0.20983022382964275
-2.6712618641266164   0.2710961719991021   0.20983022382964275
-4.938661304331708   -0.47384875630547174   -0.20592009080415066
-4.938661304331708   -0.47384875630547174   -0.20592009080415066
-4.938661304331708   -0.47384875630547174   -0.20592009080415066
-4.938661304331708   -0.47384875630547174   -0.20592009080415066
-3.8068579779227907   -0.18614164966632996   -0.07700299087598178
-3.8068579779227907   -0.18614164966632996   -0.07700299087598178
-3.8068579779227907   -0.18614164966632996   -0.07700299087598178
-3.8068579779227907   -0.18614164966632996   -0.07700299087598178
-4.809059694013813   -0.1706513315402497   0.13889053602008125
-4.809059694013813   -0.1706513315402497   0.13889053602008125
-4.809059694013813   -0.1706513315402497   0.13889053602008125
-4.809059694013813   -0.1706513315402497   0.13889053602008125
-2.784251779954375   -0.015489558276007731   -0.06853362503404042
-2.784251779954375   -0.015489558276007731   -0.06853362503404042
-2.784251779954375   -0.015489558276007731   -0.06853362503404042
-2.784251779954375   -0.015489558276007731   -0.06853362503404042
-2.637256900070116   0.4681199377144023   0.1721351538988869
-2.637256900070116   0.4681199377144023   0.1721351538988869
-2.637256900070116   0.4681199377144023   0.1721351538988869
-2.637256900070116   0.4681199377144023   0.1721351538988869
-4.872415127083306   -0.28766955772353764   -0.24256253667640057
-4.872415127083306   -0.28766955772353764   -0.24256253667640057
-4.872415127083306   -0.28766955772353764   -0.24256253667640057
-4.872415127083306   -0.28766955772353764   -0.24256253667640057
-3.733811379341408   0.007806721039278486   0.006297053063666097
-3.733811379341408   0.007806721039278486   0.006297053063666097
-3.733811379341408   0.007806721039278486   0.006297053063666097
-3.733811379341408   0.007806721039278486   0.006297053063666097
-4.733000651192868   0.039926844767104175   0.12691344028514773
-4.733000651192868   0.039926844767104175   0.12691344028514773
-4.733000651192868   0.039926844767104175   0.12691344028514773
-4.733000651192868   0.039926844767104175   0.12691344028514773
-2.75604159298287   0.16115331820144985   -0.11482169115189914
-2.75604159298287   0.16115331820144985   -0.11482169115189914
-2.75604159298287   0.16115331820144985   -0.11482169115189914
-2.75604159298287   0.16115331820144985   -0.11482169115189914
-2.6044107252391746   0.6778263341216055   0.13703187572443815
-2.6044107252391746   0.6778263341216055   0.13703187572443815
-2.6044107252391746   0.6778263341216055   0.13703187572443815
-2.6044107252391746   0.6778263341216055   0.13703187572443815
-4.82273979698899   -0.08727439627173661   -0.2681744375149606
-4.82273979698899   -0.08727439627173661   -0.2681744375149606
-4.82273979698899   -0.08727439627173661   -0.2681744375149606
-4.82273979698899   -0.08727439627173661   -0.2681744375149606
-3.7056300223450984   0.18999762741916193   0.08550511509874836
-3.7056300223450984   0.18999762741916193   0.08550511509874836
-3.7056300223450984   0.18999762741916193   0.08550511509874836
-3.7056300223450984   0.18999762741916193   0.08550511509874836
-2.8739274848234357   -0.5449117381669728   0.006095517657057783
-2.8739274848234357   -0.5449117381669728   0.006095517657057783
-2.8739274848234357   -0.5449117381669728   0.006095517657057783
-2.8739274848234357   -0.5449117381669728   0.006095517657057783
-0.7305929567409081   -0.06187491247603964   0.11734283500258763
-0.7305929567409081   -0.06187491247603964   0.11734283500258763
-0.7305929567409081   -0.06187491247603964   0.11734283500258763
-0.7305929567409081   -0.06187491247603964   0.11734283500258763
-0.7123197841120447   0.11334927276497123   0.04001207504017662
-0.7123197841120447   0.11334927276497123   0.04001207504017662
-0.7123197841120447   0.11334927276497123   0.04001207504017662
-0.7123197841120447   0.11334927276497123   0.04001207504017662
-2.842369061773052   -0.3195269110565015   -0.05508268134696427
-2.842369061773052   -0.3195269110565015   -0.05508268134696427
-2.842369061773052   -0.3195269110565015   -0.05508268134696427
-2.842369061773052   -0.3195269110565015   -0.05508268134696427
-1.792817357367803   -0.19460900393362515   -0.05463600312337607
-1.792817357367803   -0.19460900393362515   -0.05463600312337607
-1.792817357367803   -0.19460900393362515   -0.05463600312337607
-1.792817357367803   -0.19460900393362515   -0.05463600312337607
-2.8377820033944614   -0.32506703850137497   -0.026607262009137628
-2.8377820033944614   -0.32506703850137497   -0.026607262009137628
-2.8377820033944614   -0.32506703850137497   -0.026607262009137628
-2.8377820033944614   -0.32506703850137497   -0.026607262009137628
-0.7002547754677506   0.13554146723272936   0.07814492379388831
-0.7002547754677506   0.13554146723272936   0.07814492379388831
-0.7002547754677506   0.13554146723272936   0.07814492379388831
-0.7002547754677506   0.13554146723272936   0.07814492379388831
-0.671277499506331   0.3341839804607259   0.010721866813988623
-0.671277499506331   0.3341839804607259   0.010721866813988623
-0.671277499506331   0.3341839804607259   0.010721866813988623
-0.671277499506331   0.3341839804607259   0.010721866813988623
-2.8083422182944506   -0.12076474871794252   -0.09440675079043936
-2.8083422182944506   -0.12076474871794252   -0.09440675079043936
-2.8083422182944506   -0.12076474871794252   -0.09440675079043936
-2.8083422182944506   -0.12076474871794252   -0.09440675079043936
-1.748992354228179   0.003966712749687851   0.023817861482403654
-1.748992354228179   0.003966712749687851   0.023817861482403654
-1.748992354228179   0.003966712749687851   0.023817861482403654
-1.748992354228179   0.003966712749687851   0.023817861482403654
-2.7979410590622082   -0.10493853790223462   -0.05822716544493667
-2.7979410590622082   -0.10493853790223462   -0.05822716544493667
-2.7979410590622082   -0.10493853790223462   -0.05822716544493667
-2.7979410590622082   -0.10493853790223462   -0.05822716544493667
-0.6663052312790771   0.33373119710449456   0.036035991306495554
-0.6663052312790771   0.33373119710449456   0.036035991306495554
-0.6663052312790771   0.33373119710449456   0.036035991306495554
-0.6663052312790771   0.33373119710449456   0.036035991306495554
-0.6344986704041967   0.558220448108198   -0.023792434326410677
-0.6344986704041967   0.558220448108198   -0.023792434326410677
-0.6344986704041967   0.558220448108198   -0.023792434326410677
-0.6344986704041967   0.558220448108198   -0.023792434326410677
-2.7784091788866454   0.08032651131802071   -0.13546056970934006
-2.7784091788866454   0.08032651131802071   -0.13546056970934006
-2.7784091788866454   0.08032651131802071   -0.13546056970934006
-2.7784091788866454   0.08032651131802071   -0.13546056970934006
-1.708971536913072   0.20349189202297085   0.09939923022718919
-1.708971536913072   0.20349189202297085   0.09939923022718919
-1.708971536913072   0.20349189202297085   0.09939923022718919
-1.708971536913072   0.20349189202297085   0.09939923022718919
-0.9055066210418985   -0.6648377100663512   -0.15426268891205863
-0.9055066210418985   -0.6648377100663512   -0.15426268891205863
-0.9055066210418985   -0.6648377100663512   -0.15426268891205863
-0.9055066210418985   -0.6648377100663512   -0.15426268891205863
1.326941191283067   0.10622761375290471   0.25455725661743234
1.326941191283067   0.10622761375290471   0.25455725661743234
1.326941191283067   0.10622761375290471   0.25455725661743234
1.326941191283067   0.10622761375290471   0.25455725661743234
1.2363695733779665   -0.0331258855433367   -0.14071398084376788
1.2363695733779665   -0.0331258855433367   -0.14071398084376788
1.2363695733779665   -0.0331258855433367   -0.14071398084376788
1.2363695733779665   -0.0331258855433367   -0.14071398084376788
-0.7552258700842673   -0.15496693073757442   0.09379784868160883
-0.7552258700842673   -0.15496693073757442   0.09379784868160883
-0.7552258700842673   -0.15496693073757442   0.09379784868160883
-0.7552258700842673   -0.15496693073757442   0.09379784868160883
0.217211041912781   -0.18151632274163296   -0.038823243985100356
0.217211041912781   -0.18151632274163296   -0.038823243985100356
0.217211041912781   -0.18151632274163296   -0.038823243985100356
0.217211041912781   -0.18151632274163296   -0.038823243985100356
-0.8739124022553788   -0.4649665275696306   -0.18963521534189223
-0.8739124022553788   -0.4649665275696306   -0.18963521534189223
-0.8739124022553788   -0.4649665275696306   -0.18963521534189223
-0.8739124022553788   -0.4649665275696306   -0.18963521534189223
1.3748812346401493   0.2966988403797882   0.22201959954400552
1.3748812346401493   0.2966988403797882   0.22201959954400552
1.3748812346401493   0.2966988403797882   0.22201959954400552
1.3748812346401493   0.2966988403797882   0.22201959954400552
1.312593601129325   0.17575146756508622   -0.15935837839016706
1.312593601129325   0.17575146756508622   -0.15935837839016706
1.312593601129325   0.17575146756508622   -0.15935837839016706
1.312593601129325   0.17575146756508622   -0.15935837839016706
-0.7255955351999154   0.02278932533824113   0.05052634346855772
-0.7255955351999154   0.02278932533824113   0.05052634346855772
-0.7255955351999154   0.02278932533824113   0.05052634346855772
-0.7255955351999154   0.02278932533824113   0.05052634346855772
0.2576687073536649   -0.001634877597443185   0.040929810495835
0.2576687073536649   -0.001634877597443185   0.040929810495835
0.2576687073536649   -0.001634877597443185   0.040929810495835
0.2576687073536649   -0.001634877597443185   0.040929810495835
-0.8401297340819629   -0.26899382409986555   -0.23036150150357668
-0.8401297340819629   -0.26899382409986555   -0.23036150150357668
-0.8401297340819629   -0.26899382409986555   -0.23036150150357668
-0.8401297340819629   -0.26899382409986555   -0.23036150150357668
1.4443154990836582   0.4847223160754651   0.19028026287110408
1.4443154990836582   0.4847223160754651   0.19028026287110408
1.4443154990836582   0.4847223160754651   0.19028026287110408
1.4443154990836582   0.4847223160754651   0.19028026287110408
1.3739181319137341   0.4140748947003078   -0.18401888183412357
1.3739181319137341   0.4140748947003078   -0.18401888183412357
1.3739181319137341   0.4140748947003078   -0.18401888183412357
1.3739181319137341   0.4140748947003078   -0.18401888183412357
-0.6939138566723373   0.22798671302844395   0.009365369412633384
-0.6939138566723373   0.22798671302844395   0.009365369412633384
-0.6939138566723373   0.22798671302844395   0.009365369412633384
-0.6939138566723373   0.22798671302844395   0.009365369412633384
0.32045956735377107   0.1943931143459743   0.12363143921465237
0.32045956735377107   0.1943931143459743   0.12363143921465237
0.32045956735377107   0.1943931143459743   0.12363143921465237
0.32045956735377107   0.1943931143459743   0.12363143921465237
1.0596551494083672   -0.6718447087284395   -0.30380063027470827
1.0596551494083672   -0.6718447087284395   -0.30380063027470827
1.0596551494083672   -0.6718447087284395   -0.30380063027470827
1.0596551494083672   -0.6718447087284395   -0.30380063027470827
3.1612158010450657   0.31065538224580197   0.32859901348138265
3.1612158010450657   0.31065538224580197   0.32859901348138265
3.1612158010450657   0.31065538224580197   0.32859901348138265
3.1612158010450657   0.31065538224580197   0.32859901348138265
3.1303789785264784   -0.16169451341935193   -0.39982016039969426
3.1303789785264784   -0.16169451341935193   -0.39982016039969426
3.1303789785264784   -0.16169451341935193   -0.39982016039969426
3.1303789785264784   -0.16169451341935193   -0.39982016039969426
1.3310552985308977   0.054545170050938396   0.2450435893266052
1.3310552985308977   0.054545170050938396   0.2450435893266052
1.3310552985308977   0.054545170050938396   0.2450435893266052
1.3310552985308977   0.054545170050938396   0.2450435893266052
2.0575469646582207   -0.1379034621218606   -0.10769201313580448
2.0575469646582207   -0.1379034621218606   -0.10769201313580448
2.0575469646582207   -0.1379034621218606   -0.10769201313580448
2.0575469646582207   -0.1379034621218606   -0.10769201313580448
1.0888101437354976   -0.5603097093479157   -0.35132730525153294
1.0888101437354976   -0.5603097093479157   -0.35132730525153294
1.0888101437354976   -0.5603097093479157   -0.35132730525153294
1.0888101437354976   -0.5603097093479157   -0.35132730525153294
3.3928379973465335   0.47337423000416945   0.2774061902771243
3.3928379973465335   0.47337423000416945   0.2774061902771243
3.3928379973465335   0.47337423000416945   0.2774061902771243
3.3928379973465335   0.47337423000416945   0.2774061902771243
3.2988153993597398   -0.0446024130397088   -0.47914590951767855
3.2988153993597398   -0.0446024130397088   -0.47914590951767855
3.2988153993597398   -0.0446024130397088   -0.47914590951767855
3.2988153993597398   -0.0446024130397088   -0.47914590951767855
1.3755476333379963   0.1402917825088699   0.19087146770939128
1.3755476333379963   0.1402917825088699   0.19087146770939128
1.3755476333379963   0.1402917825088699   0.19087146770939128
1.3755476333379963   0.1402917825088699   0.19087146770939128
2.228343850278195   -0.02001032753446569   -0.01356905384992571
2.228343850278195   -0.02001032753446569   -0.01356905384992571
2.228343850278195   -0.02001032753446569   -0.01356905384992571
2.228343850278195   -0.02001032753446569   -0.01356905384992571
1.1353072597256473   -0.4629021521930623   -0.407136465650415
1.1353072597256473   -0.4629021521930623   -0.407136465650415
1.1353072597256473   -0.4629021521930623   -0.407136465650415
1.1353072597256473   -0.4629021521930623   -0.407136465650415
3.5600866925303527   0.5796224412205083   0.20298570207522748
3.5600866925303527   0.5796224412205083   0.20298570207522748
3.5600866925303527   0.5796224412205083   0.20298570207522748
3.5600866925303527   0.5796224412205083   0.20298570207522748
3.557083320059811   0.2127908428456362   -0.5125852219316467
3.557083320059811   0.2127908428456362   -0.5125852219316467
3.557083320059811   0.2127908428456362   -0.5125852219316467
3.557083320059811   0.2127908428456362   -0.5125852219316467
1.4211028887582615   0.3144054329149019   0.15157436417391215
1.4211028887582615   0.3144054329149019   0.15157436417391215
1.4211028887582615   0.3144054329149019   0.15157436417391215
1.4211028887582615   0.3144054329149019   0.15157436417391215
2.312482185950682   0.11022119635148087   0.0671605732666545
2.312482185950682   0.11022119635148087   0.0671605732666545
2.312482185950682   0.11022119635148087   0.0671605732666545
2.312482185950682   0.11022119635148087   0.0671605732666545
-4.237634214572782   -0.07354656819709549   0.4099289971894512
-4.237634214572782   -0.07354656819709549   0.4099289971894512
-4.237634214572782   -0.07354656819709549   0.4099289971894512
-4.237634214572782   -0.07354656819709549   0.4099289971894512
-3.294591120793201   -0.4163585607781004   -0.20364721660454865
-3.294591120793201   -0.4163585607781004   -0.20364721660454865
-3.294591120793201   -0.4163585607781004   -0.20364721660454865
-3.294591120793201   -0.4163585607781004   -0.20364721660454865
-2.982627508428282   0.35362839589277806   0.3507820988162028
-2.982627508428282   0.35362839589277806   0.3507820988162028
-2.982627508428282   0.35362839589277806   0.3507820988162028
-2.982627508428282   0.35362839589277806   0.3507820988162028
-4.219198216768237   -0.45919412742203275   -0.27685034333897757
-4.219198216768237   -0.45919412742203275   -0.27685034333897757
-4.219198216768237   -0.45919412742203275   -0.27685034333897757
-4.219198216768237   -0.45919412742203275   -0.27685034333897757
-3.5420262551542727   -0.09804344651683738   -0.05043316429800185
-3.5420262551542727   -0.09804344651683738   -0.05043316429800185
-3.5420262551542727   -0.09804344651683738   -0.05043316429800185
-3.5420262551542727   -0.09804344651683738   -0.05043316429800185
-3.960367763503168   0.1662879035228555   0.39181989204147605
-3.960367763503168   0.1662879035228555   0.39181989204147605
-3.960367763503168   0.1662879035228555   0.39181989204147605
-3.960367763503168   0.1662879035228555   0.39181989204147605
-3.2235737354148153   -0.2539694087735954   -0.24635123145008977
-3.2235737354148153   -0.2539694087735954   -0.24635123145008977
-3.2235737354148153   -0.2539694087735954   -0.24635123145008977
-3.2235737354148153   -0.2539694087735954   -0.24635123145008977
-2.9080484692691173   0.4451455066992942   0.29687380777102196
-2.9080484692691173   0.4451455066992942   0.29687380777102196
-2.9080484692691173   0.4451455066992942   0.29687380777102196
-2.9080484692691173   0.4451455066992942   0.29687380777102196
-4.026137006824231   -0.35551430592499744   -0.34619290242058975
-4.026137006824231   -0.35551430592499744   -0.34619290242058975
-4.026137006824231   -0.35551430592499744   -0.34619290242058975
-4.026137006824231   -0.35551430592499744   -0.34619290242058975
-3.441119818692201   0.021875327426186808   0.02592348508440201
-3.441119818692201   0.021875327426186808   0.02592348508440201
-3.441119818692201   0.021875327426186808   0.02592348508440201
-3.441119818692201   0.021875327426186808   0.02592348508440201
-3.766963082625157   0.27735025416985515   0.31681215847986616
-3.766963082625157   0.27735025416985515   0.31681215847986616
-3.766963082625157   0.27735025416985515   0.31681215847986616
-3.766963082625157   0.27735025416985515   0.31681215847986616
-3.1502564927964425   -0.17075315272381453   -0.29826765044246406
-3.1502564927964425   -0.17075315272381453   -0.29826765044246406
-3.1502564927964425   -0.17075315272381453   -0.29826765044246406
-3.1502564927964425   -0.17075315272381453   -0.29826765044246406
-2.8474620946274687   0.5586575521244364   0.25606749263659656
-2.8474620946274687   0.5586575521244364   0.25606749263659656
-2.8474620946274687   0.5586575521244364   0.25606749263659656
-2.8474620946274687   0.5586575521244364   0.25606749263659656
-3.7666813903485927   -0.18961986239903794   -0.4007533291961123
-3.7666813903485927   -0.18961986239903794   -0.4007533291961123
-3.7666813903485927   -0.18961986239903794   -0.4007533291961123
-3.7666813903485927   -0.18961986239903794   -0.4007533291961123
-3.2370227874864765   0.13985098540038177   0.1208766441295307
-3.2370227874864765   0.13985098540038177   0.1208766441295307
-3.2370227874864765   0.13985098540038177   0.1208766441295307
-3.2370227874864765   0.13985098540038177   0.1208766441295307
-3.1802901653640174   -0.2408540737393452   0.19235307350261271
-3.1802901653640174   -0.2408540737393452   0.19235307350261271
-3.1802901653640174   -0.2408540737393452   0.19235307350261271
-3.1802901653640174   -0.2408540737393452   0.19235307350261271
-2.3251567482076108   -0.31581019849436776   -0.060355332980444196
-2.3251567482076108   -0.31581019849436776   -0.060355332980444196
-2.3251567482076108   -0.31581019849436776   -0.060355332980444196
-2.3251567482076108   -0.31581019849436776   -0.060355332980444196
-2.150776355768642   0.1607713541468907   0.1792955128945962
-2.150776355768642   0.1607713541468907   0.1792955128945962
-2.150776355768642   0.1607713541468907   0.1792955128945962
-2.150776355768642   0.1607713541468907   0.1792955128945962
-3.226285779672799   -0.33930535440727233   -0.1745755071062996
-3.226285779672799   -0.33930535440727233   -0.1745755071062996
-3.226285779672799   -0.33930535440727233   -0.1745755071062996
-3.226285779672799   -0.33930535440727233   -0.1745755071062996
-2.712874843585229   -0.16946794512560504   -0.07249122657298382
-2.712874843585229   -0.16946794512560504   -0.07249122657298382
-2.712874843585229   -0.16946794512560504   -0.07249122657298382
-2.712874843585229   -0.16946794512560504   -0.07249122657298382
-3.097087918464895   -0.03160697672175117   0.16371542124763902
-3.097087918464895   -0.03160697672175117   0.16371542124763902
-3.097087918464895   -0.03160697672175117   0.16371542124763902
-3.097087918464895   -0.03160697672175117   0.16371542124763902
-2.2655465690495493   -0.13249937561166403   -0.10128482375138498
-2.2655465690495493   -0.13249937561166403   -0.10128482375138498
-2.2655465690495493   -0.13249937561166403   -0.10128482375138498
-2.2655465690495493   -0.13249937561166403   -0.10128482375138498
-2.0864022637728774   0.34674204192220864   0.14348259824190238
-2.0864022637728774   0.34674204192220864   0.14348259824190238
-2.0864022637728774   0.34674204192220864   0.14348259824190238
-2.0864022637728774   0.34674204192220864   0.14348259824190238
-3.130282989456716   -0.1602117383032201   -0.20894154816439484
-3.130282989456716   -0.1602117383032201   -0.20894154816439484
-3.130282989456716   -0.1602117383032201   -0.20894154816439484
-3.130282989456716   -0.1602117383032201   -0.20894154816439484
-2.6200823350695788   0.01014227853208649   0.007959086130270077
-2.6200823350695788   0.01014227853208649   0.007959086130270077
-2.6200823350695788   0.01014227853208649   0.007959086130270077
-2.6200823350695788   0.01014227853208649   0.007959086130270077
-2.9935152645797585   0.16629999141322827   0.14838534650388172
-2.9935152645797585   0.16629999141322827   0.14838534650388172
-2.9935152645797585   0.16629999141322827   0.14838534650388172
-2.9935152645797585   0.16629999141322827   0.14838534650388172
-2.2065123320256532   0.03688796882992906   -0.14721366992971122
-2.2065123320256532   0.03688796882992906   -0.14721366992971122
-2.2065123320256532   0.03688796882992906   -0.14721366992971122
-2.2065123320256532   0.03688796882992906   -0.14721366992971122
-2.0222443453531125   0.5483343755262583   0.1093739698390141
-2.0222443453531125   0.5483343755262583   0.1093739698390141
-2.0222443453531125   0.5483343755262583   0.1093739698390141
-2.0222443453531125   0.5483343755262583   0.1093739698390141
-3.050822366352008   0.035128233955984633   -0.2372045478176174
-3.050822366352008   0.035128233955984633   -0.2372045478176174
-3.050822366352008   0.035128233955984633   -0.2372045478176174
-3.050822366352008   0.035128233955984633   -0.2372045478176174
-2.552885073390457   0.18589551460022735   0.08653296760321588
-2.552885073390457   0.18589551460022735   0.08653296760321588
-2.552885073390457   0.18589551460022735   0.08653296760321588
-2.552885073390457   0.18589551460022735   0.08653296760321588
-2.322673039599999   -0.3970907447797771   0.03334375634299125
-2.322673039599999   -0.3970907447797771   0.03334375634299125
-2.322673039599999   -0.3970907447797771   0.03334375634299125
-2.322673039599999   -0.3970907447797771   0.03334375634299125
-1.369536540956726   -0.16523629418846073   0.0856271549257035
-1.369536540956726   -0.16523629418846073   0.0856271549257035
-1.369536540956726   -0.16523629418846073   0.0856271549257035
-1.369536540956726   -0.16523629418846073   0.0856271549257035
-1.3213878446003022   -0.0020857951743492587   0.011141680891046876
-1.3213878446003022   -0.0020857951743492587   0.011141680891046876
-1.3213878446003022   -0.0020857951743492587   0.011141680891046876
-1.3213878446003022   -0.0020857951743492587   0.011141680891046876
-2.2591974672961492   -0.18169771124731177   -0.020340979348737645
-2.2591974672961492   -0.18169771124731177   -0.020340979348737645
-2.2591974672961492   -0.18169771124731177   -0.020340979348737645
-2.2591974672961492   -0.18169771124731177   -0.020340979348737645
-1.821070515009846   -0.17783652403862016   -0.05270182343430965
-1.821070515009846   -0.17783652403862016   -0.05270182343430965
-1.821070515009846   -0.17783652403862016   -0.05270182343430965
-1.821070515009846   -0.17783652403862016   -0.05270182343430965
-2.256605787924502   -0.19097814897080356   0.0018978552329750181
-2.256605787924502   -0.19097814897080356   0.0018978552329750181
-2.256605787924502   -0.19097814897080356   0.0018978552329750181
-2.256605787924502   -0.19097814897080356   0.0018978552329750181
-1.309639153851079   0.0215350126700104   0.04626432679280294
-1.309639153851079   0.0215350126700104   0.04626432679280294
-1.309639153851079   0.0215350126700104   0.04626432679280294
-1.309639153851079   0.0215350126700104   0.04626432679280294
-1.2515479914684562   0.20586567107787496   -0.018048878637223653
-1.2515479914684562   0.20586567107787496   -0.018048878637223653
-1.2515479914684562   0.20586567107787496   -0.018048878637223653
-1.2515479914684562   0.20586567107787496   -0.018048878637223653
-2.19471639326472   0.007727421814141766   -0.059073429109257974
-2.19471639326472   0.007727421814141766   -0.059073429109257974
-2.19471639326472   0.007727421814141766   -0.059073429109257974
-2.19471639326472   0.007727421814141766   -0.059073429109257974
-1.7474478162725304   0.009256120284243385   0.025253911395285253
-1.7474478162725304   0.009256120284243385   0.025253911395285253
-1.7474478162725304   0.009256120284243385   0.025253911395285253
-1.7474478162725304   0.009256120284243385   0.025253911395285253
-2.1871799328664943   0.016346931220759697   -0.03001063652476199
-2.1871799328664943   0.016346931220759697   -0.03001063652476199
-2.1871799328664943   0.016346931220759697   -0.03001063652476199
-2.1871799328664943   0.016346931220759697   -0.03001063652476199
-1.2461204849973553   0.21021012854058302   0.004744196255583588
-1.2461204849973553   0.21021012854058302   0.004744196255583588
-1.2461204849973553   0.21021012854058302   0.004744196255583588
-1.2461204849973553   0.21021012854058302   0.004744196255583588
-1.1855947094993409   0.41569571915172754   -0.051428999928110564
-1.1855947094993409   0.41569571915172754   -0.051428999928110564
-1.1855947094993409   0.41569571915172754   -0.051428999928110564
-1.1855947094993409   0.41569571915172754   -0.051428999928110564
-2.1341398788238473   0.19862287588911032   -0.1003921978775138
-2.1341398788238473   0.19862287588911032   -0.1003921978775138
-2.1341398788238473   0.19862287588911032   -0.1003921978775138
-2.1341398788238473   0.19862287588911032   -0.1003921978775138
-1.6777577162383528   0.19701658363662639   0.10007916443738368
-1.6777577162383528   0.19701658363662639   0.10007916443738368
-1.6777577162383528   0.19701658363662639   0.10007916443738368
-1.6777577162383528   0.19701658363662639   0.10007916443738368
-1.4857484776105272   -0.5327962798797148   -0.12787254265207118
-1.4857484776105272   -0.5327962798797148   -0.12787254265207118
-1.4857484776105272   -0.5327962798797148   -0.12787254265207118
-1.4857484776105272   -0.5327962798797148   -0.12787254265207118
-0.4388786348317235   -0.005320045404934692   0.22465810543769274
-0.4388786348317235   -0.005320045404934692   0.22465810543769274
-0.4388786348317235   -0.005320045404934692   0.22465810543769274
-0.4388786348317235   -0.005320045404934692   0.22465810543769274
-0.5014526068184122   -0.155672138511889   -0.16350145345581915
-0.5014526068184122   -0.155672138511889   -0.16350145345581915
-0.5014526068184122   -0.155672138511889   -0.16350145345581915
-0.5014526068184122   -0.155672138511889   -0.16350145345581915
-1.301647844967987   -0.020413557569067375   0.12816944144732997
-1.301647844967987   -0.020413557569067375   0.12816944144732997
-1.301647844967987   -0.020413557569067375   0.12816944144732997
-1.301647844967987   -0.020413557569067375   0.12816944144732997
-0.9319809241833881   -0.17072935394514666   -0.03800813060001946
-0.9319809241833881   -0.17072935394514666   -0.03800813060001946
-0.9319809241833881   -0.17072935394514666   -0.03800813060001946
-0.9319809241833881   -0.17072935394514666   -0.03800813060001946
-1.423441618886306   -0.3396768728141441   -0.1615361128992005
-1.423441618886306   -0.3396768728141441   -0.1615361128992005
-1.423441618886306   -0.3396768728141441   -0.1615361128992005
-1.423441618886306   -0.3396768728141441   -0.1615361128992005
-0.36357818955435295   0.17967182007892576   0.19052667427366196
-0.36357818955435295   0.17967182007892576   0.19052667427366196
-0.36357818955435295   0.17967182007892576   0.19052667427366196
-0.36357818955435295   0.17967182007892576   0.19052667427366196
-0.39972543728719434   0.04105184962876479   -0.18403113299166787
-0.39972543728719434   0.04105184962876479   -0.18403113299166787
-0.39972543728719434   0.04105184962876479   -0.18403113299166787
-0.39972543728719434   0.04105184962876479   -0.18403113299166787
-1.2420914697574807   0.14969378326500626   0.0854056177305218
-1.2420914697574807   0.14969378326500626   0.0854056177305218
-1.2420914697574807   0.14969378326500626   0.0854056177305218
-1.2420914697574807   0.14969378326500626   0.0854056177305218
-0.8538402196346431   0.003381632472234636   0.04138736561553482
-0.8538402196346431   0.003381632472234636   0.04138736561553482
-0.8538402196346431   0.003381632472234636   0.04138736561553482
-0.8538402196346431   0.003381632472234636   0.04138736561553482
-1.3600253994445501   -0.1542633047436164   -0.20030694269621815
-1.3600253994445501   -0.1542633047436164   -0.20030694269621815
-1.3600253994445501   -0.1542633047436164   -0.20030694269621815
-1.3600253994445501   -0.1542633047436164   -0.20030694269621815
-0.26682651401887697   0.35997393121863286   0.16154140176005088
-0.26682651401887697   0.35997393121863286   0.16154140176005088
-0.26682651401887697   0.35997393121863286   0.16154140176005088
-0.26682651401887697   0.35997393121863286   0.16154140176005088
-0.3136421687806937   0.26095503118841057   -0.20606472767917716
-0.3136421687806937   0.26095503118841057   -0.20606472767917716
-0.3136421687806937   0.26095503118841057   -0.20606472767917716
-0.3136421687806937   0.26095503118841057   -0.20606472767917716
-1.1811266437273233   0.3424217577351948   0.04418529034850929
-1.1811266437273233   0.3424217577351948   0.04418529034850929
-1.1811266437273233   0.3424217577351948   0.04418529034850929
-1.1811266437273233   0.3424217577351948   0.04418529034850929
-0.7727566429731955   0.18519540246539007   0.1209038233926955
-0.7727566429731955   0.18519540246539007   0.1209038233926955
-0.7727566429731955   0.18519540246539007   0.1209038233926955
-0.7727566429731955   0.18519540246539007   0.1209038233926955
-0.6528802978895417   -0.5733480760738855   -0.27732217918244745
-0.6528802978895417   -0.5733480760738855   -0.27732217918244745
-0.6528802978895417   -0.5733480760738855   -0.27732217918244745
-0.6528802978895417   -0.5733480760738855   -0.27732217918244745
0.2708401185089964   0.17270916218772642   0.34151036384141
0.2708401185089964   0.17270916218772642   0.34151036384141
0.2708401185089964   0.17270916218772642   0.34151036384141
0.2708401185089964   0.17270916218772642   0.34151036384141
0.2735194494522358   -0.2793593586326914   -0.366943205012882
0.2735194494522358   -0.2793593586326914   -0.366943205012882
0.2735194494522358   -0.2793593586326914   -0.366943205012882
0.2735194494522358   -0.2793593586326914   -0.366943205012882
-0.3464596774020659   0.1763209575911766   0.2794700975228465
-0.3464596774020659   0.1763209575911766   0.2794700975228465
-0.3464596774020659   0.1763209575911766   0.2794700975228465
-0.3464596774020659   0.1763209575911766   0.2794700975228465
-0.12284563232428822   -0.12066142119671028   -0.0657251559436362
-0.12284563232428822   -0.12066142119671028   -0.0657251559436362
-0.12284563232428822   -0.12066142119671028   -0.0657251559436362
-0.12284563232428822   -0.12066142119671028   -0.0657251559436362
-0.5898451601888962   -0.4423924261019725   -0.3187439327181557
-0.5898451601888962   -0.4423924261019725   -0.3187439327181557
-0.5898451601888962   -0.4423924261019725   -0.3187439327181557
-0.5898451601888962   -0.4423924261019725   -0.3187439327181557
0.5341125715976597   0.35656166441905135   0.30010138266249464
0.5341125715976597   0.35656166441905135   0.30010138266249464
0.5341125715976597   0.35656166441905135   0.30010138266249464
0.5341125715976597   0.35656166441905135   0.30010138266249464
0.4676446112031167   -0.16658810630259113   -0.4356249542129112
0.4676446112031167   -0.16658810630259113   -0.4356249542129112
0.4676446112031167   -0.16658810630259113   -0.4356249542129112
0.4676446112031167   -0.16658810630259113   -0.4356249542129112
-0.27470261772759674   0.25813949150988336   0.22399532292520163
-0.27470261772759674   0.25813949150988336   0.22399532292520163
-0.27470261772759674   0.25813949150988336   0.22399532292520163
-0.27470261772759674   0.25813949150988336   0.22399532292520163
0.0374351443780262   -0.004784200923892009   0.020480194296857303
0.0374351443780262   -0.004784200923892009   0.020480194296857303
0.0374351443780262   -0.004784200923892009   0.020480194296857303
0.0374351443780262   -0.004784200923892009   0.020480194296857303
-0.5147326834221688   -0.34961806432718423   -0.36839744971059113
-0.5147326834221688   -0.34961806432718423   -0.36839744971059113
-0.5147326834221688   -0.34961806432718423   -0.36839744971059113
-0.5147326834221688   -0.34961806432718423   -0.36839744971059113
0.7248718430422829   0.45836661567907067   0.22555648300125838
0.7248718430422829   0.45836661567907067   0.22555648300125838
0.7248718430422829   0.45836661567907067   0.22555648300125838
0.7248718430422829   0.45836661567907067   0.22555648300125838
0.7390709152673225   0.05443310110170379   -0.4662553214011394
0.7390709152673225   0.05443310110170379   -0.4662553214011394
0.7390709152673225   0.05443310110170379   -0.4662553214011394
0.7390709152673225   0.05443310110170379   -0.4662553214011394
-0.20761472105132436   0.40303214003853516   0.18199540211754495
-0.20761472105132436   0.40303214003853516   0.18199540211754495
-0.20761472105132436   0.40303214003853516   0.18199540211754495
-0.20761472105132436   0.40303214003853516   0.18199540211754495
0.18077224198464284   0.11724019414376524   0.10450739189198162
0.18077224198464284   0.11724019414376524   0.10450739189198162
0.18077224198464284   0.11724019414376524   0.10450739189198162
0.18077224198464284   0.11724019414376524   0.10450739189198162
-1.4210942000528672   0.07707512894643392   0.39002431127778964
-1.4210942000528672   0.07707512894643392   0.39002431127778964
-1.4210942000528672   0.07707512894643392   0.39002431127778964
-1.4210942000528672   0.07707512894643392   0.39002431127778964
-1.668711078626094   -0.5094993186508819   -0.23083122259897557
-1.668711078626094   -0.5094993186508819   -0.23083122259897557
-1.668711078626094   -0.5094993186508819   -0.23083122259897557
-1.668711078626094   -0.5094993186508819   -0.23083122259897557
-1.3322341076503825   0.23748744031797975   0.31959338624323097
-1.3322341076503825   0.23748744031797975   0.31959338624323097
-1.3322341076503825   0.23748744031797975   0.31959338624323097
-1.3322341076503825   0.23748744031797975   0.31959338624323097
-1.3794019832618867   -0.33780838818030456   -0.29701210351224666
-1.3794019832618867   -0.33780838818030456   -0.29701210351224666
-1.3794019832618867   -0.33780838818030456   -0.29701210351224666
-1.3794019832618867   -0.33780838818030456   -0.29701210351224666
-1.4130318077708484   -0.1088049297734291   -0.10573676130519583
-1.4130318077708484   -0.1088049297734291   -0.10573676130519583
-1.4130318077708484   -0.1088049297734291   -0.10573676130519583
-1.4130318077708484   -0.1088049297734291   -0.10573676130519583
-1.1221107208235597   0.2882671704454238   0.36336865005362873
-1.1221107208235597   0.2882671704454238   0.36336865005362873
-1.1221107208235597   0.2882671704454238   0.36336865005362873
-1.1221107208235597   0.2882671704454238   0.36336865005362873
-1.5735445151353218   -0.372607263354361   -0.2768639475090935
-1.5735445151353218   -0.372607263354361   -0.2768639475090935
-1.5735445151353218   -0.372607263354361   -0.2768639475090935
-1.5735445151353218   -0.372607263354361   -0.2768639475090935
-1.2274115813381024   0.32729622487535487   0.26913432609504284
-1.2274115813381024   0.32729622487535487   0.26913432609504284
-1.2274115813381024   0.32729622487535487   0.26913432609504284
-1.2274115813381024   0.32729622487535487   0.26913432609504284
-1.1565615979441946   -0.2363128137587061   -0.3703291227876535
-1.1565615979441946   -0.2363128137587061   -0.3703291227876535
-1.1565615979441946   -0.2363128137587061   -0.3703291227876535
-1.1565615979441946   -0.2363128137587061   -0.3703291227876535
-1.2485992495171567   0.006084494162836185   -0.02110682595110641
-1.2485992495171567   0.006084494162836185   -0.02110682595110641
-1.2485992495171567   0.006084494162836185   -0.02110682595110641
-1.2485992495171567   0.006084494162836185   -0.02110682595110641
-0.8976317347950935   0.3975223373373193   0.290485041861856
-0.8976317347950935   0.3975223373373193   0.290485041861856
-0.8976317347950935   0.3975223373373193   0.290485041861856
-0.8976317347950935   0.3975223373373193   0.290485041861856
-1.4712257818420649   -0.29142326357552706   -0.3312171879738878
-1.4712257818420649   -0.29142326357552706   -0.3312171879738878
-1.4712257818420649   -0.29142326357552706   -0.3312171879738878
-1.4712257818420649   -0.29142326357552706   -0.3312171879738878
-1.1313657124023535   0.4640897565266986   0.23247908748645316
-1.1313657124023535   0.4640897565266986   0.23247908748645316
-1.1313657124023535   0.4640897565266986   0.23247908748645316
-1.1313657124023535   0.4640897565266986   0.23247908748645316
-0.8591838930755692   -0.04334682054620004   -0.41729341712317036
-0.8591838930755692   -0.04334682054620004   -0.41729341712317036
-0.8591838930755692   -0.04334682054620004   -0.41729341712317036
-0.8591838930755692   -0.04334682054620004   -0.41729341712317036
-1.0504859961401423   0.12586540560540738   0.06968019977407039
-1.0504859961401423   0.12586540560540738   0.06968019977407039
-1.0504859961401423   0.12586540560540738   0.06968019977407039
-1.0504859961401423   0.12586540560540738   0.06968019977407039
-1.4952069289032042   -0.09359260547039949   0.2207828128349908
-1.4952069289032042   -0.09359260547039949   0.2207828128349908
-1.4952069289032042   -0.09359260547039949   0.2207828128349908
-1.4952069289032042   -0.09359260547039949   0.2207828128349908
-1.842217454464781   -0.4155005865365373   -0.09021582464092628
-1.842217454464781   -0.4155005865365373   -0.09021582464092628
-1.842217454464781   -0.4155005865365373   -0.09021582464092628
-1.842217454464781   -0.4155005865365373   -0.09021582464092628
-1.6404137151935154   0.04243252351465632   0.14824181802418274
-1.6404137151935154   0.04243252351465632   0.14824181802418274
-1.6404137151935154   0.04243252351465632   0.14824181802418274
-1.6404137151935154   0.04243252351465632   0.14824181802418274
-1.5107410177146716   -0.19843031422804552   -0.13702340953212688
-1.5107410177146716   -0.19843031422804552   -0.13702340953212688
-1.5107410177146716   -0.19843031422804552   -0.13702340953212688
-1.5107410177146716   -0.19843031422804552   -0.13702340953212688
-1.6230755568023278   -0.15365307599386765   -0.07490890030350902
-1.6230755568023278   -0.15365307599386765   -0.07490890030350902
-1.6230755568023278   -0.15365307599386765   -0.07490890030350902
-1.6230755568023278   -0.15365307599386765   -0.07490890030350902
-1.384604664309551   0.10249298228307191   0.19273506098229654
-1.384604664309551   0.10249298228307191   0.19273506098229654
-1.384604664309551   0.10249298228307191   0.19273506098229654
-1.384604664309551   0.10249298228307191   0.19273506098229654
-1.7540498310734172   -0.24599053547121438   -0.13151570238947097
-1.7540498310734172   -0.24599053547121438   -0.13151570238947097
-1.7540498310734172   -0.24599053547121438   -0.13151570238947097
-1.7540498310734172   -0.24599053547121438   -0.13151570238947097
-1.5467306562666658   0.22091946328455592   0.11316212658443567
-1.5467306562666658   0.22091946328455592   0.11316212658443567
-1.5467306562666658   0.22091946328455592   0.11316212658443567
-1.5467306562666658   0.22091946328455592   0.11316212658443567
-1.385921166671069   -0.026082958790887734   -0.17003441690354826
-1.385921166671069   -0.026082958790887734   -0.17003441690354826
-1.385921166671069   -0.026082958790887734   -0.17003441690354826
-1.385921166671069   -0.026082958790887734   -0.17003441690354826
-1.5113842674415372   0.013182722622675391   0.0032969448372959786
-1.5113842674415372   0.013182722622675391   0.0032969448372959786
-1.5113842674415372   0.013182722622675391   0.0032969448372959786
-1.5113842674415372   0.013182722622675391   0.0032969448372959786
-1.2536731439572615   0.2916025733370584   0.17352016453754351
-1.2536731439572615   0.2916025733370584   0.17352016453754351
-1.2536731439572615   0.2916025733370584   0.17352016453754351
-1.2536731439572615   0.2916025733370584   0.17352016453754351
-1.6656602188626999   -0.08344760872562174   -0.17711861438558735
-1.6656602188626999   -0.08344760872562174   -0.17711861438558735
-1.6656602188626999   -0.08344760872562174   -0.17711861438558735
-1.6656602188626999   -0.08344760872562174   -0.17711861438558735
-1.4526175518007358   0.4181746301037961   0.07982261837004564
-1.4526175518007358   0.4181746301037961   0.07982261837004564
-1.4526175518007358   0.4181746301037961   0.07982261837004564
-1.4526175518007358   0.4181746301037961   0.07982261837004564
-1.2779604485486233   0.16489552656824663   -0.2013003632864448
-1.2779604485486233   0.16489552656824663   -0.2013003632864448
-1.2779604485486233   0.16489552656824663   -0.2013003632864448
-1.2779604485486233   0.16489552656824663   -0.2013003632864448
-1.4058173901633884   0.185142407053481   0.08277548539106859
-1.4058173901633884   0.185142407053481   0.08277548539106859
-1.4058173901633884   0.185142407053481   0.08277548539106859
-1.4058173901633884   0.185142407053481   0.08277548539106859
-1.7791425137609538   -0.25195938438843213   0.061617676730074296
-1.7791425137609538   -0.25195938438843213   0.061617676730074296
-1.7791425137609538   -0.25195938438843213   0.061617676730074296
-1.7791425137609538   -0.25195938438843213   0.061617676730074296
-2.0158857752996786   -0.26073629793805675   0.054750105625763414
-2.0158857752996786   -0.26073629793805675   0.054750105625763414
-2.0158857752996786   -0.26073629793805675   0.054750105625763414
-2.0158857752996786   -0.26073629793805675   0.054750105625763414
-1.940520482448306   -0.1177068680364372   -0.019063748142207862
-1.940520482448306   -0.1177068680364372   -0.019063748142207862
-1.940520482448306   -0.1177068680364372   -0.019063748142207862
-1.940520482448306   -0.1177068680364372   -0.019063748142207862
-1.682251877156024   -0.03616156366819667   0.017645095394493215
-1.682251877156024   -0.03616156366819667   0.017645095394493215
-1.682251877156024   -0.03616156366819667   0.017645095394493215
-1.682251877156024   -0.03616156366819667   0.017645095394493215
-1.8572275858351965   -0.15718516312079395   -0.04954831557702592
-1.8572275858351965   -0.15718516312079395   -0.04954831557702592
-1.8572275858351965   -0.15718516312079395   -0.04954831557702592
-1.8572275858351965   -0.15718516312079395   -0.04954831557702592
-1.68379444187294   -0.056495640553821336   0.03026634869550536
-1.68379444187294   -0.056495640553821336   0.03026634869550536
-1.68379444187294   -0.056495640553821336   0.03026634869550536
-1.68379444187294   -0.056495640553821336   0.03026634869550536
-1.927212152455363   -0.08560702587478763   0.015378059660877519
-1.927212152455363   -0.08560702587478763   0.015378059660877519
-1.927212152455363   -0.08560702587478763   0.015378059660877519
-1.927212152455363   -0.08560702587478763   0.015378059660877519
-1.8421981358897328   0.08034881737623006   -0.04848470867368079
-1.8421981358897328   0.08034881737623006   -0.04848470867368079
-1.8421981358897328   0.08034881737623006   -0.04848470867368079
-1.8421981358897328   0.08034881737623006   -0.04848470867368079
-1.588887427497927   0.14381904024401343   -0.02052130653132736
-1.588887427497927   0.14381904024401343   -0.02052130653132736
-1.588887427497927   0.14381904024401343   -0.02052130653132736
-1.588887427497927   0.14381904024401343   -0.02052130653132736
-1.7545710095552771   0.019982478684420102   0.027594905536847417
-1.7545710095552771   0.019982478684420102   0.027594905536847417
-1.7545710095552771   0.019982478684420102   0.027594905536847417
-1.7545710095552771   0.019982478684420102   0.027594905536847417
-1.5858309188787463   0.1408627148957296   -0.0022824380871697414
-1.5858309188787463   0.1408627148957296   -0.0022824380871697414
-1.5858309188787463   0.1408627148957296   -0.0022824380871697414
-1.5858309188787463   0.1408627148957296   -0.0022824380871697414
-1.835004631506556   0.09355515572686668   -0.02572352510843237
-1.835004631506556   0.09355515572686668   -0.02572352510843237
-1.835004631506556   0.09355515572686668   -0.02572352510843237
-1.835004631506556   0.09355515572686668   -0.02572352510843237
-1.7480617791884001   0.2795622059724261   -0.08177364709625981
-1.7480617791884001   0.2795622059724261   -0.08177364709625981
-1.7480617791884001   0.2795622059724261   -0.08177364709625981
-1.7480617791884001   0.2795622059724261   -0.08177364709625981
-1.49977891160585   0.3245360671978148   -0.06234561774953007
-1.49977891160585   0.3245360671978148   -0.06234561774953007
-1.49977891160585   0.3245360671978148   -0.06234561774953007
-1.49977891160585   0.3245360671978148   -0.06234561774953007
-1.6565916526694873   0.19746209449196278   0.1011367234797459
-1.6565916526694873   0.19746209449196278   0.1011367234797459
-1.6565916526694873   0.19746209449196278   0.1011367234797459
-1.6565916526694873   0.19746209449196278   0.1011367234797459
-2.0746245458111776   -0.39778071471860743   -0.10189933015121624
-2.0746245458111776   -0.39778071471860743   -0.10189933015121624
-2.0746245458111776   -0.39778071471860743   -0.10189933015121624
-2.0746245458111776   -0.39778071471860743   -0.10189933015121624
-2.2034677508908773   -0.10922211739452636   0.19346225806160278
-2.2034677508908773   -0.10922211739452636   0.19346225806160278
-2.2034677508908773   -0.10922211739452636   0.19346225806160278
-2.2034677508908773   -0.10922211739452636   0.19346225806160278
-2.23794371440384   -0.27096333335922174   -0.18828356806758803
-2.23794371440384   -0.27096333335922174   -0.18828356806758803
-2.23794371440384   -0.27096333335922174   -0.18828356806758803
-2.23794371440384   -0.27096333335922174   -0.18828356806758803
-1.8566985595154528   0.11967015842950479   0.1626688400561178
-1.8566985595154528   0.11967015842950479   0.1626688400561178
-1.8566985595154528   0.11967015842950479   0.1626688400561178
-1.8566985595154528   0.11967015842950479   0.1626688400561178
-2.0846315379856017   -0.15382160466782285   -0.03107494295395434
-2.0846315379856017   -0.15382160466782285   -0.03107494295395434
-2.0846315379856017   -0.15382160466782285   -0.03107494295395434
-2.0846315379856017   -0.15382160466782285   -0.03107494295395434
-1.9818050440795043   -0.20893130878980598   -0.13426211554484538
-1.9818050440795043   -0.20893130878980598   -0.13426211554484538
-1.9818050440795043   -0.20893130878980598   -0.13426211554484538
-1.9818050440795043   -0.20893130878980598   -0.13426211554484538
-2.1004964436007527   0.06997892009912243   0.15801053248950614
-2.1004964436007527   0.06997892009912243   0.15801053248950614
-2.1004964436007527   0.06997892009912243   0.15801053248950614
-2.1004964436007527   0.06997892009912243   0.15801053248950614
-2.109550408576157   -0.0831245362022196   -0.21122704078693105
-2.109550408576157   -0.0831245362022196   -0.21122704078693105
-2.109550408576157   -0.0831245362022196   -0.21122704078693105
-2.109550408576157   -0.0831245362022196   -0.21122704078693105
-1.768013924294402   0.2820383801759629   0.12074678650322285
-1.768013924294402   0.2820383801759629   0.12074678650322285
-1.768013924294402   0.2820383801759629   0.12074678650322285
-1.768013924294402   0.2820383801759629   0.12074678650322285
-1.9683164802179003   0.01667910452640886   0.04850162566869082
-1.9683164802179003   0.01667910452640886   0.04850162566869082
-1.9683164802179003   0.01667910452640886   0.04850162566869082
-1.9683164802179003   0.01667910452640886   0.04850162566869082
-1.889257391473223   -0.03125579872269568   -0.17217637049224566
-1.889257391473223   -0.03125579872269568   -0.17217637049224566
-1.889257391473223   -0.03125579872269568   -0.17217637049224566
-1.889257391473223   -0.03125579872269568   -0.17217637049224566
-1.9758340486096095   0.24264253548420556   0.13158768735939774
-1.9758340486096095   0.24264253548420556   0.13158768735939774
-1.9758340486096095   0.24264253548420556   0.13158768735939774
-1.9758340486096095   0.24264253548420556   0.13158768735939774
-1.9971282597427193   0.12404336430908847   -0.23170506076662647
-1.9971282597427193   0.12404336430908847   -0.23170506076662647
-1.9971282597427193   0.12404336430908847   -0.23170506076662647
-1.9971282597427193   0.12404336430908847   -0.23170506076662647
-1.6790801217200386   0.4632887504287324   0.07940809578924118
-1.6790801217200386   0.4632887504287324   0.07940809578924118
-1.6790801217200386   0.4632887504287324   0.07940809578924118
-1.6790801217200386   0.4632887504287324   0.07940809578924118
-1.869094176990816   0.18618599470849972   0.1246986713684067
-1.869094176990816   0.18618599470849972   0.1246986713684067
-1.869094176990816   0.18618599470849972   0.1246986713684067
-1.869094176990816   0.18618599470849972   0.1246986713684067
-2.365979502470686   -0.4738504651857445   -0.2544681520462617
-2.365979502470686   -0.4738504651857445   -0.2544681520462617
-2.365979502470686   -0.4738504651857445   -0.2544681520462617
-2.365979502470686   -0.4738504651857445   -0.2544681520462617
-2.602337826731063   0.039899618034029194   0.3467151583058184
-2.602337826731063   0.039899618034029194   0.3467151583058184
-2.602337826731063   0.039899618034029194   0.3467151583058184
-2.602337826731063   0.039899618034029194   0.3467151583058184
-2.565160552253275   -0.3909995389930755   -0.3384315105472048
-2.565160552253275   -0.3909995389930755   -0.3384315105472048
-2.565160552253275   -0.3909995389930755   -0.3384315105472048
-2.565160552253275   -0.3909995389930755   -0.3384315105472048
-2.024264093737425   0.2983364907783734   0.3108147111268732
-2.024264093737425   0.2983364907783734   0.3108147111268732
-2.024264093737425   0.2983364907783734   0.3108147111268732
-2.024264093737425   0.2983364907783734   0.3108147111268732
-2.2939905837959715   -0.1006785872158773   -0.01651163166338196
-2.2939905837959715   -0.1006785872158773   -0.01651163166338196
-2.2939905837959715   -0.1006785872158773   -0.01651163166338196
-2.2939905837959715   -0.1006785872158773   -0.01651163166338196
-2.2687084763161405   -0.32219746991156706   -0.29087324107679724
-2.2687084763161405   -0.32219746991156706   -0.29087324107679724
-2.2687084763161405   -0.32219746991156706   -0.29087324107679724
-2.2687084763161405   -0.32219746991156706   -0.29087324107679724
-2.307663682908271   0.24258690846314307   0.31546638872156796
-2.307663682908271   0.24258690846314307   0.31546638872156796
-2.307663682908271   0.24258690846314307   0.31546638872156796
-2.307663682908271   0.24258690846314307   0.31546638872156796
-2.344360198670582   -0.2812210313736947   -0.4031497105497029
-2.344360198670582   -0.2812210313736947   -0.4031497105497029
-2.344360198670582   -0.2812210313736947   -0.4031497105497029
-2.344360198670582   -0.2812210313736947   -0.4031497105497029
-1.9246884501947832   0.37565155647236936   0.2543066584453494
-1.9246884501947832   0.37565155647236936   0.2543066584453494
-1.9246884501947832   0.37565155647236936   0.2543066584453494
-1.9246884501947832   0.37565155647236936   0.2543066584453494
-2.143541424659794   0.0139013911044511   0.05998867200721229
-2.143541424659794   0.0139013911044511   0.05998867200721229
-2.143541424659794   0.0139013911044511   0.05998867200721229
-2.143541424659794   0.0139013911044511   0.05998867200721229
-2.164313195534118   -0.23184565916021393   -0.3363198526187637
-2.164313195534118   -0.23184565916021393   -0.3363198526187637
-2.164313195534118   -0.23184565916021393   -0.3363198526187637
-2.164313195534118   -0.23184565916021393   -0.3363198526187637
-2.0910689931578936   0.33994264443219774   0.24214264120784748
-2.0910689931578936   0.33994264443219774   0.24214264120784748
-2.0910689931578936   0.33994264443219774   0.24214264120784748
-2.0910689931578936   0.33994264443219774   0.24214264120784748
-2.0552613938274105   -0.0909635129603027   -0.440336190100558
-2.0552613938274105   -0.0909635129603027   -0.440336190100558
-2.0552613938274105   -0.0909635129603027   -0.440336190100558
-2.0552613938274105   -0.0909635129603027   -0.440336190100558
-1.8353806300657647   0.4916054899632418   0.20947096196397086
-1.8353806300657647   0.4916054899632418   0.20947096196397086
-1.8353806300657647   0.4916054899632418   0.20947096196397086
-1.8353806300657647   0.4916054899632418   0.20947096196397086
-1.939761530418567   0.1286550613468067   0.14829501321598273
-1.939761530418567   0.1286550613468067   0.14829501321598273
-1.939761530418567   0.1286550613468067   0.14829501321598273
-1.939761530418567   0.1286550613468067   0.14829501321598273
1.4290642588076032   0.23194849777416157   0.37863252209254455
1.4290642588076032   0.23194849777416157   0.37863252209254455
1.4290642588076032   0.23194849777416157   0.37863252209254455
1.4290642588076032   0.23194849777416157   0.37863252209254455
-0.040582503282160745   -0.6094311806247628   -0.25085965852507863
-0.040582503282160745   -0.6094311806247628   -0.25085965852507863
-0.040582503282160745   -0.6094311806247628   -0.25085965852507863
-0.040582503282160745   -0.6094311806247628   -0.25085965852507863
0.3197797722428222   0.11998306862925344   0.29276342503083475
0.3197797722428222   0.11998306862925344   0.29276342503083475
0.3197797722428222   0.11998306862925344   0.29276342503083475
0.3197797722428222   0.11998306862925344   0.29276342503083475
1.4936550103416235   -0.21655054558140008   -0.3135571531522976
1.4936550103416235   -0.21655054558140008   -0.3135571531522976
1.4936550103416235   -0.21655054558140008   -0.3135571531522976
1.4936550103416235   -0.21655054558140008   -0.3135571531522976
0.7286388193729184   -0.11957056610520489   -0.17977144836596812
0.7286388193729184   -0.11957056610520489   -0.17977144836596812
0.7286388193729184   -0.11957056610520489   -0.17977144836596812
0.7286388193729184   -0.11957056610520489   -0.17977144836596812
1.7512295525224801   0.4160611184276075   0.3417038937429472
1.7512295525224801   0.4160611184276075   0.3417038937429472
1.7512295525224801   0.4160611184276075   0.3417038937429472
1.7512295525224801   0.4160611184276075   0.3417038937429472
0.07789351244678844   -0.4969403129949722   -0.29974449232507794
0.07789351244678844   -0.4969403129949722   -0.29974449232507794
0.07789351244678844   -0.4969403129949722   -0.29974449232507794
0.07789351244678844   -0.4969403129949722   -0.29974449232507794
0.45233800642508276   0.20843722246609586   0.24452145396707883
0.45233800642508276   0.20843722246609586   0.24452145396707883
0.45233800642508276   0.20843722246609586   0.24452145396707883
0.45233800642508276   0.20843722246609586   0.24452145396707883
1.7457504829358237   -0.11658513680586485   -0.3927279699922412
1.7457504829358237   -0.11658513680586485   -0.3927279699922412
1.7457504829358237   -0.11658513680586485   -0.3927279699922412
1.7457504829358237   -0.11658513680586485   -0.3927279699922412
0.9559430001863283   -0.009099378868513835   -0.08397746646324239
0.9559430001863283   -0.009099378868513835   -0.08397746646324239
0.9559430001863283   -0.009099378868513835   -0.08397746646324239
0.9559430001863283   -0.009099378868513835   -0.08397746646324239
2.0063140203251733   0.524190875402022   0.2693137047466195
2.0063140203251733   0.524190875402022   0.2693137047466195
2.0063140203251733   0.524190875402022   0.2693137047466195
2.0063140203251733   0.524190875402022   0.2693137047466195
0.20718992800465386   -0.41692333077287047   -0.35585838489609967
0.20718992800465386   -0.41692333077287047   -0.35585838489609967
0.20718992800465386   -0.41692333077287047   -0.35585838489609967
0.20718992800465386   -0.41692333077287047   -0.35585838489609967
0.5810569409800892   0.3704841995319743   0.21162084921204322
0.5810569409800892   0.3704841995319743   0.21162084921204322
0.5810569409800892   0.3704841995319743   0.21162084921204322
0.5810569409800892   0.3704841995319743   0.21162084921204322
2.0802044223980567   0.10726890118562454   -0.4332646847114731
2.0802044223980567   0.10726890118562454   -0.4332646847114731
2.0802044223980567   0.10726890118562454   -0.4332646847114731
2.0802044223980567   0.10726890118562454   -0.4332646847114731
1.1476587671912881   0.11444133473300036   0.006821655802110971
1.1476587671912881   0.11444133473300036   0.006821655802110971
1.1476587671912881   0.11444133473300036   0.006821655802110971
1.1476587671912881   0.11444133473300036   0.006821655802110971
0.19491655120340387   0.06117522181740103   0.2560292114605806
0.19491655120340387   0.06117522181740103   0.2560292114605806
0.19491655120340387   0.06117522181740103   0.2560292114605806
0.19491655120340387   0.06117522181740103   0.2560292114605806
-1.3729235752686186   -0.5169705801573602   -0.11499562311457989
-1.3729235752686186   -0.5169705801573602   -0.11499562311457989
-1.3729235752686186   -0.5169705801573602   -0.11499562311457989
-1.3729235752686186   -0.5169705801573602   -0.11499562311457989
-1.1448455953974566   -0.07434876558563322   0.1174889113627194
-1.1448455953974566   -0.07434876558563322   0.1174889113627194
-1.1448455953974566   -0.07434876558563322   0.1174889113627194
-1.1448455953974566   -0.07434876558563322   0.1174889113627194
0.20651582547643266   -0.061682902936182095   -0.09189033723564687
0.20651582547643266   -0.061682902936182095   -0.09189033723564687
0.20651582547643266   -0.061682902936182095   -0.09189033723564687
0.20651582547643266   -0.061682902936182095   -0.09189033723564687
-0.5402764932400016   -0.13471059945888883   -0.08667227199398973
-0.5402764932400016   -0.13471059945888883   -0.08667227199398973
-0.5402764932400016   -0.13471059945888883   -0.08667227199398973
-0.5402764932400016   -0.13471059945888883   -0.08667227199398973
0.33122524262593084   0.24280199071802733   0.22717185485763475
0.33122524262593084   0.24280199071802733   0.22717185485763475
0.33122524262593084   0.24280199071802733   0.22717185485763475
0.33122524262593084   0.24280199071802733   0.22717185485763475
-1.2581824662342715   -0.36746111292711847   -0.15608309547987026
-1.2581824662342715   -0.36746111292711847   -0.15608309547987026
-1.2581824662342715   -0.36746111292711847   -0.15608309547987026
-1.2581824662342715   -0.36746111292711847   -0.15608309547987026
-1.0238869736237588   0.0969518317064329   0.08310534253599018
-1.0238869736237588   0.0969518317064329   0.08310534253599018
-1.0238869736237588   0.0969518317064329   0.08310534253599018
-1.0238869736237588   0.0969518317064329   0.08310534253599018
0.3571355622131493   0.10121206262192965   -0.12426560724842231
0.3571355622131493   0.10121206262192965   -0.12426560724842231
0.3571355622131493   0.10121206262192965   -0.12426560724842231
0.3571355622131493   0.10121206262192965   -0.12426560724842231
-0.4121189345982374   0.016657115422875846   -0.01029663392647872
-0.4121189345982374   0.016657115422875846   -0.01029663392647872
-0.4121189345982374   0.016657115422875846   -0.01029663392647872
-0.4121189345982374   0.016657115422875846   -0.01029663392647872
0.48705718432984935   0.42319208998450597   0.2033624759725016
0.48705718432984935   0.42319208998450597   0.2033624759725016
0.48705718432984935   0.42319208998450597   0.2033624759725016
0.48705718432984935   0.42319208998450597   0.2033624759725016
-1.142883945025103   -0.21410354494070588   -0.20082413782359282
-1.142883945025103   -0.21410354494070588   -0.20082413782359282
-1.142883945025103   -0.21410354494070588   -0.20082413782359282
-1.142883945025103   -0.21410354494070588   -0.20082413782359282
-0.9022495774198929   0.2903628964384396   0.05032561493578944
-0.9022495774198929   0.2903628964384396   0.05032561493578944
-0.9022495774198929   0.2903628964384396   0.05032561493578944
-0.9022495774198929   0.2903628964384396   0.05032561493578944
0.48999756419056123   0.2856002969172937   -0.15879213212088536
0.48999756419056123   0.2856002969172937   -0.15879213212088536
0.48999756419056123   0.2856002969172937   -0.15879213212088536
0.48999756419056123   0.2856002969172937   -0.15879213212088536
-0.27071484620450414   0.18345821921733463   0.07100877579875081
-0.27071484620450414   0.18345821921733463   0.07100877579875081
-0.27071484620450414   0.18345821921733463   0.07100877579875081
-0.27071484620450414   0.18345821921733463   0.07100877579875081
-1.2481396441391308   -0.09978866862999752   0.09174212100551168
-1.2481396441391308   -0.09978866862999752   0.09174212100551168
-1.2481396441391308   -0.09978866862999752   0.09174212100551168
-1.2481396441391308   -0.09978866862999752   0.09174212100551168
-2.681370337678358   -0.36558194262165167   0.02426644874158751
-2.681370337678358   -0.36558194262165167   0.02426644874158751
-2.681370337678358   -0.36558194262165167   0.02426644874158751
-2.681370337678358   -0.36558194262165167   0.02426644874158751
-2.575128450795975   -0.22839180359610733   -0.05062953060510905
-2.575128450795975   -0.22839180359610733   -0.05062953060510905
-2.575128450795975   -0.22839180359610733   -0.05062953060510905
-2.575128450795975   -0.22839180359610733   -0.05062953060510905
-1.1229749651353453   0.09508756845342473   0.057405728634231726
-1.1229749651353453   0.09508756845342473   0.057405728634231726
-1.1229749651353453   0.09508756845342473   0.057405728634231726
-1.1229749651353453   0.09508756845342473   0.057405728634231726
-1.9097023584077064   -0.1373298973208994   -0.050233948660787925
-1.9097023584077064   -0.1373298973208994   -0.050233948660787925
-1.9097023584077064   -0.1373298973208994   -0.050233948660787925
-1.9097023584077064   -0.1373298973208994   -0.050233948660787925
-1.1246228707244283   0.0839049769730601   0.06034879216918171
-1.1246228707244283   0.0839049769730601   0.06034879216918171
-1.1246228707244283   0.0839049769730601   0.06034879216918171
-1.1246228707244283   0.0839049769730601   0.06034879216918171
-2.563768973801146   -0.20749764070999682   -0.014726308517075223
-2.563768973801146   -0.20749764070999682   -0.014726308517075223
-2.563768973801146   -0.20749764070999682   -0.014726308517075223
-2.563768973801146   -0.20749764070999682   -0.014726308517075223
-2.4480178508525654   -0.03982824800975959   -0.07962732444555434
-2.4480178508525654   -0.03982824800975959   -0.07962732444555434
-2.4480178508525654   -0.03982824800975959   -0.07962732444555434
-2.4480178508525654   -0.03982824800975959   -0.07962732444555434
-1.0031989711467715   0.2625761337535884   0.020921052873771107
-1.0031989711467715   0.2625761337535884   0.020921052873771107
-1.0031989711467715   0.2625761337535884   0.020921052873771107
-1.0031989711467715   0.2625761337535884   0.020921052873771107
-1.7785224344448385   0.02840748691707229   0.02663034150972421
-1.7785224344448385   0.02840748691707229   0.02663034150972421
-1.7785224344448385   0.02840748691707229   0.02663034150972421
-1.7785224344448385   0.02840748691707229   0.02663034150972421
-1.0003305265852869   0.271002136349803   0.026837273084980268
-1.0003305265852869   0.271002136349803   0.026837273084980268
-1.0003305265852869   0.271002136349803   0.026837273084980268
-1.0003305265852869   0.271002136349803   0.026837273084980268
-2.4431579582996403   -0.04052591349160872   -0.05463019619909987
-2.4431579582996403   -0.04052591349160872   -0.05463019619909987
-2.4431579582996403   -0.04052591349160872   -0.05463019619909987
-2.4431579582996403   -0.04052591349160872   -0.05463019619909987
-2.326056500746046   0.14918821552014616   -0.1128072869976775
-2.326056500746046   0.14918821552014616   -0.1128072869976775
-2.326056500746046   0.14918821552014616   -0.1128072869976775
-2.326056500746046   0.14918821552014616   -0.1128072869976775
-0.8884774360634327   0.43055945433305165   -0.02101023617650724
-0.8884774360634327   0.43055945433305165   -0.02101023617650724
-0.8884774360634327   0.43055945433305165   -0.02101023617650724
-0.8884774360634327   0.43055945433305165   -0.02101023617650724
-1.6541061549711908   0.19365919927398373   0.09847494668178883
-1.6541061549711908   0.19365919927398373   0.09847494668178883
-1.6541061549711908   0.19365919927398373   0.09847494668178883
-1.6541061549711908   0.19365919927398373   0.09847494668178883
-2.6804376261568796   -0.2588657760954803   -0.07778616017716457
-2.6804376261568796   -0.2588657760954803   -0.07778616017716457
-2.6804376261568796   -0.2588657760954803   -0.07778616017716457
-2.6804376261568796   -0.2588657760954803   -0.07778616017716457
-3.973790569564081   -0.2233843243166076   0.16119125965049147
-3.973790569564081   -0.2233843243166076   0.16119125965049147
-3.973790569564081   -0.2233843243166076   0.16119125965049147
-3.973790569564081   -0.2233843243166076   0.16119125965049147
-3.973042958664332   -0.3790147514732616   -0.2144113103088352
-3.973042958664332   -0.3790147514732616   -0.2144113103088352
-3.973042958664332   -0.3790147514732616   -0.2144113103088352
-3.973042958664332   -0.3790147514732616   -0.2144113103088352
-2.4312680309615113   0.24406455530151083   0.19621620966958933
-2.4312680309615113   0.24406455530151083   0.19621620966958933
-2.4312680309615113   0.24406455530151083   0.19621620966958933
-2.4312680309615113   0.24406455530151083   0.19621620966958933
-3.246478439389572   -0.1382045623217022   -0.020969374886465747
-3.246478439389572   -0.1382045623217022   -0.020969374886465747
-3.246478439389572   -0.1382045623217022   -0.020969374886465747
-3.246478439389572   -0.1382045623217022   -0.020969374886465747
-2.5557996494929616   -0.07429941092870507   -0.10807791675742268
-2.5557996494929616   -0.07429941092870507   -0.10807791675742268
-2.5557996494929616   -0.07429941092870507   -0.10807791675742268
-2.5557996494929616   -0.07429941092870507   -0.10807791675742268
-3.840540346710728   -0.05267979182092486   0.12176678980687342
-3.840540346710728   -0.05267979182092486   0.12176678980687342
-3.840540346710728   -0.05267979182092486   0.12176678980687342
-3.840540346710728   -0.05267979182092486   0.12176678980687342
-3.814228598952715   -0.19906275893378877   -0.23854423438746852
-3.814228598952715   -0.19906275893378877   -0.23854423438746852
-3.814228598952715   -0.19906275893378877   -0.23854423438746852
-3.814228598952715   -0.19906275893378877   -0.23854423438746852
-2.3135882933102487   0.3965690496109703   0.1561231656452976
-2.3135882933102487   0.3965690496109703   0.1561231656452976
-2.3135882933102487   0.3965690496109703   0.1561231656452976
-2.3135882933102487   0.3965690496109703   0.1561231656452976
-3.089645495435524   0.02880414234757367   0.05814674299811981
-3.089645495435524   0.02880414234757367   0.05814674299811981
-3.089645495435524   0.02880414234757367   0.05814674299811981
-3.089645495435524   0.02880414234757367   0.05814674299811981
-2.4340135465734036   0.09566857350638702   -0.14510262456590084
-2.4340135465734036   0.09566857350638702   -0.14510262456590084
-2.4340135465734036   0.09566857350638702   -0.14510262456590084
-2.4340135465734036   0.09566857350638702   -0.14510262456590084
-3.6848260221747418   0.11081504068561143   0.09859084988299616
-3.6848260221747418   0.11081504068561143   0.09859084988299616
-3.6848260221747418   0.11081504068561143   0.09859084988299616
-3.6848260221747418   0.11081504068561143   0.09859084988299616
-3.672087698503863   -0.002534056280353636   -0.2566983609723648
-3.672087698503863   -0.002534056280353636   -0.2566983609723648
-3.672087698503863   -0.002534056280353636   -0.2566983609723648
-3.672087698503863   -0.002534056280353636   -0.2566983609723648
-2.197116140411561   0.565332816765047   0.1157499134298472
-2.197116140411561   0.565332816765047   0.1157499134298472
-2.197116140411561   0.565332816765047   0.1157499134298472
-2.197116140411561   0.565332816765047   0.1157499134298472
-2.971502485774172   0.18486695129559239   0.1291470890466635
-2.971502485774172   0.18486695129559239   0.1291470890466635
-2.971502485774172   0.18486695129559239   0.1291470890466635
-2.971502485774172   0.18486695129559239   0.1291470890466635
-4.082884289746019   -0.3725708661210727   -0.23509079945473493
-4.082884289746019   -0.3725708661210727   -0.23509079945473493
-4.082884289746019   -0.3725708661210727   -0.23509079945473493
-4.082884289746019   -0.3725708661210727   -0.23509079945473493
-5.444854929310434   -0.09302164980727046   0.34718884335827954
-5.444854929310434   -0.09302164980727046   0.34718884335827954
-5.444854929310434   -0.09302164980727046   0.34718884335827954
-5.444854929310434   -0.09302164980727046   0.34718884335827954
-5.366034758703517   -0.4947723070617862   -0.31295861310783235
-5.366034758703517   -0.4947723070617862   -0.31295861310783235
-5.366034758703517   -0.4947723070617862   -0.31295861310783235
-5.366034758703517   -0.4947723070617862   -0.31295861310783235
-3.7035480189693573   0.41177666838335125   0.342271968309425
-3.7035480189693573   0.41177666838335125   0.342271968309425
-3.7035480189693573   0.41177666838335125   0.342271968309425
-3.7035480189693573   0.41177666838335125   0.342271968309425
-4.449123236535142   -0.07862120047798804   0.035981255860217276
-4.449123236535142   -0.07862120047798804   0.035981255860217276
-4.449123236535142   -0.07862120047798804   0.035981255860217276
-4.449123236535142   -0.07862120047798804   0.035981255860217276
-3.9478584946503745   -0.20170506664337484   -0.26579867506891774
-3.9478584946503745   -0.20170506664337484   -0.26579867506891774
-3.9478584946503745   -0.20170506664337484   -0.26579867506891774
-3.9478584946503745   -0.20170506664337484   -0.26579867506891774
-5.114530404183429   0.12590330680399808   0.3238875456267311
-5.114530404183429   0.12590330680399808   0.3238875456267311
-5.114530404183429   0.12590330680399808   0.3238875456267311
-5.114530404183429   0.12590330680399808   0.3238875456267311
-5.115820274101429   -0.3878881273333007   -0.3722599366763555
-5.115820274101429   -0.3878881273333007   -0.3722599366763555
-5.115820274101429   -0.3878881273333007   -0.3722599366763555
-5.115820274101429   -0.3878881273333007   -0.3722599366763555
-3.57389410132615   0.4820279146363027   0.28203758017523134
-3.57389410132615   0.4820279146363027   0.28203758017523134
-3.57389410132615   0.4820279146363027   0.28203758017523134
-3.57389410132615   0.4820279146363027   0.28203758017523134
-4.305737012736561   0.03338777525970993   0.10000927767776935
-4.305737012736561   0.03338777525970993   0.10000927767776935
-4.305737012736561   0.03338777525970993   0.10000927767776935
-4.305737012736561   0.03338777525970993   0.10000927767776935
-3.810798582318658   -0.11376931972643245   -0.3066875904245395
-3.810798582318658   -0.11376931972643245   -0.3066875904245395
-3.810798582318658   -0.11376931972643245   -0.3066875904245395
-3.810798582318658   -0.11376931972643245   -0.3066875904245395
-4.87007765807009   0.21674724206822504   0.251817774078782
-4.87007765807009   0.21674724206822504   0.251817774078782
-4.87007765807009   0.21674724206822504   0.251817774078782
-4.87007765807009   0.21674724206822504   0.251817774078782
-4.808269184805641   -0.22783708185328622   -0.4148533423787927
-4.808269184805641   -0.22783708185328622   -0.4148533423787927
-4.808269184805641   -0.22783708185328622   -0.4148533423787927
-4.808269184805641   -0.22783708185328622   -0.4148533423787927
-3.4597313629757687   0.5675854056684044   0.23496385471934939
-3.4597313629757687   0.5675854056684044   0.23496385471934939
-3.4597313629757687   0.5675854056684044   0.23496385471934939
-3.4597313629757687   0.5675854056684044   0.23496385471934939
-4.04113951271388   0.13857593430195014   0.1898750525606746
-4.04113951271388   0.13857593430195014   0.1898750525606746
-4.04113951271388   0.13857593430195014   0.1898750525606746
-4.04113951271388   0.13857593430195014   0.1898750525606746
4.349249628705432   0.3946682847970008   0.37980553659614735
4.349249628705432   0.3946682847970008   0.37980553659614735
4.349249628705432   0.3946682847970008   0.37980553659614735
4.349249628705432   0.3946682847970008   0.37980553659614735
1.5959331142642568   -0.7280873953687163   -0.2501310669264748
1.5959331142642568   -0.7280873953687163   -0.2501310669264748
1.5959331142642568   -0.7280873953687163   -0.2501310669264748
1.5959331142642568   -0.7280873953687163   -0.2501310669264748
1.974838186752963   -0.0028961839034811754   0.2735314788262025
1.974838186752963   -0.0028961839034811754   0.2735314788262025
1.974838186752963   -0.0028961839034811754   0.2735314788262025
1.974838186752963   -0.0028961839034811754   0.2735314788262025
4.430580257833342   -0.10480879223923112   -0.3191582060620058
4.430580257833342   -0.10480879223923112   -0.3191582060620058
4.430580257833342   -0.10480879223923112   -0.3191582060620058
4.430580257833342   -0.10480879223923112   -0.3191582060620058
2.8976846690034797   -0.13293011671856803   -0.28096709349740945
2.8976846690034797   -0.13293011671856803   -0.28096709349740945
2.8976846690034797   -0.13293011671856803   -0.28096709349740945
2.8976846690034797   -0.13293011671856803   -0.28096709349740945
4.6917676315935655   0.5518144861661398   0.33015538433370506
4.6917676315935655   0.5518144861661398   0.33015538433370506
4.6917676315935655   0.5518144861661398   0.33015538433370506
4.6917676315935655   0.5518144861661398   0.33015538433370506
1.7320224736667855   -0.6411478016348126   -0.30229546887335496
1.7320224736667855   -0.6411478016348126   -0.30229546887335496
1.7320224736667855   -0.6411478016348126   -0.30229546887335496
1.7320224736667855   -0.6411478016348126   -0.30229546887335496
2.125405280286277   0.08304229315733086   0.2257543824732835
2.125405280286277   0.08304229315733086   0.2257543824732835
2.125405280286277   0.08304229315733086   0.2257543824732835
2.125405280286277   0.08304229315733086   0.2257543824732835
4.703596508911682   -0.0070471382907325575   -0.40259941916966757
4.703596508911682   -0.0070471382907325575   -0.40259941916966757
4.703596508911682   -0.0070471382907325575   -0.40259941916966757
4.703596508911682   -0.0070471382907325575   -0.40259941916966757
3.182242417482932   -0.027182741435794466   -0.16983707953169602
3.182242417482932   -0.027182741435794466   -0.16983707953169602
3.182242417482932   -0.027182741435794466   -0.16983707953169602
3.182242417482932   -0.027182741435794466   -0.16983707953169602
4.967820636886751   0.6572244203881219   0.2542496620267651
4.967820636886751   0.6572244203881219   0.2542496620267651
4.967820636886751   0.6572244203881219   0.2542496620267651
4.967820636886751   0.6572244203881219   0.2542496620267651
1.880833060507259   -0.5615773573254413   -0.3524870659390347
1.880833060507259   -0.5615773573254413   -0.3524870659390347
1.880833060507259   -0.5615773573254413   -0.3524870659390347
1.880833060507259   -0.5615773573254413   -0.3524870659390347
2.275738603446105   0.2721623725071684   0.19566849084819837
2.275738603446105   0.2721623725071684   0.19566849084819837
2.275738603446105   0.2721623725071684   0.19566849084819837
2.275738603446105   0.2721623725071684   0.19566849084819837
5.061837083771402   0.24798578793825243   -0.4344738177307018
5.061837083771402   0.24798578793825243   -0.4344738177307018
5.061837083771402   0.24798578793825243   -0.4344738177307018
5.061837083771402   0.24798578793825243   -0.4344738177307018
3.3592412389994757   0.10119306618469881   -0.07338871895144625
3.3592412389994757   0.10119306618469881   -0.07338871895144625
3.3592412389994757   0.10119306618469881   -0.07338871895144625
3.3592412389994757   0.10119306618469881   -0.07338871895144625
1.896128767963546   0.22032581196019965   0.3024339942410552
1.896128767963546   0.22032581196019965   0.3024339942410552
1.896128767963546   0.22032581196019965   0.3024339942410552
1.896128767963546   0.22032581196019965   0.3024339942410552
-0.918178566063342   -0.6791340200480795   -0.13083354984417145
-0.918178566063342   -0.6791340200480795   -0.13083354984417145
-0.918178566063342   -0.6791340200480795   -0.13083354984417145
-0.918178566063342   -0.6791340200480795   -0.13083354984417145
-0.6568599384125087   -0.19756015021788445   0.09209919024453725
-0.6568599384125087   -0.19756015021788445   0.09209919024453725
-0.6568599384125087   -0.19756015021788445   0.09209919024453725
-0.6568599384125087   -0.19756015021788445   0.09209919024453725
1.9129287506684576   0.0018354792267373243   -0.040747364726543917
1.9129287506684576   0.0018354792267373243   -0.040747364726543917
1.9129287506684576   0.0018354792267373243   -0.040747364726543917
1.9129287506684576   0.0018354792267373243   -0.040747364726543917
0.5335964042877716   -0.1446644139357403   -0.12012627340049237
0.5335964042877716   -0.1446644139357403   -0.12012627340049237
0.5335964042877716   -0.1446644139357403   -0.12012627340049237
0.5335964042877716   -0.1446644139357403   -0.12012627340049237
2.05063927174277   0.3795399981155073   0.2701007217562174
2.05063927174277   0.3795399981155073   0.2701007217562174
2.05063927174277   0.3795399981155073   0.2701007217562174
2.05063927174277   0.3795399981155073   0.2701007217562174
-0.7835978040702374   -0.5642920136900759   -0.174858274571915
-0.7835978040702374   -0.5642920136900759   -0.174858274571915
-0.7835978040702374   -0.5642920136900759   -0.174858274571915
-0.7835978040702374   -0.5642920136900759   -0.174858274571915
-0.5165149336312082   -0.03699623788747403   0.058343386048671286
-0.5165149336312082   -0.03699623788747403   0.058343386048671286
-0.5165149336312082   -0.03699623788747403   0.058343386048671286
-0.5165149336312082   -0.03699623788747403   0.058343386048671286
2.077727492221326   0.14611053345112074   -0.07570279814526322
2.077727492221326   0.14611053345112074   -0.07570279814526322
2.077727492221326   0.14611053345112074   -0.07570279814526322
2.077727492221326   0.14611053345112074   -0.07570279814526322
0.6693357304226244   -0.017672285467708188   -0.04782920273007863
0.6693357304226244   -0.017672285467708188   -0.04782920273007863
0.6693357304226244   -0.017672285467708188   -0.04782920273007863
0.6693357304226244   -0.017672285467708188   -0.04782920273007863
2.2209194855353185   0.5467462575926764   0.23962144428314255
2.2209194855353185   0.5467462575926764   0.23962144428314255
2.2209194855353185   0.5467462575926764   0.23962144428314255
2.2209194855353185   0.5467462575926764   0.23962144428314255
-0.648693900556095   -0.42661893564000597   -0.2129287508232304
-0.648693900556095   -0.42661893564000597   -0.2129287508232304
-0.648693900556095   -0.42661893564000597   -0.2129287508232304
-0.648693900556095   -0.42661893564000597   -0.2129287508232304
-0.37799991748305434   0.14870198160551062   0.024713772994060232
-0.37799991748305434   0.14870198160551062   0.024713772994060232
-0.37799991748305434   0.14870198160551062   0.024713772994060232
-0.37799991748305434   0.14870198160551062   0.024713772994060232
2.224100286841282   0.3176311912819936   -0.1079919109507432
2.224100286841282   0.3176311912819936   -0.1079919109507432
2.224100286841282   0.3176311912819936   -0.1079919109507432
2.224100286841282   0.3176311912819936   -0.1079919109507432
0.8363634556338068   0.13780072692180323   0.03649439229050081
0.8363634556338068   0.13780072692180323   0.03649439229050081
0.8363634556338068   0.13780072692180323   0.03649439229050081
0.8363634556338068   0.13780072692180323   0.03649439229050081
-0.7210883792231416   0.04726486015231518   0.12821850415645059
-0.7210883792231416   0.04726486015231518   0.12821850415645059
-0.7210883792231416   0.04726486015231518   0.12821850415645059
-0.7210883792231416   0.04726486015231518   0.12821850415645059
-3.3822519326566383   -0.5989647297298692   -0.01685018555220648
-3.3822519326566383   -0.5989647297298692   -0.01685018555220648
-3.3822519326566383   -0.5989647297298692   -0.01685018555220648
-3.3822519326566383   -0.5989647297298692   -0.01685018555220648
-3.2155315247579717   -0.3508278846124457   -0.07961497707249397
-3.2155315247579717   -0.3508278846124457   -0.07961497707249397
-3.2155315247579717   -0.3508278846124457   -0.07961497707249397
-3.2155315247579717   -0.3508278846124457   -0.07961497707249397
-0.6014202388030414   0.08616051538040367   0.08557702269358533
-0.6014202388030414   0.08616051538040367   0.08557702269358533
-0.6014202388030414   0.08616051538040367   0.08557702269358533
-0.6014202388030414   0.08616051538040367   0.08557702269358533
-1.9835943703743548   -0.18450394101353895   -0.07490211217476589
-1.9835943703743548   -0.18450394101353895   -0.07490211217476589
-1.9835943703743548   -0.18450394101353895   -0.07490211217476589
-1.9835943703743548   -0.18450394101353895   -0.07490211217476589
-0.5738399859903607   0.21280098248587817   0.09683781965151429
-0.5738399859903607   0.21280098248587817   0.09683781965151429
-0.5738399859903607   0.21280098248587817   0.09683781965151429
-0.5738399859903607   0.21280098248587817   0.09683781965151429
-3.235870921645784   -0.4702274957930518   -0.061912350330949696
-3.235870921645784   -0.4702274957930518   -0.061912350330949696
-3.235870921645784   -0.4702274957930518   -0.061912350330949696
-3.235870921645784   -0.4702274957930518   -0.061912350330949696
-3.060908317459153   -0.17466757906773633   -0.1075881649202246
-3.060908317459153   -0.17466757906773633   -0.1075881649202246
-3.060908317459153   -0.17466757906773633   -0.1075881649202246
-3.060908317459153   -0.17466757906773633   -0.1075881649202246
-0.4647849799279225   0.23186185306923132   0.04813506360840941
-0.4647849799279225   0.23186185306923132   0.04813506360840941
-0.4647849799279225   0.23186185306923132   0.04813506360840941
-0.4647849799279225   0.23186185306923132   0.04813506360840941
-1.8276858769034934   -0.037072910520671076   -0.0012006667172586444
-1.8276858769034934   -0.037072910520671076   -0.0012006667172586444
-1.8276858769034934   -0.037072910520671076   -0.0012006667172586444
-1.8276858769034934   -0.037072910520671076   -0.0012006667172586444
-0.43153677096556886   0.3849766295941303   0.06126133189527817
-0.43153677096556886   0.3849766295941303   0.06126133189527817
-0.43153677096556886   0.3849766295941303   0.06126133189527817
-0.43153677096556886   0.3849766295941303   0.06126133189527817
-3.087412506894375   -0.321038336065462   -0.09373835509860522
-3.087412506894375   -0.321038336065462   -0.09373835509860522
-3.087412506894375   -0.321038336065462   -0.09373835509860522
-3.087412506894375   -0.321038336065462   -0.09373835509860522
-2.9170137484853953   0.0008281299753905014   -0.14113054554285095
-2.9170137484853953   0.0008281299753905014   -0.14113054554285095
-2.9170137484853953   0.0008281299753905014   -0.14113054554285095
-2.9170137484853953   0.0008281299753905014   -0.14113054554285095
-0.3342457531627415   0.3807515920147471   0.011434984186387831
-0.3342457531627415   0.3807515920147471   0.011434984186387831
-0.3342457531627415   0.3807515920147471   0.011434984186387831
-0.3342457531627415   0.3807515920147471   0.011434984186387831
-1.684394263754124   0.10978430026942793   0.06896833321945166
-1.684394263754124   0.10978430026942793   0.06896833321945166
-1.684394263754124   0.10978430026942793   0.06896833321945166
-1.684394263754124   0.10978430026942793   0.06896833321945166
-3.2954342655370032   -0.13024719281505492   -0.0514793868688222
-3.2954342655370032   -0.13024719281505492   -0.0514793868688222
-3.2954342655370032   -0.13024719281505492   -0.0514793868688222
-3.2954342655370032   -0.13024719281505492   -0.0514793868688222
-5.7870821502629175   -0.4840442104854724   0.11367062855657287
-5.7870821502629175   -0.4840442104854724   0.11367062855657287
-5.7870821502629175   -0.4840442104854724   0.11367062855657287
-5.7870821502629175   -0.4840442104854724   0.11367062855657287
-5.704426223117848   -0.49777304823235735   -0.23981361584341496
-5.704426223117848   -0.49777304823235735   -0.23981361584341496
-5.704426223117848   -0.49777304823235735   -0.23981361584341496
-5.704426223117848   -0.49777304823235735   -0.23981361584341496
-3.0415778523083805   0.22353993674968897   0.21578556381335368
-3.0415778523083805   0.22353993674968897   0.21578556381335368
-3.0415778523083805   0.22353993674968897   0.21578556381335368
-3.0415778523083805   0.22353993674968897   0.21578556381335368
-4.4262828461920884   -0.19387595591954543   -0.026015767010331203
-4.4262828461920884   -0.19387595591954543   -0.026015767010331203
-4.4262828461920884   -0.19387595591954543   -0.026015767010331203
-4.4262828461920884   -0.19387595591954543   -0.026015767010331203
-3.1353249654830435   0.04843992783431905   -0.0778499931445916
-3.1353249654830435   0.04843992783431905   -0.0778499931445916
-3.1353249654830435   0.04843992783431905   -0.0778499931445916
-3.1353249654830435   0.04843992783431905   -0.0778499931445916
-5.610562020426498   -0.322555949800333   0.054290299181360524
-5.610562020426498   -0.322555949800333   0.054290299181360524
-5.610562020426498   -0.322555949800333   0.054290299181360524
-5.610562020426498   -0.322555949800333   0.054290299181360524
-5.502694722717815   -0.32552343208924417   -0.2652328134482079
-5.502694722717815   -0.32552343208924417   -0.2652328134482079
-5.502694722717815   -0.32552343208924417   -0.2652328134482079
-5.502694722717815   -0.32552343208924417   -0.2652328134482079
-2.8974662104685125   0.3626172499184629   0.17233754104680443
-2.8974662104685125   0.3626172499184629   0.17233754104680443
-2.8974662104685125   0.3626172499184629   0.17233754104680443
-2.8974662104685125   0.3626172499184629   0.17233754104680443
-4.221399141755778   -0.030841178368133715   0.047778690517294053
-4.221399141755778   -0.030841178368133715   0.047778690517294053
-4.221399141755778   -0.030841178368133715   0.047778690517294053
-4.221399141755778   -0.030841178368133715   0.047778690517294053
-2.9854611170397622   0.20830491946484198   -0.11332466135583102
-2.9854611170397622   0.20830491946484198   -0.11332466135583102
-2.9854611170397622   0.20830491946484198   -0.11332466135583102
-2.9854611170397622   0.20830491946484198   -0.11332466135583102
-5.410306329031069   -0.16681761452008748   0.03800333741636408
-5.410306329031069   -0.16681761452008748   0.03800333741636408
-5.410306329031069   -0.16681761452008748   0.03800333741636408
-5.410306329031069   -0.16681761452008748   0.03800333741636408
-5.322276988549489   -0.13860604776492025   -0.27878356108205976
-5.322276988549489   -0.13860604776492025   -0.27878356108205976
-5.322276988549489   -0.13860604776492025   -0.27878356108205976
-5.322276988549489   -0.13860604776492025   -0.27878356108205976
-2.7578850844255363   0.5158050901029987   0.13953581462885778
-2.7578850844255363   0.5158050901029987   0.13953581462885778
-2.7578850844255363   0.5158050901029987   0.13953581462885778
-2.7578850844255363   0.5158050901029987   0.13953581462885778
-4.081862571667627   0.10874330467935489   0.1115111779522856
-4.081862571667627   0.10874330467935489   0.1115111779522856
-4.081862571667627   0.10874330467935489   0.1115111779522856
-4.081862571667627   0.10874330467935489   0.1115111779522856
-5.8124699804718745   -0.27953747942162543   -0.21777525355205535
-5.8124699804718745   -0.27953747942162543   -0.21777525355205535
-5.8124699804718745   -0.27953747942162543   -0.21777525355205535
-5.8124699804718745   -0.27953747942162543   -0.21777525355205535
-8.278154280369032   -0.29764694567945726   0.3777497636523621
-8.278154280369032   -0.29764694567945726   0.3777497636523621
-8.278154280369032   -0.29764694567945726   0.3777497636523621
-8.278154280369032   -0.29764694567945726   0.3777497636523621
-8.114981348113192   -0.5964695970786089   -0.2875260298565399
-8.114981348113192   -0.5964695970786089   -0.2875260298565399
-8.114981348113192   -0.5964695970786089   -0.2875260298565399
-8.114981348113192   -0.5964695970786089   -0.2875260298565399
-5.3871984216172075   0.4650801058705214   0.38347223755691046
-5.3871984216172075   0.4650801058705214   0.38347223755691046
-5.3871984216172075   0.4650801058705214   0.38347223755691046
-5.3871984216172075   0.4650801058705214   0.38347223755691046
-6.592470505555166   -0.08158489405944702   0.07506746002836112
-6.592470505555166   -0.08158489405944702   0.07506746002836112
-6.592470505555166   -0.08158489405944702   0.07506746002836112
-6.592470505555166   -0.08158489405944702   0.07506746002836112
-5.623109129217285   -0.0889918218689234   -0.2420093727040194
-5.623109129217285   -0.0889918218689234   -0.2420093727040194
-5.623109129217285   -0.0889918218689234   -0.2420093727040194
-5.623109129217285   -0.0889918218689234   -0.2420093727040194
-7.875394067854088   -0.03872109668014523   0.35266187104045793
-7.875394067854088   -0.03872109668014523   0.35266187104045793
-7.875394067854088   -0.03872109668014523   0.35266187104045793
-7.875394067854088   -0.03872109668014523   0.35266187104045793
-7.810760915875798   -0.4894383415865948   -0.338426886389855
-7.810760915875798   -0.4894383415865948   -0.338426886389855
-7.810760915875798   -0.4894383415865948   -0.338426886389855
-7.810760915875798   -0.4894383415865948   -0.338426886389855
-5.2175937981297835   0.5311277031682822   0.3036206742344263
-5.2175937981297835   0.5311277031682822   0.3036206742344263
-5.2175937981297835   0.5311277031682822   0.3036206742344263
-5.2175937981297835   0.5311277031682822   0.3036206742344263
-6.43346986485956   0.03515238218316408   0.13683287420222784
-6.43346986485956   0.03515238218316408   0.13683287420222784
-6.43346986485956   0.03515238218316408   0.13683287420222784
-6.43346986485956   0.03515238218316408   0.13683287420222784
-5.440106008164979   -0.002653764434261685   -0.2751589083390074
-5.440106008164979   -0.002653764434261685   -0.2751589083390074
-5.440106008164979   -0.002653764434261685   -0.2751589083390074
-5.440106008164979   -0.002653764434261685   -0.2751589083390074
-7.584629544857312   0.04796228699921623   0.2548293401166253
-7.584629544857312   0.04796228699921623   0.2548293401166253
-7.584629544857312   0.04796228699921623   0.2548293401166253
-7.584629544857312   0.04796228699921623   0.2548293401166253
-7.478869647301448   -0.36030524643419626   -0.38535112146797396
-7.478869647301448   -0.36030524643419626   -0.38535112146797396
-7.478869647301448   -0.36030524643419626   -0.38535112146797396
-7.478869647301448   -0.36030524643419626   -0.38535112146797396
-5.068238930912619   0.5941836161610838   0.25861706317628846
-5.068238930912619   0.5941836161610838   0.25861706317628846
-5.068238930912619   0.5941836161610838   0.25861706317628846
-5.068238930912619   0.5941836161610838   0.25861706317628846
-6.099545904740976   0.13245189551185788   0.22959205866154325
-6.099545904740976   0.13245189551185788   0.22959205866154325
-6.099545904740976   0.13245189551185788   0.22959205866154325
-6.099545904740976   0.13245189551185788   0.22959205866154325
7.329647747379576   0.5468803694777709   0.3909931241906412
7.329647747379576   0.5468803694777709   0.3909931241906412
7.329647747379576   0.5468803694777709   0.3909931241906412
7.329647747379576   0.5468803694777709   0.3909931241906412
3.2376745495671195   -0.8682930156954185   -0.1785206529275084
3.2376745495671195   -0.8682930156954185   -0.1785206529275084
3.2376745495671195   -0.8682930156954185   -0.1785206529275084
3.2376745495671195   -0.8682930156954185   -0.1785206529275084
3.613995364165099   -0.15049412222394942   0.2690000376826471
3.613995364165099   -0.15049412222394942   0.2690000376826471
3.613995364165099   -0.15049412222394942   0.2690000376826471
3.613995364165099   -0.15049412222394942   0.2690000376826471
7.412736311200724   -0.018720928007330606   -0.2806113652382574
7.412736311200724   -0.018720928007330606   -0.2806113652382574
7.412736311200724   -0.018720928007330606   -0.2806113652382574
7.412736311200724   -0.018720928007330606   -0.2806113652382574
5.082076090762988   -0.1561422196547524   -0.39933979551956506
5.082076090762988   -0.1561422196547524   -0.39933979551956506
5.082076090762988   -0.1561422196547524   -0.39933979551956506
5.082076090762988   -0.1561422196547524   -0.39933979551956506
7.672613495420015   0.6728668517172227   0.32718677613359043
7.672613495420015   0.6728668517172227   0.32718677613359043
7.672613495420015   0.6728668517172227   0.32718677613359043
7.672613495420015   0.6728668517172227   0.32718677613359043
3.3790274611714057   -0.8171726207229059   -0.23916097878681658
3.3790274611714057   -0.8171726207229059   -0.23916097878681658
3.3790274611714057   -0.8171726207229059   -0.23916097878681658
3.3790274611714057   -0.8171726207229059   -0.23916097878681658
3.762020850946881   -0.07130795069560958   0.21767217677050182
3.762020850946881   -0.07130795069560958   0.21767217677050182
3.762020850946881   -0.07130795069560958   0.21767217677050182
3.762020850946881   -0.07130795069560958   0.21767217677050182
7.670126916969186   0.0686792055709835   -0.3511649759274897
7.670126916969186   0.0686792055709835   -0.3511649759274897
7.670126916969186   0.0686792055709835   -0.3511649759274897
7.670126916969186   0.0686792055709835   -0.3511649759274897
5.404431469234356   -0.06254630087170021   -0.2713128298626103
5.404431469234356   -0.06254630087170021   -0.2713128298626103
5.404431469234356   -0.06254630087170021   -0.2713128298626103
5.404431469234356   -0.06254630087170021   -0.2713128298626103
7.928558704402842   0.7669998483365312   0.24267331847524504
7.928558704402842   0.7669998483365312   0.24267331847524504
7.928558704402842   0.7669998483365312   0.24267331847524504
7.928558704402842   0.7669998483365312   0.24267331847524504
3.525439508515231   -0.747778148459151   -0.2887643376242082
3.525439508515231   -0.747778148459151   -0.2887643376242082
3.525439508515231   -0.747778148459151   -0.2887643376242082
3.525439508515231   -0.747778148459151   -0.2887643376242082
3.8959998166294523   0.13988067646473923   0.19083789204343699
3.8959998166294523   0.13988067646473923   0.19083789204343699
3.8959998166294523   0.13988067646473923   0.19083789204343699
3.8959998166294523   0.13988067646473923   0.19083789204343699
7.986377977214664   0.32422983309652476   -0.3679338936131216
7.986377977214664   0.32422983309652476   -0.3679338936131216
7.986377977214664   0.32422983309652476   -0.3679338936131216
7.986377977214664   0.32422983309652476   -0.3679338936131216
5.5266778936605085   0.06313521386846599   -0.18239644102573538
5.5266778936605085   0.06313521386846599   -0.18239644102573538
5.5266778936605085   0.06313521386846599   -0.18239644102573538
5.5266778936605085   0.06313521386846599   -0.18239644102573538
3.581977034887399   0.3183363014221179   0.3563624565563205
3.581977034887399   0.3183363014221179   0.3563624565563205
3.581977034887399   0.3183363014221179   0.3563624565563205
3.581977034887399   0.3183363014221179   0.3563624565563205
-0.4338998320233934   -1.071909740542826   -0.10135268465307173
-0.4338998320233934   -1.071909740542826   -0.10135268465307173
-0.4338998320233934   -1.071909740542826   -0.10135268465307173
-0.4338998320233934   -1.071909740542826   -0.10135268465307173
-0.10887027695470997   -0.37604569891156614   0.09164577220486071
-0.10887027695470997   -0.37604569891156614   0.09164577220486071
-0.10887027695470997   -0.37604569891156614   0.09164577220486071
-0.10887027695470997   -0.37604569891156614   0.09164577220486071
3.552589226603817   -0.20553804830552092   0.017013275957807494
3.552589226603817   -0.20553804830552092   0.017013275957807494
3.552589226603817   -0.20553804830552092   0.017013275957807494
3.552589226603817   -0.20553804830552092   0.017013275957807494
1.603341702194209   -0.3010675082138567   -0.1912989795772268
1.603341702194209   -0.3010675082138567   -0.1912989795772268
1.603341702194209   -0.3010675082138567   -0.1912989795772268
1.603341702194209   -0.3010675082138567   -0.1912989795772268
3.741140423070022   0.4387279405408942   0.3155032694424306
3.741140423070022   0.4387279405408942   0.3155032694424306
3.741140423070022   0.4387279405408942   0.3155032694424306
3.741140423070022   0.4387279405408942   0.3155032694424306
-0.2843887743451687   -1.0072789886822326   -0.15471342497676616
-0.2843887743451687   -1.0072789886822326   -0.15471342497676616
-0.2843887743451687   -1.0072789886822326   -0.15471342497676616
-0.2843887743451687   -1.0072789886822326   -0.15471342497676616
0.04212472547502366   -0.23462555568135948   0.05621952293888355
0.04212472547502366   -0.23462555568135948   0.05621952293888355
0.04212472547502366   -0.23462555568135948   0.05621952293888355
0.04212472547502366   -0.23462555568135948   0.05621952293888355
3.706974523421232   -0.09894197446757391   -0.029925437085781992
3.706974523421232   -0.09894197446757391   -0.029925437085781992
3.706974523421232   -0.09894197446757391   -0.029925437085781992
3.706974523421232   -0.09894197446757391   -0.029925437085781992
1.734845248346167   -0.2143189784156347   -0.12418970605084065
1.734845248346167   -0.2143189784156347   -0.12418970605084065
1.734845248346167   -0.2143189784156347   -0.12418970605084065
1.734845248346167   -0.2143189784156347   -0.12418970605084065
3.905655391941131   0.5831200493610947   0.2814168816850469
3.905655391941131   0.5831200493610947   0.2814168816850469
3.905655391941131   0.5831200493610947   0.2814168816850469
3.905655391941131   0.5831200493610947   0.2814168816850469
-0.14888693002553205   -0.9090183664906842   -0.22444594375457022
-0.14888693002553205   -0.9090183664906842   -0.22444594375457022
-0.14888693002553205   -0.9090183664906842   -0.22444594375457022
-0.14888693002553205   -0.9090183664906842   -0.22444594375457022
0.1605963479070986   -0.0693964553283982   0.020373794931726776
0.1605963479070986   -0.0693964553283982   0.020373794931726776
0.1605963479070986   -0.0693964553283982   0.020373794931726776
0.1605963479070986   -0.0693964553283982   0.020373794931726776
3.822727373343118   0.036756239202700436   -0.07239988712626053
3.822727373343118   0.036756239202700436   -0.07239988712626053
3.822727373343118   0.036756239202700436   -0.07239988712626053
3.822727373343118   0.036756239202700436   -0.07239988712626053
1.894951695158186   -0.08472140926016491   -0.05244431942252256
1.894951695158186   -0.08472140926016491   -0.05244431942252256
1.894951695158186   -0.08472140926016491   -0.05244431942252256
1.894951695158186   -0.08472140926016491   -0.05244431942252256
-0.1465290907352196   0.08689011001158269   0.17670117123338855
-0.1465290907352196   0.08689011001158269   0.17670117123338855
-0.1465290907352196   0.08689011001158269   0.17670117123338855
-0.1465290907352196   0.08689011001158269   0.17670117123338855
-4.077538848824358   -1.3474009974001255   -0.08209089017821897
-4.077538848824358   -1.3474009974001255   -0.08209089017821897
-4.077538848824358   -1.3474009974001255   -0.08209089017821897
-4.077538848824358   -1.3474009974001255   -0.08209089017821897
-3.7476171968986605   -0.5773128534045977   -0.0855928631355566
-3.7476171968986605   -0.5773128534045977   -0.0855928631355566
-3.7476171968986605   -0.5773128534045977   -0.0855928631355566
-3.7476171968986605   -0.5773128534045977   -0.0855928631355566
-0.1306615532588606   -0.47252768952988217   0.07917138130242354
-0.1306615532588606   -0.47252768952988217   0.07917138130242354
-0.1306615532588606   -0.47252768952988217   0.07917138130242354
-0.1306615532588606   -0.47252768952988217   0.07917138130242354
-2.034990370491464   -0.5466624569505522   -0.17115683543136254
-2.034990370491464   -0.5466624569505522   -0.17115683543136254
-2.034990370491464   -0.5466624569505522   -0.17115683543136254
-2.034990370491464   -0.5466624569505522   -0.17115683543136254
0.021135466980254966   0.22223500882660055   0.14339378414151877
0.021135466980254966   0.22223500882660055   0.14339378414151877
0.021135466980254966   0.22223500882660055   0.14339378414151877
0.021135466980254966   0.22223500882660055   0.14339378414151877
-3.890038461511848   -1.262699796135152   -0.11231224347093882
-3.890038461511848   -1.262699796135152   -0.11231224347093882
-3.890038461511848   -1.262699796135152   -0.11231224347093882
-3.890038461511848   -1.262699796135152   -0.11231224347093882
-3.5604183065126005   -0.4202573860401326   -0.1168278053537322
-3.5604183065126005   -0.4202573860401326   -0.1168278053537322
-3.5604183065126005   -0.4202573860401326   -0.1168278053537322
-3.5604183065126005   -0.4202573860401326   -0.1168278053537322
0.010094658475109028   -0.37016285588815423   0.031606488146105075
0.010094658475109028   -0.37016285588815423   0.031606488146105075
0.010094658475109028   -0.37016285588815423   0.031606488146105075
0.010094658475109028   -0.37016285588815423   0.031606488146105075
-1.8532676714039524   -0.4338904126968627   -0.09538152663645001
-1.8532676714039524   -0.4338904126968627   -0.09538152663645001
-1.8532676714039524   -0.4338904126968627   -0.09538152663645001
-1.8532676714039524   -0.4338904126968627   -0.09538152663645001
0.17459705023422195   0.3724186371589012   0.1115369538946144
0.17459705023422195   0.3724186371589012   0.1115369538946144
0.17459705023422195   0.3724186371589012   0.1115369538946144
0.17459705023422195   0.3724186371589012   0.1115369538946144
-3.7251864126722296   -1.1631045934876993   -0.19782112870428187
-3.7251864126722296   -1.1631045934876993   -0.19782112870428187
-3.7251864126722296   -1.1631045934876993   -0.19782112870428187
-3.7251864126722296   -1.1631045934876993   -0.19782112870428187
-3.428179291904806   -0.27068637661293127   -0.15182132021018535
-3.428179291904806   -0.27068637661293127   -0.15182132021018535
-3.428179291904806   -0.27068637661293127   -0.15182132021018535
-3.428179291904806   -0.27068637661293127   -0.15182132021018535
0.10264295285845738   -0.2887111181335478   -0.050078517506345045
0.10264295285845738   -0.2887111181335478   -0.050078517506345045
0.10264295285845738   -0.2887111181335478   -0.050078517506345045
0.10264295285845738   -0.2887111181335478   -0.050078517506345045
-1.7199273209656665   -0.3288916950067996   -0.048191998931697615
-1.7199273209656665   -0.3288916950067996   -0.048191998931697615
-1.7199273209656665   -0.3288916950067996   -0.048191998931697615
-1.7199273209656665   -0.3288916950067996   -0.048191998931697615
-3.8157029567927316   -0.11380415248899989   -0.006508274931251251
-3.8157029567927316   -0.11380415248899989   -0.006508274931251251
-3.8157029567927316   -0.11380415248899989   -0.006508274931251251
-3.8157029567927316   -0.11380415248899989   -0.006508274931251251
-7.7359933306905475   -1.4486182759351172   -0.06657766584141342
-7.7359933306905475   -1.4486182759351172   -0.06657766584141342
-7.7359933306905475   -1.4486182759351172   -0.06657766584141342
-7.7359933306905475   -1.4486182759351172   -0.06657766584141342
-7.380536700573464   -0.738595034945456   -0.25593044639753326
-7.380536700573464   -0.738595034945456   -0.25593044639753326
-7.380536700573464   -0.738595034945456   -0.25593044639753326
-7.380536700573464   -0.738595034945456   -0.25593044639753326
-3.6793657823535955   -0.4905604720090121   0.16891182819415299
-3.6793657823535955   -0.4905604720090121   0.16891182819415299
-3.6793657823535955   -0.4905604720090121   0.16891182819415299
-3.6793657823535955   -0.4905604720090121   0.16891182819415299
-5.60308274050805   -0.6560498385615038   -0.12078713265962784
-5.60308274050805   -0.6560498385615038   -0.12078713265962784
-5.60308274050805   -0.6560498385615038   -0.12078713265962784
-5.60308274050805   -0.6560498385615038   -0.12078713265962784
-3.6089273574324814   0.060851349266991206   -0.03030786847628053
-3.6089273574324814   0.060851349266991206   -0.03030786847628053
-3.6089273574324814   0.060851349266991206   -0.03030786847628053
-3.6089273574324814   0.060851349266991206   -0.03030786847628053
-7.454288137876716   -1.2933198686035852   -0.06996279925559143
-7.454288137876716   -1.2933198686035852   -0.06996279925559143
-7.454288137876716   -1.2933198686035852   -0.06996279925559143
-7.454288137876716   -1.2933198686035852   -0.06996279925559143
-7.1132615139428435   -0.5743302092688887   -0.29660445141562297
-7.1132615139428435   -0.5743302092688887   -0.29660445141562297
-7.1132615139428435   -0.5743302092688887   -0.29660445141562297
-7.1132615139428435   -0.5743302092688887   -0.29660445141562297
-3.4973323345212943   -0.36702022715958893   0.14536489572228453
-3.4973323345212943   -0.36702022715958893   0.14536489572228453
-3.4973323345212943   -0.36702022715958893   0.14536489572228453
-3.4973323345212943   -0.36702022715958893   0.14536489572228453
-5.328934890250594   -0.4984739767171079   -0.04040581252707834
-5.328934890250594   -0.4984739767171079   -0.04040581252707834
-5.328934890250594   -0.4984739767171079   -0.04040581252707834
-5.328934890250594   -0.4984739767171079   -0.04040581252707834
-3.421225076566425   0.21264513346409886   -0.053764175127103075
-3.421225076566425   0.21264513346409886   -0.053764175127103075
-3.421225076566425   0.21264513346409886   -0.053764175127103075
-3.421225076566425   0.21264513346409886   -0.053764175127103075
-7.2025340888595055   -1.1671608868543673   -0.15013664841339533
-7.2025340888595055   -1.1671608868543673   -0.15013664841339533
-7.2025340888595055   -1.1671608868543673   -0.15013664841339533
-7.2025340888595055   -1.1671608868543673   -0.15013664841339533
-6.8958645562886085   -0.40088221273089775   -0.3059212276773058
-6.8958645562886085   -0.40088221273089775   -0.3059212276773058
-6.8958645562886085   -0.40088221273089775   -0.3059212276773058
-6.8958645562886085   -0.40088221273089775   -0.3059212276773058
-3.3926520203086246   -0.2884816727567984   0.043610333914619284
-3.3926520203086246   -0.2884816727567984   0.043610333914619284
-3.3926520203086246   -0.2884816727567984   0.043610333914619284
-3.3926520203086246   -0.2884816727567984   0.043610333914619284
-5.1762446151448485   -0.4023035070119517   -0.014331234096119555
-5.1762446151448485   -0.4023035070119517   -0.014331234096119555
-5.1762446151448485   -0.4023035070119517   -0.014331234096119555
-5.1762446151448485   -0.4023035070119517   -0.014331234096119555
-7.52263519749189   -0.25981178082595724   -0.18859349495728162
-7.52263519749189   -0.25981178082595724   -0.18859349495728162
-7.52263519749189   -0.25981178082595724   -0.18859349495728162
-7.52263519749189   -0.25981178082595724   -0.18859349495728162
-11.341988707888913   -0.9744922922064023   0.4343024160645088
-11.341988707888913   -0.9744922922064023   0.4343024160645088
-11.341988707888913   -0.9744922922064023   0.4343024160645088
-11.341988707888913   -0.9744922922064023   0.4343024160645088
-10.946246725195696   -0.7736373641583076   -0.2510668090087442
-10.946246725195696   -0.7736373641583076   -0.2510668090087442
-10.946246725195696   -0.7736373641583076   -0.2510668090087442
-10.946246725195696   -0.7736373641583076   -0.2510668090087442
-7.061984166749647   0.20024113803521337   0.39799604974082675
-7.061984166749647   0.20024113803521337   0.39799604974082675
-7.061984166749647   0.20024113803521337   0.39799604974082675
-7.061984166749647   0.20024113803521337   0.39799604974082675
-8.80638291300172   -0.30728415902087924   0.03914543433507567
-8.80638291300172   -0.30728415902087924   0.03914543433507567
-8.80638291300172   -0.30728415902087924   0.03914543433507567
-8.80638291300172   -0.30728415902087924   0.03914543433507567
-7.227718661475041   -0.021504538985496424   -0.20893074686534424
-7.227718661475041   -0.021504538985496424   -0.20893074686534424
-7.227718661475041   -0.021504538985496424   -0.20893074686534424
-7.227718661475041   -0.021504538985496424   -0.20893074686534424
-10.753760298822524   -0.525139755489805   0.4628677141886139
-10.753760298822524   -0.525139755489805   0.4628677141886139
-10.753760298822524   -0.525139755489805   0.4628677141886139
-10.753760298822524   -0.525139755489805   0.4628677141886139
-10.52209060381151   -0.6502942043520274   -0.29899205768539683
-10.52209060381151   -0.6502942043520274   -0.29899205768539683
-10.52209060381151   -0.6502942043520274   -0.29899205768539683
-10.52209060381151   -0.6502942043520274   -0.29899205768539683
-6.797406632668167   0.3235518918183611   0.3847878538705076
-6.797406632668167   0.3235518918183611   0.3847878538705076
-6.797406632668167   0.3235518918183611   0.3847878538705076
-6.797406632668167   0.3235518918183611   0.3847878538705076
-8.553321069424975   -0.12399227485945197   0.17456965684872217
-8.553321069424975   -0.12399227485945197   0.17456965684872217
-8.553321069424975   -0.12399227485945197   0.17456965684872217
-8.553321069424975   -0.12399227485945197   0.17456965684872217
-6.969152186986064   0.07501190447502504   -0.22539993037557848
-6.969152186986064   0.07501190447502504   -0.22539993037557848
-6.969152186986064   0.07501190447502504   -0.22539993037557848
-6.969152186986064   0.07501190447502504   -0.22539993037557848
-10.345114314507141   -0.3965234820222652   0.33211866650659266
-10.345114314507141   -0.3965234820222652   0.33211866650659266
-10.345114314507141   -0.3965234820222652   0.33211866650659266
-10.345114314507141   -0.3965234820222652   0.33211866650659266
-10.083710815802826   -0.5328646330694575   -0.36115229808621235
-10.083710815802826   -0.5328646330694575   -0.36115229808621235
-10.083710815802826   -0.5328646330694575   -0.36115229808621235
-10.083710815802826   -0.5328646330694575   -0.36115229808621235
-6.600333885555171   0.4725952863671985   0.2982546268917816
-6.600333885555171   0.4725952863671985   0.2982546268917816
-6.600333885555171   0.4725952863671985   0.2982546268917816
-6.600333885555171   0.4725952863671985   0.2982546268917816
-8.083474163535252   0.033031275017081585   0.3093590709776199
-8.083474163535252   0.033031275017081585   0.3093590709776199
-8.083474163535252   0.033031275017081585   0.3093590709776199
-8.083474163535252   0.033031275017081585   0.3093590709776199
10.030664200983857   0.5993257550389561   0.3665835493276266
10.030664200983857   0.5993257550389561   0.3665835493276266
10.030664200983857   0.5993257550389561   0.3665835493276266
10.030664200983857   0.5993257550389561   0.3665835493276266
4.787462225206152   -0.9000885111084591   0.08503325438323983
4.787462225206152   -0.9000885111084591   0.08503325438323983
4.787462225206152   -0.9000885111084591   0.08503325438323983
4.787462225206152   -0.9000885111084591   0.08503325438323983
5.054326361807488   -0.37769477323577894   0.28292935801249003
5.054326361807488   -0.37769477323577894   0.28292935801249003
5.054326361807488   -0.37769477323577894   0.28292935801249003
5.054326361807488   -0.37769477323577894   0.28292935801249003
10.085167146701714   0.07976300302296035   -0.07903455970888107
10.085167146701714   0.07976300302296035   -0.07903455970888107
10.085167146701714   0.07976300302296035   -0.07903455970888107
10.085167146701714   0.07976300302296035   -0.07903455970888107
7.055552124855843   -0.1950625700805333   -0.47084360418235194
7.055552124855843   -0.1950625700805333   -0.47084360418235194
7.055552124855843   -0.1950625700805333   -0.47084360418235194
7.055552124855843   -0.1950625700805333   -0.47084360418235194
10.276670476255639   0.6681976635567441   0.29004742752695606
10.276670476255639   0.6681976635567441   0.29004742752695606
10.276670476255639   0.6681976635567441   0.29004742752695606
10.276670476255639   0.6681976635567441   0.29004742752695606
4.90897439765884   -0.9199780683642871   0.09845283239775537
4.90897439765884   -0.9199780683642871   0.09845283239775537
4.90897439765884   -0.9199780683642871   0.09845283239775537
4.90897439765884   -0.9199780683642871   0.09845283239775537
5.156070147473118   -0.32079451731157294   0.2155231791557955
5.156070147473118   -0.32079451731157294   0.2155231791557955
5.156070147473118   -0.32079451731157294   0.2155231791557955
5.156070147473118   -0.32079451731157294   0.2155231791557955
10.263939828803041   0.14402627763697495   -0.021721105065928725
10.263939828803041   0.14402627763697495   -0.021721105065928725
10.263939828803041   0.14402627763697495   -0.021721105065928725
10.263939828803041   0.14402627763697495   -0.021721105065928725
7.348664787738131   -0.154687909107045   -0.3210736816817004
7.348664787738131   -0.154687909107045   -0.3210736816817004
7.348664787738131   -0.154687909107045   -0.3210736816817004
7.348664787738131   -0.154687909107045   -0.3210736816817004
10.425762927456281   0.7302696133511246   0.20115105248612158
10.425762927456281   0.7302696133511246   0.20115105248612158
10.425762927456281   0.7302696133511246   0.20115105248612158
10.425762927456281   0.7302696133511246   0.20115105248612158
5.0263570562814035   -0.8749278455641973   0.12109105144984644
5.0263570562814035   -0.8749278455641973   0.12109105144984644
5.0263570562814035   -0.8749278455641973   0.12109105144984644
5.0263570562814035   -0.8749278455641973   0.12109105144984644
5.305501975254495   -0.09895607446853072   0.19701257052176874
5.305501975254495   -0.09895607446853072   0.19701257052176874
5.305501975254495   -0.09895607446853072   0.19701257052176874
5.305501975254495   -0.09895607446853072   0.19701257052176874
10.449403292670478   0.29018086022071254   -0.0008839667502724136
10.449403292670478   0.29018086022071254   -0.0008839667502724136
10.449403292670478   0.29018086022071254   -0.0008839667502724136
10.449403292670478   0.29018086022071254   -0.0008839667502724136
7.386929388822712   -0.07256272778379502   -0.23919771176938853
7.386929388822712   -0.07256272778379502   -0.23919771176938853
7.386929388822712   -0.07256272778379502   -0.23919771176938853
7.386929388822712   -0.07256272778379502   -0.23919771176938853
5.051288030359833   0.12184426889422584   0.38222950014896007
5.051288030359833   0.12184426889422584   0.38222950014896007
5.051288030359833   0.12184426889422584   0.38222950014896007
5.051288030359833   0.12184426889422584   0.38222950014896007
0.27968331075105735   -1.8009085336800086   0.1876729566585098
0.27968331075105735   -1.8009085336800086   0.1876729566585098
0.27968331075105735   -1.8009085336800086   0.1876729566585098
0.27968331075105735   -1.8009085336800086   0.1876729566585098
0.6285837533383749   -0.7589964604631264   0.17372668843522182
0.6285837533383749   -0.7589964604631264   0.17372668843522182
0.6285837533383749   -0.7589964604631264   0.17372668843522182
0.6285837533383749   -0.7589964604631264   0.17372668843522182
4.92092202194683   -0.8779416920664216   0.11615457753978287
4.92092202194683   -0.8779416920664216   0.11615457753978287
4.92092202194683   -0.8779416920664216   0.11615457753978287
4.92092202194683   -0.8779416920664216   0.11615457753978287
2.6314153246163654   -0.8115786016696482   -0.3030801495256594
2.6314153246163654   -0.8115786016696482   -0.3030801495256594
2.6314153246163654   -0.8115786016696482   -0.3030801495256594
2.6314153246163654   -0.8115786016696482   -0.3030801495256594
5.172813134365048   0.1788648063066811   0.3188036412578323
5.172813134365048   0.1788648063066811   0.3188036412578323
5.172813134365048   0.1788648063066811   0.3188036412578323
5.172813134365048   0.1788648063066811   0.3188036412578323
0.44316425001229576   -1.7493313497441592   0.23696406108587376
0.44316425001229576   -1.7493313497441592   0.23696406108587376
0.44316425001229576   -1.7493313497441592   0.23696406108587376
0.44316425001229576   -1.7493313497441592   0.23696406108587376
0.7692616893972786   -0.6552135007849731   0.12642976535117523
0.7692616893972786   -0.6552135007849731   0.12642976535117523
0.7692616893972786   -0.6552135007849731   0.12642976535117523
0.7692616893972786   -0.6552135007849731   0.12642976535117523
5.041156841610031   -0.8239356686100541   0.1440978011388404
5.041156841610031   -0.8239356686100541   0.1440978011388404
5.041156841610031   -0.8239356686100541   0.1440978011388404
5.041156841610031   -0.8239356686100541   0.1440978011388404
2.7515914785676125   -0.7721230411398695   -0.15150491026352286
2.7515914785676125   -0.7721230411398695   -0.15150491026352286
2.7515914785676125   -0.7721230411398695   -0.15150491026352286
2.7515914785676125   -0.7721230411398695   -0.15150491026352286
5.286069238624169   0.276505732925054   0.2682183846744203
5.286069238624169   0.276505732925054   0.2682183846744203
5.286069238624169   0.276505732925054   0.2682183846744203
5.286069238624169   0.276505732925054   0.2682183846744203
0.5883350884457491   -1.6916691062574702   0.25825236606604096
0.5883350884457491   -1.6916691062574702   0.25825236606604096
0.5883350884457491   -1.6916691062574702   0.25825236606604096
0.5883350884457491   -1.6916691062574702   0.25825236606604096
0.9849141083878138   -0.4994821342894387   0.08422151036834805
0.9849141083878138   -0.4994821342894387   0.08422151036834805
0.9849141083878138   -0.4994821342894387   0.08422151036834805
0.9849141083878138   -0.4994821342894387   0.08422151036834805
5.17296580695372   -0.7416855967898082   0.1770612513391846
5.17296580695372   -0.7416855967898082   0.1770612513391846
5.17296580695372   -0.7416855967898082   0.1770612513391846
5.17296580695372   -0.7416855967898082   0.1770612513391846
2.9608278298537885   -0.6760816580429028   0.024725069525804944
2.9608278298537885   -0.6760816580429028   0.024725069525804944
2.9608278298537885   -0.6760816580429028   0.024725069525804944
2.9608278298537885   -0.6760816580429028   0.024725069525804944
0.5815710791338862   -0.3499334839952533   0.24613674888789866
0.5815710791338862   -0.3499334839952533   0.24613674888789866
0.5815710791338862   -0.3499334839952533   0.24613674888789866
0.5815710791338862   -0.3499334839952533   0.24613674888789866
-4.267379346240859   -3.0993761391448604   0.2698633334732021
-4.267379346240859   -3.0993761391448604   0.2698633334732021
-4.267379346240859   -3.0993761391448604   0.2698633334732021
-4.267379346240859   -3.0993761391448604   0.2698633334732021
-3.7147154976925894   -1.2012312070535744   0.019707738117444973
-3.7147154976925894   -1.2012312070535744   0.019707738117444973
-3.7147154976925894   -1.2012312070535744   0.019707738117444973
-3.7147154976925894   -1.2012312070535744   0.019707738117444973
0.31184869026568085   -2.26936068890733   0.10041560151597018
0.31184869026568085   -2.26936068890733   0.10041560151597018
0.31184869026568085   -2.26936068890733   0.10041560151597018
0.31184869026568085   -2.26936068890733   0.10041560151597018
-1.828911686850632   -1.7425112266010743   -0.3637906105067907
-1.828911686850632   -1.7425112266010743   -0.3637906105067907
-1.828911686850632   -1.7425112266010743   -0.3637906105067907
-1.828911686850632   -1.7425112266010743   -0.3637906105067907
0.7288725842961056   -0.27768355143930984   0.19385793420007325
0.7288725842961056   -0.27768355143930984   0.19385793420007325
0.7288725842961056   -0.27768355143930984   0.19385793420007325
0.7288725842961056   -0.27768355143930984   0.19385793420007325
-4.03587019448292   -3.097039147281537   0.3097421943937839
-4.03587019448292   -3.097039147281537   0.3097421943937839
-4.03587019448292   -3.097039147281537   0.3097421943937839
-4.03587019448292   -3.097039147281537   0.3097421943937839
-3.5016035401658243   -1.078375888792139   0.002239522266868535
-3.5016035401658243   -1.078375888792139   0.002239522266868535
-3.5016035401658243   -1.078375888792139   0.002239522266868535
-3.5016035401658243   -1.078375888792139   0.002239522266868535
0.46004419712377265   -2.2208979310485963   0.14602673424728485
0.46004419712377265   -2.2208979310485963   0.14602673424728485
0.46004419712377265   -2.2208979310485963   0.14602673424728485
0.46004419712377265   -2.2208979310485963   0.14602673424728485
-1.613352311448625   -1.6844267588403419   -0.13649728684203694
-1.613352311448625   -1.6844267588403419   -0.13649728684203694
-1.613352311448625   -1.6844267588403419   -0.13649728684203694
-1.613352311448625   -1.6844267588403419   -0.13649728684203694
0.8635293822978933   -0.18107188578246666   0.12362661485175837
0.8635293822978933   -0.18107188578246666   0.12362661485175837
0.8635293822978933   -0.18107188578246666   0.12362661485175837
0.8635293822978933   -0.18107188578246666   0.12362661485175837
-3.81825736842351   -3.0313705771418658   0.37196506932822093
-3.81825736842351   -3.0313705771418658   0.37196506932822093
-3.81825736842351   -3.0313705771418658   0.37196506932822093
-3.81825736842351   -3.0313705771418658   0.37196506932822093
-3.1500107508696105   -0.9367283030282674   -0.03751073825187466
-3.1500107508696105   -0.9367283030282674   -0.03751073825187466
-3.1500107508696105   -0.9367283030282674   -0.03751073825187466
-3.1500107508696105   -0.9367283030282674   -0.03751073825187466
0.6914653357188298   -2.083097270031799   0.2005927827657883
0.6914653357188298   -2.083097270031799   0.2005927827657883
0.6914653357188298   -2.083097270031799   0.2005927827657883
0.6914653357188298   -2.083097270031799   0.2005927827657883
-1.3332849707221963   -1.5522580196139142   0.10224637159816058
-1.3332849707221963   -1.5522580196139142   0.10224637159816058
-1.3332849707221963   -1.5522580196139142   0.10224637159816058
-1.3332849707221963   -1.5522580196139142   0.10224637159816058
-3.8030872605522608   -0.6252766701540956   0.1172242929254064
-3.8030872605522608   -0.6252766701540956   0.1172242929254064
-3.8030872605522608   -0.6252766701540956   0.1172242929254064
-3.8030872605522608   -0.6252766701540956   0.1172242929254064
-9.52235827031875   -4.833057502794275   -0.2337407034005301
-9.52235827031875   -4.833057502794275   -0.2337407034005301
-9.52235827031875   -4.833057502794275   -0.2337407034005301
-9.52235827031875   -4.833057502794275   -0.2337407034005301
-8.609170805232687   -1.5631268159752338   -0.26411486875786455
-8.609170805232687   -1.5631268159752338   -0.26411486875786455
-8.609170805232687   -1.5631268159752338   -0.26411486875786455
-8.609170805232687   -1.5631268159752338   -0.26411486875786455
-4.2729095644011155   -4.050938600124067   0.07844479764530654
-4.2729095644011155   -4.050938600124067   0.07844479764530654
-4.2729095644011155   -4.050938600124067   0.07844479764530654
-4.2729095644011155   -4.050938600124067   0.07844479764530654
-6.544250284981439   -2.8581456666216116   -0.3815063832996481
-6.544250284981439   -2.8581456666216116   -0.3815063832996481
-6.544250284981439   -2.8581456666216116   -0.3815063832996481
-6.544250284981439   -2.8581456666216116   -0.3815063832996481
-3.551077080205601   -0.4761261445987759   0.11279476309758579
-3.551077080205601   -0.4761261445987759   0.11279476309758579
-3.551077080205601   -0.4761261445987759   0.11279476309758579
-3.551077080205601   -0.4761261445987759   0.11279476309758579
-9.310615183037358   -5.117551165109684   -0.2169124086467764
-9.310615183037358   -5.117551165109684   -0.2169124086467764
-9.310615183037358   -5.117551165109684   -0.2169124086467764
-9.310615183037358   -5.117551165109684   -0.2169124086467764
-8.32619233889974   -1.4156261878412826   -0.26880490330773854
-8.32619233889974   -1.4156261878412826   -0.26880490330773854
-8.32619233889974   -1.4156261878412826   -0.26880490330773854
-8.32619233889974   -1.4156261878412826   -0.26880490330773854
-4.0667958545343685   -4.020885691839799   0.11878775347183879
-4.0667958545343685   -4.020885691839799   0.11878775347183879
-4.0667958545343685   -4.020885691839799   0.11878775347183879
-4.0667958545343685   -4.020885691839799   0.11878775347183879
-6.248418842917269   -2.782980877022565   -0.27060854546348784
-6.248418842917269   -2.782980877022565   -0.27060854546348784
-6.248418842917269   -2.782980877022565   -0.27060854546348784
-6.248418842917269   -2.782980877022565   -0.27060854546348784
-3.3506374261986616   -0.3591794866478386   0.03787368995840382
-3.3506374261986616   -0.3591794866478386   0.03787368995840382
-3.3506374261986616   -0.3591794866478386   0.03787368995840382
-3.3506374261986616   -0.3591794866478386   0.03787368995840382
-9.043003284273441   -5.077984910071185   -0.19050090794626984
-9.043003284273441   -5.077984910071185   -0.19050090794626984
-9.043003284273441   -5.077984910071185   -0.19050090794626984
-9.043003284273441   -5.077984910071185   -0.19050090794626984
-7.885417011954517   -1.25668015520959   -0.3046170867034452
-7.885417011954517   -1.25668015520959   -0.3046170867034452
-7.885417011954517   -1.25668015520959   -0.3046170867034452
-7.885417011954517   -1.25668015520959   -0.3046170867034452
-3.620977325504676   -3.622305923163141   0.2932340087077324
-3.620977325504676   -3.622305923163141   0.2932340087077324
-3.620977325504676   -3.622305923163141   0.2932340087077324
-3.620977325504676   -3.622305923163141   0.2932340087077324
-5.917447508371527   -2.5264190276723806   -0.15427643935269336
-5.917447508371527   -2.5264190276723806   -0.15427643935269336
-5.917447508371527   -2.5264190276723806   -0.15427643935269336
-5.917447508371527   -2.5264190276723806   -0.15427643935269336
-8.627390248521388   -0.5306872524895418   -0.06127084471846672
-8.627390248521388   -0.5306872524895418   -0.06127084471846672
-8.627390248521388   -0.5306872524895418   -0.06127084471846672
-8.627390248521388   -0.5306872524895418   -0.06127084471846672
-15.254249457807658   -3.019811175868103   0.1551935784671441
-15.254249457807658   -3.019811175868103   0.1551935784671441
-15.254249457807658   -3.019811175868103   0.1551935784671441
-15.254249457807658   -3.019811175868103   0.1551935784671441
-14.649451264231608   -1.461781061210255   -0.3246478490047981
-14.649451264231608   -1.461781061210255   -0.3246478490047981
-14.649451264231608   -1.461781061210255   -0.3246478490047981
-14.649451264231608   -1.461781061210255   -0.3246478490047981
-8.427096506089486   -1.5573277825177734   0.6404575935006194
-8.427096506089486   -1.5573277825177734   0.6404575935006194
-8.427096506089486   -1.5573277825177734   0.6404575935006194
-8.427096506089486   -1.5573277825177734   0.6404575935006194
-11.26332654016977   -1.7539699568833944   0.16506753211471603
-11.26332654016977   -1.7539699568833944   0.16506753211471603
-11.26332654016977   -1.7539699568833944   0.16506753211471603
-11.26332654016977   -1.7539699568833944   0.16506753211471603
-8.267303419351887   -0.12000239458268935   0.002097639253553385
-8.267303419351887   -0.12000239458268935   0.002097639253553385
-8.267303419351887   -0.12000239458268935   0.002097639253553385
-8.267303419351887   -0.12000239458268935   0.002097639253553385
-14.867668898728637   -2.9575309969048242   0.08001391420451576
-14.867668898728637   -2.9575309969048242   0.08001391420451576
-14.867668898728637   -2.9575309969048242   0.08001391420451576
-14.867668898728637   -2.9575309969048242   0.08001391420451576
-14.31380102204417   -1.3390698465650943   -0.411926448670767
-14.31380102204417   -1.3390698465650943   -0.411926448670767
-14.31380102204417   -1.3390698465650943   -0.411926448670767
-14.31380102204417   -1.3390698465650943   -0.411926448670767
-8.135695450471434   -1.4779403499131432   0.7459937009057196
-8.135695450471434   -1.4779403499131432   0.7459937009057196
-8.135695450471434   -1.4779403499131432   0.7459937009057196
-8.135695450471434   -1.4779403499131432   0.7459937009057196
-11.084053022528913   -1.4435625227466875   0.15783953650324406
-11.084053022528913   -1.4435625227466875   0.15783953650324406
-11.084053022528913   -1.4435625227466875   0.15783953650324406
-11.084053022528913   -1.4435625227466875   0.15783953650324406
-8.007596246770147   -0.011444773230277594   -0.08000585727070564
-8.007596246770147   -0.011444773230277594   -0.08000585727070564
-8.007596246770147   -0.011444773230277594   -0.08000585727070564
-8.007596246770147   -0.011444773230277594   -0.08000585727070564
-14.464083069160449   -2.8277482666629705   0.3253417358455959
-14.464083069160449   -2.8277482666629705   0.3253417358455959
-14.464083069160449   -2.8277482666629705   0.3253417358455959
-14.464083069160449   -2.8277482666629705   0.3253417358455959
-13.61705112132521   -1.082283214432998   -0.4594206413391646
-13.61705112132521   -1.082283214432998   -0.4594206413391646
-13.61705112132521   -1.082283214432998   -0.4594206413391646
-13.61705112132521   -1.082283214432998   -0.4594206413391646
-7.683037089823621   -1.3720724535136846   0.8226748222551978
-7.683037089823621   -1.3720724535136846   0.8226748222551978
-7.683037089823621   -1.3720724535136846   0.8226748222551978
-7.683037089823621   -1.3720724535136846   0.8226748222551978
-10.414164337991886   -1.1028858816892777   0.320023483475102
-10.414164337991886   -1.1028858816892777   0.320023483475102
-10.414164337991886   -1.1028858816892777   0.320023483475102
-10.414164337991886   -1.1028858816892777   0.320023483475102
10.986006176816096   0.35380183070704385   0.15594101185081188
10.986006176816096   0.35380183070704385   0.15594101185081188
10.986006176816096   0.35380183070704385   0.15594101185081188
10.986006176816096   0.35380183070704385   0.15594101185081188
5.618853542929771   -0.29206203217881654   0.11729232852310378
5.618853542929771   -0.29206203217881654   0.11729232852310378
5.618853542929771   -0.29206203217881654   0.11729232852310378
5.618853542929771   -0.29206203217881654   0.11729232852310378
5.396345173575003   -0.7966968441717344   0.22748817744435512
5.396345173575003   -0.7966968441717344   0.22748817744435512
5.396345173575003   -0.7966968441717344   0.22748817744435512
5.396345173575003   -0.7966968441717344   0.22748817744435512
10.905875721586202   0.6149125431716282   0.08581210941827505
10.905875721586202   0.6149125431716282   0.08581210941827505
10.905875721586202   0.6149125431716282   0.08581210941827505
10.905875721586202   0.6149125431716282   0.08581210941827505
7.788254964162562   -0.11222746351891999   -0.2870389657976437
7.788254964162562   -0.11222746351891999   -0.2870389657976437
7.788254964162562   -0.11222746351891999   -0.2870389657976437
7.788254964162562   -0.11222746351891999   -0.2870389657976437
10.843929256539818   0.27126733533662906   0.11972499202135767
10.843929256539818   0.27126733533662906   0.11972499202135767
10.843929256539818   0.27126733533662906   0.11972499202135767
10.843929256539818   0.27126733533662906   0.11972499202135767
5.439917217484315   -0.4714260574738063   0.12007761029298819
5.439917217484315   -0.4714260574738063   0.12007761029298819
5.439917217484315   -0.4714260574738063   0.12007761029298819
5.439917217484315   -0.4714260574738063   0.12007761029298819
5.254947457402487   -0.8157285041938347   0.18849735718057548
5.254947457402487   -0.8157285041938347   0.18849735718057548
5.254947457402487   -0.8157285041938347   0.18849735718057548
5.254947457402487   -0.8157285041938347   0.18849735718057548
10.776259826788738   0.5875431908077515   0.14685671165583225
10.776259826788738   0.5875431908077515   0.14685671165583225
10.776259826788738   0.5875431908077515   0.14685671165583225
10.776259826788738   0.5875431908077515   0.14685671165583225
7.762762747472884   -0.1549345953895136   -0.33375279355642595
7.762762747472884   -0.1549345953895136   -0.33375279355642595
7.762762747472884   -0.1549345953895136   -0.33375279355642595
7.762762747472884   -0.1549345953895136   -0.33375279355642595
10.684528089095892   0.23969699459048366   0.036044219408764455
10.684528089095892   0.23969699459048366   0.036044219408764455
10.684528089095892   0.23969699459048366   0.036044219408764455
10.684528089095892   0.23969699459048366   0.036044219408764455
5.313889443259336   -0.5006720598125818   0.16815084208356879
5.313889443259336   -0.5006720598125818   0.16815084208356879
5.313889443259336   -0.5006720598125818   0.16815084208356879
5.313889443259336   -0.5006720598125818   0.16815084208356879
5.105481020921323   -0.7458817896676355   0.1627250555571425
5.105481020921323   -0.7458817896676355   0.1627250555571425
5.105481020921323   -0.7458817896676355   0.1627250555571425
5.105481020921323   -0.7458817896676355   0.1627250555571425
10.576188192425246   0.5921233733585187   0.20987915644774324
10.576188192425246   0.5921233733585187   0.20987915644774324
10.576188192425246   0.5921233733585187   0.20987915644774324
10.576188192425246   0.5921233733585187   0.20987915644774324
7.468919479791746   -0.1569280131544899   -0.45194168395048334
7.468919479791746   -0.1569280131544899   -0.45194168395048334
7.468919479791746   -0.1569280131544899   -0.45194168395048334
7.468919479791746   -0.1569280131544899   -0.45194168395048334
5.563446849734843   -0.7267092092841863   0.27490603965383575
5.563446849734843   -0.7267092092841863   0.27490603965383575
5.563446849734843   -0.7267092092841863   0.27490603965383575
5.563446849734843   -0.7267092092841863   0.27490603965383575
1.1032027736285066   -0.6629635609190425   0.06166330997353425
1.1032027736285066   -0.6629635609190425   0.06166330997353425
1.1032027736285066   -0.6629635609190425   0.06166330997353425
1.1032027736285066   -0.6629635609190425   0.06166330997353425
0.7197479983276929   -1.6814936376211322   0.2995688733856121
0.7197479983276929   -1.6814936376211322   0.2995688733856121
0.7197479983276929   -1.6814936376211322   0.2995688733856121
0.7197479983276929   -1.6814936376211322   0.2995688733856121
5.594999294258848   0.21094004288930157   0.21312189380254293
5.594999294258848   0.21094004288930157   0.21312189380254293
5.594999294258848   0.21094004288930157   0.21312189380254293
5.594999294258848   0.21094004288930157   0.21312189380254293
3.1955754072347498   -0.7178726348330917   -0.011812112840814293
3.1955754072347498   -0.7178726348330917   -0.011812112840814293
3.1955754072347498   -0.7178726348330917   -0.011812112840814293
3.1955754072347498   -0.7178726348330917   -0.011812112840814293
5.404456717293621   -0.7584965484432358   0.22984560030892187
5.404456717293621   -0.7584965484432358   0.22984560030892187
5.404456717293621   -0.7584965484432358   0.22984560030892187
5.404456717293621   -0.7584965484432358   0.22984560030892187
0.8622205956702851   -0.7601270259111927   0.09056524838863433
0.8622205956702851   -0.7601270259111927   0.09056524838863433
0.8622205956702851   -0.7601270259111927   0.09056524838863433
0.8622205956702851   -0.7601270259111927   0.09056524838863433
0.5483723326364008   -1.6976434803340028   0.2683432514927261
0.5483723326364008   -1.6976434803340028   0.2683432514927261
0.5483723326364008   -1.6976434803340028   0.2683432514927261
0.5483723326364008   -1.6976434803340028   0.2683432514927261
5.464557007566706   0.1679381866696723   0.2528784171381619
5.464557007566706   0.1679381866696723   0.2528784171381619
5.464557007566706   0.1679381866696723   0.2528784171381619
5.464557007566706   0.1679381866696723   0.2528784171381619
2.9631765759679154   -0.7655017126214881   -0.15434365797263494
2.9631765759679154   -0.7655017126214881   -0.15434365797263494
2.9631765759679154   -0.7655017126214881   -0.15434365797263494
2.9631765759679154   -0.7655017126214881   -0.15434365797263494
5.264275933157533   -0.7702076368133219   0.18961886857524446
5.264275933157533   -0.7702076368133219   0.18961886857524446
5.264275933157533   -0.7702076368133219   0.18961886857524446
5.264275933157533   -0.7702076368133219   0.18961886857524446
0.6964580168545573   -0.811693047042074   0.12282123929157934
0.6964580168545573   -0.811693047042074   0.12282123929157934
0.6964580168545573   -0.811693047042074   0.12282123929157934
0.6964580168545573   -0.811693047042074   0.12282123929157934
0.35650417171690374   -1.6982772638652663   0.21056455119870954
0.35650417171690374   -1.6982772638652663   0.21056455119870954
0.35650417171690374   -1.6982772638652663   0.21056455119870954
0.35650417171690374   -1.6982772638652663   0.21056455119870954
5.316521914456949   0.16936332106839447   0.3026844124992836
5.316521914456949   0.16936332106839447   0.3026844124992836
5.316521914456949   0.16936332106839447   0.3026844124992836
5.316521914456949   0.16936332106839447   0.3026844124992836
2.8205207089322744   -0.7608285193700428   -0.27589189507330253
2.8205207089322744   -0.7608285193700428   -0.27589189507330253
2.8205207089322744   -0.7608285193700428   -0.27589189507330253
2.8205207089322744   -0.7608285193700428   -0.27589189507330253
0.8571934333120608   -2.0789197003620563   0.24757274783430394
0.8571934333120608   -2.0789197003620563   0.24757274783430394
0.8571934333120608   -2.0789197003620563   0.24757274783430394
0.8571934333120608   -2.0789197003620563   0.24757274783430394
-3.2362627453189914   -1.0320301155635616   0.00606242759537462
-3.2362627453189914   -1.0320301155635616   0.00606242759537462
-3.2362627453189914   -1.0320301155635616   0.00606242759537462
-3.2362627453189914   -1.0320301155635616   0.00606242759537462
-3.930017179192486   -3.069140400166497   0.34338291467854953
-3.930017179192486   -3.069140400166497   0.34338291467854953
-3.930017179192486   -3.069140400166497   0.34338291467854953
-3.930017179192486   -3.069140400166497   0.34338291467854953
0.986185851247108   -0.1838234477662563   0.13408794812781175
0.986185851247108   -0.1838234477662563   0.13408794812781175
0.986185851247108   -0.1838234477662563   0.13408794812781175
0.986185851247108   -0.1838234477662563   0.13408794812781175
-1.3124724414184077   -1.5686564090350978   0.058460251375135386
-1.3124724414184077   -1.5686564090350978   0.058460251375135386
-1.3124724414184077   -1.5686564090350978   0.058460251375135386
-1.3124724414184077   -1.5686564090350978   0.058460251375135386
0.5919210384632713   -2.19803437690211   0.17697481334448184
0.5919210384632713   -2.19803437690211   0.17697481334448184
0.5919210384632713   -2.19803437690211   0.17697481334448184
0.5919210384632713   -2.19803437690211   0.17697481334448184
-3.60280407047605   -1.1219811750980082   0.032289233192210054
-3.60280407047605   -1.1219811750980082   0.032289233192210054
-3.60280407047605   -1.1219811750980082   0.032289233192210054
-3.60280407047605   -1.1219811750980082   0.032289233192210054
-4.16911814610458   -3.1202454789985126   0.27845133772605657
-4.16911814610458   -3.1202454789985126   0.27845133772605657
-4.16911814610458   -3.1202454789985126   0.27845133772605657
-4.16911814610458   -3.1202454789985126   0.27845133772605657
0.8257026003181791   -0.23161328744403087   0.18896439701164552
0.8257026003181791   -0.23161328744403087   0.18896439701164552
0.8257026003181791   -0.23161328744403087   0.18896439701164552
0.8257026003181791   -0.23161328744403087   0.18896439701164552
-1.611043908604986   -1.6650676714606472   -0.1412293618686467
-1.611043908604986   -1.6650676714606472   -0.1412293618686467
-1.611043908604986   -1.6650676714606472   -0.1412293618686467
-1.611043908604986   -1.6650676714606472   -0.1412293618686467
0.4093712683122742   -2.2375824781272766   0.11327692766538155
0.4093712683122742   -2.2375824781272766   0.11327692766538155
0.4093712683122742   -2.2375824781272766   0.11327692766538155
0.4093712683122742   -2.2375824781272766   0.11327692766538155
-3.8322156778941565   -1.1937051521107533   0.03642335189036909
-3.8322156778941565   -1.1937051521107533   0.03642335189036909
-3.8322156778941565   -1.1937051521107533   0.03642335189036909
-3.8322156778941565   -1.1937051521107533   0.03642335189036909
-4.4277776051236755   -3.099788945073068   0.23637734840194713
-4.4277776051236755   -3.099788945073068   0.23637734840194713
-4.4277776051236755   -3.099788945073068   0.23637734840194713
-4.4277776051236755   -3.099788945073068   0.23637734840194713
0.6470344790785435   -0.25861359750262447   0.22355242164426647
0.6470344790785435   -0.25861359750262447   0.22355242164426647
0.6470344790785435   -0.25861359750262447   0.22355242164426647
0.6470344790785435   -0.25861359750262447   0.22355242164426647
-1.8529364413396356   -1.702142106589589   -0.33999471027324085
-1.8529364413396356   -1.702142106589589   -0.33999471027324085
-1.8529364413396356   -1.702142106589589   -0.33999471027324085
-1.8529364413396356   -1.702142106589589   -0.33999471027324085
-3.6841389190004215   -3.55977933593797   0.2944307795626646
-3.6841389190004215   -3.55977933593797   0.2944307795626646
-3.6841389190004215   -3.55977933593797   0.2944307795626646
-3.6841389190004215   -3.55977933593797   0.2944307795626646
-8.18162997581368   -1.2859066984485141   -0.19120809025591518
-8.18162997581368   -1.2859066984485141   -0.19120809025591518
-8.18162997581368   -1.2859066984485141   -0.19120809025591518
-8.18162997581368   -1.2859066984485141   -0.19120809025591518
-9.39304121010218   -5.144694840576006   -0.27020475891356255
-9.39304121010218   -5.144694840576006   -0.27020475891356255
-9.39304121010218   -5.144694840576006   -0.27020475891356255
-9.39304121010218   -5.144694840576006   -0.27020475891356255
-3.4213017931557035   -0.29803433037067584   0.11585377506660935
-3.4213017931557035   -0.29803433037067584   0.11585377506660935
-3.4213017931557035   -0.29803433037067584   0.11585377506660935
-3.4213017931557035   -0.29803433037067584   0.11585377506660935
-6.111526429406136   -2.474162247170699   -0.21756786251283194
-6.111526429406136   -2.474162247170699   -0.21756786251283194
-6.111526429406136   -2.474162247170699   -0.21756786251283194
-6.111526429406136   -2.474162247170699   -0.21756786251283194
-4.170884531223824   -4.0268678351221245   0.09677358947748538
-4.170884531223824   -4.0268678351221245   0.09677358947748538
-4.170884531223824   -4.0268678351221245   0.09677358947748538
-4.170884531223824   -4.0268678351221245   0.09677358947748538
-8.623461283877315   -1.395864147667806   -0.17113582069743102
-8.623461283877315   -1.395864147667806   -0.17113582069743102
-8.623461283877315   -1.395864147667806   -0.17113582069743102
-8.623461283877315   -1.395864147667806   -0.17113582069743102
-9.677004661500808   -5.229188560615532   -0.3125177834406361
-9.677004661500808   -5.229188560615532   -0.3125177834406361
-9.677004661500808   -5.229188560615532   -0.3125177834406361
-9.677004661500808   -5.229188560615532   -0.3125177834406361
-3.641186116546248   -0.3759525437321778   0.17381855025133647
-3.641186116546248   -0.3759525437321778   0.17381855025133647
-3.641186116546248   -0.3759525437321778   0.17381855025133647
-3.641186116546248   -0.3759525437321778   0.17381855025133647
-6.458049970827157   -2.7392700252172415   -0.303899187724192
-6.458049970827157   -2.7392700252172415   -0.303899187724192
-6.458049970827157   -2.7392700252172415   -0.303899187724192
-6.458049970827157   -2.7392700252172415   -0.303899187724192
-4.414564079051753   -4.106668040532766   0.03764423452438603
-4.414564079051753   -4.106668040532766   0.03764423452438603
-4.414564079051753   -4.106668040532766   0.03764423452438603
-4.414564079051753   -4.106668040532766   0.03764423452438603
-8.903516227975468   -1.498362592795161   -0.17590158363435876
-8.903516227975468   -1.498362592795161   -0.17590158363435876
-8.903516227975468   -1.498362592795161   -0.17590158363435876
-8.903516227975468   -1.498362592795161   -0.17590158363435876
-9.919736160532295   -5.011202700153095   -0.35249104121442254
-9.919736160532295   -5.011202700153095   -0.35249104121442254
-9.919736160532295   -5.011202700153095   -0.35249104121442254
-9.919736160532295   -5.011202700153095   -0.35249104121442254
-3.9201642263979655   -0.48576614637865706   0.16042144333602654
-3.9201642263979655   -0.48576614637865706   0.16042144333602654
-3.9201642263979655   -0.48576614637865706   0.16042144333602654
-3.9201642263979655   -0.48576614637865706   0.16042144333602654
-6.77614562523354   -2.830417848787924   -0.3855490354839022
-6.77614562523354   -2.830417848787924   -0.3855490354839022
-6.77614562523354   -2.830417848787924   -0.3855490354839022
-6.77614562523354   -2.830417848787924   -0.3855490354839022
-8.02985711696361   -1.4580179352363056   0.739767440782082
-8.02985711696361   -1.4580179352363056   0.739767440782082
-8.02985711696361   -1.4580179352363056   0.739767440782082
-8.02985711696361   -1.4580179352363056   0.739767440782082
-14.184847137715025   -1.0666645392319039   -0.256818348416601
-14.184847137715025   -1.0666645392319039   -0.256818348416601
-14.184847137715025   -1.0666645392319039   -0.256818348416601
-14.184847137715025   -1.0666645392319039   -0.256818348416601
-15.060710331549226   -2.971426394303495   0.20357836003175223
-15.060710331549226   -2.971426394303495   0.20357836003175223
-15.060710331549226   -2.971426394303495   0.20357836003175223
-15.060710331549226   -2.971426394303495   0.20357836003175223
-8.272962067413195   0.11482440236783265   0.07067171158744817
-8.272962067413195   0.11482440236783265   0.07067171158744817
-8.272962067413195   0.11482440236783265   0.07067171158744817
-8.272962067413195   0.11482440236783265   0.07067171158744817
-10.844716244625166   -1.0441446302281159   0.21904202356778574
-10.844716244625166   -1.0441446302281159   0.21904202356778574
-10.844716244625166   -1.0441446302281159   0.21904202356778574
-10.844716244625166   -1.0441446302281159   0.21904202356778574
-8.492090083287318   -1.5670390081171144   0.6568950427017457
-8.492090083287318   -1.5670390081171144   0.6568950427017457
-8.492090083287318   -1.5670390081171144   0.6568950427017457
-8.492090083287318   -1.5670390081171144   0.6568950427017457
-14.8023882962311   -1.250368964374531   -0.22586889330646304
-14.8023882962311   -1.250368964374531   -0.22586889330646304
-14.8023882962311   -1.250368964374531   -0.22586889330646304
-14.8023882962311   -1.250368964374531   -0.22586889330646304
-15.435339462977717   -3.0994486379670945   -0.06190372685775447
-15.435339462977717   -3.0994486379670945   -0.06190372685775447
-15.435339462977717   -3.0994486379670945   -0.06190372685775447
-15.435339462977717   -3.0994486379670945   -0.06190372685775447
-8.536872179055125   0.028001031976355728   0.1309550361958362
-8.536872179055125   0.028001031976355728   0.1309550361958362
-8.536872179055125   0.028001031976355728   0.1309550361958362
-8.536872179055125   0.028001031976355728   0.1309550361958362
-11.5004892184286   -1.3800190518313735   0.09126177948568431
-11.5004892184286   -1.3800190518313735   0.09126177948568431
-11.5004892184286   -1.3800190518313735   0.09126177948568431
-11.5004892184286   -1.3800190518313735   0.09126177948568431
-8.789154677732112   -1.6486018504908087   0.5461454252780684
-8.789154677732112   -1.6486018504908087   0.5461454252780684
-8.789154677732112   -1.6486018504908087   0.5461454252780684
-8.789154677732112   -1.6486018504908087   0.5461454252780684
-15.105285369000338   -1.3450741601994538   -0.16600773473824376
-15.105285369000338   -1.3450741601994538   -0.16600773473824376
-15.105285369000338   -1.3450741601994538   -0.16600773473824376
-15.105285369000338   -1.3450741601994538   -0.16600773473824376
-15.764255672103722   -3.152791417398789   0.00029858510977742725
-15.764255672103722   -3.152791417398789   0.00029858510977742725
-15.764255672103722   -3.152791417398789   0.00029858510977742725
-15.764255672103722   -3.152791417398789   0.00029858510977742725
-8.906862332871848   -0.3520219308422361   0.05269732777695618
-8.906862332871848   -0.3520219308422361   0.05269732777695618
-8.906862332871848   -0.3520219308422361   0.05269732777695618
-8.906862332871848   -0.3520219308422361   0.05269732777695618
-11.645386863407904   -1.6692475235622108   0.14442542768443556
-11.645386863407904   -1.6692475235622108   0.14442542768443556
-11.645386863407904   -1.6692475235622108   0.14442542768443556
-11.645386863407904   -1.6692475235622108   0.14442542768443556
9.595447733344402   0.43744493836109943   -0.21176700919219366
9.595447733344402   0.43744493836109943   -0.21176700919219366
9.595447733344402   0.43744493836109943   -0.21176700919219366
9.595447733344402   0.43744493836109943   -0.21176700919219366
4.837506198764694   -0.09260673782823337   0.1055881569416588
4.837506198764694   -0.09260673782823337   0.1055881569416588
4.837506198764694   -0.09260673782823337   0.1055881569416588
4.837506198764694   -0.09260673782823337   0.1055881569416588
4.525682268647411   -0.7154942429992266   -0.1860283684974533
4.525682268647411   -0.7154942429992266   -0.1860283684974533
4.525682268647411   -0.7154942429992266   -0.1860283684974533
4.525682268647411   -0.7154942429992266   -0.1860283684974533
9.483214424860014   0.6947575254656051   0.12353772653770517
9.483214424860014   0.6947575254656051   0.12353772653770517
9.483214424860014   0.6947575254656051   0.12353772653770517
9.483214424860014   0.6947575254656051   0.12353772653770517
6.737697601298613   0.016433030551968875   -0.26038793350887246
6.737697601298613   0.016433030551968875   -0.26038793350887246
6.737697601298613   0.016433030551968875   -0.26038793350887246
6.737697601298613   0.016433030551968875   -0.26038793350887246
9.324692384151293   0.2388753862441666   -0.21319033778437047
9.324692384151293   0.2388753862441666   -0.21319033778437047
9.324692384151293   0.2388753862441666   -0.21319033778437047
9.324692384151293   0.2388753862441666   -0.21319033778437047
4.6752842395818766   -0.26853217355203296   0.11501941672765043
4.6752842395818766   -0.26853217355203296   0.11501941672765043
4.6752842395818766   -0.26853217355203296   0.11501941672765043
4.6752842395818766   -0.26853217355203296   0.11501941672765043
4.357955963725725   -0.756140427009178   -0.15325751436580148
4.357955963725725   -0.756140427009178   -0.15325751436580148
4.357955963725725   -0.756140427009178   -0.15325751436580148
4.357955963725725   -0.756140427009178   -0.15325751436580148
9.2498731193812   0.6374345081423956   0.17969103423574972
9.2498731193812   0.6374345081423956   0.17969103423574972
9.2498731193812   0.6374345081423956   0.17969103423574972
9.2498731193812   0.6374345081423956   0.17969103423574972
6.644230643076224   -0.06873690598395177   -0.3121714380541708
6.644230643076224   -0.06873690598395177   -0.3121714380541708
6.644230643076224   -0.06873690598395177   -0.3121714380541708
6.644230643076224   -0.06873690598395177   -0.3121714380541708
9.090257991675587   0.18731788518664283   -0.1682679813365605
9.090257991675587   0.18731788518664283   -0.1682679813365605
9.090257991675587   0.18731788518664283   -0.1682679813365605
9.090257991675587   0.18731788518664283   -0.1682679813365605
4.505332334942226   -0.3182625605425362   0.14574647525006434
4.505332334942226   -0.3182625605425362   0.14574647525006434
4.505332334942226   -0.3182625605425362   0.14574647525006434
4.505332334942226   -0.3182625605425362   0.14574647525006434
4.195242846850634   -0.7470107709302952   -0.10484621942171424
4.195242846850634   -0.7470107709302952   -0.10484621942171424
4.195242846850634   -0.7470107709302952   -0.10484621942171424
4.195242846850634   -0.7470107709302952   -0.10484621942171424
8.960704774754905   0.5969148597840495   0.23295287004001258
8.960704774754905   0.5969148597840495   0.23295287004001258
8.960704774754905   0.5969148597840495   0.23295287004001258
8.960704774754905   0.5969148597840495   0.23295287004001258
6.312395771587651   -0.12030804306975673   -0.4108824014494495
6.312395771587651   -0.12030804306975673   -0.4108824014494495
6.312395771587651   -0.12030804306975673   -0.4108824014494495
6.312395771587651   -0.12030804306975673   -0.4108824014494495
4.859899141250423   0.08419356409920109   0.04075256744283473
4.859899141250423   0.08419356409920109   0.04075256744283473
4.859899141250423   0.08419356409920109   0.04075256744283473
4.859899141250423   0.08419356409920109   0.04075256744283473
0.48199707200123604   -0.28849009161142647   -0.00945264320504774
0.48199707200123604   -0.28849009161142647   -0.00945264320504774
0.48199707200123604   -0.28849009161142647   -0.00945264320504774
0.48199707200123604   -0.28849009161142647   -0.00945264320504774
0.18820348098370582   -0.9487419435422489   -0.17849222508006718
0.18820348098370582   -0.9487419435422489   -0.17849222508006718
0.18820348098370582   -0.9487419435422489   -0.17849222508006718
0.18820348098370582   -0.9487419435422489   -0.17849222508006718
4.866436428712105   0.5602938652749797   0.24195432355178378
4.866436428712105   0.5602938652749797   0.24195432355178378
4.866436428712105   0.5602938652749797   0.24195432355178378
4.866436428712105   0.5602938652749797   0.24195432355178378
2.551407510599468   -0.135535593267898   -0.10226488486262034
2.551407510599468   -0.135535593267898   -0.10226488486262034
2.551407510599468   -0.135535593267898   -0.10226488486262034
2.551407510599468   -0.135535593267898   -0.10226488486262034
4.722122874265254   0.008230386207147555   0.07245003038536663
4.722122874265254   0.008230386207147555   0.07245003038536663
4.722122874265254   0.008230386207147555   0.07245003038536663
4.722122874265254   0.008230386207147555   0.07245003038536663
0.3378894779048017   -0.3913060220001709   0.01250183798333429
0.3378894779048017   -0.3913060220001709   0.01250183798333429
0.3378894779048017   -0.3913060220001709   0.01250183798333429
0.3378894779048017   -0.3913060220001709   0.01250183798333429
0.026489985709497677   -0.9949604112642277   -0.12354755067413017
0.026489985709497677   -0.9949604112642277   -0.12354755067413017
0.026489985709497677   -0.9949604112642277   -0.12354755067413017
0.026489985709497677   -0.9949604112642277   -0.12354755067413017
4.688849138081334   0.47802424938759813   0.26704368101546805
4.688849138081334   0.47802424938759813   0.26704368101546805
4.688849138081334   0.47802424938759813   0.26704368101546805
4.688849138081334   0.47802424938759813   0.26704368101546805
2.3658015833003985   -0.2110342553137171   -0.1448154062779549
2.3658015833003985   -0.2110342553137171   -0.1448154062779549
2.3658015833003985   -0.2110342553137171   -0.1448154062779549
2.3658015833003985   -0.2110342553137171   -0.1448154062779549
4.552583520868267   -0.04357018769174381   0.10731003202951944
4.552583520868267   -0.04357018769174381   0.10731003202951944
4.552583520868267   -0.04357018769174381   0.10731003202951944
4.552583520868267   -0.04357018769174381   0.10731003202951944
0.16192594740034577   -0.47419562970709717   0.03286747622297981
0.16192594740034577   -0.47419562970709717   0.03286747622297981
0.16192594740034577   -0.47419562970709717   0.03286747622297981
0.16192594740034577   -0.47419562970709717   0.03286747622297981
-0.1472756334792103   -1.0006775492625475   -0.08372239121926583
-0.1472756334792103   -1.0006775492625475   -0.08372239121926583
-0.1472756334792103   -1.0006775492625475   -0.08372239121926583
-0.1472756334792103   -1.0006775492625475   -0.08372239121926583
4.509699438971192   0.4251279684053467   0.2952980018454372
4.509699438971192   0.4251279684053467   0.2952980018454372
4.509699438971192   0.4251279684053467   0.2952980018454372
4.509699438971192   0.4251279684053467   0.2952980018454372
2.21968069994295   -0.24194354061481393   -0.1817148199496403
2.21968069994295   -0.24194354061481393   -0.1817148199496403
2.21968069994295   -0.24194354061481393   -0.1817148199496403
2.21968069994295   -0.24194354061481393   -0.1817148199496403
0.4872133031308267   -0.28576642268860664   0.013904843520085447
0.4872133031308267   -0.28576642268860664   0.013904843520085447
0.4872133031308267   -0.28576642268860664   0.013904843520085447
0.4872133031308267   -0.28576642268860664   0.013904843520085447
-3.726430210005499   -0.4316417245715979   -0.11752636740175532
-3.726430210005499   -0.4316417245715979   -0.11752636740175532
-3.726430210005499   -0.4316417245715979   -0.11752636740175532
-3.726430210005499   -0.4316417245715979   -0.11752636740175532
-4.053030965956335   -1.2590223328295655   -0.20268965998529181
-4.053030965956335   -1.2590223328295655   -0.20268965998529181
-4.053030965956335   -1.2590223328295655   -0.20268965998529181
-4.053030965956335   -1.2590223328295655   -0.20268965998529181
0.5230897800949714   0.40894450849835606   0.13825281843565584
0.5230897800949714   0.40894450849835606   0.13825281843565584
0.5230897800949714   0.40894450849835606   0.13825281843565584
0.5230897800949714   0.40894450849835606   0.13825281843565584
-1.6974965479489172   -0.37304905474571093   -0.10185090587112872
-1.6974965479489172   -0.37304905474571093   -0.10185090587112872
-1.6974965479489172   -0.37304905474571093   -0.10185090587112872
-1.6974965479489172   -0.37304905474571093   -0.10185090587112872
0.36579710711895885   -0.3188099948388822   0.07954395689283117
0.36579710711895885   -0.3188099948388822   0.07954395689283117
0.36579710711895885   -0.3188099948388822   0.07954395689283117
0.36579710711895885   -0.3188099948388822   0.07954395689283117
-3.8837914609686583   -0.5193209974806634   -0.09619347039581147
-3.8837914609686583   -0.5193209974806634   -0.09619347039581147
-3.8837914609686583   -0.5193209974806634   -0.09619347039581147
-3.8837914609686583   -0.5193209974806634   -0.09619347039581147
-4.2427961547512405   -1.3097588620717595   -0.13326472105757842
-4.2427961547512405   -1.3097588620717595   -0.13326472105757842
-4.2427961547512405   -1.3097588620717595   -0.13326472105757842
-4.2427961547512405   -1.3097588620717595   -0.13326472105757842
0.34564709580498454   0.3208025188130595   0.15647506972601694
0.34564709580498454   0.3208025188130595   0.15647506972601694
0.34564709580498454   0.3208025188130595   0.15647506972601694
0.34564709580498454   0.3208025188130595   0.15647506972601694
-1.854362804134038   -0.4258432609326104   -0.12227870072453614
-1.854362804134038   -0.4258432609326104   -0.12227870072453614
-1.854362804134038   -0.4258432609326104   -0.12227870072453614
-1.854362804134038   -0.4258432609326104   -0.12227870072453614
0.19780218633548996   -0.37281303450381426   0.11086607569541777
0.19780218633548996   -0.37281303450381426   0.11086607569541777
0.19780218633548996   -0.37281303450381426   0.11086607569541777
0.19780218633548996   -0.37281303450381426   0.11086607569541777
-4.092510269185381   -0.6137023326585268   -0.07789182264154818
-4.092510269185381   -0.6137023326585268   -0.07789182264154818
-4.092510269185381   -0.6137023326585268   -0.07789182264154818
-4.092510269185381   -0.6137023326585268   -0.07789182264154818
-4.453493240346788   -1.3471331789085357   -0.11851776595971363
-4.453493240346788   -1.3471331789085357   -0.11851776595971363
-4.453493240346788   -1.3471331789085357   -0.11851776595971363
-4.453493240346788   -1.3471331789085357   -0.11851776595971363
0.15373527395160108   0.24548844099800965   0.17516615567424917
0.15373527395160108   0.24548844099800965   0.17516615567424917
0.15373527395160108   0.24548844099800965   0.17516615567424917
0.15373527395160108   0.24548844099800965   0.17516615567424917
-2.058316009753605   -0.48906712671162966   -0.17132035803081014
-2.058316009753605   -0.48906712671162966   -0.17132035803081014
-2.058316009753605   -0.48906712671162966   -0.17132035803081014
-2.058316009753605   -0.48906712671162966   -0.17132035803081014
-3.6716679033072017   -0.3339533146603101   0.05859675617838281
-3.6716679033072017   -0.3339533146603101   0.05859675617838281
-3.6716679033072017   -0.3339533146603101   0.05859675617838281
-3.6716679033072017   -0.3339533146603101   0.05859675617838281
-7.82909874105836   -0.5048990201008972   -0.20813284409508237
-7.82909874105836   -0.5048990201008972   -0.20813284409508237
-7.82909874105836   -0.5048990201008972   -0.20813284409508237
-7.82909874105836   -0.5048990201008972   -0.20813284409508237
-8.200782274404512   -1.3173673163444115   -0.20133067355326104
-8.200782274404512   -1.3173673163444115   -0.20133067355326104
-8.200782274404512   -1.3173673163444115   -0.20133067355326104
-8.200782274404512   -1.3173673163444115   -0.20133067355326104
-3.6908363710390457   0.3111168637213798   0.03814411805012774
-3.6908363710390457   0.3111168637213798   0.03814411805012774
-3.6908363710390457   0.3111168637213798   0.03814411805012774
-3.6908363710390457   0.3111168637213798   0.03814411805012774
-5.7996878634191535   -0.43984907147767505   -0.08627178860072449
-5.7996878634191535   -0.43984907147767505   -0.08627178860072449
-5.7996878634191535   -0.43984907147767505   -0.08627178860072449
-5.7996878634191535   -0.43984907147767505   -0.08627178860072449
-3.8062368650053386   -0.3697836644715473   0.14204217641164152
-3.8062368650053386   -0.3697836644715473   0.14204217641164152
-3.8062368650053386   -0.3697836644715473   0.14204217641164152
-3.8062368650053386   -0.3697836644715473   0.14204217641164152
-8.061802657292612   -0.6128876650058857   -0.21091223933238767
-8.061802657292612   -0.6128876650058857   -0.21091223933238767
-8.061802657292612   -0.6128876650058857   -0.21091223933238767
-8.061802657292612   -0.6128876650058857   -0.21091223933238767
-8.46363731100804   -1.4033397208258396   -0.14066614075518263
-8.46363731100804   -1.4033397208258396   -0.14066614075518263
-8.46363731100804   -1.4033397208258396   -0.14066614075518263
-8.46363731100804   -1.4033397208258396   -0.14066614075518263
-3.9018756908669934   0.21460404430934343   0.04697469198252291
-3.9018756908669934   0.21460404430934343   0.04697469198252291
-3.9018756908669934   0.21460404430934343   0.04697469198252291
-3.9018756908669934   0.21460404430934343   0.04697469198252291
-5.966737372558836   -0.48798043504302124   -0.0868655414796558
-5.966737372558836   -0.48798043504302124   -0.0868655414796558
-5.966737372558836   -0.48798043504302124   -0.0868655414796558
-5.966737372558836   -0.48798043504302124   -0.0868655414796558
-4.016010351412024   -0.4562500117018856   0.14715544526857255
-4.016010351412024   -0.4562500117018856   0.14715544526857255
-4.016010351412024   -0.4562500117018856   0.14715544526857255
-4.016010351412024   -0.4562500117018856   0.14715544526857255
-8.333731036843124   -0.716714051194733   -0.1777604395617275
-8.333731036843124   -0.716714051194733   -0.1777604395617275
-8.333731036843124   -0.716714051194733   -0.1777604395617275
-8.333731036843124   -0.716714051194733   -0.1777604395617275
-8.761339363300968   -1.5162960425567689   -0.15105290065177457
-8.761339363300968   -1.5162960425567689   -0.15105290065177457
-8.761339363300968   -1.5162960425567689   -0.15105290065177457
-8.761339363300968   -1.5162960425567689   -0.15105290065177457
-4.1298929865166585   0.09581518654869536   0.05653513773364088
-4.1298929865166585   0.09581518654869536   0.05653513773364088
-4.1298929865166585   0.09581518654869536   0.05653513773364088
-4.1298929865166585   0.09581518654869536   0.05653513773364088
-6.260807300511112   -0.6031874077915885   -0.14033201710405083
-6.260807300511112   -0.6031874077915885   -0.14033201710405083
-6.260807300511112   -0.6031874077915885   -0.14033201710405083
-6.260807300511112   -0.6031874077915885   -0.14033201710405083
-7.561667130634934   0.361800307876345   0.2623258800447994
-7.561667130634934   0.361800307876345   0.2623258800447994
-7.561667130634934   0.361800307876345   0.2623258800447994
-7.561667130634934   0.361800307876345   0.2623258800447994
-11.728679562919462   -0.5847539656721767   -0.16052965813511538
-11.728679562919462   -0.5847539656721767   -0.16052965813511538
-11.728679562919462   -0.5847539656721767   -0.16052965813511538
-11.728679562919462   -0.5847539656721767   -0.16052965813511538
-12.022218062030822   -0.5951594416248527   0.2700084862416496
-12.022218062030822   -0.5951594416248527   0.2700084862416496
-12.022218062030822   -0.5951594416248527   0.2700084862416496
-12.022218062030822   -0.5951594416248527   0.2700084862416496
-7.862015543477188   0.24072672108125936   -0.06559105634241391
-7.862015543477188   0.24072672108125936   -0.06559105634241391
-7.862015543477188   0.24072672108125936   -0.06559105634241391
-7.862015543477188   0.24072672108125936   -0.06559105634241391
-9.337501974518915   0.008272851349859778   0.23636686448053423
-9.337501974518915   0.008272851349859778   0.23636686448053423
-9.337501974518915   0.008272851349859778   0.23636686448053423
-9.337501974518915   0.008272851349859778   0.23636686448053423
-7.777821935154245   0.26578235647732584   0.33032134987620926
-7.777821935154245   0.26578235647732584   0.33032134987620926
-7.777821935154245   0.26578235647732584   0.33032134987620926
-7.777821935154245   0.26578235647732584   0.33032134987620926
-12.101023243163217   -0.6148266498304564   -0.10435021121471943
-12.101023243163217   -0.6148266498304564   -0.10435021121471943
-12.101023243163217   -0.6148266498304564   -0.10435021121471943
-12.101023243163217   -0.6148266498304564   -0.10435021121471943
-12.393342622880871   -0.6961263095627743   0.36678877232593127
-12.393342622880871   -0.6961263095627743   0.36678877232593127
-12.393342622880871   -0.6961263095627743   0.36678877232593127
-12.393342622880871   -0.6961263095627743   0.36678877232593127
-8.134064855697968   0.17220296748461061   -0.06834655251535637
-8.134064855697968   0.17220296748461061   -0.06834655251535637
-8.134064855697968   0.17220296748461061   -0.06834655251535637
-8.134064855697968   0.17220296748461061   -0.06834655251535637
-9.813702966543499   -0.11017757623653157   0.1271357495013633
-9.813702966543499   -0.11017757623653157   0.1271357495013633
-9.813702966543499   -0.11017757623653157   0.1271357495013633
-9.813702966543499   -0.11017757623653157   0.1271357495013633
-8.05713497602758   0.16288219000577953   0.32562362331540967
-8.05713497602758   0.16288219000577953   0.32562362331540967
-8.05713497602758   0.16288219000577953   0.32562362331540967
-8.05713497602758   0.16288219000577953   0.32562362331540967
-12.484754662975087   -0.7012876925077718   -0.08511004520014964
-12.484754662975087   -0.7012876925077718   -0.08511004520014964
-12.484754662975087   -0.7012876925077718   -0.08511004520014964
-12.484754662975087   -0.7012876925077718   -0.08511004520014964
-12.920275143188073   -1.101293885383442   0.3197503653873997
-12.920275143188073   -1.101293885383442   0.3197503653873997
-12.920275143188073   -1.101293885383442   0.3197503653873997
-12.920275143188073   -1.101293885383442   0.3197503653873997
-8.4476903717406   -0.034912074253799164   -0.06419191115303863
-8.4476903717406   -0.034912074253799164   -0.06419191115303863
-8.4476903717406   -0.034912074253799164   -0.06419191115303863
-8.4476903717406   -0.034912074253799164   -0.06419191115303863
-10.020510169123673   -0.25861676741953654   0.030018581985836124
-10.020510169123673   -0.25861676741953654   0.030018581985836124
-10.020510169123673   -0.25861676741953654   0.030018581985836124
-10.020510169123673   -0.25861676741953654   0.030018581985836124
7.746769815067967   0.41207063952221246   -0.28028857260938567
7.746769815067967   0.41207063952221246   -0.28028857260938567
7.746769815067967   0.41207063952221246   -0.28028857260938567
7.746769815067967   0.41207063952221246   -0.28028857260938567
3.8468571356995236   0.0005232226155298392   0.10271746276529259
3.8468571356995236   0.0005232226155298392   0.10271746276529259
3.8468571356995236   0.0005232226155298392   0.10271746276529259
3.8468571356995236   0.0005232226155298392   0.10271746276529259
3.511418360712102   -0.5755529638459491   -0.25621865587239967
3.511418360712102   -0.5755529638459491   -0.25621865587239967
3.511418360712102   -0.5755529638459491   -0.25621865587239967
3.511418360712102   -0.5755529638459491   -0.25621865587239967
7.598674860782662   0.6285188254988252   0.1286730233698904
7.598674860782662   0.6285188254988252   0.1286730233698904
7.598674860782662   0.6285188254988252   0.1286730233698904
7.598674860782662   0.6285188254988252   0.1286730233698904
5.382493854643123   0.04774804751894379   -0.1770236761028206
5.382493854643123   0.04774804751894379   -0.1770236761028206
5.382493854643123   0.04774804751894379   -0.1770236761028206
5.382493854643123   0.04774804751894379   -0.1770236761028206
7.434606268875757   0.20641510569005184   -0.26956621635580474
7.434606268875757   0.20641510569005184   -0.26956621635580474
7.434606268875757   0.20641510569005184   -0.26956621635580474
7.434606268875757   0.20641510569005184   -0.26956621635580474
3.6683687019657083   -0.16056749469051557   0.11354758124013964
3.6683687019657083   -0.16056749469051557   0.11354758124013964
3.6683687019657083   -0.16056749469051557   0.11354758124013964
3.6683687019657083   -0.16056749469051557   0.11354758124013964
3.3436033138552745   -0.6242497151577   -0.2224602767388033
3.3436033138552745   -0.6242497151577   -0.2224602767388033
3.3436033138552745   -0.6242497151577   -0.2224602767388033
3.3436033138552745   -0.6242497151577   -0.2224602767388033
7.347525231695031   0.5617993390136733   0.1753092317309049
7.347525231695031   0.5617993390136733   0.1753092317309049
7.347525231695031   0.5617993390136733   0.1753092317309049
7.347525231695031   0.5617993390136733   0.1753092317309049
5.249601298803657   -0.039548267440399965   -0.23387430143849514
5.249601298803657   -0.039548267440399965   -0.23387430143849514
5.249601298803657   -0.039548267440399965   -0.23387430143849514
5.249601298803657   -0.039548267440399965   -0.23387430143849514
7.187045747426555   0.1465608806539822   -0.21184973125167106
7.187045747426555   0.1465608806539822   -0.21184973125167106
7.187045747426555   0.1465608806539822   -0.21184973125167106
7.187045747426555   0.1465608806539822   -0.21184973125167106
3.497772868266845   -0.21532118665490096   0.1394589668162199
3.497772868266845   -0.21532118665490096   0.1394589668162199
3.497772868266845   -0.21532118665490096   0.1394589668162199
3.497772868266845   -0.21532118665490096   0.1394589668162199
3.190166071109192   -0.6401149042028145   -0.18165724624859497
3.190166071109192   -0.6401149042028145   -0.18165724624859497
3.190166071109192   -0.6401149042028145   -0.18165724624859497
3.190166071109192   -0.6401149042028145   -0.18165724624859497
7.0643887456211045   0.5022189373233081   0.2175816532956561
7.0643887456211045   0.5022189373233081   0.2175816532956561
7.0643887456211045   0.5022189373233081   0.2175816532956561
7.0643887456211045   0.5022189373233081   0.2175816532956561
4.94498284340005   -0.1001266396421363   -0.31827154070196245
4.94498284340005   -0.1001266396421363   -0.31827154070196245
4.94498284340005   -0.1001266396421363   -0.31827154070196245
4.94498284340005   -0.1001266396421363   -0.31827154070196245
3.9106792449658716   0.4030059316375193   0.019345300075044924
3.9106792449658716   0.4030059316375193   0.019345300075044924
3.9106792449658716   0.4030059316375193   0.019345300075044924
3.9106792449658716   0.4030059316375193   0.019345300075044924
0.14316632961115386   -0.12492138987699672   -0.01476145086967277
0.14316632961115386   -0.12492138987699672   -0.01476145086967277
0.14316632961115386   -0.12492138987699672   -0.01476145086967277
0.14316632961115386   -0.12492138987699672   -0.01476145086967277
-0.10961791334079726   -0.5180452002460333   -0.17368666200037886
-0.10961791334079726   -0.5180452002460333   -0.17368666200037886
-0.10961791334079726   -0.5180452002460333   -0.17368666200037886
-0.10961791334079726   -0.5180452002460333   -0.17368666200037886
3.834176431661156   0.5682850479936232   0.2137336870332377
3.834176431661156   0.5682850479936232   0.2137336870332377
3.834176431661156   0.5682850479936232   0.2137336870332377
3.834176431661156   0.5682850479936232   0.2137336870332377
1.9143472226843152   0.08088739440334003   -0.022401931661029828
1.9143472226843152   0.08088739440334003   -0.022401931661029828
1.9143472226843152   0.08088739440334003   -0.022401931661029828
1.9143472226843152   0.08088739440334003   -0.022401931661029828
3.7453820713797237   0.29608459651840824   0.04196233710130812
3.7453820713797237   0.29608459651840824   0.04196233710130812
3.7453820713797237   0.29608459651840824   0.04196233710130812
3.7453820713797237   0.29608459651840824   0.04196233710130812
-0.019280568079238364   -0.2443017637906889   0.004256627852071204
-0.019280568079238364   -0.2443017637906889   0.004256627852071204
-0.019280568079238364   -0.2443017637906889   0.004256627852071204
-0.019280568079238364   -0.2443017637906889   0.004256627852071204
-0.26860455688078466   -0.5968566445027795   -0.14990709347430164
-0.26860455688078466   -0.5968566445027795   -0.14990709347430164
-0.26860455688078466   -0.5968566445027795   -0.14990709347430164
-0.26860455688078466   -0.5968566445027795   -0.14990709347430164
3.6541088029753444   0.46917362776970517   0.23664382593411104
3.6541088029753444   0.46917362776970517   0.23664382593411104
3.6541088029753444   0.46917362776970517   0.23664382593411104
3.6541088029753444   0.46917362776970517   0.23664382593411104
1.7205902433698974   -0.016617041214688544   -0.07787684168328524
1.7205902433698974   -0.016617041214688544   -0.07787684168328524
1.7205902433698974   -0.016617041214688544   -0.07787684168328524
1.7205902433698974   -0.016617041214688544   -0.07787684168328524
3.5685998485768513   0.21351682635490354   0.06475585535647743
3.5685998485768513   0.21351682635490354   0.06475585535647743
3.5685998485768513   0.21351682635490354   0.06475585535647743
3.5685998485768513   0.21351682635490354   0.06475585535647743
-0.18293035816736478   -0.3410345987730461   0.022641854363064262
-0.18293035816736478   -0.3410345987730461   0.022641854363064262
-0.18293035816736478   -0.3410345987730461   0.022641854363064262
-0.18293035816736478   -0.3410345987730461   0.022641854363064262
-0.42604863791612757   -0.6448530315843581   -0.11885892121576704
-0.42604863791612757   -0.6448530315843581   -0.11885892121576704
-0.42604863791612757   -0.6448530315843581   -0.11885892121576704
-0.42604863791612757   -0.6448530315843581   -0.11885892121576704
3.482865097571644   0.38515110987721   0.2565718719836019
3.482865097571644   0.38515110987721   0.2565718719836019
3.482865097571644   0.38515110987721   0.2565718719836019
3.482865097571644   0.38515110987721   0.2565718719836019
1.576616622668089   -0.07959261147963947   -0.11896924010975528
1.576616622668089   -0.07959261147963947   -0.11896924010975528
1.576616622668089   -0.07959261147963947   -0.11896924010975528
1.576616622668089   -0.07959261147963947   -0.11896924010975528
0.2703908729635506   0.4087631172546908   0.08767675876063862
0.2703908729635506   0.4087631172546908   0.08767675876063862
0.2703908729635506   0.4087631172546908   0.08767675876063862
0.2703908729635506   0.4087631172546908   0.08767675876063862
-3.4443238186208314   -0.2207669582318882   -0.11879390304866169
-3.4443238186208314   -0.2207669582318882   -0.11879390304866169
-3.4443238186208314   -0.2207669582318882   -0.11879390304866169
-3.4443238186208314   -0.2207669582318882   -0.11879390304866169
-3.641566100695104   -0.4734190327831891   -0.10890900718199456
-3.641566100695104   -0.4734190327831891   -0.10890900718199456
-3.641566100695104   -0.4734190327831891   -0.10890900718199456
-3.641566100695104   -0.4734190327831891   -0.10890900718199456
0.1423711380422803   0.46512467156418646   0.10308872310478916
0.1423711380422803   0.46512467156418646   0.10308872310478916
0.1423711380422803   0.46512467156418646   0.10308872310478916
0.1423711380422803   0.46512467156418646   0.10308872310478916
-1.6662238689537363   0.05304698235253913   0.0060447471038485995
-1.6662238689537363   0.05304698235253913   0.0060447471038485995
-1.6662238689537363   0.05304698235253913   0.0060447471038485995
-1.6662238689537363   0.05304698235253913   0.0060447471038485995
0.11521527000793874   0.3218382114110599   0.11059584308620785
0.11521527000793874   0.3218382114110599   0.11059584308620785
0.11521527000793874   0.3218382114110599   0.11059584308620785
0.11521527000793874   0.3218382114110599   0.11059584308620785
-3.6100952300187945   -0.32581756998809464   -0.09915611659554147
-3.6100952300187945   -0.32581756998809464   -0.09915611659554147
-3.6100952300187945   -0.32581756998809464   -0.09915611659554147
-3.6100952300187945   -0.32581756998809464   -0.09915611659554147
-3.812226572591848   -0.5600734244337227   -0.09003097811106123
-3.812226572591848   -0.5600734244337227   -0.09003097811106123
-3.812226572591848   -0.5600734244337227   -0.09003097811106123
-3.812226572591848   -0.5600734244337227   -0.09003097811106123
-0.021567337983892182   0.36313560823175245   0.12528674827562872
-0.021567337983892182   0.36313560823175245   0.12528674827562872
-0.021567337983892182   0.36313560823175245   0.12528674827562872
-0.021567337983892182   0.36313560823175245   0.12528674827562872
-1.8296853401022153   -0.03149507788472805   -0.035788954417758326
-1.8296853401022153   -0.03149507788472805   -0.035788954417758326
-1.8296853401022153   -0.03149507788472805   -0.035788954417758326
-1.8296853401022153   -0.03149507788472805   -0.035788954417758326
-0.04480770520841232   0.2382172072851107   0.13400331309966976
-0.04480770520841232   0.2382172072851107   0.13400331309966976
-0.04480770520841232   0.2382172072851107   0.13400331309966976
-0.04480770520841232   0.2382172072851107   0.13400331309966976
-3.7852467634180544   -0.4314155815378023   -0.08378977513798246
-3.7852467634180544   -0.4314155815378023   -0.08378977513798246
-3.7852467634180544   -0.4314155815378023   -0.08378977513798246
-3.7852467634180544   -0.4314155815378023   -0.08378977513798246
-3.981793035177291   -0.6283875352336079   -0.05868541635494629
-3.981793035177291   -0.6283875352336079   -0.05868541635494629
-3.981793035177291   -0.6283875352336079   -0.05868541635494629
-3.981793035177291   -0.6283875352336079   -0.05868541635494629
-0.19138054746480657   0.26705813599857636   0.14257036345790344
-0.19138054746480657   0.26705813599857636   0.14257036345790344
-0.19138054746480657   0.26705813599857636   0.14257036345790344
-0.19138054746480657   0.26705813599857636   0.14257036345790344
-2.005544727127335   -0.11749360356842148   -0.08142954145081771
-2.005544727127335   -0.11749360356842148   -0.08142954145081771
-2.005544727127335   -0.11749360356842148   -0.08142954145081771
-2.005544727127335   -0.11749360356842148   -0.08142954145081771
-3.2469475747265184   0.4855182113522495   0.16180214683881022
-3.2469475747265184   0.4855182113522495   0.16180214683881022
-3.2469475747265184   0.4855182113522495   0.16180214683881022
-3.2469475747265184   0.4855182113522495   0.16180214683881022
-6.908474486690114   -0.3043169455375394   -0.1951960793728144
-6.908474486690114   -0.3043169455375394   -0.1951960793728144
-6.908474486690114   -0.3043169455375394   -0.1951960793728144
-6.908474486690114   -0.3043169455375394   -0.1951960793728144
-7.062394852530165   -0.3766521965216363   -0.029142701673588345
-7.062394852530165   -0.3766521965216363   -0.029142701673588345
-7.062394852530165   -0.3766521965216363   -0.029142701673588345
-7.062394852530165   -0.3766521965216363   -0.029142701673588345
-3.4562455233908462   0.35108308242701847   -0.006808235870880308
-3.4562455233908462   0.35108308242701847   -0.006808235870880308
-3.4562455233908462   0.35108308242701847   -0.006808235870880308
-3.4562455233908462   0.35108308242701847   -0.006808235870880308
-5.131240107158356   0.05512161626254253   0.03716276407132424
-5.131240107158356   0.05512161626254253   0.03716276407132424
-5.131240107158356   0.05512161626254253   0.03716276407132424
-5.131240107158356   0.05512161626254253   0.03716276407132424
-3.40953267644309   0.3960971627412332   0.1817419185536846
-3.40953267644309   0.3960971627412332   0.1817419185536846
-3.40953267644309   0.3960971627412332   0.1817419185536846
-3.40953267644309   0.3960971627412332   0.1817419185536846
-7.103150152872077   -0.4157087302300133   -0.19386266967480725
-7.103150152872077   -0.4157087302300133   -0.19386266967480725
-7.103150152872077   -0.4157087302300133   -0.19386266967480725
-7.103150152872077   -0.4157087302300133   -0.19386266967480725
-7.27263824757218   -0.4740039274016903   -0.025302609867459247
-7.27263824757218   -0.4740039274016903   -0.025302609867459247
-7.27263824757218   -0.4740039274016903   -0.025302609867459247
-7.27263824757218   -0.4740039274016903   -0.025302609867459247
-3.62885341947883   0.2537546695918901   0.013006693428448401
-3.62885341947883   0.2537546695918901   0.013006693428448401
-3.62885341947883   0.2537546695918901   0.013006693428448401
-3.62885341947883   0.2537546695918901   0.013006693428448401
-5.27904590176593   -0.022567660558967972   0.0027873336760121936
-5.27904590176593   -0.022567660558967972   0.0027873336760121936
-5.27904590176593   -0.022567660558967972   0.0027873336760121936
-5.27904590176593   -0.022567660558967972   0.0027873336760121936
-3.577746618477269   0.3120783283303026   0.21021703969784022
-3.577746618477269   0.3120783283303026   0.21021703969784022
-3.577746618477269   0.3120783283303026   0.21021703969784022
-3.577746618477269   0.3120783283303026   0.21021703969784022
-7.311779236583023   -0.5203617741494353   -0.17464970817398573
-7.311779236583023   -0.5203617741494353   -0.17464970817398573
-7.311779236583023   -0.5203617741494353   -0.17464970817398573
-7.311779236583023   -0.5203617741494353   -0.17464970817398573
-7.466360573397612   -0.5780979851051662   0.02343686634528569
-7.466360573397612   -0.5780979851051662   0.02343686634528569
-7.466360573397612   -0.5780979851051662   0.02343686634528569
-7.466360573397612   -0.5780979851051662   0.02343686634528569
-3.8117613552587515   0.1382458543356383   0.024839593668566307
-3.8117613552587515   0.1382458543356383   0.024839593668566307
-3.8117613552587515   0.1382458543356383   0.024839593668566307
-3.8117613552587515   0.1382458543356383   0.024839593668566307
-5.50810453412131   -0.13078838723980613   -0.043130076547935825
-5.50810453412131   -0.13078838723980613   -0.043130076547935825
-5.50810453412131   -0.13078838723980613   -0.043130076547935825
-5.50810453412131   -0.13078838723980613   -0.043130076547935825
-6.661814705599066   0.5062350946065797   0.22755078593827155
-6.661814705599066   0.5062350946065797   0.22755078593827155
-6.661814705599066   0.5062350946065797   0.22755078593827155
-6.661814705599066   0.5062350946065797   0.22755078593827155
-10.193945806580178   -0.47091038664728124   -0.18181450851544279
-10.193945806580178   -0.47091038664728124   -0.18181450851544279
-10.193945806580178   -0.47091038664728124   -0.18181450851544279
-10.193945806580178   -0.47091038664728124   -0.18181450851544279
-10.336811506917131   -0.2022451157274361   0.19434572305429643
-10.336811506917131   -0.2022451157274361   0.19434572305429643
-10.336811506917131   -0.2022451157274361   0.19434572305429643
-10.336811506917131   -0.2022451157274361   0.19434572305429643
-6.960370854751341   0.2075308788137049   -0.10320578811481101
-6.960370854751341   0.2075308788137049   -0.10320578811481101
-6.960370854751341   0.2075308788137049   -0.10320578811481101
-6.960370854751341   0.2075308788137049   -0.10320578811481101
-8.161421217182866   0.10655111805416273   0.1863373732253959
-8.161421217182866   0.10655111805416273   0.1863373732253959
-8.161421217182866   0.10655111805416273   0.1863373732253959
-8.161421217182866   0.10655111805416273   0.1863373732253959
-6.826297118164427   0.5132728101158122   0.2614209635175889
-6.826297118164427   0.5132728101158122   0.2614209635175889
-6.826297118164427   0.5132728101158122   0.2614209635175889
-6.826297118164427   0.5132728101158122   0.2614209635175889
-10.462958182400852   -0.50005998592629   -0.13857278416527424
-10.462958182400852   -0.50005998592629   -0.13857278416527424
-10.462958182400852   -0.50005998592629   -0.13857278416527424
-10.462958182400852   -0.50005998592629   -0.13857278416527424
-10.597826934701617   -0.253155480962874   0.2686232842511168
-10.597826934701617   -0.253155480962874   0.2686232842511168
-10.597826934701617   -0.253155480962874   0.2686232842511168
-10.597826934701617   -0.253155480962874   0.2686232842511168
-7.160852403532879   0.15157004724025946   -0.09194736431290718
-7.160852403532879   0.15157004724025946   -0.09194736431290718
-7.160852403532879   0.15157004724025946   -0.09194736431290718
-7.160852403532879   0.15157004724025946   -0.09194736431290718
-8.518008051153913   0.05232096159794608   0.11844268512571121
-8.518008051153913   0.05232096159794608   0.11844268512571121
-8.518008051153913   0.05232096159794608   0.11844268512571121
-8.518008051153913   0.05232096159794608   0.11844268512571121
-7.012803870361191   0.47508128734349775   0.32478406144230276
-7.012803870361191   0.47508128734349775   0.32478406144230276
-7.012803870361191   0.47508128734349775   0.32478406144230276
-7.012803870361191   0.47508128734349775   0.32478406144230276
-10.738273278047876   -0.5690645312406089   -0.11769938220225407
-10.738273278047876   -0.5690645312406089   -0.11769938220225407
-10.738273278047876   -0.5690645312406089   -0.11769938220225407
-10.738273278047876   -0.5690645312406089   -0.11769938220225407
-10.951760148140846   -0.4693108000516568   0.2678842362579182
-10.951760148140846   -0.4693108000516568   0.2678842362579182
-10.951760148140846   -0.4693108000516568   0.2678842362579182
-10.951760148140846   -0.4693108000516568   0.2678842362579182
-7.375572838936526   -0.014488643866377382   -0.08623380258807173
-7.375572838936526   -0.014488643866377382   -0.08623380258807173
-7.375572838936526   -0.014488643866377382   -0.08623380258807173
-7.375572838936526   -0.014488643866377382   -0.08623380258807173
-8.625188927254747   -0.024958768201378323   0.09523450563150465
-8.625188927254747   -0.024958768201378323   0.09523450563150465
-8.625188927254747   -0.024958768201378323   0.09523450563150465
-8.625188927254747   -0.024958768201378323   0.09523450563150465
5.84453102818935   0.3228568821986768   -0.2832881318088001
5.84453102818935   0.3228568821986768   -0.2832881318088001
5.84453102818935   0.3228568821986768   -0.2832881318088001
5.84453102818935   0.3228568821986768   -0.2832881318088001
2.7836741329964023   0.05983314732197598   0.10896372395979151
2.7836741329964023   0.05983314732197598   0.10896372395979151
2.7836741329964023   0.05983314732197598   0.10896372395979151
2.7836741329964023   0.05983314732197598   0.10896372395979151
2.4684673775870984   -0.4769482317608065   -0.26845477973245974
2.4684673775870984   -0.4769482317608065   -0.26845477973245974
2.4684673775870984   -0.4769482317608065   -0.26845477973245974
2.4684673775870984   -0.4769482317608065   -0.26845477973245974
5.715477658360639   0.539358374336935   0.13459960959329903
5.715477658360639   0.539358374336935   0.13459960959329903
5.715477658360639   0.539358374336935   0.13459960959329903
5.715477658360639   0.539358374336935   0.13459960959329903
3.9859705603086404   0.05406705772192877   -0.11775857889039207
3.9859705603086404   0.05406705772192877   -0.11775857889039207
3.9859705603086404   0.05406705772192877   -0.11775857889039207
3.9859705603086404   0.05406705772192877   -0.11775857889039207
5.555343836821069   0.14064649273250462   -0.2673576165001198
5.555343836821069   0.14064649273250462   -0.2673576165001198
5.555343836821069   0.14064649273250462   -0.2673576165001198
5.555343836821069   0.14064649273250462   -0.2673576165001198
2.6254143007743336   -0.0814232485086741   0.12075485295155836
2.6254143007743336   -0.0814232485086741   0.12075485295155836
2.6254143007743336   -0.0814232485086741   0.12075485295155836
2.6254143007743336   -0.0814232485086741   0.12075485295155836
2.3210223564734784   -0.5242965835008944   -0.22866750562038046
2.3210223564734784   -0.5242965835008944   -0.22866750562038046
2.3210223564734784   -0.5242965835008944   -0.22866750562038046
2.3210223564734784   -0.5242965835008944   -0.22866750562038046
5.486267506443243   0.4718217150065571   0.17650330665192937
5.486267506443243   0.4718217150065571   0.17650330665192937
5.486267506443243   0.4718217150065571   0.17650330665192937
5.486267506443243   0.4718217150065571   0.17650330665192937
3.8526615325171116   -0.027678142883654777   -0.16650584160404922
3.8526615325171116   -0.027678142883654777   -0.16650584160404922
3.8526615325171116   -0.027678142883654777   -0.16650584160404922
3.8526615325171116   -0.027678142883654777   -0.16650584160404922
5.329972936522615   0.08049789003673902   -0.21364571798134951
5.329972936522615   0.08049789003673902   -0.21364571798134951
5.329972936522615   0.08049789003673902   -0.21364571798134951
5.329972936522615   0.08049789003673902   -0.21364571798134951
2.473372001376426   -0.13691768354875333   0.14570181894219264
2.473372001376426   -0.13691768354875333   0.14570181894219264
2.473372001376426   -0.13691768354875333   0.14570181894219264
2.473372001376426   -0.13691768354875333   0.14570181894219264
2.1879543393234417   -0.554658723878855   -0.19037224641725153
2.1879543393234417   -0.554658723878855   -0.19037224641725153
2.1879543393234417   -0.554658723878855   -0.19037224641725153
2.1879543393234417   -0.554658723878855   -0.19037224641725153
5.227959734522476   0.3978347755590984   0.20923171488920997
5.227959734522476   0.3978347755590984   0.20923171488920997
5.227959734522476   0.3978347755590984   0.20923171488920997
5.227959734522476   0.3978347755590984   0.20923171488920997
3.5931954452456303   -0.08986967917382083   -0.23793823134819522
3.5931954452456303   -0.08986967917382083   -0.23793823134819522
3.5931954452456303   -0.08986967917382083   -0.23793823134819522
3.5931954452456303   -0.08986967917382083   -0.23793823134819522
2.828416127899208   0.4113185242614309   -0.01881167846558881
2.828416127899208   0.4113185242614309   -0.01881167846558881
2.828416127899208   0.4113185242614309   -0.01881167846558881
2.828416127899208   0.4113185242614309   -0.01881167846558881
-0.18045166669500212   -0.03722940681615244   -0.0003035762093548547
-0.18045166669500212   -0.03722940681615244   -0.0003035762093548547
-0.18045166669500212   -0.03722940681615244   -0.0003035762093548547
-0.18045166669500212   -0.03722940681615244   -0.0003035762093548547
-0.4024680771731893   -0.3558035437813768   -0.1700647630074174
-0.4024680771731893   -0.3558035437813768   -0.1700647630074174
-0.4024680771731893   -0.3558035437813768   -0.1700647630074174
-0.4024680771731893   -0.3558035437813768   -0.1700647630074174
2.7532494966360614   0.4896628471068293   0.18884473664469398
2.7532494966360614   0.4896628471068293   0.18884473664469398
2.7532494966360614   0.4896628471068293   0.18884473664469398
2.7532494966360614   0.4896628471068293   0.18884473664469398
1.2304890356014038   0.12136033240262781   0.008472293654260492
1.2304890356014038   0.12136033240262781   0.008472293654260492
1.2304890356014038   0.12136033240262781   0.008472293654260492
1.2304890356014038   0.12136033240262781   0.008472293654260492
2.6780228565507906   0.29565206019161966   0.0067223231335847705
2.6780228565507906   0.29565206019161966   0.0067223231335847705
2.6780228565507906   0.29565206019161966   0.0067223231335847705
2.6780228565507906   0.29565206019161966   0.0067223231335847705
-0.3259319118949447   -0.1604832316731875   0.01729575127561615
-0.3259319118949447   -0.1604832316731875   0.01729575127561615
-0.3259319118949447   -0.1604832316731875   0.01729575127561615
-0.3259319118949447   -0.1604832316731875   0.01729575127561615
-0.5413910916248964   -0.4453293137051554   -0.14037098683995064
-0.5413910916248964   -0.4453293137051554   -0.14037098683995064
-0.5413910916248964   -0.4453293137051554   -0.14037098683995064
-0.5413910916248964   -0.4453293137051554   -0.14037098683995064
2.589552175991305   0.38318160897595394   0.20650339949187824
2.589552175991305   0.38318160897595394   0.20650339949187824
2.589552175991305   0.38318160897595394   0.20650339949187824
2.589552175991305   0.38318160897595394   0.20650339949187824
1.0596671649210758   0.01619981992153041   -0.04436703763065856
1.0596671649210758   0.01619981992153041   -0.04436703763065856
1.0596671649210758   0.01619981992153041   -0.04436703763065856
1.0596671649210758   0.01619981992153041   -0.04436703763065856
2.5167923415757163   0.19963228131745026   0.026253555072464407
2.5167923415757163   0.19963228131745026   0.026253555072464407
2.5167923415757163   0.19963228131745026   0.026253555072464407
2.5167923415757163   0.19963228131745026   0.026253555072464407
-0.46964438678891696   -0.2627931156262565   0.03582633926104763
-0.46964438678891696   -0.2627931156262565   0.03582633926104763
-0.46964438678891696   -0.2627931156262565   0.03582633926104763
-0.46964438678891696   -0.2627931156262565   0.03582633926104763
-0.6785536121076647   -0.5209397726973425   -0.11246383120985196
-0.6785536121076647   -0.5209397726973425   -0.11246383120985196
-0.6785536121076647   -0.5209397726973425   -0.11246383120985196
-0.6785536121076647   -0.5209397726973425   -0.11246383120985196
2.4384198217115576   0.28433460160457263   0.22296184003988417
2.4384198217115576   0.28433460160457263   0.22296184003988417
2.4384198217115576   0.28433460160457263   0.22296184003988417
2.4384198217115576   0.28433460160457263   0.22296184003988417
0.9280479013667238   -0.06402912347549722   -0.08856031226421861
0.9280479013667238   -0.06402912347549722   -0.08856031226421861
0.9280479013667238   -0.06402912347549722   -0.08856031226421861
0.9280479013667238   -0.06402912347549722   -0.08856031226421861
-0.06064837029836437   0.4933530098615641   0.06813048909613267
-0.06064837029836437   0.4933530098615641   0.06813048909613267
-0.06064837029836437   0.4933530098615641   0.06813048909613267
-0.06064837029836437   0.4933530098615641   0.06813048909613267
-3.0811745142898497   -0.13103913650983445   -0.10223228789316294
-3.0811745142898497   -0.13103913650983445   -0.10223228789316294
-3.0811745142898497   -0.13103913650983445   -0.10223228789316294
-3.0811745142898497   -0.13103913650983445   -0.10223228789316294
-3.224311514274393   -0.24474709752781731   -0.07958747003855682
-3.224311514274393   -0.24474709752781731   -0.07958747003855682
-3.224311514274393   -0.24474709752781731   -0.07958747003855682
-3.224311514274393   -0.24474709752781731   -0.07958747003855682
-0.20178985573359054   0.3955401108858666   0.0819826895233328
-0.20178985573359054   0.3955401108858666   0.0819826895233328
-0.20178985573359054   0.3955401108858666   0.0819826895233328
-0.20178985573359054   0.3955401108858666   0.0819826895233328
-1.638108092879608   0.12925045320300121   0.032186365610976514
-1.638108092879608   0.12925045320300121   0.032186365610976514
-1.638108092879608   0.12925045320300121   0.032186365610976514
-1.638108092879608   0.12925045320300121   0.032186365610976514
-0.1989366304724693   0.3955026321526999   0.09628629456210586
-0.1989366304724693   0.3955026321526999   0.09628629456210586
-0.1989366304724693   0.3955026321526999   0.09628629456210586
-0.1989366304724693   0.3955026321526999   0.09628629456210586
-3.2244603910382303   -0.24200527029736707   -0.08307368108819563
-3.2244603910382303   -0.24200527029736707   -0.08307368108819563
-3.2244603910382303   -0.24200527029736707   -0.08307368108819563
-3.2244603910382303   -0.24200527029736707   -0.08307368108819563
-3.366594835191574   -0.3416518183243807   -0.053622887297354635
-3.366594835191574   -0.3416518183243807   -0.053622887297354635
-3.366594835191574   -0.3416518183243807   -0.053622887297354635
-3.366594835191574   -0.3416518183243807   -0.053622887297354635
-0.3465866508137712   0.28588371140335955   0.10243819210716025
-0.3465866508137712   0.28588371140335955   0.10243819210716025
-0.3465866508137712   0.28588371140335955   0.10243819210716025
-0.3465866508137712   0.28588371140335955   0.10243819210716025
-1.7818536486199803   0.033853711441107937   -0.010774266594365506
-1.7818536486199803   0.033853711441107937   -0.010774266594365506
-1.7818536486199803   0.033853711441107937   -0.010774266594365506
-1.7818536486199803   0.033853711441107937   -0.010774266594365506
-0.3408826539274859   0.29798631081358107   0.11885557712836546
-0.3408826539274859   0.29798631081358107   0.11885557712836546
-0.3408826539274859   0.29798631081358107   0.11885557712836546
-0.3408826539274859   0.29798631081358107   0.11885557712836546
-3.3714673391291665   -0.35292292478590875   -0.06671430052378637
-3.3714673391291665   -0.35292292478590875   -0.06671430052378637
-3.3714673391291665   -0.35292292478590875   -0.06671430052378637
-3.3714673391291665   -0.35292292478590875   -0.06671430052378637
-3.5072671248541987   -0.4302243733275646   -0.02795560578316375
-3.5072671248541987   -0.4302243733275646   -0.02795560578316375
-3.5072671248541987   -0.4302243733275646   -0.02795560578316375
-3.5072671248541987   -0.4302243733275646   -0.02795560578316375
-0.49192926803783327   0.1798251085878739   0.11989300785408889
-0.49192926803783327   0.1798251085878739   0.11989300785408889
-0.49192926803783327   0.1798251085878739   0.11989300785408889
-0.49192926803783327   0.1798251085878739   0.11989300785408889
-1.9321361470506913   -0.06237489216883091   -0.05857979969484657
-1.9321361470506913   -0.06237489216883091   -0.05857979969484657
-1.9321361470506913   -0.06237489216883091   -0.05857979969484657
-1.9321361470506913   -0.06237489216883091   -0.05857979969484657
-2.890955416011121   0.5681590815591183   0.1496649854314817
-2.890955416011121   0.5681590815591183   0.1496649854314817
-2.890955416011121   0.5681590815591183   0.1496649854314817
-2.890955416011121   0.5681590815591183   0.1496649854314817
-5.912527869261399   -0.22665608434683793   -0.18489957231257925
-5.912527869261399   -0.22665608434683793   -0.18489957231257925
-5.912527869261399   -0.22665608434683793   -0.18489957231257925
-5.912527869261399   -0.22665608434683793   -0.18489957231257925
-5.990882171397897   -0.15067233900165444   0.01905130499280594
-5.990882171397897   -0.15067233900165444   0.01905130499280594
-5.990882171397897   -0.15067233900165444   0.01905130499280594
-5.990882171397897   -0.15067233900165444   0.01905130499280594
-3.107640972464653   0.2836132447570793   -0.024595103274740904
-3.107640972464653   0.2836132447570793   -0.024595103274740904
-3.107640972464653   0.2836132447570793   -0.024595103274740904
-3.107640972464653   0.2836132447570793   -0.024595103274740904
-4.446591260770813   0.124438775761472   0.05460438549825375
-4.446591260770813   0.124438775761472   0.05460438549825375
-4.446591260770813   0.124438775761472   0.05460438549825375
-4.446591260770813   0.124438775761472   0.05460438549825375
-3.0294605903775755   0.4731547721561592   0.1767652797615531
-3.0294605903775755   0.4731547721561592   0.1767652797615531
-3.0294605903775755   0.4731547721561592   0.1767652797615531
-3.0294605903775755   0.4731547721561592   0.1767652797615531
-6.0682629648764665   -0.3394142777922293   -0.1791107236094699
-6.0682629648764665   -0.3394142777922293   -0.1791107236094699
-6.0682629648764665   -0.3394142777922293   -0.1791107236094699
-6.0682629648764665   -0.3394142777922293   -0.1791107236094699
-6.156519690228198   -0.24860300985799832   0.0288845669283746
-6.156519690228198   -0.24860300985799832   0.0288845669283746
-6.156519690228198   -0.24860300985799832   0.0288845669283746
-6.156519690228198   -0.24860300985799832   0.0288845669283746
-3.251873500551463   0.18207268042516978   -0.0037407128463348427
-3.251873500551463   0.18207268042516978   -0.0037407128463348427
-3.251873500551463   0.18207268042516978   -0.0037407128463348427
-3.251873500551463   0.18207268042516978   -0.0037407128463348427
-4.568657205665371   0.03905670527573979   0.014554041917505256
-4.568657205665371   0.03905670527573979   0.014554041917505256
-4.568657205665371   0.03905670527573979   0.014554041917505256
-4.568657205665371   0.03905670527573979   0.014554041917505256
-3.1704702410038204   0.3832496830538409   0.202098582263193
-3.1704702410038204   0.3832496830538409   0.202098582263193
-3.1704702410038204   0.3832496830538409   0.202098582263193
-3.1704702410038204   0.3832496830538409   0.202098582263193
-6.233702979455889   -0.44556004216671974   -0.160074846901357
-6.233702979455889   -0.44556004216671974   -0.160074846901357
-6.233702979455889   -0.44556004216671974   -0.160074846901357
-6.233702979455889   -0.44556004216671974   -0.160074846901357
-6.306909063715434   -0.3538252810870073   0.05963162501202063
-6.306909063715434   -0.3538252810870073   0.05963162501202063
-6.306909063715434   -0.3538252810870073   0.05963162501202063
-6.306909063715434   -0.3538252810870073   0.05963162501202063
-3.400122372940392   0.06617041898930831   0.011373361469013438
-3.400122372940392   0.06617041898930831   0.011373361469013438
-3.400122372940392   0.06617041898930831   0.011373361469013438
-3.400122372940392   0.06617041898930831   0.011373361469013438
-4.753249814670098   -0.06743990682895762   -0.036067855728474346
-4.753249814670098   -0.06743990682895762   -0.036067855728474346
-4.753249814670098   -0.06743990682895762   -0.036067855728474346
-4.753249814670098   -0.06743990682895762   -0.036067855728474346
-5.685906407853752   0.5094756040640467   0.21207604631477195
-5.685906407853752   0.5094756040640467   0.21207604631477195
-5.685906407853752   0.5094756040640467   0.21207604631477195
-5.685906407853752   0.5094756040640467   0.21207604631477195
-8.599116512386706   -0.39598624756956435   -0.20539403601406686
-8.599116512386706   -0.39598624756956435   -0.20539403601406686
-8.599116512386706   -0.39598624756956435   -0.20539403601406686
-8.599116512386706   -0.39598624756956435   -0.20539403601406686
-8.696799081215074   -0.07995231883195064   0.19580645012064418
-8.696799081215074   -0.07995231883195064   0.19580645012064418
-8.696799081215074   -0.07995231883195064   0.19580645012064418
-8.696799081215074   -0.07995231883195064   0.19580645012064418
-5.960609590535523   0.14077214166754648   -0.12103027136452721
-5.960609590535523   0.14077214166754648   -0.12103027136452721
-5.960609590535523   0.14077214166754648   -0.12103027136452721
-5.960609590535523   0.14077214166754648   -0.12103027136452721
-6.915922844515758   0.11575991783636108   0.16849529918769618
-6.915922844515758   0.11575991783636108   0.16849529918769618
-6.915922844515758   0.11575991783636108   0.16849529918769618
-6.915922844515758   0.11575991783636108   0.16849529918769618
-5.813354595569982   0.5073155477492315   0.24870129738146368
-5.813354595569982   0.5073155477492315   0.24870129738146368
-5.813354595569982   0.5073155477492315   0.24870129738146368
-5.813354595569982   0.5073155477492315   0.24870129738146368
-8.84149365556934   -0.4439353043023675   -0.16368343618027875
-8.84149365556934   -0.4439353043023675   -0.16368343618027875
-8.84149365556934   -0.4439353043023675   -0.16368343618027875
-8.84149365556934   -0.4439353043023675   -0.16368343618027875
-8.913456080610485   -0.13155550899694735   0.24502853157866444
-8.913456080610485   -0.13155550899694735   0.24502853157866444
-8.913456080610485   -0.13155550899694735   0.24502853157866444
-8.913456080610485   -0.13155550899694735   0.24502853157866444
-6.116323269625058   0.08508632423901807   -0.1038226641529385
-6.116323269625058   0.08508632423901807   -0.1038226641529385
-6.116323269625058   0.08508632423901807   -0.1038226641529385
-6.116323269625058   0.08508632423901807   -0.1038226641529385
-7.216622411931204   0.05802490554571338   0.10141714034675892
-7.216622411931204   0.05802490554571338   0.10141714034675892
-7.216622411931204   0.05802490554571338   0.10141714034675892
-7.216622411931204   0.05802490554571338   0.10141714034675892
-5.9601098643853385   0.468811804324363   0.2935188819603138
-5.9601098643853385   0.468811804324363   0.2935188819603138
-5.9601098643853385   0.468811804324363   0.2935188819603138
-5.9601098643853385   0.468811804324363   0.2935188819603138
-9.065523820922403   -0.5111353241545162   -0.13573035482326357
-9.065523820922403   -0.5111353241545162   -0.13573035482326357
-9.065523820922403   -0.5111353241545162   -0.13573035482326357
-9.065523820922403   -0.5111353241545162   -0.13573035482326357
-9.199351173247162   -0.3137687095934265   0.24114420308731904
-9.199351173247162   -0.3137687095934265   0.24114420308731904
-9.199351173247162   -0.3137687095934265   0.24114420308731904
-9.199351173247162   -0.3137687095934265   0.24114420308731904
-6.280567134138466   -0.06845694898801535   -0.0940270592021315
-6.280567134138466   -0.06845694898801535   -0.0940270592021315
-6.280567134138466   -0.06845694898801535   -0.0940270592021315
-6.280567134138466   -0.06845694898801535   -0.0940270592021315
-7.2967160027831826   -0.013318088909251458   0.07859202015547329
-7.2967160027831826   -0.013318088909251458   0.07859202015547329
-7.2967160027831826   -0.013318088909251458   0.07859202015547329
-7.2967160027831826   -0.013318088909251458   0.07859202015547329
3.9882164678797714   0.22417084253394914   -0.27389013486346686
3.9882164678797714   0.22417084253394914   -0.27389013486346686
3.9882164678797714   0.22417084253394914   -0.27389013486346686
3.9882164678797714   0.22417084253394914   -0.27389013486346686
1.703758355617315   0.11275632463959612   0.11832208944670135
1.703758355617315   0.11275632463959612   0.11832208944670135
1.703758355617315   0.11275632463959612   0.11832208944670135
1.703758355617315   0.11275632463959612   0.11832208944670135
1.4208650525353699   -0.39749688861056315   -0.2550640993189228
1.4208650525353699   -0.39749688861056315   -0.2550640993189228
1.4208650525353699   -0.39749688861056315   -0.2550640993189228
1.4208650525353699   -0.39749688861056315   -0.2550640993189228
3.8924485485590816   0.45579061506852986   0.14366699001085376
3.8924485485590816   0.45579061506852986   0.14366699001085376
3.8924485485590816   0.45579061506852986   0.14366699001085376
3.8924485485590816   0.45579061506852986   0.14366699001085376
2.6055236546613063   0.057994594792945386   -0.07126253457884939
2.6055236546613063   0.057994594792945386   -0.07126253457884939
2.6055236546613063   0.057994594792945386   -0.07126253457884939
2.6055236546613063   0.057994594792945386   -0.07126253457884939
3.7345712481336015   0.06522615913604768   -0.25515505618410056
3.7345712481336015   0.06522615913604768   -0.25515505618410056
3.7345712481336015   0.06522615913604768   -0.25515505618410056
3.7345712481336015   0.06522615913604768   -0.25515505618410056
1.5757827076839797   -0.009892077954952005   0.13191936576854635
1.5757827076839797   -0.009892077954952005   0.13191936576854635
1.5757827076839797   -0.009892077954952005   0.13191936576854635
1.5757827076839797   -0.009892077954952005   0.13191936576854635
1.3001501377849456   -0.4440677979629214   -0.2168268895371671
1.3001501377849456   -0.4440677979629214   -0.2168268895371671
1.3001501377849456   -0.4440677979629214   -0.2168268895371671
1.3001501377849456   -0.4440677979629214   -0.2168268895371671
3.6939805242791914   0.3897558103431766   0.1847068437366629
3.6939805242791914   0.3897558103431766   0.1847068437366629
3.6939805242791914   0.3897558103431766   0.1847068437366629
3.6939805242791914   0.3897558103431766   0.1847068437366629
2.479740395737836   -0.01856937803400105   -0.1170593424273019
2.479740395737836   -0.01856937803400105   -0.1170593424273019
2.479740395737836   -0.01856937803400105   -0.1170593424273019
2.479740395737836   -0.01856937803400105   -0.1170593424273019
3.5388034275314824   0.005619726635060163   -0.2070425562937963
3.5388034275314824   0.005619726635060163   -0.2070425562937963
3.5388034275314824   0.005619726635060163   -0.2070425562937963
3.5388034275314824   0.005619726635060163   -0.2070425562937963
1.4510076991567944   -0.06425124963066858   0.15764436898983453
1.4510076991567944   -0.06425124963066858   0.15764436898983453
1.4510076991567944   -0.06425124963066858   0.15764436898983453
1.4510076991567944   -0.06425124963066858   0.15764436898983453
1.1921082024184475   -0.48730766111195795   -0.18062893636204405
1.1921082024184475   -0.48730766111195795   -0.18062893636204405
1.1921082024184475   -0.48730766111195795   -0.18062893636204405
1.1921082024184475   -0.48730766111195795   -0.18062893636204405
3.462536526914402   0.3022947496154682   0.21045590539889114
3.462536526914402   0.3022947496154682   0.21045590539889114
3.462536526914402   0.3022947496154682   0.21045590539889114
3.462536526914402   0.3022947496154682   0.21045590539889114
2.269825780259219   -0.08175620289677688   -0.1794547941721365
2.269825780259219   -0.08175620289677688   -0.1794547941721365
2.269825780259219   -0.08175620289677688   -0.1794547941721365
2.269825780259219   -0.08175620289677688   -0.1794547941721365
1.7137096113502999   0.33152541882084835   -0.050690726069653004
1.7137096113502999   0.33152541882084835   -0.050690726069653004
1.7137096113502999   0.33152541882084835   -0.050690726069653004
1.7137096113502999   0.33152541882084835   -0.050690726069653004
-0.531047131465076   0.03109537116632284   0.01685842245284857
-0.531047131465076   0.03109537116632284   0.01685842245284857
-0.531047131465076   0.03109537116632284   0.01685842245284857
-0.531047131465076   0.03109537116632284   0.01685842245284857
-0.7244294158597382   -0.27497138714279556   -0.15664752210763067
-0.7244294158597382   -0.27497138714279556   -0.15664752210763067
-0.7244294158597382   -0.27497138714279556   -0.15664752210763067
-0.7244294158597382   -0.27497138714279556   -0.15664752210763067
1.6647490718489792   0.39907511739456425   0.16778399124402785
1.6647490718489792   0.39907511739456425   0.16778399124402785
1.6647490718489792   0.39907511739456425   0.16778399124402785
1.6647490718489792   0.39907511739456425   0.16778399124402785
0.5190588768217727   0.11581411929928888   0.019782390373047486
0.5190588768217727   0.11581411929928888   0.019782390373047486
0.5190588768217727   0.11581411929928888   0.019782390373047486
0.5190588768217727   0.11581411929928888   0.019782390373047486
1.5885304565094898   0.21341941511733442   -0.027653383176208694
1.5885304565094898   0.21341941511733442   -0.027653383176208694
1.5885304565094898   0.21341941511733442   -0.027653383176208694
1.5885304565094898   0.21341941511733442   -0.027653383176208694
-0.6492976542708048   -0.09040253861612238   0.03444243731037847
-0.6492976542708048   -0.09040253861612238   0.03444243731037847
-0.6492976542708048   -0.09040253861612238   0.03444243731037847
-0.6492976542708048   -0.09040253861612238   0.03444243731037847
-0.8367542653032475   -0.36868205603709736   -0.12650848427882638
-0.8367542653032475   -0.36868205603709736   -0.12650848427882638
-0.8367542653032475   -0.36868205603709736   -0.12650848427882638
-0.8367542653032475   -0.36868205603709736   -0.12650848427882638
1.5270598479899593   0.29125054508688175   0.18240331843810903
1.5270598479899593   0.29125054508688175   0.18240331843810903
1.5270598479899593   0.29125054508688175   0.18240331843810903
1.5270598479899593   0.29125054508688175   0.18240331843810903
0.38083677627944934   0.01025932785981018   -0.030929324774315297
0.38083677627944934   0.01025932785981018   -0.030929324774315297
0.38083677627944934   0.01025932785981018   -0.030929324774315297
0.38083677627944934   0.01025932785981018   -0.030929324774315297
1.4532493751099553   0.11295055727191483   -0.008349058146967944
1.4532493751099553   0.11295055727191483   -0.008349058146967944
1.4532493751099553   0.11295055727191483   -0.008349058146967944
1.4532493751099553   0.11295055727191483   -0.008349058146967944
-0.7657404997605396   -0.1931787755594281   0.053057062957058414
-0.7657404997605396   -0.1931787755594281   0.053057062957058414
-0.7657404997605396   -0.1931787755594281   0.053057062957058414
-0.7657404997605396   -0.1931787755594281   0.053057062957058414
-0.9476266001380352   -0.45719723628127895   -0.09865092753978051
-0.9476266001380352   -0.45719723628127895   -0.09865092753978051
-0.9476266001380352   -0.45719723628127895   -0.09865092753978051
-0.9476266001380352   -0.45719723628127895   -0.09865092753978051
1.4028038224556225   0.18723971594680852   0.1983017867650956
1.4028038224556225   0.18723971594680852   0.1983017867650956
1.4028038224556225   0.18723971594680852   0.1983017867650956
1.4028038224556225   0.18723971594680852   0.1983017867650956
0.26940624444622135   -0.0778357212775282   -0.07586851417556605
0.26940624444622135   -0.0778357212775282   -0.07586851417556605
0.26940624444622135   -0.0778357212775282   -0.07586851417556605
0.26940624444622135   -0.0778357212775282   -0.07586851417556605
-0.44824352731555095   0.42365656778084515   0.038315246585936436
-0.44824352731555095   0.42365656778084515   0.038315246585936436
-0.44824352731555095   0.42365656778084515   0.038315246585936436
-0.44824352731555095   0.42365656778084515   0.038315246585936436
-2.73314940472931   -0.0665120540606916   -0.08283486377531488
-2.73314940472931   -0.0665120540606916   -0.08283486377531488
-2.73314940472931   -0.0665120540606916   -0.08283486377531488
-2.73314940472931   -0.0665120540606916   -0.08283486377531488
-2.8437973957560847   -0.1614247316668619   -0.06083398321781547
-2.8437973957560847   -0.1614247316668619   -0.06083398321781547
-2.8437973957560847   -0.1614247316668619   -0.06083398321781547
-2.8437973957560847   -0.1614247316668619   -0.06083398321781547
-0.5642489716294948   0.3044036097617413   0.06487970213904849
-0.5642489716294948   0.3044036097617413   0.06487970213904849
-0.5642489716294948   0.3044036097617413   0.06487970213904849
-0.5642489716294948   0.3044036097617413   0.06487970213904849
-1.6433837756760907   0.12319710637225811   0.03228354281775381
-1.6433837756760907   0.12319710637225811   0.03228354281775381
-1.6433837756760907   0.12319710637225811   0.03228354281775381
-1.6433837756760907   0.12319710637225811   0.03228354281775381
-0.5606506144226253   0.3206887006920173   0.06658639724312101
-0.5606506144226253   0.3206887006920173   0.06658639724312101
-0.5606506144226253   0.3206887006920173   0.06658639724312101
-0.5606506144226253   0.3206887006920173   0.06658639724312101
-2.8476646592809947   -0.17797872891517835   -0.06361630359404995
-2.8476646592809947   -0.17797872891517835   -0.06361630359404995
-2.8476646592809947   -0.17797872891517835   -0.06361630359404995
-2.8476646592809947   -0.17797872891517835   -0.06361630359404995
-2.9572522030975463   -0.263524203503067   -0.03393583014119729
-2.9572522030975463   -0.263524203503067   -0.03393583014119729
-2.9572522030975463   -0.263524203503067   -0.03393583014119729
-2.9572522030975463   -0.263524203503067   -0.03393583014119729
-0.6821004014780678   0.1934303193481865   0.08464845946178763
-0.6821004014780678   0.1934303193481865   0.08464845946178763
-0.6821004014780678   0.1934303193481865   0.08464845946178763
-0.6821004014780678   0.1934303193481865   0.08464845946178763
-1.760045065856414   0.023933351485982135   -0.01138549756803886
-1.760045065856414   0.023933351485982135   -0.01138549756803886
-1.760045065856414   0.023933351485982135   -0.01138549756803886
-1.760045065856414   0.023933351485982135   -0.01138549756803886
-0.6760659405754134   0.21762535974520694   0.09062572357803948
-0.6760659405754134   0.21762535974520694   0.09062572357803948
-0.6760659405754134   0.21762535974520694   0.09062572357803948
-0.6760659405754134   0.21762535974520694   0.09062572357803948
-2.9650322309268287   -0.2894648108266744   -0.046895361964001736
-2.9650322309268287   -0.2894648108266744   -0.046895361964001736
-2.9650322309268287   -0.2894648108266744   -0.046895361964001736
-2.9650322309268287   -0.2894648108266744   -0.046895361964001736
-3.0688538047489398   -0.3611039604825799   -0.00782780078707375
-3.0688538047489398   -0.3611039604825799   -0.00782780078707375
-3.0688538047489398   -0.3611039604825799   -0.00782780078707375
-3.0688538047489398   -0.3611039604825799   -0.00782780078707375
-0.7989058996635308   0.08557966705259873   0.10217567149886406
-0.7989058996635308   0.08557966705259873   0.10217567149886406
-0.7989058996635308   0.08557966705259873   0.10217567149886406
-0.7989058996635308   0.08557966705259873   0.10217567149886406
-1.8814609606948056   -0.07546194327446637   -0.058689755955760994
-1.8814609606948056   -0.07546194327446637   -0.058689755955760994
-1.8814609606948056   -0.07546194327446637   -0.058689755955760994
-1.8814609606948056   -0.07546194327446637   -0.058689755955760994
-2.577800066226029   0.50229112138236   0.1251086532980401
-2.577800066226029   0.50229112138236   0.1251086532980401
-2.577800066226029   0.50229112138236   0.1251086532980401
-2.577800066226029   0.50229112138236   0.1251086532980401
-4.894104174994551   -0.16333068429641673   -0.1693179085346939
-4.894104174994551   -0.16333068429641673   -0.1693179085346939
-4.894104174994551   -0.16333068429641673   -0.1693179085346939
-4.894104174994551   -0.16333068429641673   -0.1693179085346939
-4.935843683493797   -0.06870268797056212   0.04202794411619626
-4.935843683493797   -0.06870268797056212   0.04202794411619626
-4.935843683493797   -0.06870268797056212   0.04202794411619626
-4.935843683493797   -0.06870268797056212   0.04202794411619626
-2.7670594087266336   0.19812139502096537   -0.03669017475844816
-2.7670594087266336   0.19812139502096537   -0.03669017475844816
-2.7670594087266336   0.19812139502096537   -0.03669017475844816
-2.7670594087266336   0.19812139502096537   -0.03669017475844816
-3.7713980314489204   0.11830025231999186   0.04702759853515118
-3.7713980314489204   0.11830025231999186   0.04702759853515118
-3.7713980314489204   0.11830025231999186   0.04702759853515118
-3.7713980314489204   0.11830025231999186   0.04702759853515118
-2.688084083342434   0.40308767722761396   0.15322016995595977
-2.688084083342434   0.40308767722761396   0.15322016995595977
-2.688084083342434   0.40308767722761396   0.15322016995595977
-2.688084083342434   0.40308767722761396   0.15322016995595977
-5.018196358240232   -0.27704631953949277   -0.16139179804714077
-5.018196358240232   -0.27704631953949277   -0.16139179804714077
-5.018196358240232   -0.27704631953949277   -0.16139179804714077
-5.018196358240232   -0.27704631953949277   -0.16139179804714077
-5.069503897472194   -0.16979215344139942   0.05456551474155055
-5.069503897472194   -0.16979215344139942   0.05456551474155055
-5.069503897472194   -0.16979215344139942   0.05456551474155055
-5.069503897472194   -0.16979215344139942   0.05456551474155055
-2.8817098510455956   0.09590110231613613   -0.01564937570070868
-2.8817098510455956   0.09590110231613613   -0.01564937570070868
-2.8817098510455956   0.09590110231613613   -0.01564937570070868
-2.8817098510455956   0.09590110231613613   -0.01564937570070868
-3.869978191124836   0.02808286852666031   0.0031888609892904707
-3.869978191124836   0.02808286852666031   0.0031888609892904707
-3.869978191124836   0.02808286852666031   0.0031888609892904707
-3.869978191124836   0.02808286852666031   0.0031888609892904707
-2.7999115305863307   0.30921823564151674   0.18002509327026736
-2.7999115305863307   0.30921823564151674   0.18002509327026736
-2.7999115305863307   0.30921823564151674   0.18002509327026736
-2.7999115305863307   0.30921823564151674   0.18002509327026736
-5.151557951653652   -0.38336502048893106   -0.14213188911823352
-5.151557951653652   -0.38336502048893106   -0.14213188911823352
-5.151557951653652   -0.38336502048893106   -0.14213188911823352
-5.151557951653652   -0.38336502048893106   -0.14213188911823352
-5.188656838118883   -0.2772936128961613   0.08258766722015595
-5.188656838118883   -0.2772936128961613   0.08258766722015595
-5.188656838118883   -0.2772936128961613   0.08258766722015595
-5.188656838118883   -0.2772936128961613   0.08258766722015595
-2.998336524662497   -0.017235085243058834   0.0008897244055860454
-2.998336524662497   -0.017235085243058834   0.0008897244055860454
-2.998336524662497   -0.017235085243058834   0.0008897244055860454
-2.998336524662497   -0.017235085243058834   0.0008897244055860454
-4.016918418988164   -0.07616909871997779   -0.04750989873267383
-4.016918418988164   -0.07616909871997779   -0.04750989873267383
-4.016918418988164   -0.07616909871997779   -0.04750989873267383
-4.016918418988164   -0.07616909871997779   -0.04750989873267383
-4.69512354033157   0.4652850584508612   0.19696952203292623
-4.69512354033157   0.4652850584508612   0.19696952203292623
-4.69512354033157   0.4652850584508612   0.19696952203292623
-4.69512354033157   0.4652850584508612   0.19696952203292623
-6.921259305562318   -0.31774385164667307   -0.22147905785514088
-6.921259305562318   -0.31774385164667307   -0.22147905785514088
-6.921259305562318   -0.31774385164667307   -0.22147905785514088
-6.921259305562318   -0.31774385164667307   -0.22147905785514088
-6.989465395668496   -0.0017148726223392696   0.19539046231901708
-6.989465395668496   -0.0017148726223392696   0.19539046231901708
-6.989465395668496   -0.0017148726223392696   0.19539046231901708
-6.989465395668496   -0.0017148726223392696   0.19539046231901708
-4.944074329534352   0.06568152377175629   -0.13350949782902116
-4.944074329534352   0.06568152377175629   -0.13350949782902116
-4.944074329534352   0.06568152377175629   -0.13350949782902116
-4.944074329534352   0.06568152377175629   -0.13350949782902116
-5.628792745086327   0.10911265593760855   0.14173443265881852
-5.628792745086327   0.10911265593760855   0.14173443265881852
-5.628792745086327   0.10911265593760855   0.14173443265881852
-5.628792745086327   0.10911265593760855   0.14173443265881852
-4.795141694422179   0.4445323462198827   0.23230285528381006
-4.795141694422179   0.4445323462198827   0.23230285528381006
-4.795141694422179   0.4445323462198827   0.23230285528381006
-4.795141694422179   0.4445323462198827   0.23230285528381006
-7.141257861627712   -0.3834255259174735   -0.1818612141818105
-7.141257861627712   -0.3834255259174735   -0.1818612141818105
-7.141257861627712   -0.3834255259174735   -0.1818612141818105
-7.141257861627712   -0.3834255259174735   -0.1818612141818105
-7.178064255267374   -0.05722858240702089   0.2463437882591839
-7.178064255267374   -0.05722858240702089   0.2463437882591839
-7.178064255267374   -0.05722858240702089   0.2463437882591839
-7.178064255267374   -0.05722858240702089   0.2463437882591839
-5.067312988845467   0.009611470578348547   -0.11388356614461959
-5.067312988845467   0.009611470578348547   -0.11388356614461959
-5.067312988845467   0.009611470578348547   -0.11388356614461959
-5.067312988845467   0.009611470578348547   -0.11388356614461959
-5.881760557947702   0.045171647958041516   0.07320497296603468
-5.881760557947702   0.045171647958041516   0.07320497296603468
-5.881760557947702   0.045171647958041516   0.07320497296603468
-5.881760557947702   0.045171647958041516   0.07320497296603468
-4.911372502919756   0.4016058976859469   0.2738244363764031
-4.911372502919756   0.4016058976859469   0.2738244363764031
-4.911372502919756   0.4016058976859469   0.2738244363764031
-4.911372502919756   0.4016058976859469   0.2738244363764031
-7.336081259734645   -0.4512995280561678   -0.1496702884280222
-7.336081259734645   -0.4512995280561678   -0.1496702884280222
-7.336081259734645   -0.4512995280561678   -0.1496702884280222
-7.336081259734645   -0.4512995280561678   -0.1496702884280222
-7.430378503000397   -0.23011318354329946   0.24750313688337822
-7.430378503000397   -0.23011318354329946   0.24750313688337822
-7.430378503000397   -0.23011318354329946   0.24750313688337822
-7.430378503000397   -0.23011318354329946   0.24750313688337822
-5.196144900447404   -0.13147498544958935   -0.10067127186911573
-5.196144900447404   -0.13147498544958935   -0.10067127186911573
-5.196144900447404   -0.13147498544958935   -0.10067127186911573
-5.196144900447404   -0.13147498544958935   -0.10067127186911573
-5.955253990481512   -0.027429263587380737   0.040248370775404996
-5.955253990481512   -0.027429263587380737   0.040248370775404996
-5.955253990481512   -0.027429263587380737   0.040248370775404996
-5.955253990481512   -0.027429263587380737   0.040248370775404996
2.1674859495221255   0.12847989059288462   -0.26678767469166653
2.1674859495221255   0.12847989059288462   -0.26678767469166653
2.1674859495221255   0.12847989059288462   -0.26678767469166653
2.1674859495221255   0.12847989059288462   -0.26678767469166653
0.6221718844297154   0.16159495984899225   0.12827324157118147
0.6221718844297154   0.16159495984899225   0.12827324157118147
0.6221718844297154   0.16159495984899225   0.12827324157118147
0.6221718844297154   0.16159495984899225   0.12827324157118147
0.3734327452739095   -0.32375500322984907   -0.23504529819586878
0.3734327452739095   -0.32375500322984907   -0.23504529819586878
0.3734327452739095   -0.32375500322984907   -0.23504529819586878
0.3734327452739095   -0.32375500322984907   -0.23504529819586878
2.105904868234095   0.37440058332775367   0.15436788604829527
2.105904868234095   0.37440058332775367   0.15436788604829527
2.105904868234095   0.37440058332775367   0.15436788604829527
2.105904868234095   0.37440058332775367   0.15436788604829527
1.239963082806762   0.06226738922879366   -0.02893971718158435
1.239963082806762   0.06226738922879366   -0.02893971718158435
1.239963082806762   0.06226738922879366   -0.02893971718158435
1.239963082806762   0.06226738922879366   -0.02893971718158435
1.949203272667301   -0.010449783169653226   -0.24428972528828113
1.949203272667301   -0.010449783169653226   -0.24428972528828113
1.949203272667301   -0.010449783169653226   -0.24428972528828113
1.949203272667301   -0.010449783169653226   -0.24428972528828113
0.5252394107211393   0.05620043314799174   0.14403259266244145
0.5252394107211393   0.05620043314799174   0.14403259266244145
0.5252394107211393   0.05620043314799174   0.14403259266244145
0.5252394107211393   0.05620043314799174   0.14403259266244145
0.27943765504969786   -0.3699670605036653   -0.19936464126805264
0.27943765504969786   -0.3699670605036653   -0.19936464126805264
0.27943765504969786   -0.3699670605036653   -0.19936464126805264
0.27943765504969786   -0.3699670605036653   -0.19936464126805264
1.936970718671025   0.31059586500036734   0.19793645024275786
1.936970718671025   0.31059586500036734   0.19793645024275786
1.936970718671025   0.31059586500036734   0.19793645024275786
1.936970718671025   0.31059586500036734   0.19793645024275786
1.121227853392663   -0.009762610423229817   -0.07590363721002652
1.121227853392663   -0.009762610423229817   -0.07590363721002652
1.121227853392663   -0.009762610423229817   -0.07590363721002652
1.121227853392663   -0.009762610423229817   -0.07590363721002652
1.781268058145148   -0.06977020759018304   -0.20021077979609148
1.781268058145148   -0.06977020759018304   -0.20021077979609148
1.781268058145148   -0.06977020759018304   -0.20021077979609148
1.781268058145148   -0.06977020759018304   -0.20021077979609148
0.4286156420971764   0.003874338608485406   0.17268389485719698
0.4286156420971764   0.003874338608485406   0.17268389485719698
0.4286156420971764   0.003874338608485406   0.17268389485719698
0.4286156420971764   0.003874338608485406   0.17268389485719698
0.19531590261611856   -0.4264263587525515   -0.1659290121426787
0.19531590261611856   -0.4264263587525515   -0.1659290121426787
0.19531590261611856   -0.4264263587525515   -0.1659290121426787
0.19531590261611856   -0.4264263587525515   -0.1659290121426787
1.7279880761091078   0.20803938202434769   0.21945449381844126
1.7279880761091078   0.20803938202434769   0.21945449381844126
1.7279880761091078   0.20803938202434769   0.21945449381844126
1.7279880761091078   0.20803938202434769   0.21945449381844126
0.9589953435527482   -0.07421712858287766   -0.13298545507105616
0.9589953435527482   -0.07421712858287766   -0.13298545507105616
0.9589953435527482   -0.07421712858287766   -0.13298545507105616
0.9589953435527482   -0.07421712858287766   -0.13298545507105616
0.5960403452630032   0.23748606928224264   -0.07827556369563168
0.5960403452630032   0.23748606928224264   -0.07827556369563168
0.5960403452630032   0.23748606928224264   -0.07827556369563168
0.5960403452630032   0.23748606928224264   -0.07827556369563168
-0.9012645130855108   0.07858592280374582   0.03168673709303106
-0.9012645130855108   0.07858592280374582   0.03168673709303106
-0.9012645130855108   0.07858592280374582   0.03168673709303106
-0.9012645130855108   0.07858592280374582   0.03168673709303106
-1.0614077064637477   -0.20708290611751742   -0.1368493480036538
-1.0614077064637477   -0.20708290611751742   -0.1368493480036538
-1.0614077064637477   -0.20708290611751742   -0.1368493480036538
-1.0614077064637477   -0.20708290611751742   -0.1368493480036538
0.5732378209894653   0.2950480335322715   0.14517704361979195
0.5732378209894653   0.2950480335322715   0.14517704361979195
0.5732378209894653   0.2950480335322715   0.14517704361979195
0.5732378209894653   0.2950480335322715   0.14517704361979195
-0.20347528623837263   0.09678862435949326   0.024042998577589653
-0.20347528623837263   0.09678862435949326   0.024042998577589653
-0.20347528623837263   0.09678862435949326   0.024042998577589653
-0.20347528623837263   0.09678862435949326   0.024042998577589653
0.49780026856525406   0.12061335124601252   -0.057576036215005864
0.49780026856525406   0.12061335124601252   -0.057576036215005864
0.49780026856525406   0.12061335124601252   -0.057576036215005864
0.49780026856525406   0.12061335124601252   -0.057576036215005864
-0.9901117389363228   -0.03678980872804477   0.04933739224399877
-0.9901117389363228   -0.03678980872804477   0.04933739224399877
-0.9901117389363228   -0.03678980872804477   0.04933739224399877
-0.9901117389363228   -0.03678980872804477   0.04933739224399877
-1.1455213017091628   -0.30113615149101897   -0.10694901475227248
-1.1455213017091628   -0.30113615149101897   -0.10694901475227248
-1.1455213017091628   -0.30113615149101897   -0.10694901475227248
-1.1455213017091628   -0.30113615149101897   -0.10694901475227248
0.46286885958331186   0.18958827090923192   0.15823604998712784
0.46286885958331186   0.18958827090923192   0.15823604998712784
0.46286885958331186   0.18958827090923192   0.15823604998712784
0.46286885958331186   0.18958827090923192   0.15823604998712784
-0.3072508247069003   -0.004371712168431963   -0.024399029235915515
-0.3072508247069003   -0.004371712168431963   -0.024399029235915515
-0.3072508247069003   -0.004371712168431963   -0.024399029235915515
-0.3072508247069003   -0.004371712168431963   -0.024399029235915515
0.3896852701394429   0.019730200470424168   -0.037823826793417184
0.3896852701394429   0.019730200470424168   -0.037823826793417184
0.3896852701394429   0.019730200470424168   -0.037823826793417184
0.3896852701394429   0.019730200470424168   -0.037823826793417184
-1.0776937459855482   -0.13663411477250503   0.06768672714730317
-1.0776937459855482   -0.13663411477250503   0.06768672714730317
-1.0776937459855482   -0.13663411477250503   0.06768672714730317
-1.0776937459855482   -0.13663411477250503   0.06768672714730317
-1.2290110170297146   -0.3947665274793827   -0.079914590880769
-1.2290110170297146   -0.3947665274793827   -0.079914590880769
-1.2290110170297146   -0.3947665274793827   -0.079914590880769
-1.2290110170297146   -0.3947665274793827   -0.079914590880769
0.36624155009545406   0.08569888147190904   0.17657398502954186
0.36624155009545406   0.08569888147190904   0.17657398502954186
0.36624155009545406   0.08569888147190904   0.17657398502954186
0.36624155009545406   0.08569888147190904   0.17657398502954186
-0.3973485977788559   -0.09534828158196043   -0.07025475842944413
-0.3973485977788559   -0.09534828158196043   -0.07025475842944413
-0.3973485977788559   -0.09534828158196043   -0.07025475842944413
-0.3973485977788559   -0.09534828158196043   -0.07025475842944413
-0.8554840572518422   0.3278524800024074   0.011322459062712259
-0.8554840572518422   0.3278524800024074   0.011322459062712259
-0.8554840572518422   0.3278524800024074   0.011322459062712259
-0.8554840572518422   0.3278524800024074   0.011322459062712259
-2.405257897304656   -0.026879794304602633   -0.06566288219250663
-2.405257897304656   -0.026879794304602633   -0.06566288219250663
-2.405257897304656   -0.026879794304602633   -0.06566288219250663
-2.405257897304656   -0.026879794304602633   -0.06566288219250663
-2.4808988330837702   -0.09970705279550807   -0.0390237491931687
-2.4808988330837702   -0.09970705279550807   -0.0390237491931687
-2.4808988330837702   -0.09970705279550807   -0.0390237491931687
-2.4808988330837702   -0.09970705279550807   -0.0390237491931687
-0.9445805096682972   0.1940811472002848   0.04612258265578158
-0.9445805096682972   0.1940811472002848   0.04612258265578158
-0.9445805096682972   0.1940811472002848   0.04612258265578158
-0.9445805096682972   0.1940811472002848   0.04612258265578158
-1.6676408781561831   0.09685228303361276   0.0250580102037717
-1.6676408781561831   0.09685228303361276   0.0250580102037717
-1.6676408781561831   0.09685228303361276   0.0250580102037717
-1.6676408781561831   0.09685228303361276   0.0250580102037717
-0.9399514119473356   0.2241308541354919   0.03921836432539669
-0.9399514119473356   0.2241308541354919   0.03921836432539669
-0.9399514119473356   0.2241308541354919   0.03921836432539669
-0.9399514119473356   0.2241308541354919   0.03921836432539669
-2.4891430741216856   -0.13337190304765145   -0.04658010413063346
-2.4891430741216856   -0.13337190304765145   -0.04658010413063346
-2.4891430741216856   -0.13337190304765145   -0.04658010413063346
-2.4891430741216856   -0.13337190304765145   -0.04658010413063346
-2.564622512792829   -0.20238147969770742   -0.011888424452920973
-2.564622512792829   -0.20238147969770742   -0.011888424452920973
-2.564622512792829   -0.20238147969770742   -0.011888424452920973
-2.564622512792829   -0.20238147969770742   -0.011888424452920973
-1.0333855366789688   0.08712755372215442   0.06546610518550935
-1.0333855366789688   0.08712755372215442   0.06546610518550935
-1.0333855366789688   0.08712755372215442   0.06546610518550935
-1.0333855366789688   0.08712755372215442   0.06546610518550935
-1.7550207795037767   -0.0005959047652935867   -0.01841486559606484
-1.7550207795037767   -0.0005959047652935867   -0.01841486559606484
-1.7550207795037767   -0.0005959047652935867   -0.01841486559606484
-1.7550207795037767   -0.0005959047652935867   -0.01841486559606484
-1.027182068908205   0.12017207793508689   0.06343891982642681
-1.027182068908205   0.12017207793508689   0.06343891982642681
-1.027182068908205   0.12017207793508689   0.06343891982642681
-1.027182068908205   0.12017207793508689   0.06343891982642681
-2.575970094531347   -0.24057011787839422   -0.030437694964855905
-2.575970094531347   -0.24057011787839422   -0.030437694964855905
-2.575970094531347   -0.24057011787839422   -0.030437694964855905
-2.575970094531347   -0.24057011787839422   -0.030437694964855905
-2.6467826651917745   -0.3015638725866699   0.01433473883101001
-2.6467826651917745   -0.3015638725866699   0.01433473883101001
-2.6467826651917745   -0.3015638725866699   0.01433473883101001
-2.6467826651917745   -0.3015638725866699   0.01433473883101001
-1.1206168318240375   -0.015949271054892716   0.08323907872312705
-1.1206168318240375   -0.015949271054892716   0.08323907872312705
-1.1206168318240375   -0.015949271054892716   0.08323907872312705
-1.1206168318240375   -0.015949271054892716   0.08323907872312705
-1.8469217671742835   -0.09830048867664798   -0.06559538505439345
-1.8469217671742835   -0.09830048867664798   -0.06559538505439345
-1.8469217671742835   -0.09830048867664798   -0.06559538505439345
-1.8469217671742835   -0.09830048867664798   -0.06559538505439345
-2.2834850798968938   0.4132674987819944   0.10305391175970555
-2.2834850798968938   0.4132674987819944   0.10305391175970555
-2.2834850798968938   0.4132674987819944   0.10305391175970555
-2.2834850798968938   0.4132674987819944   0.10305391175970555
-3.8746602745635363   -0.1129132839794974   -0.15053561000808563
-3.8746602745635363   -0.1129132839794974   -0.15053561000808563
-3.8746602745635363   -0.1129132839794974   -0.15053561000808563
-3.8746602745635363   -0.1129132839794974   -0.15053561000808563
-3.8822078116937613   -0.004609115024813537   0.06480567797978465
-3.8822078116937613   -0.004609115024813537   0.06480567797978465
-3.8822078116937613   -0.004609115024813537   0.06480567797978465
-3.8822078116937613   -0.004609115024813537   0.06480567797978465
-2.442827841757703   0.09952088905316392   -0.04789673441156428
-2.442827841757703   0.09952088905316392   -0.04789673441156428
-2.442827841757703   0.09952088905316392   -0.04789673441156428
-2.442827841757703   0.09952088905316392   -0.04789673441156428
-3.10511361277695   0.09871097264484985   0.033229914276435846
-3.10511361277695   0.09871097264484985   0.033229914276435846
-3.10511361277695   0.09871097264484985   0.033229914276435846
-3.10511361277695   0.09871097264484985   0.033229914276435846
-2.3645075013836037   0.31217915228641024   0.13104670422574605
-2.3645075013836037   0.31217915228641024   0.13104670422574605
-2.3645075013836037   0.31217915228641024   0.13104670422574605
-2.3645075013836037   0.31217915228641024   0.13104670422574605
-3.967491210713777   -0.22423043690398736   -0.14198999524112352
-3.967491210713777   -0.22423043690398736   -0.14198999524112352
-3.967491210713777   -0.22423043690398736   -0.14198999524112352
-3.967491210713777   -0.22423043690398736   -0.14198999524112352
-3.985230629392434   -0.10578234988226731   0.07945414165386697
-3.985230629392434   -0.10578234988226731   0.07945414165386697
-3.985230629392434   -0.10578234988226731   0.07945414165386697
-3.985230629392434   -0.10578234988226731   0.07945414165386697
-2.5269916595439907   0.00113316891588644   -0.027248806822386923
-2.5269916595439907   0.00113316891588644   -0.027248806822386923
-2.5269916595439907   0.00113316891588644   -0.027248806822386923
-2.5269916595439907   0.00113316891588644   -0.027248806822386923
-3.179577744173084   0.007778666435040993   -0.012382878807367187
-3.179577744173084   0.007778666435040993   -0.012382878807367187
-3.179577744173084   0.007778666435040993   -0.012382878807367187
-3.179577744173084   0.007778666435040993   -0.012382878807367187
-2.4465825371662966   0.21770202919049442   0.15822794479153843
-2.4465825371662966   0.21770202919049442   0.15822794479153843
-2.4465825371662966   0.21770202919049442   0.15822794479153843
-2.4465825371662966   0.21770202919049442   0.15822794479153843
-4.069974018853562   -0.32668547724030894   -0.12335967829379332
-4.069974018853562   -0.32668547724030894   -0.12335967829379332
-4.069974018853562   -0.32668547724030894   -0.12335967829379332
-4.069974018853562   -0.32668547724030894   -0.12335967829379332
-4.074331898381634   -0.21105712473037774   0.10777490068788226
-4.074331898381634   -0.21105712473037774   0.10777490068788226
-4.074331898381634   -0.21105712473037774   0.10777490068788226
-4.074331898381634   -0.21105712473037774   0.10777490068788226
-2.612182452883075   -0.10388494096058154   -0.01034313125164038
-2.612182452883075   -0.10388494096058154   -0.01034313125164038
-2.612182452883075   -0.10388494096058154   -0.01034313125164038
-2.612182452883075   -0.10388494096058154   -0.01034313125164038
-3.289725061509952   -0.09095628789846366   -0.061961013891621036
-3.289725061509952   -0.09095628789846366   -0.061961013891621036
-3.289725061509952   -0.09095628789846366   -0.061961013891621036
-3.289725061509952   -0.09095628789846366   -0.061961013891621036
-3.7041414163066064   0.40650384769581516   0.18264154960134282
-3.7041414163066064   0.40650384769581516   0.18264154960134282
-3.7041414163066064   0.40650384769581516   0.18264154960134282
-3.7041414163066064   0.40650384769581516   0.18264154960134282
-5.203737092795476   -0.2384312935074001   -0.22999221481722867
-5.203737092795476   -0.2384312935074001   -0.22999221481722867
-5.203737092795476   -0.2384312935074001   -0.22999221481722867
-5.203737092795476   -0.2384312935074001   -0.22999221481722867
-5.24243031111248   0.07112430134871572   0.19206037163390427
-5.24243031111248   0.07112430134871572   0.19206037163390427
-5.24243031111248   0.07112430134871572   0.19206037163390427
-5.24243031111248   0.07112430134871572   0.19206037163390427
-3.925122963317952   -0.013611420169121424   -0.14076777499689358
-3.925122963317952   -0.013611420169121424   -0.14076777499689358
-3.925122963317952   -0.013611420169121424   -0.14076777499689358
-3.925122963317952   -0.013611420169121424   -0.14076777499689358
-4.325022134845731   0.09855593901644122   0.10392990850840694
-4.325022134845731   0.09855593901644122   0.10392990850840694
-4.325022134845731   0.09855593901644122   0.10392990850840694
-4.325022134845731   0.09855593901644122   0.10392990850840694
-3.777259297329377   0.3689452139449392   0.21599392083191798
-3.777259297329377   0.3689452139449392   0.21599392083191798
-3.777259297329377   0.3689452139449392   0.21599392083191798
-3.777259297329377   0.3689452139449392   0.21599392083191798
-5.397686678418984   -0.31882503408327456   -0.19427212946662625
-5.397686678418984   -0.31882503408327456   -0.19427212946662625
-5.397686678418984   -0.31882503408327456   -0.19427212946662625
-5.397686678418984   -0.31882503408327456   -0.19427212946662625
-5.402675107465237   0.014399842135525587   0.24542041026128114
-5.402675107465237   0.014399842135525587   0.24542041026128114
-5.402675107465237   0.014399842135525587   0.24542041026128114
-5.402675107465237   0.014399842135525587   0.24542041026128114
-4.017851932834013   -0.06851556095998967   -0.12091916447637116
-4.017851932834013   -0.06851556095998967   -0.12091916447637116
-4.017851932834013   -0.06851556095998967   -0.12091916447637116
-4.017851932834013   -0.06851556095998967   -0.12091916447637116
-4.5290032644662475   0.03134621095486456   0.03638487459971568
-4.5290032644662475   0.03134621095486456   0.03638487459971568
-4.5290032644662475   0.03134621095486456   0.03638487459971568
-4.5290032644662475   0.03134621095486456   0.03638487459971568
-3.8636545733612193   0.3245252344080011   0.25702683751964095
-3.8636545733612193   0.3245252344080011   0.25702683751964095
-3.8636545733612193   0.3245252344080011   0.25702683751964095
-3.8636545733612193   0.3245252344080011   0.25702683751964095
-5.563903734601562   -0.38567222089599074   -0.1606506623888276
-5.563903734601562   -0.38567222089599074   -0.1606506623888276
-5.563903734601562   -0.38567222089599074   -0.1606506623888276
-5.563903734601562   -0.38567222089599074   -0.1606506623888276
-5.624449952377404   -0.1462693393029526   0.25366201079406914
-5.624449952377404   -0.1462693393029526   0.25366201079406914
-5.624449952377404   -0.1462693393029526   0.25366201079406914
-5.624449952377404   -0.1462693393029526   0.25366201079406914
-4.113479140451876   -0.19357902269028804   -0.10543941170345209
-4.113479140451876   -0.19357902269028804   -0.10543941170345209
-4.113479140451876   -0.19357902269028804   -0.10543941170345209
-4.113479140451876   -0.19357902269028804   -0.10543941170345209
-4.596750391341377   -0.03987208320702629   -0.004064491402031967
-4.596750391341377   -0.03987208320702629   -0.004064491402031967
-4.596750391341377   -0.03987208320702629   -0.004064491402031967
-4.596750391341377   -0.03987208320702629   -0.004064491402031967
0.35357778758778524   0.02919371126780313   -0.2651389044929568
0.35357778758778524   0.02919371126780313   -0.2651389044929568
0.35357778758778524   0.02919371126780313   -0.2651389044929568
0.35357778758778524   0.02919371126780313   -0.2651389044929568
-0.4536167178309154   0.19969647343605307   0.13613372243735944
-0.4536167178309154   0.19969647343605307   0.13613372243735944
-0.4536167178309154   0.19969647343605307   0.13613372243735944
-0.4536167178309154   0.19969647343605307   0.13613372243735944
-0.6696348644372297   -0.25423162546931904   -0.21325342526586596
-0.6696348644372297   -0.25423162546931904   -0.21325342526586596
-0.6696348644372297   -0.25423162546931904   -0.21325342526586596
-0.6696348644372297   -0.25423162546931904   -0.21325342526586596
0.3208413280315044   0.27771725613140275   0.1674496093049742
0.3208413280315044   0.27771725613140275   0.1674496093049742
0.3208413280315044   0.27771725613140275   0.1674496093049742
0.3208413280315044   0.27771725613140275   0.1674496093049742
-0.1197347413013795   0.06089223386903224   0.023247434042334574
-0.1197347413013795   0.06089223386903224   0.023247434042334574
-0.1197347413013795   0.06089223386903224   0.023247434042334574
-0.1197347413013795   0.06089223386903224   0.023247434042334574
0.16611138493241534   -0.09177355046169207   -0.23670929959737633
0.16611138493241534   -0.09177355046169207   -0.23670929959737633
0.16611138493241534   -0.09177355046169207   -0.23670929959737633
0.16611138493241534   -0.09177355046169207   -0.23670929959737633
-0.5241228053606871   0.10604129710122936   0.15403394754629895
-0.5241228053606871   0.10604129710122936   0.15403394754629895
-0.5241228053606871   0.10604129710122936   0.15403394754629895
-0.5241228053606871   0.10604129710122936   0.15403394754629895
-0.7406431507669913   -0.3006156251966075   -0.18050713130409993
-0.7406431507669913   -0.3006156251966075   -0.18050713130409993
-0.7406431507669913   -0.3006156251966075   -0.18050713130409993
-0.7406431507669913   -0.3006156251966075   -0.18050713130409993
0.1742450281737288   0.21460076430937453   0.22933694394629522
0.1742450281737288   0.21460076430937453   0.22933694394629522
0.1742450281737288   0.21460076430937453   0.22933694394629522
0.1742450281737288   0.21460076430937453   0.22933694394629522
-0.23598128628214476   -0.008558473982414085   -0.030484207764691268
-0.23598128628214476   -0.008558473982414085   -0.030484207764691268
-0.23598128628214476   -0.008558473982414085   -0.030484207764691268
-0.23598128628214476   -0.008558473982414085   -0.030484207764691268
0.016025938749927728   -0.15217660733755903   -0.19498113152577656
0.016025938749927728   -0.15217660733755903   -0.19498113152577656
0.016025938749927728   -0.15217660733755903   -0.19498113152577656
0.016025938749927728   -0.15217660733755903   -0.19498113152577656
-0.5951824458493791   0.053403361944135946   0.1927774061432101
-0.5951824458493791   0.053403361944135946   0.1927774061432101
-0.5951824458493791   0.053403361944135946   0.1927774061432101
-0.5951824458493791   0.053403361944135946   0.1927774061432101
-0.805700802048575   -0.3724793174058399   -0.14945012517481376
-0.805700802048575   -0.3724793174058399   -0.14945012517481376
-0.805700802048575   -0.3724793174058399   -0.14945012517481376
-0.805700802048575   -0.3724793174058399   -0.14945012517481376
-0.029324775796541743   0.08191857669087227   0.26116544847943096
-0.029324775796541743   0.08191857669087227   0.26116544847943096
-0.029324775796541743   0.08191857669087227   0.26116544847943096
-0.029324775796541743   0.08191857669087227   0.26116544847943096
-0.35957482238370103   -0.07872524387534126   -0.09220136107473072
-0.35957482238370103   -0.07872524387534126   -0.09220136107473072
-0.35957482238370103   -0.07872524387534126   -0.09220136107473072
-0.35957482238370103   -0.07872524387534126   -0.09220136107473072
-0.5164193548068695   0.1279841743663096   -0.1061671633726682
-0.5164193548068695   0.1279841743663096   -0.1061671633726682
-0.5164193548068695   0.1279841743663096   -0.1061671633726682
-0.5164193548068695   0.1279841743663096   -0.1061671633726682
-1.2750830598733673   0.05351709901119783   0.035806754824081605
-1.2750830598733673   0.05351709901119783   0.035806754824081605
-1.2750830598733673   0.05351709901119783   0.035806754824081605
-1.2750830598733673   0.05351709901119783   0.035806754824081605
-1.3862068833353325   -0.14800010454185697   -0.11061894242605227
-1.3862068833353325   -0.14800010454185697   -0.11061894242605227
-1.3862068833353325   -0.14800010454185697   -0.11061894242605227
-1.3862068833353325   -0.14800010454185697   -0.11061894242605227
-0.5303675633636851   0.12333932999078653   0.10551212464175219
-0.5303675633636851   0.12333932999078653   0.10551212464175219
-0.5303675633636851   0.12333932999078653   0.10551212464175219
-0.5303675633636851   0.12333932999078653   0.10551212464175219
-0.9250061589304143   0.036691755438822304   0.01933448264188225
-0.9250061589304143   0.036691755438822304   0.01933448264188225
-0.9250061589304143   0.036691755438822304   0.01933448264188225
-0.9250061589304143   0.036691755438822304   0.01933448264188225
-0.5904004812949254   0.01585194778891863   -0.0871650828125815
-0.5904004812949254   0.01585194778891863   -0.0871650828125815
-0.5904004812949254   0.01585194778891863   -0.0871650828125815
-0.5904004812949254   0.01585194778891863   -0.0871650828125815
-1.3336922419143247   -0.048030998850224244   0.05198515898733782
-1.3336922419143247   -0.048030998850224244   0.05198515898733782
-1.3336922419143247   -0.048030998850224244   0.05198515898733782
-1.3336922419143247   -0.048030998850224244   0.05198515898733782
-1.441414225499735   -0.23919644246814353   -0.0814044318167027
-1.441414225499735   -0.23919644246814353   -0.0814044318167027
-1.441414225499735   -0.23919644246814353   -0.0814044318167027
-1.441414225499735   -0.23919644246814353   -0.0814044318167027
-0.6161088941590164   0.022600046810643398   0.11894847972851592
-0.6161088941590164   0.022600046810643398   0.11894847972851592
-0.6161088941590164   0.022600046810643398   0.11894847972851592
-0.6161088941590164   0.022600046810643398   0.11894847972851592
-0.9947652942882356   -0.0546399036095391   -0.026416573957778543
-0.9947652942882356   -0.0546399036095391   -0.026416573957778543
-0.9947652942882356   -0.0546399036095391   -0.026416573957778543
-0.9947652942882356   -0.0546399036095391   -0.026416573957778543
-0.6739225583767184   -0.08243431799172352   -0.06508547655761916
-0.6739225583767184   -0.08243431799172352   -0.06508547655761916
-0.6739225583767184   -0.08243431799172352   -0.06508547655761916
-0.6739225583767184   -0.08243431799172352   -0.06508547655761916
-1.3916603048637737   -0.1422218212475161   0.07039055014247587
-1.3916603048637737   -0.1422218212475161   0.07039055014247587
-1.3916603048637737   -0.1422218212475161   0.07039055014247587
-1.3916603048637737   -0.1422218212475161   0.07039055014247587
-1.4969859650908013   -0.3333649972032289   -0.0555178931598922
-1.4969859650908013   -0.3333649972032289   -0.0555178931598922
-1.4969859650908013   -0.3333649972032289   -0.0555178931598922
-1.4969859650908013   -0.3333649972032289   -0.0555178931598922
-0.6877676031438809   -0.07986929196055795   0.14760584390337098
-0.6877676031438809   -0.07986929196055795   0.14760584390337098
-0.6877676031438809   -0.07986929196055795   0.14760584390337098
-0.6877676031438809   -0.07986929196055795   0.14760584390337098
-1.0646663536876184   -0.14536561578593907   -0.0730494667200649
-1.0646663536876184   -0.14536561578593907   -0.0730494667200649
-1.0646663536876184   -0.14536561578593907   -0.0730494667200649
-1.0646663536876184   -0.14536561578593907   -0.0730494667200649
-1.2522956960604075   0.2145811308023009   -0.011320457902237263
-1.2522956960604075   0.2145811308023009   -0.011320457902237263
-1.2522956960604075   0.2145811308023009   -0.011320457902237263
-1.2522956960604075   0.2145811308023009   -0.011320457902237263
-2.0904544629090727   -0.07088003020245942   -0.05862755959713542
-2.0904544629090727   -0.07088003020245942   -0.05862755959713542
-2.0904544629090727   -0.07088003020245942   -0.05862755959713542
-2.0904544629090727   -0.07088003020245942   -0.05862755959713542
-2.1121471423331104   -0.0510308857617599   -0.011870949489628954
-2.1121471423331104   -0.0510308857617599   -0.011870949489628954
-2.1121471423331104   -0.0510308857617599   -0.011870949489628954
-2.1121471423331104   -0.0510308857617599   -0.011870949489628954
-1.3292811902955473   0.009788091077995553   0.0162213271530052
-1.3292811902955473   0.009788091077995553   0.0162213271530052
-1.3292811902955473   0.009788091077995553   0.0162213271530052
-1.3292811902955473   0.009788091077995553   0.0162213271530052
-1.6925488207173913   0.024038282594575244   0.006192268533038392
-1.6925488207173913   0.024038282594575244   0.006192268533038392
-1.6925488207173913   0.024038282594575244   0.006192268533038392
-1.6925488207173913   0.024038282594575244   0.006192268533038392
-1.3081782948298135   0.11536821062396568   0.016155684935702644
-1.3081782948298135   0.11536821062396568   0.016155684935702644
-1.3081782948298135   0.11536821062396568   0.016155684935702644
-1.3081782948298135   0.11536821062396568   0.016155684935702644
-2.1404646354896526   -0.163825602998539   -0.04066369803556205
-2.1404646354896526   -0.163825602998539   -0.04066369803556205
-2.1404646354896526   -0.163825602998539   -0.04066369803556205
-2.1404646354896526   -0.163825602998539   -0.04066369803556205
-2.163868742339718   -0.14899216654170755   0.015350709526948864
-2.163868742339718   -0.14899216654170755   0.015350709526948864
-2.163868742339718   -0.14899216654170755   0.015350709526948864
-2.163868742339718   -0.14899216654170755   0.015350709526948864
-1.3878967153483204   -0.08646982299863029   0.033456499470857486
-1.3878967153483204   -0.08646982299863029   0.033456499470857486
-1.3878967153483204   -0.08646982299863029   0.033456499470857486
-1.3878967153483204   -0.08646982299863029   0.033456499470857486
-1.7486795766143035   -0.06505040131277201   -0.03583789527126914
-1.7486795766143035   -0.06505040131277201   -0.03583789527126914
-1.7486795766143035   -0.06505040131277201   -0.03583789527126914
-1.7486795766143035   -0.06505040131277201   -0.03583789527126914
-1.3660867953475844   0.015584446872092372   0.04045182960381469
-1.3660867953475844   0.015584446872092372   0.04045182960381469
-1.3660867953475844   0.015584446872092372   0.04045182960381469
-1.3660867953475844   0.015584446872092372   0.04045182960381469
-2.1943699453532144   -0.25973771942517004   -0.026409752657069865
-2.1943699453532144   -0.25973771942517004   -0.026409752657069865
-2.1943699453532144   -0.25973771942517004   -0.026409752657069865
-2.1943699453532144   -0.25973771942517004   -0.026409752657069865
-2.214262008945779   -0.24304430528989926   0.04140908466995833
-2.214262008945779   -0.24304430528989926   0.04140908466995833
-2.214262008945779   -0.24304430528989926   0.04140908466995833
-2.214262008945779   -0.24304430528989926   0.04140908466995833
-1.4441129941283593   -0.17738534340832324   0.05286730785739735
-1.4441129941283593   -0.17738534340832324   0.05286730785739735
-1.4441129941283593   -0.17738534340832324   0.05286730785739735
-1.4441129941283593   -0.17738534340832324   0.05286730785739735
-1.8090824294312124   -0.15473522055014757   -0.08149973910510727
-1.8090824294312124   -0.15473522055014757   -0.08149973910510727
-1.8090824294312124   -0.15473522055014757   -0.08149973910510727
-1.8090824294312124   -0.15473522055014757   -0.08149973910510727
-1.9848114529812342   0.31242091192210875   0.08628654791752
-1.9848114529812342   0.31242091192210875   0.08628654791752
-1.9848114529812342   0.31242091192210875   0.08628654791752
-1.9848114529812342   0.31242091192210875   0.08628654791752
-2.8722675119133014   -0.11717109380846613   -0.1318198507194859
-2.8722675119133014   -0.11717109380846613   -0.1318198507194859
-2.8722675119133014   -0.11717109380846613   -0.1318198507194859
-2.8722675119133014   -0.11717109380846613   -0.1318198507194859
-2.8330365430733173   0.04909672321825598   0.09019113772951032
-2.8330365430733173   0.04909672321825598   0.09019113772951032
-2.8330365430733173   0.04909672321825598   0.09019113772951032
-2.8330365430733173   0.04909672321825598   0.09019113772951032
-2.1200169187760607   -0.04323889394675029   -0.059011823519391174
-2.1200169187760607   -0.04323889394675029   -0.059011823519391174
-2.1200169187760607   -0.04323889394675029   -0.059011823519391174
-2.1200169187760607   -0.04323889394675029   -0.059011823519391174
-2.444264286571736   0.050706671216122046   0.011290576131125135
-2.444264286571736   0.050706671216122046   0.011290576131125135
-2.444264286571736   0.050706671216122046   0.011290576131125135
-2.444264286571736   0.050706671216122046   0.011290576131125135
-2.0340773348725216   0.21361648143568635   0.11383072061586691
-2.0340773348725216   0.21361648143568635   0.11383072061586691
-2.0340773348725216   0.21361648143568635   0.11383072061586691
-2.0340773348725216   0.21361648143568635   0.11383072061586691
-2.9295052062257247   -0.2182877314130799   -0.12476772340125208
-2.9295052062257247   -0.2182877314130799   -0.12476772340125208
-2.9295052062257247   -0.2182877314130799   -0.12476772340125208
-2.9295052062257247   -0.2182877314130799   -0.12476772340125208
-2.9024397528762074   -0.04722230379650161   0.10642192294788913
-2.9024397528762074   -0.04722230379650161   0.10642192294788913
-2.9024397528762074   -0.04722230379650161   0.10642192294788913
-2.9024397528762074   -0.04722230379650161   0.10642192294788913
-2.171299125417526   -0.13060658081864113   -0.04018679158515799
-2.171299125417526   -0.13060658081864113   -0.04018679158515799
-2.171299125417526   -0.13060658081864113   -0.04018679158515799
-2.171299125417526   -0.13060658081864113   -0.04018679158515799
-2.4914621936357833   -0.03517232346523058   -0.03427714686592784
-2.4914621936357833   -0.03517232346523058   -0.03427714686592784
-2.4914621936357833   -0.03517232346523058   -0.03427714686592784
-2.4914621936357833   -0.03517232346523058   -0.03427714686592784
-2.084363942789114   0.12323748481582619   0.14064505592243473
-2.084363942789114   0.12323748481582619   0.14064505592243473
-2.084363942789114   0.12323748481582619   0.14064505592243473
-2.084363942789114   0.12323748481582619   0.14064505592243473
-2.9976890807966488   -0.3093805147230136   -0.10766650572789778
-2.9976890807966488   -0.3093805147230136   -0.10766650572789778
-2.9976890807966488   -0.3093805147230136   -0.10766650572789778
-2.9976890807966488   -0.3093805147230136   -0.10766650572789778
-2.958883774766866   -0.1440807144715261   0.1353793230773055
-2.958883774766866   -0.1440807144715261   0.1353793230773055
-2.958883774766866   -0.1440807144715261   0.1353793230773055
-2.958883774766866   -0.1440807144715261   0.1353793230773055
-2.222740276662678   -0.2199085701420928   -0.024117989062346426
-2.222740276662678   -0.2199085701420928   -0.024117989062346426
-2.222740276662678   -0.2199085701420928   -0.024117989062346426
-2.222740276662678   -0.2199085701420928   -0.024117989062346426
-2.5623097822699687   -0.12250661755937264   -0.08087898493728304
-2.5623097822699687   -0.12250661755937264   -0.08087898493728304
-2.5623097822699687   -0.12250661755937264   -0.08087898493728304
-2.5623097822699687   -0.12250661755937264   -0.08087898493728304
-2.720717672865329   0.33826890298704804   0.170489347724865
-2.720717672865329   0.33826890298704804   0.170489347724865
-2.720717672865329   0.33826890298704804   0.170489347724865
-2.720717672865329   0.33826890298704804   0.170489347724865
-3.489096888102147   -0.1735324772933966   -0.221743703994072
-3.489096888102147   -0.1735324772933966   -0.221743703994072
-3.489096888102147   -0.1735324772933966   -0.221743703994072
-3.489096888102147   -0.1735324772933966   -0.221743703994072
-3.4914431264308945   0.1388631975407313   0.1879254766653124
-3.4914431264308945   0.1388631975407313   0.1879254766653124
-3.4914431264308945   0.1388631975407313   0.1879254766653124
-3.4914431264308945   0.1388631975407313   0.1879254766653124
-2.908200477772633   -0.10079965618265274   -0.13573215636618952
-2.908200477772633   -0.10079965618265274   -0.13573215636618952
-2.908200477772633   -0.10079965618265274   -0.13573215636618952
-2.908200477772633   -0.10079965618265274   -0.13573215636618952
-3.025241216942538   0.08125934965309978   0.05755775954901712
-3.025241216942538   0.08125934965309978   0.05755775954901712
-3.025241216942538   0.08125934965309978   0.05755775954901712
-3.025241216942538   0.08125934965309978   0.05755775954901712
-2.7632376109097794   0.28714642472079366   0.2011360970446323
-2.7632376109097794   0.28714642472079366   0.2011360970446323
-2.7632376109097794   0.28714642472079366   0.2011360970446323
-2.7632376109097794   0.28714642472079366   0.2011360970446323
-3.6473054080225675   -0.2599822980915345   -0.19254043566066414
-3.6473054080225675   -0.2599822980915345   -0.19254043566066414
-3.6473054080225675   -0.2599822980915345   -0.19254043566066414
-3.6473054080225675   -0.2599822980915345   -0.19254043566066414
-3.6177195145094463   0.08415835169438524   0.2423179804708134
-3.6177195145094463   0.08415835169438524   0.2423179804708134
-3.6177195145094463   0.08415835169438524   0.2423179804708134
-3.6177195145094463   0.08415835169438524   0.2423179804708134
-2.968291349788386   -0.15099246631530638   -0.11906589909422963
-2.968291349788386   -0.15099246631530638   -0.11906589909422963
-2.968291349788386   -0.15099246631530638   -0.11906589909422963
-2.968291349788386   -0.15099246631530638   -0.11906589909422963
-3.175136589875234   0.014623539052973644   -0.005367423669361604
-3.175136589875234   0.014623539052973644   -0.005367423669361604
-3.175136589875234   0.014623539052973644   -0.005367423669361604
-3.175136589875234   0.014623539052973644   -0.005367423669361604
-2.8171966187219017   0.24406866061857013   0.24134662930431597
-2.8171966187219017   0.24406866061857013   0.24134662930431597
-2.8171966187219017   0.24406866061857013   0.24134662930431597
-2.8171966187219017   0.24406866061857013   0.24134662930431597
-3.7799706052970654   -0.3220591349606353   -0.1627199868121955
-3.7799706052970654   -0.3220591349606353   -0.1627199868121955
-3.7799706052970654   -0.3220591349606353   -0.1627199868121955
-3.7799706052970654   -0.3220591349606353   -0.1627199868121955
-3.8048165584398057   -0.059477479731941285   0.2564057210763336
-3.8048165584398057   -0.059477479731941285   0.2564057210763336
-3.8048165584398057   -0.059477479731941285   0.2564057210763336
-3.8048165584398057   -0.059477479731941285   0.2564057210763336
-3.0285977222962854   -0.2544158316317974   -0.10285529740958183
-3.0285977222962854   -0.2544158316317974   -0.10285529740958183
-3.0285977222962854   -0.2544158316317974   -0.10285529740958183
-3.0285977222962854   -0.2544158316317974   -0.10285529740958183
-3.23333351344789   -0.05118420142128355   -0.050249803976747276
-3.23333351344789   -0.05118420142128355   -0.050249803976747276
-3.23333351344789   -0.05118420142128355   -0.050249803976747276
-3.23333351344789   -0.05118420142128355   -0.050249803976747276
-1.5408095447695451   -0.10109754139109167   -0.2806435247597346
-1.5408095447695451   -0.10109754139109167   -0.2806435247597346
-1.5408095447695451   -0.10109754139109167   -0.2806435247597346
-1.5408095447695451   -0.10109754139109167   -0.2806435247597346
-1.5030384128335617   0.21638827078161438   0.12660964706116695
-1.5030384128335617   0.21638827078161438   0.12660964706116695
-1.5030384128335617   0.21638827078161438   0.12660964706116695
-1.5030384128335617   0.21638827078161438   0.12660964706116695
-1.687567489590772   -0.19538914018167908   -0.18967355463815833
-1.687567489590772   -0.19538914018167908   -0.18967355463815833
-1.687567489590772   -0.19538914018167908   -0.18967355463815833
-1.687567489590772   -0.19538914018167908   -0.18967355463815833
-1.5711055738088884   0.10923578796403333   0.1912173382751839
-1.5711055738088884   0.10923578796403333   0.1912173382751839
-1.5711055738088884   0.10923578796403333   0.1912173382751839
-1.5711055738088884   0.10923578796403333   0.1912173382751839
-1.496645872274039   0.035542393573729736   0.12914531973637833
-1.496645872274039   0.035542393573729736   0.12914531973637833
-1.496645872274039   0.035542393573729736   0.12914531973637833
-1.496645872274039   0.035542393573729736   0.12914531973637833
-1.7203216505869814   -0.21094226081959272   -0.23468499683163996
-1.7203216505869814   -0.21094226081959272   -0.23468499683163996
-1.7203216505869814   -0.21094226081959272   -0.23468499683163996
-1.7203216505869814   -0.21094226081959272   -0.23468499683163996
-1.5571249410087171   0.10601538040593195   0.16113466768450552
-1.5571249410087171   0.10601538040593195   0.16113466768450552
-1.5571249410087171   0.10601538040593195   0.16113466768450552
-1.5571249410087171   0.10601538040593195   0.16113466768450552
-1.7424882075289005   -0.24664869800198314   -0.16017713190798621
-1.7424882075289005   -0.24664869800198314   -0.16017713190798621
-1.7424882075289005   -0.24664869800198314   -0.16017713190798621
-1.7424882075289005   -0.24664869800198314   -0.16017713190798621
-1.7142922744735083   0.03921087732862161   0.35439934321791405
-1.7142922744735083   0.03921087732862161   0.35439934321791405
-1.7142922744735083   0.03921087732862161   0.35439934321791405
-1.7142922744735083   0.03921087732862161   0.35439934321791405
-1.6292775795466423   -0.05262092899476173   0.05119396301528528
-1.6292775795466423   -0.05262092899476173   0.05119396301528528
-1.6292775795466423   -0.05262092899476173   0.05119396301528528
-1.6292775795466423   -0.05262092899476173   0.05119396301528528
-1.8854239489292537   -0.27967504187241   -0.18237310985976746
-1.8854239489292537   -0.27967504187241   -0.18237310985976746
-1.8854239489292537   -0.27967504187241   -0.18237310985976746
-1.8854239489292537   -0.27967504187241   -0.18237310985976746
-1.6154468348993405   0.02814691937286551   0.20023411386496587
-1.6154468348993405   0.02814691937286551   0.20023411386496587
-1.6154468348993405   0.02814691937286551   0.20023411386496587
-1.6154468348993405   0.02814691937286551   0.20023411386496587
-1.787324177877495   -0.3470632457827376   -0.12574426180778783
-1.787324177877495   -0.3470632457827376   -0.12574426180778783
-1.787324177877495   -0.3470632457827376   -0.12574426180778783
-1.787324177877495   -0.3470632457827376   -0.12574426180778783
-1.9371534434852937   -0.19217783833208332   0.33184432065576613
-1.9371534434852937   -0.19217783833208332   0.33184432065576613
-1.9371534434852937   -0.19217783833208332   0.33184432065576613
-1.9371534434852937   -0.19217783833208332   0.33184432065576613
-1.7428433147032136   -0.1569745736929563   -0.07175245624279668
-1.7428433147032136   -0.1569745736929563   -0.07175245624279668
-1.7428433147032136   -0.1569745736929563   -0.07175245624279668
-1.7428433147032136   -0.1569745736929563   -0.07175245624279668
-1.610628292853069   -0.049786329167073595   -0.14516515308769662
-1.610628292853069   -0.049786329167073595   -0.14516515308769662
-1.610628292853069   -0.049786329167073595   -0.14516515308769662
-1.610628292853069   -0.049786329167073595   -0.14516515308769662
-1.6160341899598576   -0.19788672082705316   -0.00833958671105621
-1.6160341899598576   -0.19788672082705316   -0.00833958671105621
-1.6160341899598576   -0.19788672082705316   -0.00833958671105621
-1.6160341899598576   -0.19788672082705316   -0.00833958671105621
-1.6265596243820544   -0.1312915653304342   -0.07145029094598218
-1.6265596243820544   -0.1312915653304342   -0.07145029094598218
-1.6265596243820544   -0.1312915653304342   -0.07145029094598218
-1.6265596243820544   -0.1312915653304342   -0.07145029094598218
-1.6657213141335896   -0.2721893584823033   -0.0036424590516221864
-1.6657213141335896   -0.2721893584823033   -0.0036424590516221864
-1.6657213141335896   -0.2721893584823033   -0.0036424590516221864
-1.6657213141335896   -0.2721893584823033   -0.0036424590516221864
-1.6158211452147992   -0.16982362461919198   -0.006816157226331748
-1.6158211452147992   -0.16982362461919198   -0.006816157226331748
-1.6158211452147992   -0.16982362461919198   -0.006816157226331748
-1.6158211452147992   -0.16982362461919198   -0.006816157226331748
-1.6656275376594032   -0.1499063973577557   -0.12545653780524083
-1.6656275376594032   -0.1499063973577557   -0.12545653780524083
-1.6656275376594032   -0.1499063973577557   -0.12545653780524083
-1.6656275376594032   -0.1499063973577557   -0.12545653780524083
-1.6370238854173744   -0.2639450110161188   0.008881849563085638
-1.6370238854173744   -0.2639450110161188   0.008881849563085638
-1.6370238854173744   -0.2639450110161188   0.008881849563085638
-1.6370238854173744   -0.2639450110161188   0.008881849563085638
-1.6527590562222256   -0.21767091913389686   -0.04575618793097612
-1.6527590562222256   -0.21767091913389686   -0.04575618793097612
-1.6527590562222256   -0.21767091913389686   -0.04575618793097612
-1.6527590562222256   -0.21767091913389686   -0.04575618793097612
-1.7244167139261808   -0.3524513324301639   0.035982970533793596
-1.7244167139261808   -0.3524513324301639   0.035982970533793596
-1.7244167139261808   -0.3524513324301639   0.035982970533793596
-1.7244167139261808   -0.3524513324301639   0.035982970533793596
-1.6516122460551124   -0.23941452637705055   -0.04655942995601498
-1.6516122460551124   -0.23941452637705055   -0.04655942995601498
-1.6516122460551124   -0.23941452637705055   -0.04655942995601498
-1.6516122460551124   -0.23941452637705055   -0.04655942995601498
-1.728146337101847   -0.2421836943988257   -0.09293278337587604
-1.728146337101847   -0.2421836943988257   -0.09293278337587604
-1.728146337101847   -0.2421836943988257   -0.09293278337587604
-1.728146337101847   -0.2421836943988257   -0.09293278337587604
-1.6623080873763099   -0.34121721149501366   0.03004494865967408
-1.6623080873763099   -0.34121721149501366   0.03004494865967408
-1.6623080873763099   -0.34121721149501366   0.03004494865967408
-1.6623080873763099   -0.34121721149501366   0.03004494865967408
-1.6761252822703443   -0.31111834665040805   -0.020281750419416197
-1.6761252822703443   -0.31111834665040805   -0.020281750419416197
-1.6761252822703443   -0.31111834665040805   -0.020281750419416197
-1.6761252822703443   -0.31111834665040805   -0.020281750419416197
-1.7691735726973736   -0.45492822010059386   0.07287373841066733
-1.7691735726973736   -0.45492822010059386   0.07287373841066733
-1.7691735726973736   -0.45492822010059386   0.07287373841066733
-1.7691735726973736   -0.45492822010059386   0.07287373841066733
-1.7014308657247257   -0.3239978880943817   -0.09734140402695961
-1.7014308657247257   -0.3239978880943817   -0.09734140402695961
-1.7014308657247257   -0.3239978880943817   -0.09734140402695961
-1.7014308657247257   -0.3239978880943817   -0.09734140402695961
-1.5722498312537896   0.039187921038750684   -0.02649243504649071
-1.5722498312537896   0.039187921038750684   -0.02649243504649071
-1.5722498312537896   0.039187921038750684   -0.02649243504649071
-1.5722498312537896   0.039187921038750684   -0.02649243504649071
-1.7649943925430591   -0.334907901436239   -0.08422830447569087
-1.7649943925430591   -0.334907901436239   -0.08422830447569087
-1.7649943925430591   -0.334907901436239   -0.08422830447569087
-1.7649943925430591   -0.334907901436239   -0.08422830447569087
-1.6917978579855035   -0.06135786917185676   0.023008193593699794
-1.6917978579855035   -0.06135786917185676   0.023008193593699794
-1.6917978579855035   -0.06135786917185676   0.023008193593699794
-1.6917978579855035   -0.06135786917185676   0.023008193593699794
-1.6695206683326793   -0.3650729481744551   -0.05247412785510076
-1.6695206683326793   -0.3650729481744551   -0.05247412785510076
-1.6695206683326793   -0.3650729481744551   -0.05247412785510076
-1.6695206683326793   -0.3650729481744551   -0.05247412785510076
-1.6734799408901622   -0.186212316234039   -0.038510652424185526
-1.6734799408901622   -0.186212316234039   -0.038510652424185526
-1.6734799408901622   -0.186212316234039   -0.038510652424185526
-1.6734799408901622   -0.186212316234039   -0.038510652424185526
-1.59536531712787   -0.04668921976680751   -8.110023868709848e-05
-1.59536531712787   -0.04668921976680751   -8.110023868709848e-05
-1.59536531712787   -0.04668921976680751   -8.110023868709848e-05
-1.59536531712787   -0.04668921976680751   -8.110023868709848e-05
-1.7753448817548674   -0.3891332701440721   -0.06695152428093586
-1.7753448817548674   -0.3891332701440721   -0.06695152428093586
-1.7753448817548674   -0.3891332701440721   -0.06695152428093586
-1.7753448817548674   -0.3891332701440721   -0.06695152428093586
-1.7103231154738576   -0.14793797667130013   0.04854213123304551
-1.7103231154738576   -0.14793797667130013   0.04854213123304551
-1.7103231154738576   -0.14793797667130013   0.04854213123304551
-1.7103231154738576   -0.14793797667130013   0.04854213123304551
-1.694032967231844   -0.43338808126366213   -0.03640858084931715
-1.694032967231844   -0.43338808126366213   -0.03640858084931715
-1.694032967231844   -0.43338808126366213   -0.03640858084931715
-1.694032967231844   -0.43338808126366213   -0.03640858084931715
-1.6932670655698128   -0.2522576522196997   -0.07258215517344684
-1.6932670655698128   -0.2522576522196997   -0.07258215517344684
-1.6932670655698128   -0.2522576522196997   -0.07258215517344684
-1.6932670655698128   -0.2522576522196997   -0.07258215517344684
-1.621863706582051   -0.13478716076026925   0.02583680189627062
-1.621863706582051   -0.13478716076026925   0.02583680189627062
-1.621863706582051   -0.13478716076026925   0.02583680189627062
-1.621863706582051   -0.13478716076026925   0.02583680189627062
-1.792982124931109   -0.45702864598213366   -0.05566224674240967
-1.792982124931109   -0.45702864598213366   -0.05566224674240967
-1.792982124931109   -0.45702864598213366   -0.05566224674240967
-1.792982124931109   -0.45702864598213366   -0.05566224674240967
-1.725222030844976   -0.2294866015595869   0.07347005381769595
-1.725222030844976   -0.2294866015595869   0.07347005381769595
-1.725222030844976   -0.2294866015595869   0.07347005381769595
-1.725222030844976   -0.2294866015595869   0.07347005381769595
-1.7119761390621666   -0.4991743013753682   -0.011480079653568016
-1.7119761390621666   -0.4991743013753682   -0.011480079653568016
-1.7119761390621666   -0.4991743013753682   -0.011480079653568016
-1.7119761390621666   -0.4991743013753682   -0.011480079653568016
-1.7169890657530722   -0.3213793943897533   -0.1100324514975528
-1.7169890657530722   -0.3213793943897533   -0.1100324514975528
-1.7169890657530722   -0.3213793943897533   -0.1100324514975528
-1.7169890657530722   -0.3213793943897533   -0.1100324514975528
-1.6298285799165086   0.1741826951491287   0.08251016207169506
-1.6298285799165086   0.1741826951491287   0.08251016207169506
-1.6298285799165086   0.1741826951491287   0.08251016207169506
-1.6298285799165086   0.1741826951491287   0.08251016207169506
-1.9143397584356392   -0.24818365850625584   -0.11683775582272204
-1.9143397584356392   -0.24818365850625584   -0.11683775582272204
-1.9143397584356392   -0.24818365850625584   -0.11683775582272204
-1.9143397584356392   -0.24818365850625584   -0.11683775582272204
-1.8094304686039917   0.05366366263784483   0.11491450923163826
-1.8094304686039917   0.05366366263784483   0.11491450923163826
-1.8094304686039917   0.05366366263784483   0.11491450923163826
-1.8094304686039917   0.05366366263784483   0.11491450923163826
-1.7543945908073577   -0.2801721465384367   -0.07116119314899122
-1.7543945908073577   -0.2801721465384367   -0.07116119314899122
-1.7543945908073577   -0.2801721465384367   -0.07116119314899122
-1.7543945908073577   -0.2801721465384367   -0.07116119314899122
-1.777045759086323   -0.07320204230091526   -0.023015182804740797
-1.777045759086323   -0.07320204230091526   -0.023015182804740797
-1.777045759086323   -0.07320204230091526   -0.023015182804740797
-1.777045759086323   -0.07320204230091526   -0.023015182804740797
-1.645486246473638   0.0850927346781849   0.10811564730298484
-1.645486246473638   0.0850927346781849   0.10811564730298484
-1.645486246473638   0.0850927346781849   0.10811564730298484
-1.645486246473638   0.0850927346781849   0.10811564730298484
-1.9307786858486065   -0.3240410914896719   -0.11412182286391859
-1.9307786858486065   -0.3240410914896719   -0.11412182286391859
-1.9307786858486065   -0.3240410914896719   -0.11412182286391859
-1.9307786858486065   -0.3240410914896719   -0.11412182286391859
-1.8422525552136584   -0.03072066442089144   0.13019622019959975
-1.8422525552136584   -0.03072066442089144   0.13019622019959975
-1.8422525552136584   -0.03072066442089144   0.13019622019959975
-1.8422525552136584   -0.03072066442089144   0.13019622019959975
-1.770392010252428   -0.3430050194828952   -0.05673529984821259
-1.770392010252428   -0.3430050194828952   -0.05673529984821259
-1.770392010252428   -0.3430050194828952   -0.05673529984821259
-1.770392010252428   -0.3430050194828952   -0.05673529984821259
-1.793220809247385   -0.14469869597809537   -0.06294129481200053
-1.793220809247385   -0.14469869597809537   -0.06294129481200053
-1.793220809247385   -0.14469869597809537   -0.06294129481200053
-1.793220809247385   -0.14469869597809537   -0.06294129481200053
-1.6626870562956384   0.005758401177775041   0.13302604927503514
-1.6626870562956384   0.005758401177775041   0.13302604927503514
-1.6626870562956384   0.005758401177775041   0.13302604927503514
-1.6626870562956384   0.005758401177775041   0.13302604927503514
-1.9607437904193847   -0.39027036633053425   -0.10271025391939008
-1.9607437904193847   -0.39027036633053425   -0.10271025391939008
-1.9607437904193847   -0.39027036633053425   -0.10271025391939008
-1.9607437904193847   -0.39027036633053425   -0.10271025391939008
-1.8637123757151326   -0.1115400046807421   0.1586969372968613
-1.8637123757151326   -0.1115400046807421   0.1586969372968613
-1.8637123757151326   -0.1115400046807421   0.1586969372968613
-1.8637123757151326   -0.1115400046807421   0.1586969372968613
-1.7839668160158564   -0.40607251486115997   -0.04366795873516437
-1.7839668160158564   -0.40607251486115997   -0.04366795873516437
-1.7839668160158564   -0.40607251486115997   -0.04366795873516437
-1.7839668160158564   -0.40607251486115997   -0.04366795873516437
-1.8220094616648572   -0.21189728281868786   -0.10155404891169224
-1.8220094616648572   -0.21189728281868786   -0.10155404891169224
-1.8220094616648572   -0.21189728281868786   -0.10155404891169224
-1.8220094616648572   -0.21189728281868786   -0.10155404891169224
-1.7585106640912809   0.2497985998218103   0.1643254575709735
-1.7585106640912809   0.2497985998218103   0.1643254575709735
-1.7585106640912809   0.2497985998218103   0.1643254575709735
-1.7585106640912809   0.2497985998218103   0.1643254575709735
-1.8651063104311771   -0.14850081572215335   -0.1697792355803332
-1.8651063104311771   -0.14850081572215335   -0.1697792355803332
-1.8651063104311771   -0.14850081572215335   -0.1697792355803332
-1.8651063104311771   -0.14850081572215335   -0.1697792355803332
-1.821453131224204   0.18020265934198954   0.18253207470859234
-1.821453131224204   0.18020265934198954   0.18253207470859234
-1.821453131224204   0.18020265934198954   0.18253207470859234
-1.821453131224204   0.18020265934198954   0.18253207470859234
-1.9027574918730314   -0.19431031138899807   -0.10374663308674968
-1.9027574918730314   -0.19431031138899807   -0.10374663308674968
-1.9027574918730314   -0.19431031138899807   -0.10374663308674968
-1.9027574918730314   -0.19431031138899807   -0.10374663308674968
-1.7749581702619683   0.045473834774779176   0.005757974071754587
-1.7749581702619683   0.045473834774779176   0.005757974071754587
-1.7749581702619683   0.045473834774779176   0.005757974071754587
-1.7749581702619683   0.045473834774779176   0.005757974071754587
-1.7666129658721896   0.19266451214696667   0.19000117338146427
-1.7666129658721896   0.19266451214696667   0.19000117338146427
-1.7666129658721896   0.19266451214696667   0.19000117338146427
-1.7666129658721896   0.19266451214696667   0.19000117338146427
-1.9676613509149736   -0.2168358578839084   -0.15147050651935923
-1.9676613509149736   -0.2168358578839084   -0.15147050651935923
-1.9676613509149736   -0.2168358578839084   -0.15147050651935923
-1.9676613509149736   -0.2168358578839084   -0.15147050651935923
-1.901720012173091   0.13317666838761044   0.2352084368050594
-1.901720012173091   0.13317666838761044   0.2352084368050594
-1.901720012173091   0.13317666838761044   0.2352084368050594
-1.901720012173091   0.13317666838761044   0.2352084368050594
-1.9273577127607768   -0.23118401834041563   -0.09486621361650144
-1.9273577127607768   -0.23118401834041563   -0.09486621361650144
-1.9273577127607768   -0.23118401834041563   -0.09486621361650144
-1.9273577127607768   -0.23118401834041563   -0.09486621361650144
-1.861248199582184   -0.01161332519560565   -0.041032112428249265
-1.861248199582184   -0.01161332519560565   -0.041032112428249265
-1.861248199582184   -0.01161332519560565   -0.041032112428249265
-1.861248199582184   -0.01161332519560565   -0.041032112428249265
-1.7856567412889786   0.1548654669031968   0.22758915849887837
-1.7856567412889786   0.1548654669031968   0.22758915849887837
-1.7856567412889786   0.1548654669031968   0.22758915849887837
-1.7856567412889786   0.1548654669031968   0.22758915849887837
-2.056620509275211   -0.2660723424863133   -0.14004503783155536
-2.056620509275211   -0.2660723424863133   -0.14004503783155536
-2.056620509275211   -0.2660723424863133   -0.14004503783155536
-2.056620509275211   -0.2660723424863133   -0.14004503783155536
-2.044513752068402   0.01325902506336285   0.251435015838336
-2.044513752068402   0.01325902506336285   0.251435015838336
-2.044513752068402   0.01325902506336285   0.251435015838336
-2.044513752068402   0.01325902506336285   0.251435015838336
-1.9496985340861448   -0.30027227487692254   -0.08250158436201976
-1.9496985340861448   -0.30027227487692254   -0.08250158436201976
-1.9496985340861448   -0.30027227487692254   -0.08250158436201976
-1.9496985340861448   -0.30027227487692254   -0.08250158436201976
-1.9022479663311378   -0.06394404164312179   -0.08345735520209782
-1.9022479663311378   -0.06394404164312179   -0.08345735520209782
-1.9022479663311378   -0.06394404164312179   -0.08345735520209782
-1.9022479663311378   -0.06394404164312179   -0.08345735520209782
-3.8578174181514573   -0.35154572638688875   -0.35828133346351476
-3.8578174181514573   -0.35154572638688875   -0.35828133346351476
-3.8578174181514573   -0.35154572638688875   -0.35828133346351476
-3.8578174181514573   -0.35154572638688875   -0.35828133346351476
-2.4347749488054573   0.21259223312358988   0.0848550624557034
-2.4347749488054573   0.21259223312358988   0.0848550624557034
-2.4347749488054573   0.21259223312358988   0.0848550624557034
-2.4347749488054573   0.21259223312358988   0.0848550624557034
-2.5553113329557195   -0.15757640598363254   -0.15863787231631404
-2.5553113329557195   -0.15757640598363254   -0.15863787231631404
-2.5553113329557195   -0.15757640598363254   -0.15863787231631404
-2.5553113329557195   -0.15757640598363254   -0.15863787231631404
-4.094961195688462   -0.4543697052954224   0.40438293196264175
-4.094961195688462   -0.4543697052954224   0.40438293196264175
-4.094961195688462   -0.4543697052954224   0.40438293196264175
-4.094961195688462   -0.4543697052954224   0.40438293196264175
-2.9761741477294525   -0.11093319372533583   0.390695249804048
-2.9761741477294525   -0.11093319372533583   0.390695249804048
-2.9761741477294525   -0.11093319372533583   0.390695249804048
-2.9761741477294525   -0.11093319372533583   0.390695249804048
-4.24034064065833   -0.5151929105810903   -0.26169108760099236
-4.24034064065833   -0.5151929105810903   -0.26169108760099236
-4.24034064065833   -0.5151929105810903   -0.26169108760099236
-4.24034064065833   -0.5151929105810903   -0.26169108760099236
-2.511990859269288   -0.19881217198139456   0.09920026211360664
-2.511990859269288   -0.19881217198139456   0.09920026211360664
-2.511990859269288   -0.19881217198139456   0.09920026211360664
-2.511990859269288   -0.19881217198139456   0.09920026211360664
-2.5920877933869266   -0.22983363632511394   -0.11302770613734471
-2.5920877933869266   -0.22983363632511394   -0.11302770613734471
-2.5920877933869266   -0.22983363632511394   -0.11302770613734471
-2.5920877933869266   -0.22983363632511394   -0.11302770613734471
-4.221821114982568   -0.6358151873232383   0.011861284967370274
-4.221821114982568   -0.6358151873232383   0.011861284967370274
-4.221821114982568   -0.6358151873232383   0.011861284967370274
-4.221821114982568   -0.6358151873232383   0.011861284967370274
-3.2902695950835086   -0.3837237105542775   0.08961190865727699
-3.2902695950835086   -0.3837237105542775   0.08961190865727699
-3.2902695950835086   -0.3837237105542775   0.08961190865727699
-3.2902695950835086   -0.3837237105542775   0.08961190865727699
-4.255339249290729   -0.5818227508814438   -0.20972182301519204
-4.255339249290729   -0.5818227508814438   -0.20972182301519204
-4.255339249290729   -0.5818227508814438   -0.20972182301519204
-4.255339249290729   -0.5818227508814438   -0.20972182301519204
-2.589727653780893   -0.3149840674690325   -0.016076576963275906
-2.589727653780893   -0.3149840674690325   -0.016076576963275906
-2.589727653780893   -0.3149840674690325   -0.016076576963275906
-2.589727653780893   -0.3149840674690325   -0.016076576963275906
-2.5915808780474965   -0.40578813031617145   -0.08177970470247181
-2.5915808780474965   -0.40578813031617145   -0.08177970470247181
-2.5915808780474965   -0.40578813031617145   -0.08177970470247181
-2.5915808780474965   -0.40578813031617145   -0.08177970470247181
-4.318592057824639   -0.972586237921572   0.06655632227646718
-4.318592057824639   -0.972586237921572   0.06655632227646718
-4.318592057824639   -0.972586237921572   0.06655632227646718
-4.318592057824639   -0.972586237921572   0.06655632227646718
-3.283969082001917   -0.5280571410036001   0.0059209347199083995
-3.283969082001917   -0.5280571410036001   0.0059209347199083995
-3.283969082001917   -0.5280571410036001   0.0059209347199083995
-3.283969082001917   -0.5280571410036001   0.0059209347199083995
-2.6294805338073877   -0.44510349845034575   -0.23097713097998956
-2.6294805338073877   -0.44510349845034575   -0.23097713097998956
-2.6294805338073877   -0.44510349845034575   -0.23097713097998956
-2.6294805338073877   -0.44510349845034575   -0.23097713097998956
-1.7968091776636754   -1.15012098799271   -0.2161614159691021
-1.7968091776636754   -1.15012098799271   -0.2161614159691021
-1.7968091776636754   -1.15012098799271   -0.2161614159691021
-1.7968091776636754   -1.15012098799271   -0.2161614159691021
-1.5788739521990651   -0.2566223263372618   -0.012654660260939303
-1.5788739521990651   -0.2566223263372618   -0.012654660260939303
-1.5788739521990651   -0.2566223263372618   -0.012654660260939303
-1.5788739521990651   -0.2566223263372618   -0.012654660260939303
-2.7913697020320685   -1.222936490722796   -0.273569632958896
-2.7913697020320685   -1.222936490722796   -0.273569632958896
-2.7913697020320685   -1.222936490722796   -0.273569632958896
-2.7913697020320685   -1.222936490722796   -0.273569632958896
-2.1733743687204896   -0.8164992026993385   -0.06305898737039595
-2.1733743687204896   -0.8164992026993385   -0.06305898737039595
-2.1733743687204896   -0.8164992026993385   -0.06305898737039595
-2.1733743687204896   -0.8164992026993385   -0.06305898737039595
-2.626453870339757   -0.4983273091310312   -0.17359965608909422
-2.626453870339757   -0.4983273091310312   -0.17359965608909422
-2.626453870339757   -0.4983273091310312   -0.17359965608909422
-2.626453870339757   -0.4983273091310312   -0.17359965608909422
-1.754491226580763   -0.9919329506184138   -0.1554304078882913
-1.754491226580763   -0.9919329506184138   -0.1554304078882913
-1.754491226580763   -0.9919329506184138   -0.1554304078882913
-1.754491226580763   -0.9919329506184138   -0.1554304078882913
-1.5945838733812168   -0.332968320409606   0.0035651900916195117
-1.5945838733812168   -0.332968320409606   0.0035651900916195117
-1.5945838733812168   -0.332968320409606   0.0035651900916195117
-1.5945838733812168   -0.332968320409606   0.0035651900916195117
-2.7992226031322955   -1.216709782438837   -0.16182560875048335
-2.7992226031322955   -1.216709782438837   -0.16182560875048335
-2.7992226031322955   -1.216709782438837   -0.16182560875048335
-2.7992226031322955   -1.216709782438837   -0.16182560875048335
-2.14771105547173   -0.7654044562877274   -0.06696997227921996
-2.14771105547173   -0.7654044562877274   -0.06696997227921996
-2.14771105547173   -0.7654044562877274   -0.06696997227921996
-2.14771105547173   -0.7654044562877274   -0.06696997227921996
-2.664203496210879   -0.5735777119252554   -0.1298621446569652
-2.664203496210879   -0.5735777119252554   -0.1298621446569652
-2.664203496210879   -0.5735777119252554   -0.1298621446569652
-2.664203496210879   -0.5735777119252554   -0.1298621446569652
-1.751563468321827   -0.9980608789423784   -0.11624022607865775
-1.751563468321827   -0.9980608789423784   -0.11624022607865775
-1.751563468321827   -0.9980608789423784   -0.11624022607865775
-1.751563468321827   -0.9980608789423784   -0.11624022607865775
-1.591383145641468   -0.4285939651150179   0.026754586282641747
-1.591383145641468   -0.4285939651150179   0.026754586282641747
-1.591383145641468   -0.4285939651150179   0.026754586282641747
-1.591383145641468   -0.4285939651150179   0.026754586282641747
-2.789884570556861   -1.238312625617365   -0.24077367194813604
-2.789884570556861   -1.238312625617365   -0.24077367194813604
-2.789884570556861   -1.238312625617365   -0.24077367194813604
-2.789884570556861   -1.238312625617365   -0.24077367194813604
-2.17760206088981   -0.823802415337463   -0.12415664360732422
-2.17760206088981   -0.823802415337463   -0.12415664360732422
-2.17760206088981   -0.823802415337463   -0.12415664360732422
-2.17760206088981   -0.823802415337463   -0.12415664360732422
-1.5846748761309484   -0.2859337637652617   -0.019677132532915323
-1.5846748761309484   -0.2859337637652617   -0.019677132532915323
-1.5846748761309484   -0.2859337637652617   -0.019677132532915323
-1.5846748761309484   -0.2859337637652617   -0.019677132532915323
-1.3189670324553104   -0.8778354368846528   -0.15156533314203036
-1.3189670324553104   -0.8778354368846528   -0.15156533314203036
-1.3189670324553104   -0.8778354368846528   -0.15156533314203036
-1.3189670324553104   -0.8778354368846528   -0.15156533314203036
-1.1361804626922034   -0.23563215533228582   0.06138963071527019
-1.1361804626922034   -0.23563215533228582   0.06138963071527019
-1.1361804626922034   -0.23563215533228582   0.06138963071527019
-1.1361804626922034   -0.23563215533228582   0.06138963071527019
-1.7500360050958392   -0.9569205560209106   -0.16816669506117604
-1.7500360050958392   -0.9569205560209106   -0.16816669506117604
-1.7500360050958392   -0.9569205560209106   -0.16816669506117604
-1.7500360050958392   -0.9569205560209106   -0.16816669506117604
-1.4409470729125595   -0.5976754159972253   -0.070117587391291
-1.4409470729125595   -0.5976754159972253   -0.070117587391291
-1.4409470729125595   -0.5976754159972253   -0.070117587391291
-1.4409470729125595   -0.5976754159972253   -0.070117587391291
-1.5921312721124452   -0.33851080049367627   0.0029472143285598053
-1.5921312721124452   -0.33851080049367627   0.0029472143285598053
-1.5921312721124452   -0.33851080049367627   0.0029472143285598053
-1.5921312721124452   -0.33851080049367627   0.0029472143285598053
-1.303490944934027   -0.8634476601179497   -0.1473472757081526
-1.303490944934027   -0.8634476601179497   -0.1473472757081526
-1.303490944934027   -0.8634476601179497   -0.1473472757081526
-1.303490944934027   -0.8634476601179497   -0.1473472757081526
-1.1344198394495275   -0.29830386655786045   0.0793993648973752
-1.1344198394495275   -0.29830386655786045   0.0793993648973752
-1.1344198394495275   -0.29830386655786045   0.0793993648973752
-1.1344198394495275   -0.29830386655786045   0.0793993648973752
-1.753377221433732   -0.9721240448711322   -0.15124582570942907
-1.753377221433732   -0.9721240448711322   -0.15124582570942907
-1.753377221433732   -0.9721240448711322   -0.15124582570942907
-1.753377221433732   -0.9721240448711322   -0.15124582570942907
-1.4365222462399463   -0.6215399853558292   -0.09093588459364736
-1.4365222462399463   -0.6215399853558292   -0.09093588459364736
-1.4365222462399463   -0.6215399853558292   -0.09093588459364736
-1.4365222462399463   -0.6215399853558292   -0.09093588459364736
-1.6031563201344359   -0.40198675707594456   0.02972139299186282
-1.6031563201344359   -0.40198675707594456   0.02972139299186282
-1.6031563201344359   -0.40198675707594456   0.02972139299186282
-1.6031563201344359   -0.40198675707594456   0.02972139299186282
-1.2897809805687728   -0.8735813941730025   -0.12212881308370907
-1.2897809805687728   -0.8735813941730025   -0.12212881308370907
-1.2897809805687728   -0.8735813941730025   -0.12212881308370907
-1.2897809805687728   -0.8735813941730025   -0.12212881308370907
-1.1186102088606467   -0.35841825653202186   0.09893421436170521
-1.1186102088606467   -0.35841825653202186   0.09893421436170521
-1.1186102088606467   -0.35841825653202186   0.09893421436170521
-1.1186102088606467   -0.35841825653202186   0.09893421436170521
-1.7298998059573192   -0.9851061354952921   -0.10931654491633935
-1.7298998059573192   -0.9851061354952921   -0.10931654491633935
-1.7298998059573192   -0.9851061354952921   -0.10931654491633935
-1.7298998059573192   -0.9851061354952921   -0.10931654491633935
-1.4298070359792614   -0.6526215196816321   -0.10506158108257697
-1.4298070359792614   -0.6526215196816321   -0.10506158108257697
-1.4298070359792614   -0.6526215196816321   -0.10506158108257697
-1.4298070359792614   -0.6526215196816321   -0.10506158108257697
-1.0995954208706415   -0.040313151874483144   0.10777043977114381
-1.0995954208706415   -0.040313151874483144   0.10777043977114381
-1.0995954208706415   -0.040313151874483144   0.10777043977114381
-1.0995954208706415   -0.040313151874483144   0.10777043977114381
-1.0293452462525752   -0.4625630594411646   -0.08977866380843534
-1.0293452462525752   -0.4625630594411646   -0.08977866380843534
-1.0293452462525752   -0.4625630594411646   -0.08977866380843534
-1.0293452462525752   -0.4625630594411646   -0.08977866380843534
-0.8854507071883382   -0.0671205978742049   0.12515266655314836
-0.8854507071883382   -0.0671205978742049   0.12515266655314836
-0.8854507071883382   -0.0671205978742049   0.12515266655314836
-0.8854507071883382   -0.0671205978742049   0.12515266655314836
-1.2215927268621407   -0.53731705068353   -0.06398679478317301
-1.2215927268621407   -0.53731705068353   -0.06398679478317301
-1.2215927268621407   -0.53731705068353   -0.06398679478317301
-1.2215927268621407   -0.53731705068353   -0.06398679478317301
-1.0626143215799204   -0.2744418582945362   -0.03791667694312902
-1.0626143215799204   -0.2744418582945362   -0.03791667694312902
-1.0626143215799204   -0.2744418582945362   -0.03791667694312902
-1.0626143215799204   -0.2744418582945362   -0.03791667694312902
-1.0984568652009767   -0.1098977251829489   0.12427318802206694
-1.0984568652009767   -0.1098977251829489   0.12427318802206694
-1.0984568652009767   -0.1098977251829489   0.12427318802206694
-1.0984568652009767   -0.1098977251829489   0.12427318802206694
-1.0184810500234271   -0.5044344045487108   -0.10268524094779075
-1.0184810500234271   -0.5044344045487108   -0.10268524094779075
-1.0184810500234271   -0.5044344045487108   -0.10268524094779075
-1.0184810500234271   -0.5044344045487108   -0.10268524094779075
-0.8846723547681913   -0.12763801675666436   0.13438005829876593
-0.8846723547681913   -0.12763801675666436   0.13438005829876593
-0.8846723547681913   -0.12763801675666436   0.13438005829876593
-0.8846723547681913   -0.12763801675666436   0.13438005829876593
-1.218971324150106   -0.5699234213629989   -0.07173850380037865
-1.218971324150106   -0.5699234213629989   -0.07173850380037865
-1.218971324150106   -0.5699234213629989   -0.07173850380037865
-1.218971324150106   -0.5699234213629989   -0.07173850380037865
-1.0560532729255794   -0.3232245573427713   -0.06417107313497285
-1.0560532729255794   -0.3232245573427713   -0.06417107313497285
-1.0560532729255794   -0.3232245573427713   -0.06417107313497285
-1.0560532729255794   -0.3232245573427713   -0.06417107313497285
-1.0960542795811838   -0.16850479486897466   0.14142809255020716
-1.0960542795811838   -0.16850479486897466   0.14142809255020716
-1.0960542795811838   -0.16850479486897466   0.14142809255020716
-1.0960542795811838   -0.16850479486897466   0.14142809255020716
-1.0135716482576516   -0.5350388921712268   -0.10271553373397281
-1.0135716482576516   -0.5350388921712268   -0.10271553373397281
-1.0135716482576516   -0.5350388921712268   -0.10271553373397281
-1.0135716482576516   -0.5350388921712268   -0.10271553373397281
-0.8748625851074053   -0.18438965088604395   0.15564213023190313
-0.8748625851074053   -0.18438965088604395   0.15564213023190313
-0.8748625851074053   -0.18438965088604395   0.15564213023190313
-0.8748625851074053   -0.18438965088604395   0.15564213023190313
-1.1971371986598254   -0.6026960110824074   -0.04942298008380187
-1.1971371986598254   -0.6026960110824074   -0.04942298008380187
-1.1971371986598254   -0.6026960110824074   -0.04942298008380187
-1.1971371986598254   -0.6026960110824074   -0.04942298008380187
-1.0505055326109873   -0.3648191197754467   -0.08214848561555885
-1.0505055326109873   -0.3648191197754467   -0.08214848561555885
-1.0505055326109873   -0.3648191197754467   -0.08214848561555885
-1.0505055326109873   -0.3648191197754467   -0.08214848561555885
-0.8614901070457784   0.11963755552323496   0.1672964172611483
-0.8614901070457784   0.11963755552323496   0.1672964172611483
-0.8614901070457784   0.11963755552323496   0.1672964172611483
-0.8614901070457784   0.11963755552323496   0.1672964172611483
-0.5582698284481104   -0.15055148376485705   -0.05452222026598508
-0.5582698284481104   -0.15055148376485705   -0.05452222026598508
-0.5582698284481104   -0.15055148376485705   -0.05452222026598508
-0.5582698284481104   -0.15055148376485705   -0.05452222026598508
-0.4833509498816393   0.14330700370982427   0.16493340041596993
-0.4833509498816393   0.14330700370982427   0.16493340041596993
-0.4833509498816393   0.14330700370982427   0.16493340041596993
-0.4833509498816393   0.14330700370982427   0.16493340041596993
-0.9494777066300749   -0.23400865377836405   -0.02809427475137594
-0.9494777066300749   -0.23400865377836405   -0.02809427475137594
-0.9494777066300749   -0.23400865377836405   -0.02809427475137594
-0.9494777066300749   -0.23400865377836405   -0.02809427475137594
-0.7039385102898659   -0.014439102290793038   -0.03103196609993232
-0.7039385102898659   -0.014439102290793038   -0.03103196609993232
-0.7039385102898659   -0.014439102290793038   -0.03103196609993232
-0.7039385102898659   -0.014439102290793038   -0.03103196609993232
-0.8456655104138369   0.07437418502540075   0.18258386752604988
-0.8456655104138369   0.07437418502540075   0.18258386752604988
-0.8456655104138369   0.07437418502540075   0.18258386752604988
-0.8456655104138369   0.07437418502540075   0.18258386752604988
-0.5880237128582827   -0.16593640185435596   -0.049187008903127855
-0.5880237128582827   -0.16593640185435596   -0.049187008903127855
-0.5880237128582827   -0.16593640185435596   -0.049187008903127855
-0.5880237128582827   -0.16593640185435596   -0.049187008903127855
-0.503143619921862   0.11415842208528815   0.20763189567310245
-0.503143619921862   0.11415842208528815   0.20763189567310245
-0.503143619921862   0.11415842208528815   0.20763189567310245
-0.503143619921862   0.11415842208528815   0.20763189567310245
-0.9430758410648419   -0.24879839307901583   -0.03647699686213547
-0.9430758410648419   -0.24879839307901583   -0.03647699686213547
-0.9430758410648419   -0.24879839307901583   -0.03647699686213547
-0.9430758410648419   -0.24879839307901583   -0.03647699686213547
-0.722733895593745   -0.04632835402122762   -0.04271791367554934
-0.722733895593745   -0.04632835402122762   -0.04271791367554934
-0.722733895593745   -0.04632835402122762   -0.04271791367554934
-0.722733895593745   -0.04632835402122762   -0.04271791367554934
-0.8342582522057815   0.048476356137261534   0.21033619821688898
-0.8342582522057815   0.048476356137261534   0.21033619821688898
-0.8342582522057815   0.048476356137261534   0.21033619821688898
-0.8342582522057815   0.048476356137261534   0.21033619821688898
-0.6194088271545908   -0.19056394550466788   -0.06897177290064684
-0.6194088271545908   -0.19056394550466788   -0.06897177290064684
-0.6194088271545908   -0.19056394550466788   -0.06897177290064684
-0.6194088271545908   -0.19056394550466788   -0.06897177290064684
-0.5764233225215099   0.034088393658018634   0.21602654674805127
-0.5764233225215099   0.034088393658018634   0.21602654674805127
-0.5764233225215099   0.034088393658018634   0.21602654674805127
-0.5764233225215099   0.034088393658018634   0.21602654674805127
-0.927554726013501   -0.2614198786114345   -0.030788346573185018
-0.927554726013501   -0.2614198786114345   -0.030788346573185018
-0.927554726013501   -0.2614198786114345   -0.030788346573185018
-0.927554726013501   -0.2614198786114345   -0.030788346573185018
-0.7310012605555566   -0.06903395288136181   -0.06231821951256619
-0.7310012605555566   -0.06903395288136181   -0.06231821951256619
-0.7310012605555566   -0.06903395288136181   -0.06231821951256619
-0.7310012605555566   -0.06903395288136181   -0.06231821951256619
-9.027377433220975   -1.2720255741120865   -0.7456314893071891
-9.027377433220975   -1.2720255741120865   -0.7456314893071891
-9.027377433220975   -1.2720255741120865   -0.7456314893071891
-9.027377433220975   -1.2720255741120865   -0.7456314893071891
-3.1231022692252157   -4.838459180863998   -0.585105371377537
-3.1231022692252157   -4.838459180863998   -0.585105371377537
-3.1231022692252157   -4.838459180863998   -0.585105371377537
-3.1231022692252157   -4.838459180863998   -0.585105371377537
-2.424169947522619   -0.20020470712215765   0.004416674663122094
-2.424169947522619   -0.20020470712215765   0.004416674663122094
-2.424169947522619   -0.20020470712215765   0.004416674663122094
-2.424169947522619   -0.20020470712215765   0.004416674663122094
-9.618616199953427   -5.703132266594144   -3.0643496933095147
-9.618616199953427   -5.703132266594144   -3.0643496933095147
-9.618616199953427   -5.703132266594144   -3.0643496933095147
-9.618616199953427   -5.703132266594144   -3.0643496933095147
-5.897523009652422   -2.8394439810143774   -0.41346299096004363
-5.897523009652422   -2.8394439810143774   -0.41346299096004363
-5.897523009652422   -2.8394439810143774   -0.41346299096004363
-5.897523009652422   -2.8394439810143774   -0.41346299096004363
-8.387040205281238   -1.5963187424292173   -1.0132832441135577
-8.387040205281238   -1.5963187424292173   -1.0132832441135577
-8.387040205281238   -1.5963187424292173   -1.0132832441135577
-8.387040205281238   -1.5963187424292173   -1.0132832441135577
-3.369551685825317   -4.020823974917599   -0.9018727490549004
-3.369551685825317   -4.020823974917599   -0.9018727490549004
-3.369551685825317   -4.020823974917599   -0.9018727490549004
-3.369551685825317   -4.020823974917599   -0.9018727490549004
-2.470323099348025   -0.26919644946976673   0.09345695860018532
-2.470323099348025   -0.26919644946976673   0.09345695860018532
-2.470323099348025   -0.26919644946976673   0.09345695860018532
-2.470323099348025   -0.26919644946976673   0.09345695860018532
-8.999007933484569   -5.078832164121355   -2.8155680195211845
-8.999007933484569   -5.078832164121355   -2.8155680195211845
-8.999007933484569   -5.078832164121355   -2.8155680195211845
-8.999007933484569   -5.078832164121355   -2.8155680195211845
-5.553195308786378   -2.5576590699527664   0.2269091928905559
-5.553195308786378   -2.5576590699527664   0.2269091928905559
-5.553195308786378   -2.5576590699527664   0.2269091928905559
-5.553195308786378   -2.5576590699527664   0.2269091928905559
-7.874873007477409   -1.5196191112808692   -0.7541064423259438
-7.874873007477409   -1.5196191112808692   -0.7541064423259438
-7.874873007477409   -1.5196191112808692   -0.7541064423259438
-7.874873007477409   -1.5196191112808692   -0.7541064423259438
-3.276731181046591   -3.510682658001669   -0.697097241360728
-3.276731181046591   -3.510682658001669   -0.697097241360728
-3.276731181046591   -3.510682658001669   -0.697097241360728
-3.276731181046591   -3.510682658001669   -0.697097241360728
-2.8323388685115867   -0.7176742352056006   -0.14513685345672794
-2.8323388685115867   -0.7176742352056006   -0.14513685345672794
-2.8323388685115867   -0.7176742352056006   -0.14513685345672794
-2.8323388685115867   -0.7176742352056006   -0.14513685345672794
-8.200814268449669   -4.2575044573802465   -2.491663745165983
-8.200814268449669   -4.2575044573802465   -2.491663745165983
-8.200814268449669   -4.2575044573802465   -2.491663745165983
-8.200814268449669   -4.2575044573802465   -2.491663745165983
-5.142213955323393   -2.215332333631206   0.9494791306029104
-5.142213955323393   -2.215332333631206   0.9494791306029104
-5.142213955323393   -2.215332333631206   0.9494791306029104
-5.142213955323393   -2.215332333631206   0.9494791306029104
-2.325497971883806   -1.249779230624846   -0.18576383490965293
-2.325497971883806   -1.249779230624846   -0.18576383490965293
-2.325497971883806   -1.249779230624846   -0.18576383490965293
-2.325497971883806   -1.249779230624846   -0.18576383490965293
-1.0666178040440182   -1.5035663369139767   -0.2631344415541981
-1.0666178040440182   -1.5035663369139767   -0.2631344415541981
-1.0666178040440182   -1.5035663369139767   -0.2631344415541981
-1.0666178040440182   -1.5035663369139767   -0.2631344415541981
-0.9461719338889707   -0.7941510046099114   0.02516002946239787
-0.9461719338889707   -0.7941510046099114   0.02516002946239787
-0.9461719338889707   -0.7941510046099114   0.02516002946239787
-0.9461719338889707   -0.7941510046099114   0.02516002946239787
-2.8297899317689836   -2.2209474049811195   -0.0029405487097153293
-2.8297899317689836   -2.2209474049811195   -0.0029405487097153293
-2.8297899317689836   -2.2209474049811195   -0.0029405487097153293
-2.8297899317689836   -2.2209474049811195   -0.0029405487097153293
-1.523873582742941   -1.0794080201426095   0.4852085686339307
-1.523873582742941   -1.0794080201426095   0.4852085686339307
-1.523873582742941   -1.0794080201426095   0.4852085686339307
-1.523873582742941   -1.0794080201426095   0.4852085686339307
-2.641288088745582   -1.1620683243237373   -0.11931041425012007
-2.641288088745582   -1.1620683243237373   -0.11931041425012007
-2.641288088745582   -1.1620683243237373   -0.11931041425012007
-2.641288088745582   -1.1620683243237373   -0.11931041425012007
-1.2135935427917603   -1.9319498511466866   -0.17414916851477474
-1.2135935427917603   -1.9319498511466866   -0.17414916851477474
-1.2135935427917603   -1.9319498511466866   -0.17414916851477474
-1.2135935427917603   -1.9319498511466866   -0.17414916851477474
-1.019400659477085   -0.8233181383609031   0.025310667983946433
-1.019400659477085   -0.8233181383609031   0.025310667983946433
-1.019400659477085   -0.8233181383609031   0.025310667983946433
-1.019400659477085   -0.8233181383609031   0.025310667983946433
-2.963907004857367   -2.189233333782072   -0.45442568463420424
-2.963907004857367   -2.189233333782072   -0.45442568463420424
-2.963907004857367   -2.189233333782072   -0.45442568463420424
-2.963907004857367   -2.189233333782072   -0.45442568463420424
-1.8121301732415056   -1.3876331056242073   0.2238566548549889
-1.8121301732415056   -1.3876331056242073   0.2238566548549889
-1.8121301732415056   -1.3876331056242073   0.2238566548549889
-1.8121301732415056   -1.3876331056242073   0.2238566548549889
-2.722315327075556   -1.2134194428156948   -0.2222811866915406
-2.722315327075556   -1.2134194428156948   -0.2222811866915406
-2.722315327075556   -1.2134194428156948   -0.2222811866915406
-2.722315327075556   -1.2134194428156948   -0.2222811866915406
-1.2534983378098912   -1.7916380298782775   -0.17685783216270948
-1.2534983378098912   -1.7916380298782775   -0.17685783216270948
-1.2534983378098912   -1.7916380298782775   -0.17685783216270948
-1.2534983378098912   -1.7916380298782775   -0.17685783216270948
-1.13151231533668   -0.8510489626274358   0.03717238778136103
-1.13151231533668   -0.8510489626274358   0.03717238778136103
-1.13151231533668   -0.8510489626274358   0.03717238778136103
-1.13151231533668   -0.8510489626274358   0.03717238778136103
-3.164224839726088   -2.124817919365439   -0.3974230253693804
-3.164224839726088   -2.124817919365439   -0.3974230253693804
-3.164224839726088   -2.124817919365439   -0.3974230253693804
-3.164224839726088   -2.124817919365439   -0.3974230253693804
-1.8925714869035524   -1.3072802444322296   0.2373281633691789
-1.8925714869035524   -1.3072802444322296   0.2373281633691789
-1.8925714869035524   -1.3072802444322296   0.2373281633691789
-1.8925714869035524   -1.3072802444322296   0.2373281633691789
-0.8510041500012617   -0.7430469128469297   0.05441440459253666
-0.8510041500012617   -0.7430469128469297   0.05441440459253666
-0.8510041500012617   -0.7430469128469297   0.05441440459253666
-0.8510041500012617   -0.7430469128469297   0.05441440459253666
-0.5126244870410667   -0.45553228479360675   -0.1277811321319512
-0.5126244870410667   -0.45553228479360675   -0.1277811321319512
-0.5126244870410667   -0.45553228479360675   -0.1277811321319512
-0.5126244870410667   -0.45553228479360675   -0.1277811321319512
-0.49963883481826427   -0.6621190668757342   0.05544358038716221
-0.49963883481826427   -0.6621190668757342   0.05544358038716221
-0.49963883481826427   -0.6621190668757342   0.05544358038716221
-0.49963883481826427   -0.6621190668757342   0.05544358038716221
-0.9314521803056737   -0.6333367981727464   -0.06205540905828265
-0.9314521803056737   -0.6333367981727464   -0.06205540905828265
-0.9314521803056737   -0.6333367981727464   -0.06205540905828265
-0.9314521803056737   -0.6333367981727464   -0.06205540905828265
-0.5909245923356454   -0.526714954909221   0.24272423575909524
-0.5909245923356454   -0.526714954909221   0.24272423575909524
-0.5909245923356454   -0.526714954909221   0.24272423575909524
-0.5909245923356454   -0.526714954909221   0.24272423575909524
-0.9302557066321733   -0.7476776042405422   0.058267765377000263
-0.9302557066321733   -0.7476776042405422   0.058267765377000263
-0.9302557066321733   -0.7476776042405422   0.058267765377000263
-0.9302557066321733   -0.7476776042405422   0.058267765377000263
-0.5083868784372577   -0.5553298307534287   -0.09508587383011045
-0.5083868784372577   -0.5553298307534287   -0.09508587383011045
-0.5083868784372577   -0.5553298307534287   -0.09508587383011045
-0.5083868784372577   -0.5553298307534287   -0.09508587383011045
-0.5032662293595012   -0.6820575431545185   0.048975690799439
-0.5032662293595012   -0.6820575431545185   0.048975690799439
-0.5032662293595012   -0.6820575431545185   0.048975690799439
-0.5032662293595012   -0.6820575431545185   0.048975690799439
-0.9860227213112379   -0.7407272879653244   0.109609508417603
-0.9860227213112379   -0.7407272879653244   0.109609508417603
-0.9860227213112379   -0.7407272879653244   0.109609508417603
-0.9860227213112379   -0.7407272879653244   0.109609508417603
-0.6392543786606174   -0.5862283283108868   0.2075627779118722
-0.6392543786606174   -0.5862283283108868   0.2075627779118722
-0.6392543786606174   -0.5862283283108868   0.2075627779118722
-0.6392543786606174   -0.5862283283108868   0.2075627779118722
-0.9990865149097493   -0.7752534066104263   0.07881665907014818
-0.9990865149097493   -0.7752534066104263   0.07881665907014818
-0.9990865149097493   -0.7752534066104263   0.07881665907014818
-0.9990865149097493   -0.7752534066104263   0.07881665907014818
-0.5323313342704815   -0.6896603230189083   -0.0887470538910734
-0.5323313342704815   -0.6896603230189083   -0.0887470538910734
-0.5323313342704815   -0.6896603230189083   -0.0887470538910734
-0.5323313342704815   -0.6896603230189083   -0.0887470538910734
-0.505465312825951   -0.7046518833602704   0.06852022262740132
-0.505465312825951   -0.7046518833602704   0.06852022262740132
-0.505465312825951   -0.7046518833602704   0.06852022262740132
-0.505465312825951   -0.7046518833602704   0.06852022262740132
-1.1480238367661937   -0.9158323800127746   0.01939819801913148
-1.1480238367661937   -0.9158323800127746   0.01939819801913148
-1.1480238367661937   -0.9158323800127746   0.01939819801913148
-1.1480238367661937   -0.9158323800127746   0.01939819801913148
-0.7102870201589175   -0.6699108974151524   0.10078771847427456
-0.7102870201589175   -0.6699108974151524   0.10078771847427456
-0.7102870201589175   -0.6699108974151524   0.10078771847427456
-0.7102870201589175   -0.6699108974151524   0.10078771847427456
-0.4263306475907855   -0.2953110424016301   0.1434668227274784
-0.4263306475907855   -0.2953110424016301   0.1434668227274784
-0.4263306475907855   -0.2953110424016301   0.1434668227274784
-0.4263306475907855   -0.2953110424016301   0.1434668227274784
-0.29271858048497695   0.013058864436640533   -0.02829049419204026
-0.29271858048497695   0.013058864436640533   -0.02829049419204026
-0.29271858048497695   0.013058864436640533   -0.02829049419204026
-0.29271858048497695   0.013058864436640533   -0.02829049419204026
-0.27823827348857133   -0.31797680471423106   0.08935998168975173
-0.27823827348857133   -0.31797680471423106   0.08935998168975173
-0.27823827348857133   -0.31797680471423106   0.08935998168975173
-0.27823827348857133   -0.31797680471423106   0.08935998168975173
-0.39080525011682277   -0.04183061266081954   -0.020676950320544965
-0.39080525011682277   -0.04183061266081954   -0.020676950320544965
-0.39080525011682277   -0.04183061266081954   -0.020676950320544965
-0.39080525011682277   -0.04183061266081954   -0.020676950320544965
-0.32120661602229206   -0.1558474318592339   0.07119705733013348
-0.32120661602229206   -0.1558474318592339   0.07119705733013348
-0.32120661602229206   -0.1558474318592339   0.07119705733013348
-0.32120661602229206   -0.1558474318592339   0.07119705733013348
-0.41871545864845106   -0.33696329934338215   0.1349046937038761
-0.41871545864845106   -0.33696329934338215   0.1349046937038761
-0.41871545864845106   -0.33696329934338215   0.1349046937038761
-0.41871545864845106   -0.33696329934338215   0.1349046937038761
-0.24262355494202484   -0.015139608016750267   -0.035403622274996494
-0.24262355494202484   -0.015139608016750267   -0.035403622274996494
-0.24262355494202484   -0.015139608016750267   -0.035403622274996494
-0.24262355494202484   -0.015139608016750267   -0.035403622274996494
-0.25313454427182425   -0.3459939337550129   0.08207215436126943
-0.25313454427182425   -0.3459939337550129   0.08207215436126943
-0.25313454427182425   -0.3459939337550129   0.08207215436126943
-0.25313454427182425   -0.3459939337550129   0.08207215436126943
-0.3912954753780971   -0.09385537948372238   0.02062729703566292
-0.3912954753780971   -0.09385537948372238   0.02062729703566292
-0.3912954753780971   -0.09385537948372238   0.02062729703566292
-0.3912954753780971   -0.09385537948372238   0.02062729703566292
-0.2924084526404737   -0.17814263231438193   0.0863657679423204
-0.2924084526404737   -0.17814263231438193   0.0863657679423204
-0.2924084526404737   -0.17814263231438193   0.0863657679423204
-0.2924084526404737   -0.17814263231438193   0.0863657679423204
-0.4188436748506104   -0.364786672254291   0.1538175924436651
-0.4188436748506104   -0.364786672254291   0.1538175924436651
-0.4188436748506104   -0.364786672254291   0.1538175924436651
-0.4188436748506104   -0.364786672254291   0.1538175924436651
-0.2273311473618788   -0.07680744354701213   -0.05809735129700403
-0.2273311473618788   -0.07680744354701213   -0.05809735129700403
-0.2273311473618788   -0.07680744354701213   -0.05809735129700403
-0.2273311473618788   -0.07680744354701213   -0.05809735129700403
-0.20832461270780345   -0.3770630911595711   0.08992903357832718
-0.20832461270780345   -0.3770630911595711   0.08992903357832718
-0.20832461270780345   -0.3770630911595711   0.08992903357832718
-0.20832461270780345   -0.3770630911595711   0.08992903357832718
-0.4174918921313867   -0.2236812136671458   0.027416656407098283
-0.4174918921313867   -0.2236812136671458   0.027416656407098283
-0.4174918921313867   -0.2236812136671458   0.027416656407098283
-0.4174918921313867   -0.2236812136671458   0.027416656407098283
-0.27836688662122433   -0.22575216416375263   0.07651153016367426
-0.27836688662122433   -0.22575216416375263   0.07651153016367426
-0.27836688662122433   -0.22575216416375263   0.07651153016367426
-0.27836688662122433   -0.22575216416375263   0.07651153016367426
-0.2716886374520298   -0.05362265369214217   0.1435407391014782
-0.2716886374520298   -0.05362265369214217   0.1435407391014782
-0.2716886374520298   -0.05362265369214217   0.1435407391014782
-0.2716886374520298   -0.05362265369214217   0.1435407391014782
-0.0430127870474714   0.03415295398913008   -0.0028942740726837085
-0.0430127870474714   0.03415295398913008   -0.0028942740726837085
-0.0430127870474714   0.03415295398913008   -0.0028942740726837085
-0.0430127870474714   0.03415295398913008   -0.0028942740726837085
0.021355141196575545   -0.016583974145389636   0.08819627558684558
0.021355141196575545   -0.016583974145389636   0.08819627558684558
0.021355141196575545   -0.016583974145389636   0.08819627558684558
0.021355141196575545   -0.016583974145389636   0.08819627558684558
-0.2296429241056675   0.027205883077954893   -0.012845959187915122
-0.2296429241056675   0.027205883077954893   -0.012845959187915122
-0.2296429241056675   0.027205883077954893   -0.012845959187915122
-0.2296429241056675   0.027205883077954893   -0.012845959187915122
-0.13323454108051813   -0.009494553272836957   -0.011638256422289654
-0.13323454108051813   -0.009494553272836957   -0.011638256422289654
-0.13323454108051813   -0.009494553272836957   -0.011638256422289654
-0.13323454108051813   -0.009494553272836957   -0.011638256422289654
-0.2129600119639275   -0.0512761358125928   0.1490506204113328
-0.2129600119639275   -0.0512761358125928   0.1490506204113328
-0.2129600119639275   -0.0512761358125928   0.1490506204113328
-0.2129600119639275   -0.0512761358125928   0.1490506204113328
0.012902287665099028   0.07012810335542158   -0.040780069571348235
0.012902287665099028   0.07012810335542158   -0.040780069571348235
0.012902287665099028   0.07012810335542158   -0.040780069571348235
0.012902287665099028   0.07012810335542158   -0.040780069571348235
0.05504388016163014   -0.020162803590572043   0.10858122935361149
0.05504388016163014   -0.020162803590572043   0.10858122935361149
0.05504388016163014   -0.020162803590572043   0.10858122935361149
0.05504388016163014   -0.020162803590572043   0.10858122935361149
-0.19956510537041433   0.02307452155885873   -0.019149106445552597
-0.19956510537041433   0.02307452155885873   -0.019149106445552597
-0.19956510537041433   0.02307452155885873   -0.019149106445552597
-0.19956510537041433   0.02307452155885873   -0.019149106445552597
-0.08426707456800889   -0.0010359294777014198   0.014661067137713833
-0.08426707456800889   -0.0010359294777014198   0.014661067137713833
-0.08426707456800889   -0.0010359294777014198   0.014661067137713833
-0.08426707456800889   -0.0010359294777014198   0.014661067137713833
-0.1798005568650335   -0.05691525444882081   0.15966341208903123
-0.1798005568650335   -0.05691525444882081   0.15966341208903123
-0.1798005568650335   -0.05691525444882081   0.15966341208903123
-0.1798005568650335   -0.05691525444882081   0.15966341208903123
0.04289775491372135   0.06744539567457956   -0.03975759615108408
0.04289775491372135   0.06744539567457956   -0.03975759615108408
0.04289775491372135   0.06744539567457956   -0.03975759615108408
0.04289775491372135   0.06744539567457956   -0.03975759615108408
0.09052135704415529   -0.03064748133047833   0.10499755677393953
0.09052135704415529   -0.03064748133047833   0.10499755677393953
0.09052135704415529   -0.03064748133047833   0.10499755677393953
0.09052135704415529   -0.03064748133047833   0.10499755677393953
-0.14992733815926274   0.026756179923781646   -0.02190386476232207
-0.14992733815926274   0.026756179923781646   -0.02190386476232207
-0.14992733815926274   0.026756179923781646   -0.02190386476232207
-0.14992733815926274   0.026756179923781646   -0.02190386476232207
-0.04010210396175222   0.00494950543823087   0.03840431010560135
-0.04010210396175222   0.00494950543823087   0.03840431010560135
-0.04010210396175222   0.00494950543823087   0.03840431010560135
-0.04010210396175222   0.00494950543823087   0.03840431010560135
              </DataArray>   
             <DataArray type="Float64" NumberOfComponents="3" Name="Displacements" format="ascii">   
0.0   0.0   0.0
-0.025059098602945182   -0.016389991362785787   -0.008391363586627494
0.0   0.0   0.0
0.0   0.0   0.0
-0.025059098602945182   -0.016389991362785787   -0.008391363586627494
-0.01595116301837867   -0.014719865416511463   -0.00616458672349693
0.0   0.0   0.0
-0.015639601982778993   -0.015461498340654838   -0.005163414284888725
0.0   0.0   0.0
0.0   0.0   0.0
-0.015639601982778993   -0.015461498340654838   -0.005163414284888725
0.0   0.0   0.0
0.0   0.0   0.0
-0.015639601982778993   -0.015461498340654838   -0.005163414284888725
-0.026230357070008977   -0.017463594485998293   -0.006735301201199266
-0.025059098602945182   -0.016389991362785787   -0.008391363586627494
0.0   0.0   0.0
-0.015639601982778993   -0.015461498340654838   -0.005163414284888725
-0.025059098602945182   -0.016389991362785787   -0.008391363586627494
0.0   0.0   0.0
0.0   0.0   0.0
-0.026230357070008977   -0.017463594485998293   -0.006735301201199266
0.0   0.0   0.0
0.0   0.0   0.0
-0.026230357070008977   -0.017463594485998293   -0.006735301201199266
-0.015639601982778993   -0.015461498340654838   -0.005163414284888725
0.0   0.0   0.0
-0.015687927065934453   -0.01584107698885602   -0.00416320305318527
0.0   0.0   0.0
0.0   0.0   0.0
-0.015687927065934453   -0.01584107698885602   -0.00416320305318527
0.0   0.0   0.0
0.0   0.0   0.0
-0.015687927065934453   -0.01584107698885602   -0.00416320305318527
-0.027054857108023776   -0.01798543826389699   -0.005147623098821665
-0.026230357070008977   -0.017463594485998293   -0.006735301201199266
0.0   0.0   0.0
-0.015687927065934453   -0.01584107698885602   -0.00416320305318527
-0.026230357070008977   -0.017463594485998293   -0.006735301201199266
0.0   0.0   0.0
0.0   0.0   0.0
-0.027054857108023776   -0.01798543826389699   -0.005147623098821665
0.0   0.0   0.0
0.0   0.0   0.0
-0.027054857108023776   -0.01798543826389699   -0.005147623098821665
-0.015687927065934453   -0.01584107698885602   -0.00416320305318527
0.0   0.0   0.0
-0.015684436728317513   -0.015937948327840793   -0.0031283716680781744
0.0   0.0   0.0
0.0   0.0   0.0
-0.015684436728317513   -0.015937948327840793   -0.0031283716680781744
0.0   0.0   0.0
0.0   0.0   0.0
-0.015684436728317513   -0.015937948327840793   -0.0031283716680781744
-0.028826870796251857   -0.01837899479860305   -0.0033050967130887746
-0.027054857108023776   -0.01798543826389699   -0.005147623098821665
0.0   0.0   0.0
-0.015684436728317513   -0.015937948327840793   -0.0031283716680781744
-0.027054857108023776   -0.01798543826389699   -0.005147623098821665
0.0   0.0   0.0
0.0   0.0   0.0
-0.01595116301837867   -0.014719865416511463   -0.00616458672349693
0.0   0.0   0.0
0.0   0.0   0.0
-0.01595116301837867   -0.014719865416511463   -0.00616458672349693
-0.007259367348469437   -0.01410646346439942   -0.004687102225015066
0.0   0.0   0.0
-0.006986068462077393   -0.014589681580688605   -0.004214966552051636
0.0   0.0   0.0
0.0   0.0   0.0
-0.006986068462077393   -0.014589681580688605   -0.004214966552051636
0.0   0.0   0.0
0.0   0.0   0.0
-0.006986068462077393   -0.014589681580688605   -0.004214966552051636
-0.015639601982778993   -0.015461498340654838   -0.005163414284888725
-0.01595116301837867   -0.014719865416511463   -0.00616458672349693
0.0   0.0   0.0
-0.006986068462077393   -0.014589681580688605   -0.004214966552051636
-0.01595116301837867   -0.014719865416511463   -0.00616458672349693
0.0   0.0   0.0
0.0   0.0   0.0
-0.015639601982778993   -0.015461498340654838   -0.005163414284888725
0.0   0.0   0.0
0.0   0.0   0.0
-0.015639601982778993   -0.015461498340654838   -0.005163414284888725
-0.006986068462077393   -0.014589681580688605   -0.004214966552051636
0.0   0.0   0.0
-0.006834299865842028   -0.014773693866255128   -0.0037546866597278406
0.0   0.0   0.0
0.0   0.0   0.0
-0.006834299865842028   -0.014773693866255128   -0.0037546866597278406
0.0   0.0   0.0
0.0   0.0   0.0
-0.006834299865842028   -0.014773693866255128   -0.0037546866597278406
-0.015687927065934453   -0.01584107698885602   -0.00416320305318527
-0.015639601982778993   -0.015461498340654838   -0.005163414284888725
0.0   0.0   0.0
-0.006834299865842028   -0.014773693866255128   -0.0037546866597278406
-0.015639601982778993   -0.015461498340654838   -0.005163414284888725
0.0   0.0   0.0
0.0   0.0   0.0
-0.015687927065934453   -0.01584107698885602   -0.00416320305318527
0.0   0.0   0.0
0.0   0.0   0.0
-0.015687927065934453   -0.01584107698885602   -0.00416320305318527
-0.006834299865842028   -0.014773693866255128   -0.0037546866597278406
0.0   0.0   0.0
-0.006696799566491985   -0.014696523883455605   -0.0032783466175223147
0.0   0.0   0.0
0.0   0.0   0.0
-0.006696799566491985   -0.014696523883455605   -0.0032783466175223147
0.0   0.0   0.0
0.0   0.0   0.0
-0.006696799566491985   -0.014696523883455605   -0.0032783466175223147
-0.015684436728317513   -0.015937948327840793   -0.0031283716680781744
-0.015687927065934453   -0.01584107698885602   -0.00416320305318527
0.0   0.0   0.0
-0.006696799566491985   -0.014696523883455605   -0.0032783466175223147
-0.015687927065934453   -0.01584107698885602   -0.00416320305318527
0.0   0.0   0.0
0.0   0.0   0.0
-0.007259367348469437   -0.01410646346439942   -0.004687102225015066
0.0   0.0   0.0
0.0   0.0   0.0
-0.007259367348469437   -0.01410646346439942   -0.004687102225015066
0.0009563521447441995   -0.01418439790402532   -0.0037444442608933104
0.0   0.0   0.0
0.0011288427985630932   -0.014435406812995018   -0.0038109902575044056
0.0   0.0   0.0
0.0   0.0   0.0
0.0011288427985630932   -0.014435406812995018   -0.0038109902575044056
0.0   0.0   0.0
0.0   0.0   0.0
0.0011288427985630932   -0.014435406812995018   -0.0038109902575044056
-0.006986068462077393   -0.014589681580688605   -0.004214966552051636
-0.007259367348469437   -0.01410646346439942   -0.004687102225015066
0.0   0.0   0.0
0.0011288427985630932   -0.014435406812995018   -0.0038109902575044056
-0.007259367348469437   -0.01410646346439942   -0.004687102225015066
0.0   0.0   0.0
0.0   0.0   0.0
-0.006986068462077393   -0.014589681580688605   -0.004214966552051636
0.0   0.0   0.0
0.0   0.0   0.0
-0.006986068462077393   -0.014589681580688605   -0.004214966552051636
0.0011288427985630932   -0.014435406812995018   -0.0038109902575044056
0.0   0.0   0.0
0.0012644257606196604   -0.014415078749423998   -0.0038706922463041995
0.0   0.0   0.0
0.0   0.0   0.0
0.0012644257606196604   -0.014415078749423998   -0.0038706922463041995
0.0   0.0   0.0
0.0   0.0   0.0
0.0012644257606196604   -0.014415078749423998   -0.0038706922463041995
-0.006834299865842028   -0.014773693866255128   -0.0037546866597278406
-0.006986068462077393   -0.014589681580688605   -0.004214966552051636
0.0   0.0   0.0
0.0012644257606196604   -0.014415078749423998   -0.0038706922463041995
-0.006986068462077393   -0.014589681580688605   -0.004214966552051636
0.0   0.0   0.0
0.0   0.0   0.0
-0.006834299865842028   -0.014773693866255128   -0.0037546866597278406
0.0   0.0   0.0
0.0   0.0   0.0
-0.006834299865842028   -0.014773693866255128   -0.0037546866597278406
0.0012644257606196604   -0.014415078749423998   -0.0038706922463041995
0.0   0.0   0.0
0.0014482536865085276   -0.0141010800688949   -0.003931558477216592
0.0   0.0   0.0
0.0   0.0   0.0
0.0014482536865085276   -0.0141010800688949   -0.003931558477216592
0.0   0.0   0.0
0.0   0.0   0.0
0.0014482536865085276   -0.0141010800688949   -0.003931558477216592
-0.006696799566491985   -0.014696523883455605   -0.0032783466175223147
-0.006834299865842028   -0.014773693866255128   -0.0037546866597278406
0.0   0.0   0.0
0.0014482536865085276   -0.0141010800688949   -0.003931558477216592
-0.006834299865842028   -0.014773693866255128   -0.0037546866597278406
0.0   0.0   0.0
0.0   0.0   0.0
0.0009563521447441995   -0.01418439790402532   -0.0037444442608933104
0.0   0.0   0.0
0.0   0.0   0.0
0.0009563521447441995   -0.01418439790402532   -0.0037444442608933104
0.009870802231598568   -0.014879031135590892   -0.0032767553902582785
0.0   0.0   0.0
0.009882903913917718   -0.014959781814221581   -0.003910076730177633
0.0   0.0   0.0
0.0   0.0   0.0
0.009882903913917718   -0.014959781814221581   -0.003910076730177633
0.0   0.0   0.0
0.0   0.0   0.0
0.009882903913917718   -0.014959781814221581   -0.003910076730177633
0.0011288427985630932   -0.014435406812995018   -0.0038109902575044056
0.0009563521447441995   -0.01418439790402532   -0.0037444442608933104
0.0   0.0   0.0
0.009882903913917718   -0.014959781814221581   -0.003910076730177633
0.0009563521447441995   -0.01418439790402532   -0.0037444442608933104
0.0   0.0   0.0
0.0   0.0   0.0
0.0011288427985630932   -0.014435406812995018   -0.0038109902575044056
0.0   0.0   0.0
0.0   0.0   0.0
0.0011288427985630932   -0.014435406812995018   -0.0038109902575044056
0.009882903913917718   -0.014959781814221581   -0.003910076730177633
0.0   0.0   0.0
0.009835879935127665   -0.014746122731782295   -0.004517073548244214
0.0   0.0   0.0
0.0   0.0   0.0
0.009835879935127665   -0.014746122731782295   -0.004517073548244214
0.0   0.0   0.0
0.0   0.0   0.0
0.009835879935127665   -0.014746122731782295   -0.004517073548244214
0.0012644257606196604   -0.014415078749423998   -0.0038706922463041995
0.0011288427985630932   -0.014435406812995018   -0.0038109902575044056
0.0   0.0   0.0
0.009835879935127665   -0.014746122731782295   -0.004517073548244214
0.0011288427985630932   -0.014435406812995018   -0.0038109902575044056
0.0   0.0   0.0
0.0   0.0   0.0
0.0012644257606196604   -0.014415078749423998   -0.0038706922463041995
0.0   0.0   0.0
0.0   0.0   0.0
0.0012644257606196604   -0.014415078749423998   -0.0038706922463041995
0.009835879935127665   -0.014746122731782295   -0.004517073548244214
0.0   0.0   0.0
0.010021858202436874   -0.0141721585948212   -0.0051120679752293275
0.0   0.0   0.0
0.0   0.0   0.0
0.010021858202436874   -0.0141721585948212   -0.0051120679752293275
0.0   0.0   0.0
0.0   0.0   0.0
0.010021858202436874   -0.0141721585948212   -0.0051120679752293275
0.0014482536865085276   -0.0141010800688949   -0.003931558477216592
0.0012644257606196604   -0.014415078749423998   -0.0038706922463041995
0.0   0.0   0.0
0.010021858202436874   -0.0141721585948212   -0.0051120679752293275
0.0012644257606196604   -0.014415078749423998   -0.0038706922463041995
0.0   0.0   0.0
0.0   0.0   0.0
0.009870802231598568   -0.014879031135590892   -0.0032767553902582785
0.0   0.0   0.0
0.0   0.0   0.0
0.009870802231598568   -0.014879031135590892   -0.0032767553902582785
0.02225592789928018   -0.016637723209917427   -0.003088044662138435
0.0   0.0   0.0
0.020894828428883686   -0.01645787612703756   -0.004522309156011196
0.0   0.0   0.0
0.0   0.0   0.0
0.020894828428883686   -0.01645787612703756   -0.004522309156011196
0.0   0.0   0.0
0.0   0.0   0.0
0.020894828428883686   -0.01645787612703756   -0.004522309156011196
0.009882903913917718   -0.014959781814221581   -0.003910076730177633
0.009870802231598568   -0.014879031135590892   -0.0032767553902582785
0.0   0.0   0.0
0.020894828428883686   -0.01645787612703756   -0.004522309156011196
0.009870802231598568   -0.014879031135590892   -0.0032767553902582785
0.0   0.0   0.0
0.0   0.0   0.0
0.009882903913917718   -0.014959781814221581   -0.003910076730177633
0.0   0.0   0.0
0.0   0.0   0.0
0.009882903913917718   -0.014959781814221581   -0.003910076730177633
0.020894828428883686   -0.01645787612703756   -0.004522309156011196
0.0   0.0   0.0
0.020265049482261783   -0.01611565638779607   -0.005734720610192252
0.0   0.0   0.0
0.0   0.0   0.0
0.020265049482261783   -0.01611565638779607   -0.005734720610192252
0.0   0.0   0.0
0.0   0.0   0.0
0.020265049482261783   -0.01611565638779607   -0.005734720610192252
0.009835879935127665   -0.014746122731782295   -0.004517073548244214
0.009882903913917718   -0.014959781814221581   -0.003910076730177633
0.0   0.0   0.0
0.020265049482261783   -0.01611565638779607   -0.005734720610192252
0.009882903913917718   -0.014959781814221581   -0.003910076730177633
0.0   0.0   0.0
0.0   0.0   0.0
0.009835879935127665   -0.014746122731782295   -0.004517073548244214
0.0   0.0   0.0
0.0   0.0   0.0
0.009835879935127665   -0.014746122731782295   -0.004517073548244214
0.020265049482261783   -0.01611565638779607   -0.005734720610192252
0.0   0.0   0.0
0.01933076866721139   -0.015238623321581282   -0.007016737331715098
0.0   0.0   0.0
0.0   0.0   0.0
0.01933076866721139   -0.015238623321581282   -0.007016737331715098
0.0   0.0   0.0
0.0   0.0   0.0
0.01933076866721139   -0.015238623321581282   -0.007016737331715098
0.010021858202436874   -0.0141721585948212   -0.0051120679752293275
0.009835879935127665   -0.014746122731782295   -0.004517073548244214
0.0   0.0   0.0
0.01933076866721139   -0.015238623321581282   -0.007016737331715098
0.009835879935127665   -0.014746122731782295   -0.004517073548244214
0.0   0.0   0.0
-0.025059098602945182   -0.016389991362785787   -0.008391363586627494
-0.04684313644832581   -0.04582555877482028   -0.011303517968677379
-0.01595116301837867   -0.014719865416511463   -0.00616458672349693
-0.026230357070008977   -0.017463594485998293   -0.006735301201199266
-0.04684313644832581   -0.04582555877482028   -0.011303517968677379
-0.029899911125124766   -0.04432212803174329   -0.00930021211140728
-0.01595116301837867   -0.014719865416511463   -0.00616458672349693
-0.029941637144874963   -0.04508167788533828   -0.008373221142416428
-0.026230357070008977   -0.017463594485998293   -0.006735301201199266
-0.015639601982778993   -0.015461498340654838   -0.005163414284888725
-0.029941637144874963   -0.04508167788533828   -0.008373221142416428
-0.01595116301837867   -0.014719865416511463   -0.00616458672349693
-0.026230357070008977   -0.017463594485998293   -0.006735301201199266
-0.029941637144874963   -0.04508167788533828   -0.008373221142416428
-0.04825509047549606   -0.04688475786158399   -0.009797270967101134
-0.04684313644832581   -0.04582555877482028   -0.011303517968677379
-0.026230357070008977   -0.017463594485998293   -0.006735301201199266
-0.029941637144874963   -0.04508167788533828   -0.008373221142416428
-0.04684313644832581   -0.04582555877482028   -0.011303517968677379
-0.01595116301837867   -0.014719865416511463   -0.00616458672349693
-0.026230357070008977   -0.017463594485998293   -0.006735301201199266
-0.04825509047549606   -0.04688475786158399   -0.009797270967101134
-0.015639601982778993   -0.015461498340654838   -0.005163414284888725
-0.027054857108023776   -0.01798543826389699   -0.005147623098821665
-0.04825509047549606   -0.04688475786158399   -0.009797270967101134
-0.029941637144874963   -0.04508167788533828   -0.008373221142416428
-0.015639601982778993   -0.015461498340654838   -0.005163414284888725
-0.030066438928904888   -0.0455441205152068   -0.007482004712672206
-0.027054857108023776   -0.01798543826389699   -0.005147623098821665
-0.015687927065934453   -0.01584107698885602   -0.00416320305318527
-0.030066438928904888   -0.0455441205152068   -0.007482004712672206
-0.015639601982778993   -0.015461498340654838   -0.005163414284888725
-0.027054857108023776   -0.01798543826389699   -0.005147623098821665
-0.030066438928904888   -0.0455441205152068   -0.007482004712672206
-0.04923880638855901   -0.04748238707919954   -0.008321823177520915
-0.04825509047549606   -0.04688475786158399   -0.009797270967101134
-0.027054857108023776   -0.01798543826389699   -0.005147623098821665
-0.030066438928904888   -0.0455441205152068   -0.007482004712672206
-0.04825509047549606   -0.04688475786158399   -0.009797270967101134
-0.015639601982778993   -0.015461498340654838   -0.005163414284888725
-0.027054857108023776   -0.01798543826389699   -0.005147623098821665
-0.04923880638855901   -0.04748238707919954   -0.008321823177520915
-0.015687927065934453   -0.01584107698885602   -0.00416320305318527
-0.028826870796251857   -0.01837899479860305   -0.0033050967130887746
-0.04923880638855901   -0.04748238707919954   -0.008321823177520915
-0.030066438928904888   -0.0455441205152068   -0.007482004712672206
-0.015687927065934453   -0.01584107698885602   -0.00416320305318527
-0.029983999200607295   -0.04578312553928841   -0.006647380242805498
-0.028826870796251857   -0.01837899479860305   -0.0033050967130887746
-0.015684436728317513   -0.015937948327840793   -0.0031283716680781744
-0.029983999200607295   -0.04578312553928841   -0.006647380242805498
-0.015687927065934453   -0.01584107698885602   -0.00416320305318527
-0.028826870796251857   -0.01837899479860305   -0.0033050967130887746
-0.029983999200607295   -0.04578312553928841   -0.006647380242805498
-0.050401812742571286   -0.047828148705344985   -0.006978517375538425
-0.04923880638855901   -0.04748238707919954   -0.008321823177520915
-0.028826870796251857   -0.01837899479860305   -0.0033050967130887746
-0.029983999200607295   -0.04578312553928841   -0.006647380242805498
-0.04923880638855901   -0.04748238707919954   -0.008321823177520915
-0.015687927065934453   -0.01584107698885602   -0.00416320305318527
-0.01595116301837867   -0.014719865416511463   -0.00616458672349693
-0.029899911125124766   -0.04432212803174329   -0.00930021211140728
-0.007259367348469437   -0.01410646346439942   -0.004687102225015066
-0.015639601982778993   -0.015461498340654838   -0.005163414284888725
-0.029899911125124766   -0.04432212803174329   -0.00930021211140728
-0.013862382189555388   -0.04362260609828777   -0.007932093743874215
-0.007259367348469437   -0.01410646346439942   -0.004687102225015066
-0.01374932456926546   -0.04410657658913664   -0.0074576609708991975
-0.015639601982778993   -0.015461498340654838   -0.005163414284888725
-0.006986068462077393   -0.014589681580688605   -0.004214966552051636
-0.01374932456926546   -0.04410657658913664   -0.0074576609708991975
-0.007259367348469437   -0.01410646346439942   -0.004687102225015066
-0.015639601982778993   -0.015461498340654838   -0.005163414284888725
-0.01374932456926546   -0.04410657658913664   -0.0074576609708991975
-0.029941637144874963   -0.04508167788533828   -0.008373221142416428
-0.029899911125124766   -0.04432212803174329   -0.00930021211140728
-0.015639601982778993   -0.015461498340654838   -0.005163414284888725
-0.01374932456926546   -0.04410657658913664   -0.0074576609708991975
-0.029899911125124766   -0.04432212803174329   -0.00930021211140728
-0.007259367348469437   -0.01410646346439942   -0.004687102225015066
-0.015639601982778993   -0.015461498340654838   -0.005163414284888725
-0.029941637144874963   -0.04508167788533828   -0.008373221142416428
-0.006986068462077393   -0.014589681580688605   -0.004214966552051636
-0.015687927065934453   -0.01584107698885602   -0.00416320305318527
-0.029941637144874963   -0.04508167788533828   -0.008373221142416428
-0.01374932456926546   -0.04410657658913664   -0.0074576609708991975
-0.006986068462077393   -0.014589681580688605   -0.004214966552051636
-0.013649873681272993   -0.044341083308435676   -0.007027300856832192
-0.015687927065934453   -0.01584107698885602   -0.00416320305318527
-0.006834299865842028   -0.014773693866255128   -0.0037546866597278406
-0.013649873681272993   -0.044341083308435676   -0.007027300856832192
-0.006986068462077393   -0.014589681580688605   -0.004214966552051636
-0.015687927065934453   -0.01584107698885602   -0.00416320305318527
-0.013649873681272993   -0.044341083308435676   -0.007027300856832192
-0.030066438928904888   -0.0455441205152068   -0.007482004712672206
-0.029941637144874963   -0.04508167788533828   -0.008373221142416428
-0.015687927065934453   -0.01584107698885602   -0.00416320305318527
-0.013649873681272993   -0.044341083308435676   -0.007027300856832192
-0.029941637144874963   -0.04508167788533828   -0.008373221142416428
-0.006986068462077393   -0.014589681580688605   -0.004214966552051636
-0.015687927065934453   -0.01584107698885602   -0.00416320305318527
-0.030066438928904888   -0.0455441205152068   -0.007482004712672206
-0.006834299865842028   -0.014773693866255128   -0.0037546866597278406
-0.015684436728317513   -0.015937948327840793   -0.0031283716680781744
-0.030066438928904888   -0.0455441205152068   -0.007482004712672206
-0.013649873681272993   -0.044341083308435676   -0.007027300856832192
-0.006834299865842028   -0.014773693866255128   -0.0037546866597278406
-0.013498413226405756   -0.04433498242788701   -0.006652292797582449
-0.015684436728317513   -0.015937948327840793   -0.0031283716680781744
-0.006696799566491985   -0.014696523883455605   -0.0032783466175223147
-0.013498413226405756   -0.04433498242788701   -0.006652292797582449
-0.006834299865842028   -0.014773693866255128   -0.0037546866597278406
-0.015684436728317513   -0.015937948327840793   -0.0031283716680781744
-0.013498413226405756   -0.04433498242788701   -0.006652292797582449
-0.029983999200607295   -0.04578312553928841   -0.006647380242805498
-0.030066438928904888   -0.0455441205152068   -0.007482004712672206
-0.015684436728317513   -0.015937948327840793   -0.0031283716680781744
-0.013498413226405756   -0.04433498242788701   -0.006652292797582449
-0.030066438928904888   -0.0455441205152068   -0.007482004712672206
-0.006834299865842028   -0.014773693866255128   -0.0037546866597278406
-0.007259367348469437   -0.01410646346439942   -0.004687102225015066
-0.013862382189555388   -0.04362260609828777   -0.007932093743874215
0.0009563521447441995   -0.01418439790402532   -0.0037444442608933104
-0.006986068462077393   -0.014589681580688605   -0.004214966552051636
-0.013862382189555388   -0.04362260609828777   -0.007932093743874215
0.0016068346358076148   -0.043643041334457136   -0.007065774641442894
0.0009563521447441995   -0.01418439790402532   -0.0037444442608933104
0.0017469353250442784   -0.04387318270522328   -0.007035569595038201
-0.006986068462077393   -0.014589681580688605   -0.004214966552051636
0.0011288427985630932   -0.014435406812995018   -0.0038109902575044056
0.0017469353250442784   -0.04387318270522328   -0.007035569595038201
0.0009563521447441995   -0.01418439790402532   -0.0037444442608933104
-0.006986068462077393   -0.014589681580688605   -0.004214966552051636
0.0017469353250442784   -0.04387318270522328   -0.007035569595038201
-0.01374932456926546   -0.04410657658913664   -0.0074576609708991975
-0.013862382189555388   -0.04362260609828777   -0.007932093743874215
-0.006986068462077393   -0.014589681580688605   -0.004214966552051636
0.0017469353250442784   -0.04387318270522328   -0.007035569595038201
-0.013862382189555388   -0.04362260609828777   -0.007932093743874215
0.0009563521447441995   -0.01418439790402532   -0.0037444442608933104
-0.006986068462077393   -0.014589681580688605   -0.004214966552051636
-0.01374932456926546   -0.04410657658913664   -0.0074576609708991975
0.0011288427985630932   -0.014435406812995018   -0.0038109902575044056
-0.006834299865842028   -0.014773693866255128   -0.0037546866597278406
-0.01374932456926546   -0.04410657658913664   -0.0074576609708991975
0.0017469353250442784   -0.04387318270522328   -0.007035569595038201
0.0011288427985630932   -0.014435406812995018   -0.0038109902575044056
0.0018391266742835406   -0.0438597308692234   -0.007055411206211297
-0.006834299865842028   -0.014773693866255128   -0.0037546866597278406
0.0012644257606196604   -0.014415078749423998   -0.0038706922463041995
0.0018391266742835406   -0.0438597308692234   -0.007055411206211297
0.0011288427985630932   -0.014435406812995018   -0.0038109902575044056
-0.006834299865842028   -0.014773693866255128   -0.0037546866597278406
0.0018391266742835406   -0.0438597308692234   -0.007055411206211297
-0.013649873681272993   -0.044341083308435676   -0.007027300856832192
-0.01374932456926546   -0.04410657658913664   -0.0074576609708991975
-0.006834299865842028   -0.014773693866255128   -0.0037546866597278406
0.0018391266742835406   -0.0438597308692234   -0.007055411206211297
-0.01374932456926546   -0.04410657658913664   -0.0074576609708991975
0.0011288427985630932   -0.014435406812995018   -0.0038109902575044056
-0.006834299865842028   -0.014773693866255128   -0.0037546866597278406
-0.013649873681272993   -0.044341083308435676   -0.007027300856832192
0.0012644257606196604   -0.014415078749423998   -0.0038706922463041995
-0.006696799566491985   -0.014696523883455605   -0.0032783466175223147
-0.013649873681272993   -0.044341083308435676   -0.007027300856832192
0.0018391266742835406   -0.0438597308692234   -0.007055411206211297
0.0012644257606196604   -0.014415078749423998   -0.0038706922463041995
0.0019385214616871784   -0.04359522060264765   -0.007126099061530877
-0.006696799566491985   -0.014696523883455605   -0.0032783466175223147
0.0014482536865085276   -0.0141010800688949   -0.003931558477216592
0.0019385214616871784   -0.04359522060264765   -0.007126099061530877
0.0012644257606196604   -0.014415078749423998   -0.0038706922463041995
-0.006696799566491985   -0.014696523883455605   -0.0032783466175223147
0.0019385214616871784   -0.04359522060264765   -0.007126099061530877
-0.013498413226405756   -0.04433498242788701   -0.006652292797582449
-0.013649873681272993   -0.044341083308435676   -0.007027300856832192
-0.006696799566491985   -0.014696523883455605   -0.0032783466175223147
0.0019385214616871784   -0.04359522060264765   -0.007126099061530877
-0.013649873681272993   -0.044341083308435676   -0.007027300856832192
0.0012644257606196604   -0.014415078749423998   -0.0038706922463041995
0.0009563521447441995   -0.01418439790402532   -0.0037444442608933104
0.0016068346358076148   -0.043643041334457136   -0.007065774641442894
0.009870802231598568   -0.014879031135590892   -0.0032767553902582785
0.0011288427985630932   -0.014435406812995018   -0.0038109902575044056
0.0016068346358076148   -0.043643041334457136   -0.007065774641442894
0.017996243533440353   -0.04435731864557858   -0.006659525312880279
0.009870802231598568   -0.014879031135590892   -0.0032767553902582785
0.018071872963712075   -0.044357105190150625   -0.007087999042977534
0.0011288427985630932   -0.014435406812995018   -0.0038109902575044056
0.009882903913917718   -0.014959781814221581   -0.003910076730177633
0.018071872963712075   -0.044357105190150625   -0.007087999042977534
0.009870802231598568   -0.014879031135590892   -0.0032767553902582785
0.0011288427985630932   -0.014435406812995018   -0.0038109902575044056
0.018071872963712075   -0.044357105190150625   -0.007087999042977534
0.0017469353250442784   -0.04387318270522328   -0.007035569595038201
0.0016068346358076148   -0.043643041334457136   -0.007065774641442894
0.0011288427985630932   -0.014435406812995018   -0.0038109902575044056
0.018071872963712075   -0.044357105190150625   -0.007087999042977534
0.0016068346358076148   -0.043643041334457136   -0.007065774641442894
0.009870802231598568   -0.014879031135590892   -0.0032767553902582785
0.0011288427985630932   -0.014435406812995018   -0.0038109902575044056
0.0017469353250442784   -0.04387318270522328   -0.007035569595038201
0.009882903913917718   -0.014959781814221581   -0.003910076730177633
0.0012644257606196604   -0.014415078749423998   -0.0038706922463041995
0.0017469353250442784   -0.04387318270522328   -0.007035569595038201
0.018071872963712075   -0.044357105190150625   -0.007087999042977534
0.009882903913917718   -0.014959781814221581   -0.003910076730177633
0.017981138000582177   -0.044117838100981736   -0.007573100547476965
0.0012644257606196604   -0.014415078749423998   -0.0038706922463041995
0.009835879935127665   -0.014746122731782295   -0.004517073548244214
0.017981138000582177   -0.044117838100981736   -0.007573100547476965
0.009882903913917718   -0.014959781814221581   -0.003910076730177633
0.0012644257606196604   -0.014415078749423998   -0.0038706922463041995
0.017981138000582177   -0.044117838100981736   -0.007573100547476965
0.0018391266742835406   -0.0438597308692234   -0.007055411206211297
0.0017469353250442784   -0.04387318270522328   -0.007035569595038201
0.0012644257606196604   -0.014415078749423998   -0.0038706922463041995
0.017981138000582177   -0.044117838100981736   -0.007573100547476965
0.0017469353250442784   -0.04387318270522328   -0.007035569595038201
0.009882903913917718   -0.014959781814221581   -0.003910076730177633
0.0012644257606196604   -0.014415078749423998   -0.0038706922463041995
0.0018391266742835406   -0.0438597308692234   -0.007055411206211297
0.009835879935127665   -0.014746122731782295   -0.004517073548244214
0.0014482536865085276   -0.0141010800688949   -0.003931558477216592
0.0018391266742835406   -0.0438597308692234   -0.007055411206211297
0.017981138000582177   -0.044117838100981736   -0.007573100547476965
0.009835879935127665   -0.014746122731782295   -0.004517073548244214
0.017926520568847644   -0.04357380824296748   -0.008096906585520619
0.0014482536865085276   -0.0141010800688949   -0.003931558477216592
0.010021858202436874   -0.0141721585948212   -0.0051120679752293275
0.017926520568847644   -0.04357380824296748   -0.008096906585520619
0.009835879935127665   -0.014746122731782295   -0.004517073548244214
0.0014482536865085276   -0.0141010800688949   -0.003931558477216592
0.017926520568847644   -0.04357380824296748   -0.008096906585520619
0.0019385214616871784   -0.04359522060264765   -0.007126099061530877
0.0018391266742835406   -0.0438597308692234   -0.007055411206211297
0.0014482536865085276   -0.0141010800688949   -0.003931558477216592
0.017926520568847644   -0.04357380824296748   -0.008096906585520619
0.0018391266742835406   -0.0438597308692234   -0.007055411206211297
0.009835879935127665   -0.014746122731782295   -0.004517073548244214
0.009870802231598568   -0.014879031135590892   -0.0032767553902582785
0.017996243533440353   -0.04435731864557858   -0.006659525312880279
0.02225592789928018   -0.016637723209917427   -0.003088044662138435
0.009882903913917718   -0.014959781814221581   -0.003910076730177633
0.017996243533440353   -0.04435731864557858   -0.006659525312880279
0.037764216743912386   -0.04568626010029097   -0.006546086991844383
0.02225592789928018   -0.016637723209917427   -0.003088044662138435
0.03698533098999873   -0.04556405500009409   -0.0075090755917192
0.009882903913917718   -0.014959781814221581   -0.003910076730177633
0.020894828428883686   -0.01645787612703756   -0.004522309156011196
0.03698533098999873   -0.04556405500009409   -0.0075090755917192
0.02225592789928018   -0.016637723209917427   -0.003088044662138435
0.009882903913917718   -0.014959781814221581   -0.003910076730177633
0.03698533098999873   -0.04556405500009409   -0.0075090755917192
0.018071872963712075   -0.044357105190150625   -0.007087999042977534
0.017996243533440353   -0.04435731864557858   -0.006659525312880279
0.009882903913917718   -0.014959781814221581   -0.003910076730177633
0.03698533098999873   -0.04556405500009409   -0.0075090755917192
0.017996243533440353   -0.04435731864557858   -0.006659525312880279
0.02225592789928018   -0.016637723209917427   -0.003088044662138435
0.009882903913917718   -0.014959781814221581   -0.003910076730177633
0.018071872963712075   -0.044357105190150625   -0.007087999042977534
0.020894828428883686   -0.01645787612703756   -0.004522309156011196
0.009835879935127665   -0.014746122731782295   -0.004517073548244214
0.018071872963712075   -0.044357105190150625   -0.007087999042977534
0.03698533098999873   -0.04556405500009409   -0.0075090755917192
0.020894828428883686   -0.01645787612703756   -0.004522309156011196
0.036290157786094956   -0.045194800371270535   -0.00859129780396615
0.009835879935127665   -0.014746122731782295   -0.004517073548244214
0.020265049482261783   -0.01611565638779607   -0.005734720610192252
0.036290157786094956   -0.045194800371270535   -0.00859129780396615
0.020894828428883686   -0.01645787612703756   -0.004522309156011196
0.009835879935127665   -0.014746122731782295   -0.004517073548244214
0.036290157786094956   -0.045194800371270535   -0.00859129780396615
0.017981138000582177   -0.044117838100981736   -0.007573100547476965
0.018071872963712075   -0.044357105190150625   -0.007087999042977534
0.009835879935127665   -0.014746122731782295   -0.004517073548244214
0.036290157786094956   -0.045194800371270535   -0.00859129780396615
0.018071872963712075   -0.044357105190150625   -0.007087999042977534
0.020894828428883686   -0.01645787612703756   -0.004522309156011196
0.009835879935127665   -0.014746122731782295   -0.004517073548244214
0.017981138000582177   -0.044117838100981736   -0.007573100547476965
0.020265049482261783   -0.01611565638779607   -0.005734720610192252
0.010021858202436874   -0.0141721585948212   -0.0051120679752293275
0.017981138000582177   -0.044117838100981736   -0.007573100547476965
0.036290157786094956   -0.045194800371270535   -0.00859129780396615
0.020265049482261783   -0.01611565638779607   -0.005734720610192252
0.03525296909679691   -0.04437092066696856   -0.009717170232784511
0.010021858202436874   -0.0141721585948212   -0.0051120679752293275
0.01933076866721139   -0.015238623321581282   -0.007016737331715098
0.03525296909679691   -0.04437092066696856   -0.009717170232784511
0.020265049482261783   -0.01611565638779607   -0.005734720610192252
0.010021858202436874   -0.0141721585948212   -0.0051120679752293275
0.03525296909679691   -0.04437092066696856   -0.009717170232784511
0.017926520568847644   -0.04357380824296748   -0.008096906585520619
0.017981138000582177   -0.044117838100981736   -0.007573100547476965
0.010021858202436874   -0.0141721585948212   -0.0051120679752293275
0.03525296909679691   -0.04437092066696856   -0.009717170232784511
0.017981138000582177   -0.044117838100981736   -0.007573100547476965
0.020265049482261783   -0.01611565638779607   -0.005734720610192252
-0.04684313644832581   -0.04582555877482028   -0.011303517968677379
-0.06423040445871832   -0.08603990648000019   -0.012869154503334701
-0.029899911125124766   -0.04432212803174329   -0.00930021211140728
-0.04825509047549606   -0.04688475786158399   -0.009797270967101134
-0.06423040445871832   -0.08603990648000019   -0.012869154503334701
-0.04129056849973421   -0.08488935006220377   -0.011241464468653295
-0.029899911125124766   -0.04432212803174329   -0.00930021211140728
-0.04138881236796928   -0.08554596574839127   -0.010521288488012379
-0.04825509047549606   -0.04688475786158399   -0.009797270967101134
-0.029941637144874963   -0.04508167788533828   -0.008373221142416428
-0.04138881236796928   -0.08554596574839127   -0.010521288488012379
-0.029899911125124766   -0.04432212803174329   -0.00930021211140728
-0.04825509047549606   -0.04688475786158399   -0.009797270967101134
-0.04138881236796928   -0.08554596574839127   -0.010521288488012379
-0.0653831426235787   -0.08693684331046433   -0.011743627190777931
-0.06423040445871832   -0.08603990648000019   -0.012869154503334701
-0.04825509047549606   -0.04688475786158399   -0.009797270967101134
-0.04138881236796928   -0.08554596574839127   -0.010521288488012379
-0.06423040445871832   -0.08603990648000019   -0.012869154503334701
-0.029899911125124766   -0.04432212803174329   -0.00930021211140728
-0.04825509047549606   -0.04688475786158399   -0.009797270967101134
-0.0653831426235787   -0.08693684331046433   -0.011743627190777931
-0.029941637144874963   -0.04508167788533828   -0.008373221142416428
-0.04923880638855901   -0.04748238707919954   -0.008321823177520915
-0.0653831426235787   -0.08693684331046433   -0.011743627190777931
-0.04138881236796928   -0.08554596574839127   -0.010521288488012379
-0.029941637144874963   -0.04508167788533828   -0.008373221142416428
-0.04150356176078591   -0.08600232032842987   -0.009852953540349896
-0.04923880638855901   -0.04748238707919954   -0.008321823177520915
-0.030066438928904888   -0.0455441205152068   -0.007482004712672206
-0.04150356176078591   -0.08600232032842987   -0.009852953540349896
-0.029941637144874963   -0.04508167788533828   -0.008373221142416428
-0.04923880638855901   -0.04748238707919954   -0.008321823177520915
-0.04150356176078591   -0.08600232032842987   -0.009852953540349896
-0.06611338097571925   -0.08749861735899576   -0.01069411852317533
-0.0653831426235787   -0.08693684331046433   -0.011743627190777931
-0.04923880638855901   -0.04748238707919954   -0.008321823177520915
-0.04150356176078591   -0.08600232032842987   -0.009852953540349896
-0.0653831426235787   -0.08693684331046433   -0.011743627190777931
-0.029941637144874963   -0.04508167788533828   -0.008373221142416428
-0.04923880638855901   -0.04748238707919954   -0.008321823177520915
-0.06611338097571925   -0.08749861735899576   -0.01069411852317533
-0.030066438928904888   -0.0455441205152068   -0.007482004712672206
-0.050401812742571286   -0.047828148705344985   -0.006978517375538425
-0.06611338097571925   -0.08749861735899576   -0.01069411852317533
-0.04150356176078591   -0.08600232032842987   -0.009852953540349896
-0.030066438928904888   -0.0455441205152068   -0.007482004712672206
-0.04143391792040064   -0.08630165200252021   -0.009225433987010498
-0.050401812742571286   -0.047828148705344985   -0.006978517375538425
-0.029983999200607295   -0.04578312553928841   -0.006647380242805498
-0.04143391792040064   -0.08630165200252021   -0.009225433987010498
-0.030066438928904888   -0.0455441205152068   -0.007482004712672206
-0.050401812742571286   -0.047828148705344985   -0.006978517375538425
-0.04143391792040064   -0.08630165200252021   -0.009225433987010498
-0.06694425033959751   -0.08790116336857913   -0.009727730699654475
-0.06611338097571925   -0.08749861735899576   -0.01069411852317533
-0.050401812742571286   -0.047828148705344985   -0.006978517375538425
-0.04143391792040064   -0.08630165200252021   -0.009225433987010498
-0.06611338097571925   -0.08749861735899576   -0.01069411852317533
-0.030066438928904888   -0.0455441205152068   -0.007482004712672206
-0.029899911125124766   -0.04432212803174329   -0.00930021211140728
-0.04129056849973421   -0.08488935006220377   -0.011241464468653295
-0.013862382189555388   -0.04362260609828777   -0.007932093743874215
-0.029941637144874963   -0.04508167788533828   -0.008373221142416428
-0.04129056849973421   -0.08488935006220377   -0.011241464468653295
-0.019650812910380525   -0.0843163210458258   -0.010110293697378434
-0.013862382189555388   -0.04362260609828777   -0.007932093743874215
-0.019609272236674174   -0.08473672634903597   -0.009704013743164569
-0.029941637144874963   -0.04508167788533828   -0.008373221142416428
-0.01374932456926546   -0.04410657658913664   -0.0074576609708991975
-0.019609272236674174   -0.08473672634903597   -0.009704013743164569
-0.013862382189555388   -0.04362260609828777   -0.007932093743874215
-0.029941637144874963   -0.04508167788533828   -0.008373221142416428
-0.019609272236674174   -0.08473672634903597   -0.009704013743164569
-0.04138881236796928   -0.08554596574839127   -0.010521288488012379
-0.04129056849973421   -0.08488935006220377   -0.011241464468653295
-0.029941637144874963   -0.04508167788533828   -0.008373221142416428
-0.019609272236674174   -0.08473672634903597   -0.009704013743164569
-0.04129056849973421   -0.08488935006220377   -0.011241464468653295
-0.013862382189555388   -0.04362260609828777   -0.007932093743874215
-0.029941637144874963   -0.04508167788533828   -0.008373221142416428
-0.04138881236796928   -0.08554596574839127   -0.010521288488012379
-0.01374932456926546   -0.04410657658913664   -0.0074576609708991975
-0.030066438928904888   -0.0455441205152068   -0.007482004712672206
-0.04138881236796928   -0.08554596574839127   -0.010521288488012379
-0.019609272236674174   -0.08473672634903597   -0.009704013743164569
-0.01374932456926546   -0.04410657658913664   -0.0074576609708991975
-0.019556616709034   -0.084983439458873   -0.00934714534129765
-0.030066438928904888   -0.0455441205152068   -0.007482004712672206
-0.013649873681272993   -0.044341083308435676   -0.007027300856832192
-0.019556616709034   -0.084983439458873   -0.00934714534129765
-0.01374932456926546   -0.04410657658913664   -0.0074576609708991975
-0.030066438928904888   -0.0455441205152068   -0.007482004712672206
-0.019556616709034   -0.084983439458873   -0.00934714534129765
-0.04150356176078591   -0.08600232032842987   -0.009852953540349896
-0.04138881236796928   -0.08554596574839127   -0.010521288488012379
-0.030066438928904888   -0.0455441205152068   -0.007482004712672206
-0.019556616709034   -0.084983439458873   -0.00934714534129765
-0.04138881236796928   -0.08554596574839127   -0.010521288488012379
-0.01374932456926546   -0.04410657658913664   -0.0074576609708991975
-0.030066438928904888   -0.0455441205152068   -0.007482004712672206
-0.04150356176078591   -0.08600232032842987   -0.009852953540349896
-0.013649873681272993   -0.044341083308435676   -0.007027300856832192
-0.029983999200607295   -0.04578312553928841   -0.006647380242805498
-0.04150356176078591   -0.08600232032842987   -0.009852953540349896
-0.019556616709034   -0.084983439458873   -0.00934714534129765
-0.013649873681272993   -0.044341083308435676   -0.007027300856832192
-0.019465259204842503   -0.08505998899472034   -0.009039519455580363
-0.029983999200607295   -0.04578312553928841   -0.006647380242805498
-0.013498413226405756   -0.04433498242788701   -0.006652292797582449
-0.019465259204842503   -0.08505998899472034   -0.009039519455580363
-0.013649873681272993   -0.044341083308435676   -0.007027300856832192
-0.029983999200607295   -0.04578312553928841   -0.006647380242805498
-0.019465259204842503   -0.08505998899472034   -0.009039519455580363
-0.04143391792040064   -0.08630165200252021   -0.009225433987010498
-0.04150356176078591   -0.08600232032842987   -0.009852953540349896
-0.029983999200607295   -0.04578312553928841   -0.006647380242805498
-0.019465259204842503   -0.08505998899472034   -0.009039519455580363
-0.04150356176078591   -0.08600232032842987   -0.009852953540349896
-0.013649873681272993   -0.044341083308435676   -0.007027300856832192
-0.013862382189555388   -0.04362260609828777   -0.007932093743874215
-0.019650812910380525   -0.0843163210458258   -0.010110293697378434
0.0016068346358076148   -0.043643041334457136   -0.007065774641442894
-0.01374932456926546   -0.04410657658913664   -0.0074576609708991975
-0.019650812910380525   -0.0843163210458258   -0.010110293697378434
0.001356660469397869   -0.08428594508617955   -0.009407531061682408
0.0016068346358076148   -0.043643041334457136   -0.007065774641442894
0.0014392251404217475   -0.08447402937245009   -0.009313416705198549
-0.01374932456926546   -0.04410657658913664   -0.0074576609708991975
0.0017469353250442784   -0.04387318270522328   -0.007035569595038201
0.0014392251404217475   -0.08447402937245009   -0.009313416705198549
0.0016068346358076148   -0.043643041334457136   -0.007065774641442894
-0.01374932456926546   -0.04410657658913664   -0.0074576609708991975
0.0014392251404217475   -0.08447402937245009   -0.009313416705198549
-0.019609272236674174   -0.08473672634903597   -0.009704013743164569
-0.019650812910380525   -0.0843163210458258   -0.010110293697378434
-0.01374932456926546   -0.04410657658913664   -0.0074576609708991975
0.0014392251404217475   -0.08447402937245009   -0.009313416705198549
-0.019650812910380525   -0.0843163210458258   -0.010110293697378434
0.0016068346358076148   -0.043643041334457136   -0.007065774641442894
-0.01374932456926546   -0.04410657658913664   -0.0074576609708991975
-0.019609272236674174   -0.08473672634903597   -0.009704013743164569
0.0017469353250442784   -0.04387318270522328   -0.007035569595038201
-0.013649873681272993   -0.044341083308435676   -0.007027300856832192
-0.019609272236674174   -0.08473672634903597   -0.009704013743164569
0.0014392251404217475   -0.08447402937245009   -0.009313416705198549
0.0017469353250442784   -0.04387318270522328   -0.007035569595038201
0.0014894200216033335   -0.08448913369173605   -0.009267397523441712
-0.013649873681272993   -0.044341083308435676   -0.007027300856832192
0.0018391266742835406   -0.0438597308692234   -0.007055411206211297
0.0014894200216033335   -0.08448913369173605   -0.009267397523441712
0.0017469353250442784   -0.04387318270522328   -0.007035569595038201
-0.013649873681272993   -0.044341083308435676   -0.007027300856832192
0.0014894200216033335   -0.08448913369173605   -0.009267397523441712
-0.019556616709034   -0.084983439458873   -0.00934714534129765
-0.019609272236674174   -0.08473672634903597   -0.009704013743164569
-0.013649873681272993   -0.044341083308435676   -0.007027300856832192
0.0014894200216033335   -0.08448913369173605   -0.009267397523441712
-0.019609272236674174   -0.08473672634903597   -0.009704013743164569
0.0017469353250442784   -0.04387318270522328   -0.007035569595038201
-0.013649873681272993   -0.044341083308435676   -0.007027300856832192
-0.019556616709034   -0.084983439458873   -0.00934714534129765
0.0018391266742835406   -0.0438597308692234   -0.007055411206211297
-0.013498413226405756   -0.04433498242788701   -0.006652292797582449
-0.019556616709034   -0.084983439458873   -0.00934714534129765
0.0014894200216033335   -0.08448913369173605   -0.009267397523441712
0.0018391266742835406   -0.0438597308692234   -0.007055411206211297
0.0015235207569381526   -0.0843286688508465   -0.009272425079311683
-0.013498413226405756   -0.04433498242788701   -0.006652292797582449
0.0019385214616871784   -0.04359522060264765   -0.007126099061530877
0.0015235207569381526   -0.0843286688508465   -0.009272425079311683
0.0018391266742835406   -0.0438597308692234   -0.007055411206211297
-0.013498413226405756   -0.04433498242788701   -0.006652292797582449
0.0015235207569381526   -0.0843286688508465   -0.009272425079311683
-0.019465259204842503   -0.08505998899472034   -0.009039519455580363
-0.019556616709034   -0.084983439458873   -0.00934714534129765
-0.013498413226405756   -0.04433498242788701   -0.006652292797582449
0.0015235207569381526   -0.0843286688508465   -0.009272425079311683
-0.019556616709034   -0.084983439458873   -0.00934714534129765
0.0018391266742835406   -0.0438597308692234   -0.007055411206211297
0.0016068346358076148   -0.043643041334457136   -0.007065774641442894
0.001356660469397869   -0.08428594508617955   -0.009407531061682408
0.017996243533440353   -0.04435731864557858   -0.006659525312880279
0.0017469353250442784   -0.04387318270522328   -0.007035569595038201
0.001356660469397869   -0.08428594508617955   -0.009407531061682408
0.023258593116097098   -0.0847660339710653   -0.00912094868035716
0.017996243533440353   -0.04435731864557858   -0.006659525312880279
0.023328979174235966   -0.08474143962409339   -0.009345543920881714
0.0017469353250442784   -0.04387318270522328   -0.007035569595038201
0.018071872963712075   -0.044357105190150625   -0.007087999042977534
0.023328979174235966   -0.08474143962409339   -0.009345543920881714
0.017996243533440353   -0.04435731864557858   -0.006659525312880279
0.0017469353250442784   -0.04387318270522328   -0.007035569595038201
0.023328979174235966   -0.08474143962409339   -0.009345543920881714
0.0014392251404217475   -0.08447402937245009   -0.009313416705198549
0.001356660469397869   -0.08428594508617955   -0.009407531061682408
0.0017469353250442784   -0.04387318270522328   -0.007035569595038201
0.023328979174235966   -0.08474143962409339   -0.009345543920881714
0.001356660469397869   -0.08428594508617955   -0.009407531061682408
0.017996243533440353   -0.04435731864557858   -0.006659525312880279
0.0017469353250442784   -0.04387318270522328   -0.007035569595038201
0.0014392251404217475   -0.08447402937245009   -0.009313416705198549
0.018071872963712075   -0.044357105190150625   -0.007087999042977534
0.0018391266742835406   -0.0438597308692234   -0.007055411206211297
0.0014392251404217475   -0.08447402937245009   -0.009313416705198549
0.023328979174235966   -0.08474143962409339   -0.009345543920881714
0.018071872963712075   -0.044357105190150625   -0.007087999042977534
0.023261323369775686   -0.08454732688288384   -0.009614700217777503
0.0018391266742835406   -0.0438597308692234   -0.007055411206211297
0.017981138000582177   -0.044117838100981736   -0.007573100547476965
0.023261323369775686   -0.08454732688288384   -0.009614700217777503
0.018071872963712075   -0.044357105190150625   -0.007087999042977534
0.0018391266742835406   -0.0438597308692234   -0.007055411206211297
0.023261323369775686   -0.08454732688288384   -0.009614700217777503
0.0014894200216033335   -0.08448913369173605   -0.009267397523441712
0.0014392251404217475   -0.08447402937245009   -0.009313416705198549
0.0018391266742835406   -0.0438597308692234   -0.007055411206211297
0.023261323369775686   -0.08454732688288384   -0.009614700217777503
0.0014392251404217475   -0.08447402937245009   -0.009313416705198549
0.018071872963712075   -0.044357105190150625   -0.007087999042977534
0.0018391266742835406   -0.0438597308692234   -0.007055411206211297
0.0014894200216033335   -0.08448913369173605   -0.009267397523441712
0.017981138000582177   -0.044117838100981736   -0.007573100547476965
0.0019385214616871784   -0.04359522060264765   -0.007126099061530877
0.0014894200216033335   -0.08448913369173605   -0.009267397523441712
0.023261323369775686   -0.08454732688288384   -0.009614700217777503
0.017981138000582177   -0.044117838100981736   -0.007573100547476965
0.023164789922962236   -0.08414199565860156   -0.00993367400291115
0.0019385214616871784   -0.04359522060264765   -0.007126099061530877
0.017926520568847644   -0.04357380824296748   -0.008096906585520619
0.023164789922962236   -0.08414199565860156   -0.00993367400291115
0.017981138000582177   -0.044117838100981736   -0.007573100547476965
0.0019385214616871784   -0.04359522060264765   -0.007126099061530877
0.023164789922962236   -0.08414199565860156   -0.00993367400291115
0.0015235207569381526   -0.0843286688508465   -0.009272425079311683
0.0014894200216033335   -0.08448913369173605   -0.009267397523441712
0.0019385214616871784   -0.04359522060264765   -0.007126099061530877
0.023164789922962236   -0.08414199565860156   -0.00993367400291115
0.0014894200216033335   -0.08448913369173605   -0.009267397523441712
0.017981138000582177   -0.044117838100981736   -0.007573100547476965
0.017996243533440353   -0.04435731864557858   -0.006659525312880279
0.023258593116097098   -0.0847660339710653   -0.00912094868035716
0.037764216743912386   -0.04568626010029097   -0.006546086991844383
0.018071872963712075   -0.044357105190150625   -0.007087999042977534
0.023258593116097098   -0.0847660339710653   -0.00912094868035716
0.04819717024134215   -0.08563848868402131   -0.009120857471147112
0.037764216743912386   -0.04568626010029097   -0.006546086991844383
0.04776555274633655   -0.0854917642994058   -0.009705991189298538
0.018071872963712075   -0.044357105190150625   -0.007087999042977534
0.03698533098999873   -0.04556405500009409   -0.0075090755917192
0.04776555274633655   -0.0854917642994058   -0.009705991189298538
0.037764216743912386   -0.04568626010029097   -0.006546086991844383
0.018071872963712075   -0.044357105190150625   -0.007087999042977534
0.04776555274633655   -0.0854917642994058   -0.009705991189298538
0.023328979174235966   -0.08474143962409339   -0.009345543920881714
0.023258593116097098   -0.0847660339710653   -0.00912094868035716
0.018071872963712075   -0.044357105190150625   -0.007087999042977534
0.04776555274633655   -0.0854917642994058   -0.009705991189298538
0.023258593116097098   -0.0847660339710653   -0.00912094868035716
0.037764216743912386   -0.04568626010029097   -0.006546086991844383
0.018071872963712075   -0.044357105190150625   -0.007087999042977534
0.023328979174235966   -0.08474143962409339   -0.009345543920881714
0.03698533098999873   -0.04556405500009409   -0.0075090755917192
0.017981138000582177   -0.044117838100981736   -0.007573100547476965
0.023328979174235966   -0.08474143962409339   -0.009345543920881714
0.04776555274633655   -0.0854917642994058   -0.009705991189298538
0.03698533098999873   -0.04556405500009409   -0.0075090755917192
0.04733644260015113   -0.08519241837865216   -0.010371473230983863
0.017981138000582177   -0.044117838100981736   -0.007573100547476965
0.036290157786094956   -0.045194800371270535   -0.00859129780396615
0.04733644260015113   -0.08519241837865216   -0.010371473230983863
0.03698533098999873   -0.04556405500009409   -0.0075090755917192
0.017981138000582177   -0.044117838100981736   -0.007573100547476965
0.04733644260015113   -0.08519241837865216   -0.010371473230983863
0.023261323369775686   -0.08454732688288384   -0.009614700217777503
0.023328979174235966   -0.08474143962409339   -0.009345543920881714
0.017981138000582177   -0.044117838100981736   -0.007573100547476965
0.04733644260015113   -0.08519241837865216   -0.010371473230983863
0.023328979174235966   -0.08474143962409339   -0.009345543920881714
0.03698533098999873   -0.04556405500009409   -0.0075090755917192
0.017981138000582177   -0.044117838100981736   -0.007573100547476965
0.023261323369775686   -0.08454732688288384   -0.009614700217777503
0.036290157786094956   -0.045194800371270535   -0.00859129780396615
0.017926520568847644   -0.04357380824296748   -0.008096906585520619
0.023261323369775686   -0.08454732688288384   -0.009614700217777503
0.04733644260015113   -0.08519241837865216   -0.010371473230983863
0.036290157786094956   -0.045194800371270535   -0.00859129780396615
0.04658205488634607   -0.08456189895554149   -0.011117386101721635
0.017926520568847644   -0.04357380824296748   -0.008096906585520619
0.03525296909679691   -0.04437092066696856   -0.009717170232784511
0.04658205488634607   -0.08456189895554149   -0.011117386101721635
0.036290157786094956   -0.045194800371270535   -0.00859129780396615
0.017926520568847644   -0.04357380824296748   -0.008096906585520619
0.04658205488634607   -0.08456189895554149   -0.011117386101721635
0.023164789922962236   -0.08414199565860156   -0.00993367400291115
0.023261323369775686   -0.08454732688288384   -0.009614700217777503
0.017926520568847644   -0.04357380824296748   -0.008096906585520619
0.04658205488634607   -0.08456189895554149   -0.011117386101721635
0.023261323369775686   -0.08454732688288384   -0.009614700217777503
0.036290157786094956   -0.045194800371270535   -0.00859129780396615
-0.06423040445871832   -0.08603990648000019   -0.012869154503334701
-0.0767539739502172   -0.13378214201085287   -0.0137170903815959
-0.04129056849973421   -0.08488935006220377   -0.011241464468653295
-0.0653831426235787   -0.08693684331046433   -0.011743627190777931
-0.0767539739502172   -0.13378214201085287   -0.0137170903815959
-0.04980669748749945   -0.13304857896285333   -0.012387428746982043
-0.04129056849973421   -0.08488935006220377   -0.011241464468653295
-0.049874161369576675   -0.1336144142320635   -0.011871184977062558
-0.0653831426235787   -0.08693684331046433   -0.011743627190777931
-0.04138881236796928   -0.08554596574839127   -0.010521288488012379
-0.049874161369576675   -0.1336144142320635   -0.011871184977062558
-0.04129056849973421   -0.08488935006220377   -0.011241464468653295
-0.0653831426235787   -0.08693684331046433   -0.011743627190777931
-0.049874161369576675   -0.1336144142320635   -0.011871184977062558
-0.07753479196967733   -0.13454727374918207   -0.012967876510133338
-0.0767539739502172   -0.13378214201085287   -0.0137170903815959
-0.0653831426235787   -0.08693684331046433   -0.011743627190777931
-0.049874161369576675   -0.1336144142320635   -0.011871184977062558
-0.0767539739502172   -0.13378214201085287   -0.0137170903815959
-0.04129056849973421   -0.08488935006220377   -0.011241464468653295
-0.0653831426235787   -0.08693684331046433   -0.011743627190777931
-0.07753479196967733   -0.13454727374918207   -0.012967876510133338
-0.04138881236796928   -0.08554596574839127   -0.010521288488012379
-0.06611338097571925   -0.08749861735899576   -0.01069411852317533
-0.07753479196967733   -0.13454727374918207   -0.012967876510133338
-0.049874161369576675   -0.1336144142320635   -0.011871184977062558
-0.04138881236796928   -0.08554596574839127   -0.010521288488012379
-0.04992470788835361   -0.1340623829136893   -0.011406253056988959
-0.06611338097571925   -0.08749861735899576   -0.01069411852317533
-0.04150356176078591   -0.08600232032842987   -0.009852953540349896
-0.04992470788835361   -0.1340623829136893   -0.011406253056988959
-0.04138881236796928   -0.08554596574839127   -0.010521288488012379
-0.06611338097571925   -0.08749861735899576   -0.01069411852317533
-0.04992470788835361   -0.1340623829136893   -0.011406253056988959
-0.07798654430539877   -0.1350878745451369   -0.012290234658521124
-0.07753479196967733   -0.13454727374918207   -0.012967876510133338
-0.06611338097571925   -0.08749861735899576   -0.01069411852317533
-0.04992470788835361   -0.1340623829136893   -0.011406253056988959
-0.07753479196967733   -0.13454727374918207   -0.012967876510133338
-0.04138881236796928   -0.08554596574839127   -0.010521288488012379
-0.06611338097571925   -0.08749861735899576   -0.01069411852317533
-0.07798654430539877   -0.1350878745451369   -0.012290234658521124
-0.04150356176078591   -0.08600232032842987   -0.009852953540349896
-0.06694425033959751   -0.08790116336857913   -0.009727730699654475
-0.07798654430539877   -0.1350878745451369   -0.012290234658521124
-0.04992470788835361   -0.1340623829136893   -0.011406253056988959
-0.04150356176078591   -0.08600232032842987   -0.009852953540349896
-0.04982905931656963   -0.1344295670823106   -0.010985859416743265
-0.06694425033959751   -0.08790116336857913   -0.009727730699654475
-0.04143391792040064   -0.08630165200252021   -0.009225433987010498
-0.04982905931656963   -0.1344295670823106   -0.010985859416743265
-0.04150356176078591   -0.08600232032842987   -0.009852953540349896
-0.06694425033959751   -0.08790116336857913   -0.009727730699654475
-0.04982905931656963   -0.1344295670823106   -0.010985859416743265
-0.07845249651444496   -0.1355711958517692   -0.011692628813897491
-0.07798654430539877   -0.1350878745451369   -0.012290234658521124
-0.06694425033959751   -0.08790116336857913   -0.009727730699654475
-0.04982905931656963   -0.1344295670823106   -0.010985859416743265
-0.07798654430539877   -0.1350878745451369   -0.012290234658521124
-0.04150356176078591   -0.08600232032842987   -0.009852953540349896
-0.04129056849973421   -0.08488935006220377   -0.011241464468653295
-0.04980669748749945   -0.13304857896285333   -0.012387428746982043
-0.019650812910380525   -0.0843163210458258   -0.010110293697378434
-0.04138881236796928   -0.08554596574839127   -0.010521288488012379
-0.04980669748749945   -0.13304857896285333   -0.012387428746982043
-0.024538028883386624   -0.13267041640670532   -0.011466482627688065
-0.019650812910380525   -0.0843163210458258   -0.010110293697378434
-0.024498754821996364   -0.13302600343059173   -0.011126496459714598
-0.04138881236796928   -0.08554596574839127   -0.010521288488012379
-0.019609272236674174   -0.08473672634903597   -0.009704013743164569
-0.024498754821996364   -0.13302600343059173   -0.011126496459714598
-0.019650812910380525   -0.0843163210458258   -0.010110293697378434
-0.04138881236796928   -0.08554596574839127   -0.010521288488012379
-0.024498754821996364   -0.13302600343059173   -0.011126496459714598
-0.049874161369576675   -0.1336144142320635   -0.011871184977062558
-0.04980669748749945   -0.13304857896285333   -0.012387428746982043
-0.04138881236796928   -0.08554596574839127   -0.010521288488012379
-0.024498754821996364   -0.13302600343059173   -0.011126496459714598
-0.04980669748749945   -0.13304857896285333   -0.012387428746982043
-0.019650812910380525   -0.0843163210458258   -0.010110293697378434
-0.04138881236796928   -0.08554596574839127   -0.010521288488012379
-0.049874161369576675   -0.1336144142320635   -0.011871184977062558
-0.019609272236674174   -0.08473672634903597   -0.009704013743164569
-0.04150356176078591   -0.08600232032842987   -0.009852953540349896
-0.049874161369576675   -0.1336144142320635   -0.011871184977062558
-0.024498754821996364   -0.13302600343059173   -0.011126496459714598
-0.019609272236674174   -0.08473672634903597   -0.009704013743164569
-0.02444231974506364   -0.13328288541365918   -0.01083708854298195
-0.04150356176078591   -0.08600232032842987   -0.009852953540349896
-0.019556616709034   -0.084983439458873   -0.00934714534129765
-0.02444231974506364   -0.13328288541365918   -0.01083708854298195
-0.019609272236674174   -0.08473672634903597   -0.009704013743164569
-0.04150356176078591   -0.08600232032842987   -0.009852953540349896
-0.02444231974506364   -0.13328288541365918   -0.01083708854298195
-0.04992470788835361   -0.1340623829136893   -0.011406253056988959
-0.049874161369576675   -0.1336144142320635   -0.011871184977062558
-0.04150356176078591   -0.08600232032842987   -0.009852953540349896
-0.02444231974506364   -0.13328288541365918   -0.01083708854298195
-0.049874161369576675   -0.1336144142320635   -0.011871184977062558
-0.019609272236674174   -0.08473672634903597   -0.009704013743164569
-0.04150356176078591   -0.08600232032842987   -0.009852953540349896
-0.04992470788835361   -0.1340623829136893   -0.011406253056988959
-0.019556616709034   -0.084983439458873   -0.00934714534129765
-0.04143391792040064   -0.08630165200252021   -0.009225433987010498
-0.04992470788835361   -0.1340623829136893   -0.011406253056988959
-0.02444231974506364   -0.13328288541365918   -0.01083708854298195
-0.019556616709034   -0.084983439458873   -0.00934714534129765
-0.02435462734478664   -0.1334427383360607   -0.010599069718597741
-0.04143391792040064   -0.08630165200252021   -0.009225433987010498
-0.019465259204842503   -0.08505998899472034   -0.009039519455580363
-0.02435462734478664   -0.1334427383360607   -0.010599069718597741
-0.019556616709034   -0.084983439458873   -0.00934714534129765
-0.04143391792040064   -0.08630165200252021   -0.009225433987010498
-0.02435462734478664   -0.1334427383360607   -0.010599069718597741
-0.04982905931656963   -0.1344295670823106   -0.010985859416743265
-0.04992470788835361   -0.1340623829136893   -0.011406253056988959
-0.04143391792040064   -0.08630165200252021   -0.009225433987010498
-0.02435462734478664   -0.1334427383360607   -0.010599069718597741
-0.04992470788835361   -0.1340623829136893   -0.011406253056988959
-0.019556616709034   -0.084983439458873   -0.00934714534129765
-0.019650812910380525   -0.0843163210458258   -0.010110293697378434
-0.024538028883386624   -0.13267041640670532   -0.011466482627688065
0.001356660469397869   -0.08428594508617955   -0.009407531061682408
-0.019609272236674174   -0.08473672634903597   -0.009704013743164569
-0.024538028883386624   -0.13267041640670532   -0.011466482627688065
4.626021984624964e-05   -0.1326059904930605   -0.010928620600253122
0.001356660469397869   -0.08428594508617955   -0.009407531061682408
0.00012651833181207548   -0.1327504238147958   -0.010766172774077635
-0.019609272236674174   -0.08473672634903597   -0.009704013743164569
0.0014392251404217475   -0.08447402937245009   -0.009313416705198549
0.00012651833181207548   -0.1327504238147958   -0.010766172774077635
0.001356660469397869   -0.08428594508617955   -0.009407531061682408
-0.019609272236674174   -0.08473672634903597   -0.009704013743164569
0.00012651833181207548   -0.1327504238147958   -0.010766172774077635
-0.024498754821996364   -0.13302600343059173   -0.011126496459714598
-0.024538028883386624   -0.13267041640670532   -0.011466482627688065
-0.019609272236674174   -0.08473672634903597   -0.009704013743164569
0.00012651833181207548   -0.1327504238147958   -0.010766172774077635
-0.024538028883386624   -0.13267041640670532   -0.011466482627688065
0.001356660469397869   -0.08428594508617955   -0.009407531061682408
-0.019609272236674174   -0.08473672634903597   -0.009704013743164569
-0.024498754821996364   -0.13302600343059173   -0.011126496459714598
0.0014392251404217475   -0.08447402937245009   -0.009313416705198549
-0.019556616709034   -0.084983439458873   -0.00934714534129765
-0.024498754821996364   -0.13302600343059173   -0.011126496459714598
0.00012651833181207548   -0.1327504238147958   -0.010766172774077635
0.0014392251404217475   -0.08447402937245009   -0.009313416705198549
0.00018154251460461375   -0.13279548077221145   -0.010653635915749665
-0.019556616709034   -0.084983439458873   -0.00934714534129765
0.0014894200216033335   -0.08448913369173605   -0.009267397523441712
0.00018154251460461375   -0.13279548077221145   -0.010653635915749665
0.0014392251404217475   -0.08447402937245009   -0.009313416705198549
-0.019556616709034   -0.084983439458873   -0.00934714534129765
0.00018154251460461375   -0.13279548077221145   -0.010653635915749665
-0.02444231974506364   -0.13328288541365918   -0.01083708854298195
-0.024498754821996364   -0.13302600343059173   -0.011126496459714598
-0.019556616709034   -0.084983439458873   -0.00934714534129765
0.00018154251460461375   -0.13279548077221145   -0.010653635915749665
-0.024498754821996364   -0.13302600343059173   -0.011126496459714598
0.0014392251404217475   -0.08447402937245009   -0.009313416705198549
-0.019556616709034   -0.084983439458873   -0.00934714534129765
-0.02444231974506364   -0.13328288541365918   -0.01083708854298195
0.0014894200216033335   -0.08448913369173605   -0.009267397523441712
-0.019465259204842503   -0.08505998899472034   -0.009039519455580363
-0.02444231974506364   -0.13328288541365918   -0.01083708854298195
0.00018154251460461375   -0.13279548077221145   -0.010653635915749665
0.0014894200216033335   -0.08448913369173605   -0.009267397523441712
0.00021365454994070896   -0.13273980498513785   -0.010593240863840706
-0.019465259204842503   -0.08505998899472034   -0.009039519455580363
0.0015235207569381526   -0.0843286688508465   -0.009272425079311683
0.00021365454994070896   -0.13273980498513785   -0.010593240863840706
0.0014894200216033335   -0.08448913369173605   -0.009267397523441712
-0.019465259204842503   -0.08505998899472034   -0.009039519455580363
0.00021365454994070896   -0.13273980498513785   -0.010593240863840706
-0.02435462734478664   -0.1334427383360607   -0.010599069718597741
-0.02444231974506364   -0.13328288541365918   -0.01083708854298195
-0.019465259204842503   -0.08505998899472034   -0.009039519455580363
0.00021365454994070896   -0.13273980498513785   -0.010593240863840706
-0.02444231974506364   -0.13328288541365918   -0.01083708854298195
0.0014894200216033335   -0.08448913369173605   -0.009267397523441712
0.001356660469397869   -0.08428594508617955   -0.009407531061682408
4.626021984624964e-05   -0.1326059904930605   -0.010928620600253122
0.023258593116097098   -0.0847660339710653   -0.00912094868035716
0.0014392251404217475   -0.08447402937245009   -0.009313416705198549
4.626021984624964e-05   -0.1326059904930605   -0.010928620600253122
0.025475526362049392   -0.13282868173952042   -0.010771398671553634
0.023258593116097098   -0.0847660339710653   -0.00912094868035716
0.025574805228397432   -0.13277446762376086   -0.01079028942796692
0.0014392251404217475   -0.08447402937245009   -0.009313416705198549
0.023328979174235966   -0.08474143962409339   -0.009345543920881714
0.025574805228397432   -0.13277446762376086   -0.01079028942796692
0.023258593116097098   -0.0847660339710653   -0.00912094868035716
0.0014392251404217475   -0.08447402937245009   -0.009313416705198549
0.025574805228397432   -0.13277446762376086   -0.01079028942796692
0.00012651833181207548   -0.1327504238147958   -0.010766172774077635
4.626021984624964e-05   -0.1326059904930605   -0.010928620600253122
0.0014392251404217475   -0.08447402937245009   -0.009313416705198549
0.025574805228397432   -0.13277446762376086   -0.01079028942796692
4.626021984624964e-05   -0.1326059904930605   -0.010928620600253122
0.023258593116097098   -0.0847660339710653   -0.00912094868035716
0.0014392251404217475   -0.08447402937245009   -0.009313416705198549
0.00012651833181207548   -0.1327504238147958   -0.010766172774077635
0.023328979174235966   -0.08474143962409339   -0.009345543920881714
0.0014894200216033335   -0.08448913369173605   -0.009267397523441712
0.00012651833181207548   -0.1327504238147958   -0.010766172774077635
0.025574805228397432   -0.13277446762376086   -0.01079028942796692
0.023328979174235966   -0.08474143962409339   -0.009345543920881714
0.0255746007254194   -0.13262819826653882   -0.010856423948261374
0.0014894200216033335   -0.08448913369173605   -0.009267397523441712
0.023261323369775686   -0.08454732688288384   -0.009614700217777503
0.0255746007254194   -0.13262819826653882   -0.010856423948261374
0.023328979174235966   -0.08474143962409339   -0.009345543920881714
0.0014894200216033335   -0.08448913369173605   -0.009267397523441712
0.0255746007254194   -0.13262819826653882   -0.010856423948261374
0.00018154251460461375   -0.13279548077221145   -0.010653635915749665
0.00012651833181207548   -0.1327504238147958   -0.010766172774077635
0.0014894200216033335   -0.08448913369173605   -0.009267397523441712
0.0255746007254194   -0.13262819826653882   -0.010856423948261374
0.00012651833181207548   -0.1327504238147958   -0.010766172774077635
0.023328979174235966   -0.08474143962409339   -0.009345543920881714
0.0014894200216033335   -0.08448913369173605   -0.009267397523441712
0.00018154251460461375   -0.13279548077221145   -0.010653635915749665
0.023261323369775686   -0.08454732688288384   -0.009614700217777503
0.0015235207569381526   -0.0843286688508465   -0.009272425079311683
0.00018154251460461375   -0.13279548077221145   -0.010653635915749665
0.0255746007254194   -0.13262819826653882   -0.010856423948261374
0.023261323369775686   -0.08454732688288384   -0.009614700217777503
0.025510915239818244   -0.13235298900229647   -0.010971575479569218
0.0015235207569381526   -0.0843286688508465   -0.009272425079311683
0.023164789922962236   -0.08414199565860156   -0.00993367400291115
0.025510915239818244   -0.13235298900229647   -0.010971575479569218
0.023261323369775686   -0.08454732688288384   -0.009614700217777503
0.0015235207569381526   -0.0843286688508465   -0.009272425079311683
0.025510915239818244   -0.13235298900229647   -0.010971575479569218
0.00021365454994070896   -0.13273980498513785   -0.010593240863840706
0.00018154251460461375   -0.13279548077221145   -0.010653635915749665
0.0015235207569381526   -0.0843286688508465   -0.009272425079311683
0.025510915239818244   -0.13235298900229647   -0.010971575479569218
0.00018154251460461375   -0.13279548077221145   -0.010653635915749665
0.023261323369775686   -0.08454732688288384   -0.009614700217777503
0.023258593116097098   -0.0847660339710653   -0.00912094868035716
0.025475526362049392   -0.13282868173952042   -0.010771398671553634
0.04819717024134215   -0.08563848868402131   -0.009120857471147112
0.023328979174235966   -0.08474143962409339   -0.009345543920881714
0.025475526362049392   -0.13282868173952042   -0.010771398671553634
0.053556472223496986   -0.13323925514657994   -0.010910355451565401
0.04819717024134215   -0.08563848868402131   -0.009120857471147112
0.05349467273448193   -0.1330508011299664   -0.011125770777346786
0.023328979174235966   -0.08474143962409339   -0.009345543920881714
0.04776555274633655   -0.0854917642994058   -0.009705991189298538
0.05349467273448193   -0.1330508011299664   -0.011125770777346786
0.04819717024134215   -0.08563848868402131   -0.009120857471147112
0.023328979174235966   -0.08474143962409339   -0.009345543920881714
0.05349467273448193   -0.1330508011299664   -0.011125770777346786
0.025574805228397432   -0.13277446762376086   -0.01079028942796692
0.025475526362049392   -0.13282868173952042   -0.010771398671553634
0.023328979174235966   -0.08474143962409339   -0.009345543920881714
0.05349467273448193   -0.1330508011299664   -0.011125770777346786
0.025475526362049392   -0.13282868173952042   -0.010771398671553634
0.04819717024134215   -0.08563848868402131   -0.009120857471147112
0.023328979174235966   -0.08474143962409339   -0.009345543920881714
0.025574805228397432   -0.13277446762376086   -0.01079028942796692
0.04776555274633655   -0.0854917642994058   -0.009705991189298538
0.023261323369775686   -0.08454732688288384   -0.009614700217777503
0.025574805228397432   -0.13277446762376086   -0.01079028942796692
0.05349467273448193   -0.1330508011299664   -0.011125770777346786
0.04776555274633655   -0.0854917642994058   -0.009705991189298538
0.05334980843737942   -0.13281158205208718   -0.011417782706200153
0.023261323369775686   -0.08454732688288384   -0.009614700217777503
0.04733644260015113   -0.08519241837865216   -0.010371473230983863
0.05334980843737942   -0.13281158205208718   -0.011417782706200153
0.04776555274633655   -0.0854917642994058   -0.009705991189298538
0.023261323369775686   -0.08454732688288384   -0.009614700217777503
0.05334980843737942   -0.13281158205208718   -0.011417782706200153
0.0255746007254194   -0.13262819826653882   -0.010856423948261374
0.025574805228397432   -0.13277446762376086   -0.01079028942796692
0.023261323369775686   -0.08454732688288384   -0.009614700217777503
0.05334980843737942   -0.13281158205208718   -0.011417782706200153
0.025574805228397432   -0.13277446762376086   -0.01079028942796692
0.04776555274633655   -0.0854917642994058   -0.009705991189298538
0.023261323369775686   -0.08454732688288384   -0.009614700217777503
0.0255746007254194   -0.13262819826653882   -0.010856423948261374
0.04733644260015113   -0.08519241837865216   -0.010371473230983863
0.023164789922962236   -0.08414199565860156   -0.00993367400291115
0.0255746007254194   -0.13262819826653882   -0.010856423948261374
0.05334980843737942   -0.13281158205208718   -0.011417782706200153
0.04733644260015113   -0.08519241837865216   -0.010371473230983863
0.05297258880132312   -0.13235312683021683   -0.011785836961014609
0.023164789922962236   -0.08414199565860156   -0.00993367400291115
0.04658205488634607   -0.08456189895554149   -0.011117386101721635
0.05297258880132312   -0.13235312683021683   -0.011785836961014609
0.04733644260015113   -0.08519241837865216   -0.010371473230983863
0.023164789922962236   -0.08414199565860156   -0.00993367400291115
0.05297258880132312   -0.13235312683021683   -0.011785836961014609
0.025510915239818244   -0.13235298900229647   -0.010971575479569218
0.0255746007254194   -0.13262819826653882   -0.010856423948261374
0.023164789922962236   -0.08414199565860156   -0.00993367400291115
0.05297258880132312   -0.13235312683021683   -0.011785836961014609
0.0255746007254194   -0.13262819826653882   -0.010856423948261374
0.04733644260015113   -0.08519241837865216   -0.010371473230983863
-0.0767539739502172   -0.13378214201085287   -0.0137170903815959
-0.08435982324415936   -0.1858055638431465   -0.013960020433114624
-0.04980669748749945   -0.13304857896285333   -0.012387428746982043
-0.07753479196967733   -0.13454727374918207   -0.012967876510133338
-0.08435982324415936   -0.1858055638431465   -0.013960020433114624
-0.05540844654282927   -0.1855052573696114   -0.012898642851139567
-0.04980669748749945   -0.13304857896285333   -0.012387428746982043
-0.055392729580477876   -0.18598882024635072   -0.012581479883112645
-0.07753479196967733   -0.13454727374918207   -0.012967876510133338
-0.049874161369576675   -0.1336144142320635   -0.011871184977062558
-0.055392729580477876   -0.18598882024635072   -0.012581479883112645
-0.04980669748749945   -0.13304857896285333   -0.012387428746982043
-0.07753479196967733   -0.13454727374918207   -0.012967876510133338
-0.055392729580477876   -0.18598882024635072   -0.012581479883112645
-0.08472911939479401   -0.18645526786253383   -0.013572018003492082
-0.08435982324415936   -0.1858055638431465   -0.013960020433114624
-0.07753479196967733   -0.13454727374918207   -0.012967876510133338
-0.055392729580477876   -0.18598882024635072   -0.012581479883112645
-0.08435982324415936   -0.1858055638431465   -0.013960020433114624
-0.04980669748749945   -0.13304857896285333   -0.012387428746982043
-0.07753479196967733   -0.13454727374918207   -0.012967876510133338
-0.08472911939479401   -0.18645526786253383   -0.013572018003492082
-0.049874161369576675   -0.1336144142320635   -0.011871184977062558
-0.07798654430539877   -0.1350878745451369   -0.012290234658521124
-0.08472911939479401   -0.18645526786253383   -0.013572018003492082
-0.055392729580477876   -0.18598882024635072   -0.012581479883112645
-0.049874161369576675   -0.1336144142320635   -0.011871184977062558
-0.05532480034800589   -0.18643420960144236   -0.012316958447666478
-0.07798654430539877   -0.1350878745451369   -0.012290234658521124
-0.04992470788835361   -0.1340623829136893   -0.011406253056988959
-0.05532480034800589   -0.18643420960144236   -0.012316958447666478
-0.049874161369576675   -0.1336144142320635   -0.011871184977062558
-0.07798654430539877   -0.1350878745451369   -0.012290234658521124
-0.05532480034800589   -0.18643420960144236   -0.012316958447666478
-0.08485190749471876   -0.18698433505295187   -0.0132598051883394
-0.08472911939479401   -0.18645526786253383   -0.013572018003492082
-0.07798654430539877   -0.1350878745451369   -0.012290234658521124
-0.05532480034800589   -0.18643420960144236   -0.012316958447666478
-0.08472911939479401   -0.18645526786253383   -0.013572018003492082
-0.049874161369576675   -0.1336144142320635   -0.011871184977062558
-0.07798654430539877   -0.1350878745451369   -0.012290234658521124
-0.08485190749471876   -0.18698433505295187   -0.0132598051883394
-0.04992470788835361   -0.1340623829136893   -0.011406253056988959
-0.07845249651444496   -0.1355711958517692   -0.011692628813897491
-0.08485190749471876   -0.18698433505295187   -0.0132598051883394
-0.05532480034800589   -0.18643420960144236   -0.012316958447666478
-0.04992470788835361   -0.1340623829136893   -0.011406253056988959
-0.05514779978225811   -0.1868753100813388   -0.012101449449632564
-0.07845249651444496   -0.1355711958517692   -0.011692628813897491
-0.04982905931656963   -0.1344295670823106   -0.010985859416743265
-0.05514779978225811   -0.1868753100813388   -0.012101449449632564
-0.04992470788835361   -0.1340623829136893   -0.011406253056988959
-0.07845249651444496   -0.1355711958517692   -0.011692628813897491
-0.05514779978225811   -0.1868753100813388   -0.012101449449632564
-0.08489879819647599   -0.18755785469071326   -0.013029824669285563
-0.08485190749471876   -0.18698433505295187   -0.0132598051883394
-0.07845249651444496   -0.1355711958517692   -0.011692628813897491
-0.05514779978225811   -0.1868753100813388   -0.012101449449632564
-0.08485190749471876   -0.18698433505295187   -0.0132598051883394
-0.04992470788835361   -0.1340623829136893   -0.011406253056988959
-0.04980669748749945   -0.13304857896285333   -0.012387428746982043
-0.05540844654282927   -0.1855052573696114   -0.012898642851139567
-0.024538028883386624   -0.13267041640670532   -0.011466482627688065
-0.049874161369576675   -0.1336144142320635   -0.011871184977062558
-0.05540844654282927   -0.1855052573696114   -0.012898642851139567
-0.028513158992772927   -0.18533427622006027   -0.012175850627808403
-0.024538028883386624   -0.13267041640670532   -0.011466482627688065
-0.028418878018422054   -0.1856274772396915   -0.01190032762641856
-0.049874161369576675   -0.1336144142320635   -0.011871184977062558
-0.024498754821996364   -0.13302600343059173   -0.011126496459714598
-0.028418878018422054   -0.1856274772396915   -0.01190032762641856
-0.024538028883386624   -0.13267041640670532   -0.011466482627688065
-0.049874161369576675   -0.1336144142320635   -0.011871184977062558
-0.028418878018422054   -0.1856274772396915   -0.01190032762641856
-0.055392729580477876   -0.18598882024635072   -0.012581479883112645
-0.05540844654282927   -0.1855052573696114   -0.012898642851139567
-0.049874161369576675   -0.1336144142320635   -0.011871184977062558
-0.028418878018422054   -0.1856274772396915   -0.01190032762641856
-0.05540844654282927   -0.1855052573696114   -0.012898642851139567
-0.024538028883386624   -0.13267041640670532   -0.011466482627688065
-0.049874161369576675   -0.1336144142320635   -0.011871184977062558
-0.055392729580477876   -0.18598882024635072   -0.012581479883112645
-0.024498754821996364   -0.13302600343059173   -0.011126496459714598
-0.04992470788835361   -0.1340623829136893   -0.011406253056988959
-0.055392729580477876   -0.18598882024635072   -0.012581479883112645
-0.028418878018422054   -0.1856274772396915   -0.01190032762641856
-0.024498754821996364   -0.13302600343059173   -0.011126496459714598
-0.028301767080409396   -0.18589608256693246   -0.011677521757643024
-0.04992470788835361   -0.1340623829136893   -0.011406253056988959
-0.02444231974506364   -0.13328288541365918   -0.01083708854298195
-0.028301767080409396   -0.18589608256693246   -0.011677521757643024
-0.024498754821996364   -0.13302600343059173   -0.011126496459714598
-0.04992470788835361   -0.1340623829136893   -0.011406253056988959
-0.028301767080409396   -0.18589608256693246   -0.011677521757643024
-0.05532480034800589   -0.18643420960144236   -0.012316958447666478
-0.055392729580477876   -0.18598882024635072   -0.012581479883112645
-0.04992470788835361   -0.1340623829136893   -0.011406253056988959
-0.028301767080409396   -0.18589608256693246   -0.011677521757643024
-0.055392729580477876   -0.18598882024635072   -0.012581479883112645
-0.024498754821996364   -0.13302600343059173   -0.011126496459714598
-0.04992470788835361   -0.1340623829136893   -0.011406253056988959
-0.05532480034800589   -0.18643420960144236   -0.012316958447666478
-0.02444231974506364   -0.13328288541365918   -0.01083708854298195
-0.04982905931656963   -0.1344295670823106   -0.010985859416743265
-0.05532480034800589   -0.18643420960144236   -0.012316958447666478
-0.028301767080409396   -0.18589608256693246   -0.011677521757643024
-0.02444231974506364   -0.13328288541365918   -0.01083708854298195
-0.02815990298864912   -0.18614096349110215   -0.011508669459227575
-0.04982905931656963   -0.1344295670823106   -0.010985859416743265
-0.02435462734478664   -0.1334427383360607   -0.010599069718597741
-0.02815990298864912   -0.18614096349110215   -0.011508669459227575
-0.02444231974506364   -0.13328288541365918   -0.01083708854298195
-0.04982905931656963   -0.1344295670823106   -0.010985859416743265
-0.02815990298864912   -0.18614096349110215   -0.011508669459227575
-0.05514779978225811   -0.1868753100813388   -0.012101449449632564
-0.05532480034800589   -0.18643420960144236   -0.012316958447666478
-0.04982905931656963   -0.1344295670823106   -0.010985859416743265
-0.02815990298864912   -0.18614096349110215   -0.011508669459227575
-0.05532480034800589   -0.18643420960144236   -0.012316958447666478
-0.02444231974506364   -0.13328288541365918   -0.01083708854298195
-0.024538028883386624   -0.13267041640670532   -0.011466482627688065
-0.028513158992772927   -0.18533427622006027   -0.012175850627808403
4.626021984624964e-05   -0.1326059904930605   -0.010928620600253122
-0.024498754821996364   -0.13302600343059173   -0.011126496459714598
-0.028513158992772927   -0.18533427622006027   -0.012175850627808403
-0.0023452852096664226   -0.18523723143240894   -0.011800367320292712
4.626021984624964e-05   -0.1326059904930605   -0.010928620600253122
-0.002211289127098949   -0.1853367952841279   -0.01156916489275753
-0.024498754821996364   -0.13302600343059173   -0.011126496459714598
0.00012651833181207548   -0.1327504238147958   -0.010766172774077635
-0.002211289127098949   -0.1853367952841279   -0.01156916489275753
4.626021984624964e-05   -0.1326059904930605   -0.010928620600253122
-0.024498754821996364   -0.13302600343059173   -0.011126496459714598
-0.002211289127098949   -0.1853367952841279   -0.01156916489275753
-0.028418878018422054   -0.1856274772396915   -0.01190032762641856
-0.028513158992772927   -0.18533427622006027   -0.012175850627808403
-0.024498754821996364   -0.13302600343059173   -0.011126496459714598
-0.002211289127098949   -0.1853367952841279   -0.01156916489275753
-0.028513158992772927   -0.18533427622006027   -0.012175850627808403
4.626021984624964e-05   -0.1326059904930605   -0.010928620600253122
-0.024498754821996364   -0.13302600343059173   -0.011126496459714598
-0.028418878018422054   -0.1856274772396915   -0.01190032762641856
0.00012651833181207548   -0.1327504238147958   -0.010766172774077635
-0.02444231974506364   -0.13328288541365918   -0.01083708854298195
-0.028418878018422054   -0.1856274772396915   -0.01190032762641856
-0.002211289127098949   -0.1853367952841279   -0.01156916489275753
0.00012651833181207548   -0.1327504238147958   -0.010766172774077635
-0.0020960393757780485   -0.18541005565567212   -0.01139019837036117
-0.02444231974506364   -0.13328288541365918   -0.01083708854298195
0.00018154251460461375   -0.13279548077221145   -0.010653635915749665
-0.0020960393757780485   -0.18541005565567212   -0.01139019837036117
0.00012651833181207548   -0.1327504238147958   -0.010766172774077635
-0.02444231974506364   -0.13328288541365918   -0.01083708854298195
-0.0020960393757780485   -0.18541005565567212   -0.01139019837036117
-0.028301767080409396   -0.18589608256693246   -0.011677521757643024
-0.028418878018422054   -0.1856274772396915   -0.01190032762641856
-0.02444231974506364   -0.13328288541365918   -0.01083708854298195
-0.0020960393757780485   -0.18541005565567212   -0.01139019837036117
-0.028418878018422054   -0.1856274772396915   -0.01190032762641856
0.00012651833181207548   -0.1327504238147958   -0.010766172774077635
-0.02444231974506364   -0.13328288541365918   -0.01083708854298195
-0.028301767080409396   -0.18589608256693246   -0.011677521757643024
0.00018154251460461375   -0.13279548077221145   -0.010653635915749665
-0.02435462734478664   -0.1334427383360607   -0.010599069718597741
-0.028301767080409396   -0.18589608256693246   -0.011677521757643024
-0.0020960393757780485   -0.18541005565567212   -0.01139019837036117
0.00018154251460461375   -0.13279548077221145   -0.010653635915749665
-0.002009751904730779   -0.18545665682195442   -0.011265389025516095
-0.02435462734478664   -0.1334427383360607   -0.010599069718597741
0.00021365454994070896   -0.13273980498513785   -0.010593240863840706
-0.002009751904730779   -0.18545665682195442   -0.011265389025516095
0.00018154251460461375   -0.13279548077221145   -0.010653635915749665
-0.02435462734478664   -0.1334427383360607   -0.010599069718597741
-0.002009751904730779   -0.18545665682195442   -0.011265389025516095
-0.02815990298864912   -0.18614096349110215   -0.011508669459227575
-0.028301767080409396   -0.18589608256693246   -0.011677521757643024
-0.02435462734478664   -0.1334427383360607   -0.010599069718597741
-0.002009751904730779   -0.18545665682195442   -0.011265389025516095
-0.028301767080409396   -0.18589608256693246   -0.011677521757643024
0.00018154251460461375   -0.13279548077221145   -0.010653635915749665
4.626021984624964e-05   -0.1326059904930605   -0.010928620600253122
-0.0023452852096664226   -0.18523723143240894   -0.011800367320292712
0.025475526362049392   -0.13282868173952042   -0.010771398671553634
0.00012651833181207548   -0.1327504238147958   -0.010766172774077635
-0.0023452852096664226   -0.18523723143240894   -0.011800367320292712
0.024622617798730883   -0.18519745327642959   -0.011775222187988764
0.025475526362049392   -0.13282868173952042   -0.010771398671553634
0.024801628747081406   -0.18510964108999178   -0.011590594483933979
0.00012651833181207548   -0.1327504238147958   -0.010766172774077635
0.025574805228397432   -0.13277446762376086   -0.01079028942796692
0.024801628747081406   -0.18510964108999178   -0.011590594483933979
0.025475526362049392   -0.13282868173952042   -0.010771398671553634
0.00012651833181207548   -0.1327504238147958   -0.010766172774077635
0.024801628747081406   -0.18510964108999178   -0.011590594483933979
-0.002211289127098949   -0.1853367952841279   -0.01156916489275753
-0.0023452852096664226   -0.18523723143240894   -0.011800367320292712
0.00012651833181207548   -0.1327504238147958   -0.010766172774077635
0.024801628747081406   -0.18510964108999178   -0.011590594483933979
-0.0023452852096664226   -0.18523723143240894   -0.011800367320292712
0.025475526362049392   -0.13282868173952042   -0.010771398671553634
0.00012651833181207548   -0.1327504238147958   -0.010766172774077635
-0.002211289127098949   -0.1853367952841279   -0.01156916489275753
0.025574805228397432   -0.13277446762376086   -0.01079028942796692
0.00018154251460461375   -0.13279548077221145   -0.010653635915749665
-0.002211289127098949   -0.1853367952841279   -0.01156916489275753
0.024801628747081406   -0.18510964108999178   -0.011590594483933979
0.025574805228397432   -0.13277446762376086   -0.01079028942796692
0.02491889475260206   -0.1850061359167989   -0.011456726434364635
0.00018154251460461375   -0.13279548077221145   -0.010653635915749665
0.0255746007254194   -0.13262819826653882   -0.010856423948261374
0.02491889475260206   -0.1850061359167989   -0.011456726434364635
0.025574805228397432   -0.13277446762376086   -0.01079028942796692
0.00018154251460461375   -0.13279548077221145   -0.010653635915749665
0.02491889475260206   -0.1850061359167989   -0.011456726434364635
-0.0020960393757780485   -0.18541005565567212   -0.01139019837036117
-0.002211289127098949   -0.1853367952841279   -0.01156916489275753
0.00018154251460461375   -0.13279548077221145   -0.010653635915749665
0.02491889475260206   -0.1850061359167989   -0.011456726434364635
-0.002211289127098949   -0.1853367952841279   -0.01156916489275753
0.025574805228397432   -0.13277446762376086   -0.01079028942796692
0.00018154251460461375   -0.13279548077221145   -0.010653635915749665
-0.0020960393757780485   -0.18541005565567212   -0.01139019837036117
0.0255746007254194   -0.13262819826653882   -0.010856423948261374
0.00021365454994070896   -0.13273980498513785   -0.010593240863840706
-0.0020960393757780485   -0.18541005565567212   -0.01139019837036117
0.02491889475260206   -0.1850061359167989   -0.011456726434364635
0.0255746007254194   -0.13262819826653882   -0.010856423948261374
0.024937381265467462   -0.18485261792257884   -0.011372561582586012
0.00021365454994070896   -0.13273980498513785   -0.010593240863840706
0.025510915239818244   -0.13235298900229647   -0.010971575479569218
0.024937381265467462   -0.18485261792257884   -0.011372561582586012
0.0255746007254194   -0.13262819826653882   -0.010856423948261374
0.00021365454994070896   -0.13273980498513785   -0.010593240863840706
0.024937381265467462   -0.18485261792257884   -0.011372561582586012
-0.002009751904730779   -0.18545665682195442   -0.011265389025516095
-0.0020960393757780485   -0.18541005565567212   -0.01139019837036117
0.00021365454994070896   -0.13273980498513785   -0.010593240863840706
0.024937381265467462   -0.18485261792257884   -0.011372561582586012
-0.0020960393757780485   -0.18541005565567212   -0.01139019837036117
0.0255746007254194   -0.13262819826653882   -0.010856423948261374
0.025475526362049392   -0.13282868173952042   -0.010771398671553634
0.024622617798730883   -0.18519745327642959   -0.011775222187988764
0.053556472223496986   -0.13323925514657994   -0.010910355451565401
0.025574805228397432   -0.13277446762376086   -0.01079028942796692
0.024622617798730883   -0.18519745327642959   -0.011775222187988764
0.053853285321205764   -0.18514419631630485   -0.012064221072706773
0.053556472223496986   -0.13323925514657994   -0.010910355451565401
0.05420629810936064   -0.1849085256763165   -0.011915339737193189
0.025574805228397432   -0.13277446762376086   -0.01079028942796692
0.05349467273448193   -0.1330508011299664   -0.011125770777346786
0.05420629810936064   -0.1849085256763165   -0.011915339737193189
0.053556472223496986   -0.13323925514657994   -0.010910355451565401
0.025574805228397432   -0.13277446762376086   -0.01079028942796692
0.05420629810936064   -0.1849085256763165   -0.011915339737193189
0.024801628747081406   -0.18510964108999178   -0.011590594483933979
0.024622617798730883   -0.18519745327642959   -0.011775222187988764
0.025574805228397432   -0.13277446762376086   -0.01079028942796692
0.05420629810936064   -0.1849085256763165   -0.011915339737193189
0.024622617798730883   -0.18519745327642959   -0.011775222187988764
0.053556472223496986   -0.13323925514657994   -0.010910355451565401
0.025574805228397432   -0.13277446762376086   -0.01079028942796692
0.024801628747081406   -0.18510964108999178   -0.011590594483933979
0.05349467273448193   -0.1330508011299664   -0.011125770777346786
0.0255746007254194   -0.13262819826653882   -0.010856423948261374
0.024801628747081406   -0.18510964108999178   -0.011590594483933979
0.05420629810936064   -0.1849085256763165   -0.011915339737193189
0.05349467273448193   -0.1330508011299664   -0.011125770777346786
0.054388831800111254   -0.18472173914951584   -0.011843510211009942
0.0255746007254194   -0.13262819826653882   -0.010856423948261374
0.05334980843737942   -0.13281158205208718   -0.011417782706200153
0.054388831800111254   -0.18472173914951584   -0.011843510211009942
0.05349467273448193   -0.1330508011299664   -0.011125770777346786
0.0255746007254194   -0.13262819826653882   -0.010856423948261374
0.054388831800111254   -0.18472173914951584   -0.011843510211009942
0.02491889475260206   -0.1850061359167989   -0.011456726434364635
0.024801628747081406   -0.18510964108999178   -0.011590594483933979
0.0255746007254194   -0.13262819826653882   -0.010856423948261374
0.054388831800111254   -0.18472173914951584   -0.011843510211009942
0.024801628747081406   -0.18510964108999178   -0.011590594483933979
0.05349467273448193   -0.1330508011299664   -0.011125770777346786
0.0255746007254194   -0.13262819826653882   -0.010856423948261374
0.02491889475260206   -0.1850061359167989   -0.011456726434364635
0.05334980843737942   -0.13281158205208718   -0.011417782706200153
0.025510915239818244   -0.13235298900229647   -0.010971575479569218
0.02491889475260206   -0.1850061359167989   -0.011456726434364635
0.054388831800111254   -0.18472173914951584   -0.011843510211009942
0.05334980843737942   -0.13281158205208718   -0.011417782706200153
0.05442388802274929   -0.18441994371357676   -0.01185004213606472
0.025510915239818244   -0.13235298900229647   -0.010971575479569218
0.05297258880132312   -0.13235312683021683   -0.011785836961014609
0.05442388802274929   -0.18441994371357676   -0.01185004213606472
0.05334980843737942   -0.13281158205208718   -0.011417782706200153
0.025510915239818244   -0.13235298900229647   -0.010971575479569218
0.05442388802274929   -0.18441994371357676   -0.01185004213606472
0.024937381265467462   -0.18485261792257884   -0.011372561582586012
0.02491889475260206   -0.1850061359167989   -0.011456726434364635
0.025510915239818244   -0.13235298900229647   -0.010971575479569218
0.05442388802274929   -0.18441994371357676   -0.01185004213606472
0.02491889475260206   -0.1850061359167989   -0.011456726434364635
0.05334980843737942   -0.13281158205208718   -0.011417782706200153
-0.08435982324415936   -0.1858055638431465   -0.013960020433114624
-0.0870356431877949   -0.23881789572415285   -0.013716377847689889
-0.05540844654282927   -0.1855052573696114   -0.012898642851139567
-0.08472911939479401   -0.18645526786253383   -0.013572018003492082
-0.0870356431877949   -0.23881789572415285   -0.013716377847689889
-0.05809509843395316   -0.23895527119242763   -0.012929663286885737
-0.05540844654282927   -0.1855052573696114   -0.012898642851139567
-0.05794334843730231   -0.239354587240308   -0.012809044407700566
-0.08472911939479401   -0.18645526786253383   -0.013572018003492082
-0.055392729580477876   -0.18598882024635072   -0.012581479883112645
-0.05794334843730231   -0.239354587240308   -0.012809044407700566
-0.05540844654282927   -0.1855052573696114   -0.012898642851139567
-0.08472911939479401   -0.18645526786253383   -0.013572018003492082
-0.05794334843730231   -0.239354587240308   -0.012809044407700566
-0.08694190717734414   -0.23935190995674743   -0.013689033930860565
-0.0870356431877949   -0.23881789572415285   -0.013716377847689889
-0.08472911939479401   -0.18645526786253383   -0.013572018003492082
-0.05794334843730231   -0.239354587240308   -0.012809044407700566
-0.0870356431877949   -0.23881789572415285   -0.013716377847689889
-0.05540844654282927   -0.1855052573696114   -0.012898642851139567
-0.08472911939479401   -0.18645526786253383   -0.013572018003492082
-0.08694190717734414   -0.23935190995674743   -0.013689033930860565
-0.055392729580477876   -0.18598882024635072   -0.012581479883112645
-0.08485190749471876   -0.18698433505295187   -0.0132598051883394
-0.08694190717734414   -0.23935190995674743   -0.013689033930860565
-0.05794334843730231   -0.239354587240308   -0.012809044407700566
-0.055392729580477876   -0.18598882024635072   -0.012581479883112645
-0.05770412489134896   -0.2397961335069742   -0.012742868666717738
-0.08485190749471876   -0.18698433505295187   -0.0132598051883394
-0.05532480034800589   -0.18643420960144236   -0.012316958447666478
-0.05770412489134896   -0.2397961335069742   -0.012742868666717738
-0.055392729580477876   -0.18598882024635072   -0.012581479883112645
-0.08485190749471876   -0.18698433505295187   -0.0132598051883394
-0.05770412489134896   -0.2397961335069742   -0.012742868666717738
-0.08668094143576986   -0.2398693476381272   -0.013743070586011963
-0.08694190717734414   -0.23935190995674743   -0.013689033930860565
-0.08485190749471876   -0.18698433505295187   -0.0132598051883394
-0.05770412489134896   -0.2397961335069742   -0.012742868666717738
-0.08694190717734414   -0.23935190995674743   -0.013689033930860565
-0.055392729580477876   -0.18598882024635072   -0.012581479883112645
-0.08485190749471876   -0.18698433505295187   -0.0132598051883394
-0.08668094143576986   -0.2398693476381272   -0.013743070586011963
-0.05532480034800589   -0.18643420960144236   -0.012316958447666478
-0.08489879819647599   -0.18755785469071326   -0.013029824669285563
-0.08668094143576986   -0.2398693476381272   -0.013743070586011963
-0.05770412489134896   -0.2397961335069742   -0.012742868666717738
-0.05532480034800589   -0.18643420960144236   -0.012316958447666478
-0.057392816533503664   -0.24031025089373317   -0.012730317064179675
-0.08489879819647599   -0.18755785469071326   -0.013029824669285563
-0.05514779978225811   -0.1868753100813388   -0.012101449449632564
-0.057392816533503664   -0.24031025089373317   -0.012730317064179675
-0.05532480034800589   -0.18643420960144236   -0.012316958447666478
-0.08489879819647599   -0.18755785469071326   -0.013029824669285563
-0.057392816533503664   -0.24031025089373317   -0.012730317064179675
-0.08625402053842245   -0.24053493143241894   -0.013882521277648486
-0.08668094143576986   -0.2398693476381272   -0.013743070586011963
-0.08489879819647599   -0.18755785469071326   -0.013029824669285563
-0.057392816533503664   -0.24031025089373317   -0.012730317064179675
-0.08668094143576986   -0.2398693476381272   -0.013743070586011963
-0.05532480034800589   -0.18643420960144236   -0.012316958447666478
-0.05540844654282927   -0.1855052573696114   -0.012898642851139567
-0.05809509843395316   -0.23895527119242763   -0.012929663286885737
-0.028513158992772927   -0.18533427622006027   -0.012175850627808403
-0.055392729580477876   -0.18598882024635072   -0.012581479883112645
-0.05809509843395316   -0.23895527119242763   -0.012929663286885737
-0.03158926177056318   -0.23898602800944038   -0.012406515851986549
-0.028513158992772927   -0.18533427622006027   -0.012175850627808403
-0.03138451155817697   -0.2392155880482006   -0.012193719748594713
-0.055392729580477876   -0.18598882024635072   -0.012581479883112645
-0.028418878018422054   -0.1856274772396915   -0.01190032762641856
-0.03138451155817697   -0.2392155880482006   -0.012193719748594713
-0.028513158992772927   -0.18533427622006027   -0.012175850627808403
-0.055392729580477876   -0.18598882024635072   -0.012581479883112645
-0.03138451155817697   -0.2392155880482006   -0.012193719748594713
-0.05794334843730231   -0.239354587240308   -0.012809044407700566
-0.05809509843395316   -0.23895527119242763   -0.012929663286885737
-0.055392729580477876   -0.18598882024635072   -0.012581479883112645
-0.03138451155817697   -0.2392155880482006   -0.012193719748594713
-0.05809509843395316   -0.23895527119242763   -0.012929663286885737
-0.028513158992772927   -0.18533427622006027   -0.012175850627808403
-0.055392729580477876   -0.18598882024635072   -0.012581479883112645
-0.05794334843730231   -0.239354587240308   -0.012809044407700566
-0.028418878018422054   -0.1856274772396915   -0.01190032762641856
-0.05532480034800589   -0.18643420960144236   -0.012316958447666478
-0.05794334843730231   -0.239354587240308   -0.012809044407700566
-0.03138451155817697   -0.2392155880482006   -0.012193719748594713
-0.028418878018422054   -0.1856274772396915   -0.01190032762641856
-0.031152556787548018   -0.23949389871058832   -0.012035597033094444
-0.05532480034800589   -0.18643420960144236   -0.012316958447666478
-0.028301767080409396   -0.18589608256693246   -0.011677521757643024
-0.031152556787548018   -0.23949389871058832   -0.012035597033094444
-0.028418878018422054   -0.1856274772396915   -0.01190032762641856
-0.05532480034800589   -0.18643420960144236   -0.012316958447666478
-0.031152556787548018   -0.23949389871058832   -0.012035597033094444
-0.05770412489134896   -0.2397961335069742   -0.012742868666717738
-0.05794334843730231   -0.239354587240308   -0.012809044407700566
-0.05532480034800589   -0.18643420960144236   -0.012316958447666478
-0.031152556787548018   -0.23949389871058832   -0.012035597033094444
-0.05794334843730231   -0.239354587240308   -0.012809044407700566
-0.028418878018422054   -0.1856274772396915   -0.01190032762641856
-0.05532480034800589   -0.18643420960144236   -0.012316958447666478
-0.05770412489134896   -0.2397961335069742   -0.012742868666717738
-0.028301767080409396   -0.18589608256693246   -0.011677521757643024
-0.05514779978225811   -0.1868753100813388   -0.012101449449632564
-0.05770412489134896   -0.2397961335069742   -0.012742868666717738
-0.031152556787548018   -0.23949389871058832   -0.012035597033094444
-0.028301767080409396   -0.18589608256693246   -0.011677521757643024
-0.030902335853482166   -0.23982182578178768   -0.011933887403452467
-0.05514779978225811   -0.1868753100813388   -0.012101449449632564
-0.02815990298864912   -0.18614096349110215   -0.011508669459227575
-0.030902335853482166   -0.23982182578178768   -0.011933887403452467
-0.028301767080409396   -0.18589608256693246   -0.011677521757643024
-0.05514779978225811   -0.1868753100813388   -0.012101449449632564
-0.030902335853482166   -0.23982182578178768   -0.011933887403452467
-0.057392816533503664   -0.24031025089373317   -0.012730317064179675
-0.05770412489134896   -0.2397961335069742   -0.012742868666717738
-0.05514779978225811   -0.1868753100813388   -0.012101449449632564
-0.030902335853482166   -0.23982182578178768   -0.011933887403452467
-0.05770412489134896   -0.2397961335069742   -0.012742868666717738
-0.028301767080409396   -0.18589608256693246   -0.011677521757643024
-0.028513158992772927   -0.18533427622006027   -0.012175850627808403
-0.03158926177056318   -0.23898602800944038   -0.012406515851986549
-0.0023452852096664226   -0.18523723143240894   -0.011800367320292712
-0.028418878018422054   -0.1856274772396915   -0.01190032762641856
-0.03158926177056318   -0.23898602800944038   -0.012406515851986549
-0.005834134214679173   -0.23884663843064527   -0.012190775835522024
-0.0023452852096664226   -0.18523723143240894   -0.011800367320292712
-0.005591441705213044   -0.23890100169553194   -0.011890378591544811
-0.028418878018422054   -0.1856274772396915   -0.01190032762641856
-0.002211289127098949   -0.1853367952841279   -0.01156916489275753
-0.005591441705213044   -0.23890100169553194   -0.011890378591544811
-0.0023452852096664226   -0.18523723143240894   -0.011800367320292712
-0.028418878018422054   -0.1856274772396915   -0.01190032762641856
-0.005591441705213044   -0.23890100169553194   -0.011890378591544811
-0.03138451155817697   -0.2392155880482006   -0.012193719748594713
-0.03158926177056318   -0.23898602800944038   -0.012406515851986549
-0.028418878018422054   -0.1856274772396915   -0.01190032762641856
-0.005591441705213044   -0.23890100169553194   -0.011890378591544811
-0.03158926177056318   -0.23898602800944038   -0.012406515851986549
-0.0023452852096664226   -0.18523723143240894   -0.011800367320292712
-0.028418878018422054   -0.1856274772396915   -0.01190032762641856
-0.03138451155817697   -0.2392155880482006   -0.012193719748594713
-0.002211289127098949   -0.1853367952841279   -0.01156916489275753
-0.028301767080409396   -0.18589608256693246   -0.011677521757643024
-0.03138451155817697   -0.2392155880482006   -0.012193719748594713
-0.005591441705213044   -0.23890100169553194   -0.011890378591544811
-0.002211289127098949   -0.1853367952841279   -0.01156916489275753
-0.0053620658026865995   -0.23900022296459905   -0.011644240844002462
-0.028301767080409396   -0.18589608256693246   -0.011677521757643024
-0.0020960393757780485   -0.18541005565567212   -0.01139019837036117
-0.0053620658026865995   -0.23900022296459905   -0.011644240844002462
-0.002211289127098949   -0.1853367952841279   -0.01156916489275753
-0.028301767080409396   -0.18589608256693246   -0.011677521757643024
-0.0053620658026865995   -0.23900022296459905   -0.011644240844002462
-0.031152556787548018   -0.23949389871058832   -0.012035597033094444
-0.03138451155817697   -0.2392155880482006   -0.012193719748594713
-0.028301767080409396   -0.18589608256693246   -0.011677521757643024
-0.0053620658026865995   -0.23900022296459905   -0.011644240844002462
-0.03138451155817697   -0.2392155880482006   -0.012193719748594713
-0.002211289127098949   -0.1853367952841279   -0.01156916489275753
-0.028301767080409396   -0.18589608256693246   -0.011677521757643024
-0.031152556787548018   -0.23949389871058832   -0.012035597033094444
-0.0020960393757780485   -0.18541005565567212   -0.01139019837036117
-0.02815990298864912   -0.18614096349110215   -0.011508669459227575
-0.031152556787548018   -0.23949389871058832   -0.012035597033094444
-0.0053620658026865995   -0.23900022296459905   -0.011644240844002462
-0.0020960393757780485   -0.18541005565567212   -0.01139019837036117
-0.005168090227988077   -0.23914660213542488   -0.011454272428191211
-0.02815990298864912   -0.18614096349110215   -0.011508669459227575
-0.002009751904730779   -0.18545665682195442   -0.011265389025516095
-0.005168090227988077   -0.23914660213542488   -0.011454272428191211
-0.0020960393757780485   -0.18541005565567212   -0.01139019837036117
-0.02815990298864912   -0.18614096349110215   -0.011508669459227575
-0.005168090227988077   -0.23914660213542488   -0.011454272428191211
-0.030902335853482166   -0.23982182578178768   -0.011933887403452467
-0.031152556787548018   -0.23949389871058832   -0.012035597033094444
-0.02815990298864912   -0.18614096349110215   -0.011508669459227575
-0.005168090227988077   -0.23914660213542488   -0.011454272428191211
-0.031152556787548018   -0.23949389871058832   -0.012035597033094444
-0.0020960393757780485   -0.18541005565567212   -0.01139019837036117
-0.0023452852096664226   -0.18523723143240894   -0.011800367320292712
-0.005834134214679173   -0.23884663843064527   -0.012190775835522024
0.024622617798730883   -0.18519745327642959   -0.011775222187988764
-0.002211289127098949   -0.1853367952841279   -0.01156916489275753
-0.005834134214679173   -0.23884663843064527   -0.012190775835522024
0.020699798401161467   -0.2385362720195096   -0.012292456723547843
0.024622617798730883   -0.18519745327642959   -0.011775222187988764
0.021009942644398587   -0.2384149846259333   -0.01190611972017995
-0.002211289127098949   -0.1853367952841279   -0.01156916489275753
0.024801628747081406   -0.18510964108999178   -0.011590594483933979
0.021009942644398587   -0.2384149846259333   -0.01190611972017995
0.024622617798730883   -0.18519745327642959   -0.011775222187988764
-0.002211289127098949   -0.1853367952841279   -0.01156916489275753
0.021009942644398587   -0.2384149846259333   -0.01190611972017995
-0.005591441705213044   -0.23890100169553194   -0.011890378591544811
-0.005834134214679173   -0.23884663843064527   -0.012190775835522024
-0.002211289127098949   -0.1853367952841279   -0.01156916489275753
0.021009942644398587   -0.2384149846259333   -0.01190611972017995
-0.005834134214679173   -0.23884663843064527   -0.012190775835522024
0.024622617798730883   -0.18519745327642959   -0.011775222187988764
-0.002211289127098949   -0.1853367952841279   -0.01156916489275753
-0.005591441705213044   -0.23890100169553194   -0.011890378591544811
0.024801628747081406   -0.18510964108999178   -0.011590594483933979
-0.0020960393757780485   -0.18541005565567212   -0.01139019837036117
-0.005591441705213044   -0.23890100169553194   -0.011890378591544811
0.021009942644398587   -0.2384149846259333   -0.01190611972017995
0.024801628747081406   -0.18510964108999178   -0.011590594483933979
0.02129578504734   -0.23835199843343202   -0.011573897083436821
-0.0020960393757780485   -0.18541005565567212   -0.01139019837036117
0.02491889475260206   -0.1850061359167989   -0.011456726434364635
0.02129578504734   -0.23835199843343202   -0.011573897083436821
0.024801628747081406   -0.18510964108999178   -0.011590594483933979
-0.0020960393757780485   -0.18541005565567212   -0.01139019837036117
0.02129578504734   -0.23835199843343202   -0.011573897083436821
-0.0053620658026865995   -0.23900022296459905   -0.011644240844002462
-0.005591441705213044   -0.23890100169553194   -0.011890378591544811
-0.0020960393757780485   -0.18541005565567212   -0.01139019837036117
0.02129578504734   -0.23835199843343202   -0.011573897083436821
-0.005591441705213044   -0.23890100169553194   -0.011890378591544811
0.024801628747081406   -0.18510964108999178   -0.011590594483933979
-0.0020960393757780485   -0.18541005565567212   -0.01139019837036117
-0.0053620658026865995   -0.23900022296459905   -0.011644240844002462
0.02491889475260206   -0.1850061359167989   -0.011456726434364635
-0.002009751904730779   -0.18545665682195442   -0.011265389025516095
-0.0053620658026865995   -0.23900022296459905   -0.011644240844002462
0.02129578504734   -0.23835199843343202   -0.011573897083436821
0.02491889475260206   -0.1850061359167989   -0.011456726434364635
0.021446929109193245   -0.23831633023901333   -0.011292256335507211
-0.002009751904730779   -0.18545665682195442   -0.011265389025516095
0.024937381265467462   -0.18485261792257884   -0.011372561582586012
0.021446929109193245   -0.23831633023901333   -0.011292256335507211
0.02491889475260206   -0.1850061359167989   -0.011456726434364635
-0.002009751904730779   -0.18545665682195442   -0.011265389025516095
0.021446929109193245   -0.23831633023901333   -0.011292256335507211
-0.005168090227988077   -0.23914660213542488   -0.011454272428191211
-0.0053620658026865995   -0.23900022296459905   -0.011644240844002462
-0.002009751904730779   -0.18545665682195442   -0.011265389025516095
0.021446929109193245   -0.23831633023901333   -0.011292256335507211
-0.0053620658026865995   -0.23900022296459905   -0.011644240844002462
0.02491889475260206   -0.1850061359167989   -0.011456726434364635
0.024622617798730883   -0.18519745327642959   -0.011775222187988764
0.020699798401161467   -0.2385362720195096   -0.012292456723547843
0.053853285321205764   -0.18514419631630485   -0.012064221072706773
0.024801628747081406   -0.18510964108999178   -0.011590594483933979
0.020699798401161467   -0.2385362720195096   -0.012292456723547843
0.049118902314140324   -0.2380157517173339   -0.012727425123255405
0.053853285321205764   -0.18514419631630485   -0.012064221072706773
0.04993196181546449   -0.23773545137437802   -0.012221416407092137
0.024801628747081406   -0.18510964108999178   -0.011590594483933979
0.05420629810936064   -0.1849085256763165   -0.011915339737193189
0.04993196181546449   -0.23773545137437802   -0.012221416407092137
0.053853285321205764   -0.18514419631630485   -0.012064221072706773
0.024801628747081406   -0.18510964108999178   -0.011590594483933979
0.04993196181546449   -0.23773545137437802   -0.012221416407092137
0.021009942644398587   -0.2384149846259333   -0.01190611972017995
0.020699798401161467   -0.2385362720195096   -0.012292456723547843
0.024801628747081406   -0.18510964108999178   -0.011590594483933979
0.04993196181546449   -0.23773545137437802   -0.012221416407092137
0.020699798401161467   -0.2385362720195096   -0.012292456723547843
0.053853285321205764   -0.18514419631630485   -0.012064221072706773
0.024801628747081406   -0.18510964108999178   -0.011590594483933979
0.021009942644398587   -0.2384149846259333   -0.01190611972017995
0.05420629810936064   -0.1849085256763165   -0.011915339737193189
0.02491889475260206   -0.1850061359167989   -0.011456726434364635
0.021009942644398587   -0.2384149846259333   -0.01190611972017995
0.04993196181546449   -0.23773545137437802   -0.012221416407092137
0.05420629810936064   -0.1849085256763165   -0.011915339737193189
0.050488679767803996   -0.23759963668627065   -0.011792393000961045
0.02491889475260206   -0.1850061359167989   -0.011456726434364635
0.054388831800111254   -0.18472173914951584   -0.011843510211009942
0.050488679767803996   -0.23759963668627065   -0.011792393000961045
0.05420629810936064   -0.1849085256763165   -0.011915339737193189
0.02491889475260206   -0.1850061359167989   -0.011456726434364635
0.050488679767803996   -0.23759963668627065   -0.011792393000961045
0.02129578504734   -0.23835199843343202   -0.011573897083436821
0.021009942644398587   -0.2384149846259333   -0.01190611972017995
0.02491889475260206   -0.1850061359167989   -0.011456726434364635
0.050488679767803996   -0.23759963668627065   -0.011792393000961045
0.021009942644398587   -0.2384149846259333   -0.01190611972017995
0.05420629810936064   -0.1849085256763165   -0.011915339737193189
0.02491889475260206   -0.1850061359167989   -0.011456726434364635
0.02129578504734   -0.23835199843343202   -0.011573897083436821
0.054388831800111254   -0.18472173914951584   -0.011843510211009942
0.024937381265467462   -0.18485261792257884   -0.011372561582586012
0.02129578504734   -0.23835199843343202   -0.011573897083436821
0.050488679767803996   -0.23759963668627065   -0.011792393000961045
0.054388831800111254   -0.18472173914951584   -0.011843510211009942
0.050980422557704706   -0.2374504778465219   -0.011443530862590616
0.024937381265467462   -0.18485261792257884   -0.011372561582586012
0.05442388802274929   -0.18441994371357676   -0.01185004213606472
0.050980422557704706   -0.2374504778465219   -0.011443530862590616
0.054388831800111254   -0.18472173914951584   -0.011843510211009942
0.024937381265467462   -0.18485261792257884   -0.011372561582586012
0.050980422557704706   -0.2374504778465219   -0.011443530862590616
0.021446929109193245   -0.23831633023901333   -0.011292256335507211
0.02129578504734   -0.23835199843343202   -0.011573897083436821
0.024937381265467462   -0.18485261792257884   -0.011372561582586012
0.050980422557704706   -0.2374504778465219   -0.011443530862590616
0.02129578504734   -0.23835199843343202   -0.011573897083436821
0.054388831800111254   -0.18472173914951584   -0.011843510211009942
-0.0870356431877949   -0.23881789572415285   -0.013716377847689889
-0.08472654768455416   -0.28948564770470775   -0.01310765789094393
-0.05809509843395316   -0.23895527119242763   -0.012929663286885737
-0.08694190717734414   -0.23935190995674743   -0.013689033930860565
-0.08472654768455416   -0.28948564770470775   -0.01310765789094393
-0.057862809273974705   -0.2900698979678844   -0.012632335112867384
-0.05809509843395316   -0.23895527119242763   -0.012929663286885737
-0.057524213325092416   -0.2903685282505964   -0.012703511156297122
-0.08694190717734414   -0.23935190995674743   -0.013689033930860565
-0.05794334843730231   -0.239354587240308   -0.012809044407700566
-0.057524213325092416   -0.2903685282505964   -0.012703511156297122
-0.05809509843395316   -0.23895527119242763   -0.012929663286885737
-0.08694190717734414   -0.23935190995674743   -0.013689033930860565
-0.057524213325092416   -0.2903685282505964   -0.012703511156297122
-0.0841156235199442   -0.2898887719428021   -0.013442745079462387
-0.08472654768455416   -0.28948564770470775   -0.01310765789094393
-0.08694190717734414   -0.23935190995674743   -0.013689033930860565
-0.057524213325092416   -0.2903685282505964   -0.012703511156297122
-0.08472654768455416   -0.28948564770470775   -0.01310765789094393
-0.05809509843395316   -0.23895527119242763   -0.012929663286885737
-0.08694190717734414   -0.23935190995674743   -0.013689033930860565
-0.0841156235199442   -0.2898887719428021   -0.013442745079462387
-0.05794334843730231   -0.239354587240308   -0.012809044407700566
-0.08668094143576986   -0.2398693476381272   -0.013743070586011963
-0.0841156235199442   -0.2898887719428021   -0.013442745079462387
-0.057524213325092416   -0.2903685282505964   -0.012703511156297122
-0.05794334843730231   -0.239354587240308   -0.012809044407700566
-0.057064997203825206   -0.2907925623454546   -0.012830681434398087
-0.08668094143576986   -0.2398693476381272   -0.013743070586011963
-0.05770412489134896   -0.2397961335069742   -0.012742868666717738
-0.057064997203825206   -0.2907925623454546   -0.012830681434398087
-0.05794334843730231   -0.239354587240308   -0.012809044407700566
-0.08668094143576986   -0.2398693476381272   -0.013743070586011963
-0.057064997203825206   -0.2907925623454546   -0.012830681434398087
-0.0834166073292408   -0.29038211396447094   -0.013865925903501395
-0.0841156235199442   -0.2898887719428021   -0.013442745079462387
-0.08668094143576986   -0.2398693476381272   -0.013743070586011963
-0.057064997203825206   -0.2907925623454546   -0.012830681434398087
-0.0841156235199442   -0.2898887719428021   -0.013442745079462387
-0.05794334843730231   -0.239354587240308   -0.012809044407700566
-0.08668094143576986   -0.2398693476381272   -0.013743070586011963
-0.0834166073292408   -0.29038211396447094   -0.013865925903501395
-0.05770412489134896   -0.2397961335069742   -0.012742868666717738
-0.08625402053842245   -0.24053493143241894   -0.013882521277648486
-0.0834166073292408   -0.29038211396447094   -0.013865925903501395
-0.057064997203825206   -0.2907925623454546   -0.012830681434398087
-0.05770412489134896   -0.2397961335069742   -0.012742868666717738
-0.05657190499422578   -0.291367812419666   -0.013015552873940168
-0.08625402053842245   -0.24053493143241894   -0.013882521277648486
-0.057392816533503664   -0.24031025089373317   -0.012730317064179675
-0.05657190499422578   -0.291367812419666   -0.013015552873940168
-0.05770412489134896   -0.2397961335069742   -0.012742868666717738
-0.08625402053842245   -0.24053493143241894   -0.013882521277648486
-0.05657190499422578   -0.291367812419666   -0.013015552873940168
-0.08246355485096092   -0.29113235053307407   -0.014378740596922011
-0.0834166073292408   -0.29038211396447094   -0.013865925903501395
-0.08625402053842245   -0.24053493143241894   -0.013882521277648486
-0.05657190499422578   -0.291367812419666   -0.013015552873940168
-0.0834166073292408   -0.29038211396447094   -0.013865925903501395
-0.05770412489134896   -0.2397961335069742   -0.012742868666717738
-0.05809509843395316   -0.23895527119242763   -0.012929663286885737
-0.057862809273974705   -0.2900698979678844   -0.012632335112867384
-0.03158926177056318   -0.23898602800944038   -0.012406515851986549
-0.05794334843730231   -0.239354587240308   -0.012809044407700566
-0.057862809273974705   -0.2900698979678844   -0.012632335112867384
-0.03379161218507596   -0.29030246341715726   -0.012327764693124554
-0.03158926177056318   -0.23898602800944038   -0.012406515851986549
-0.033422450824171446   -0.29045821871057975   -0.012172886478772012
-0.05794334843730231   -0.239354587240308   -0.012809044407700566
-0.03138451155817697   -0.2392155880482006   -0.012193719748594713
-0.033422450824171446   -0.29045821871057975   -0.012172886478772012
-0.03158926177056318   -0.23898602800944038   -0.012406515851986549
-0.05794334843730231   -0.239354587240308   -0.012809044407700566
-0.033422450824171446   -0.29045821871057975   -0.012172886478772012
-0.057524213325092416   -0.2903685282505964   -0.012703511156297122
-0.057862809273974705   -0.2900698979678844   -0.012632335112867384
-0.05794334843730231   -0.239354587240308   -0.012809044407700566
-0.033422450824171446   -0.29045821871057975   -0.012172886478772012
-0.057862809273974705   -0.2900698979678844   -0.012632335112867384
-0.03158926177056318   -0.23898602800944038   -0.012406515851986549
-0.05794334843730231   -0.239354587240308   -0.012809044407700566
-0.057524213325092416   -0.2903685282505964   -0.012703511156297122
-0.03138451155817697   -0.2392155880482006   -0.012193719748594713
-0.05770412489134896   -0.2397961335069742   -0.012742868666717738
-0.057524213325092416   -0.2903685282505964   -0.012703511156297122
-0.033422450824171446   -0.29045821871057975   -0.012172886478772012
-0.03138451155817697   -0.2392155880482006   -0.012193719748594713
-0.03302516881665092   -0.29073464212818   -0.012073330754182843
-0.05770412489134896   -0.2397961335069742   -0.012742868666717738
-0.031152556787548018   -0.23949389871058832   -0.012035597033094444
-0.03302516881665092   -0.29073464212818   -0.012073330754182843
-0.03138451155817697   -0.2392155880482006   -0.012193719748594713
-0.05770412489134896   -0.2397961335069742   -0.012742868666717738
-0.03302516881665092   -0.29073464212818   -0.012073330754182843
-0.057064997203825206   -0.2907925623454546   -0.012830681434398087
-0.057524213325092416   -0.2903685282505964   -0.012703511156297122
-0.05770412489134896   -0.2397961335069742   -0.012742868666717738
-0.03302516881665092   -0.29073464212818   -0.012073330754182843
-0.057524213325092416   -0.2903685282505964   -0.012703511156297122
-0.03138451155817697   -0.2392155880482006   -0.012193719748594713
-0.05770412489134896   -0.2397961335069742   -0.012742868666717738
-0.057064997203825206   -0.2907925623454546   -0.012830681434398087
-0.031152556787548018   -0.23949389871058832   -0.012035597033094444
-0.057392816533503664   -0.24031025089373317   -0.012730317064179675
-0.057064997203825206   -0.2907925623454546   -0.012830681434398087
-0.03302516881665092   -0.29073464212818   -0.012073330754182843
-0.031152556787548018   -0.23949389871058832   -0.012035597033094444
-0.03261680101195344   -0.2911352761541147   -0.012031768115684864
-0.057392816533503664   -0.24031025089373317   -0.012730317064179675
-0.030902335853482166   -0.23982182578178768   -0.011933887403452467
-0.03261680101195344   -0.2911352761541147   -0.012031768115684864
-0.031152556787548018   -0.23949389871058832   -0.012035597033094444
-0.057392816533503664   -0.24031025089373317   -0.012730317064179675
-0.03261680101195344   -0.2911352761541147   -0.012031768115684864
-0.05657190499422578   -0.291367812419666   -0.013015552873940168
-0.057064997203825206   -0.2907925623454546   -0.012830681434398087
-0.057392816533503664   -0.24031025089373317   -0.012730317064179675
-0.03261680101195344   -0.2911352761541147   -0.012031768115684864
-0.057064997203825206   -0.2907925623454546   -0.012830681434398087
-0.031152556787548018   -0.23949389871058832   -0.012035597033094444
-0.03158926177056318   -0.23898602800944038   -0.012406515851986549
-0.03379161218507596   -0.29030246341715726   -0.012327764693124554
-0.005834134214679173   -0.23884663843064527   -0.012190775835522024
-0.03138451155817697   -0.2392155880482006   -0.012193719748594713
-0.03379161218507596   -0.29030246341715726   -0.012327764693124554
-0.01045093145655611   -0.2901266625318226   -0.012274945573827878
-0.005834134214679173   -0.23884663843064527   -0.012190775835522024
-0.010042544503721405   -0.2901315034288621   -0.011901767184663221
-0.03138451155817697   -0.2392155880482006   -0.012193719748594713
-0.005591441705213044   -0.23890100169553194   -0.011890378591544811
-0.010042544503721405   -0.2901315034288621   -0.011901767184663221
-0.005834134214679173   -0.23884663843064527   -0.012190775835522024
-0.03138451155817697   -0.2392155880482006   -0.012193719748594713
-0.010042544503721405   -0.2901315034288621   -0.011901767184663221
-0.033422450824171446   -0.29045821871057975   -0.012172886478772012
-0.03379161218507596   -0.29030246341715726   -0.012327764693124554
-0.03138451155817697   -0.2392155880482006   -0.012193719748594713
-0.010042544503721405   -0.2901315034288621   -0.011901767184663221
-0.03379161218507596   -0.29030246341715726   -0.012327764693124554
-0.005834134214679173   -0.23884663843064527   -0.012190775835522024
-0.03138451155817697   -0.2392155880482006   -0.012193719748594713
-0.033422450824171446   -0.29045821871057975   -0.012172886478772012
-0.005591441705213044   -0.23890100169553194   -0.011890378591544811
-0.031152556787548018   -0.23949389871058832   -0.012035597033094444
-0.033422450824171446   -0.29045821871057975   -0.012172886478772012
-0.010042544503721405   -0.2901315034288621   -0.011901767184663221
-0.005591441705213044   -0.23890100169553194   -0.011890378591544811
-0.009644975230887129   -0.2902480360673233   -0.011584024537793284
-0.031152556787548018   -0.23949389871058832   -0.012035597033094444
-0.0053620658026865995   -0.23900022296459905   -0.011644240844002462
-0.009644975230887129   -0.2902480360673233   -0.011584024537793284
-0.005591441705213044   -0.23890100169553194   -0.011890378591544811
-0.031152556787548018   -0.23949389871058832   -0.012035597033094444
-0.009644975230887129   -0.2902480360673233   -0.011584024537793284
-0.03302516881665092   -0.29073464212818   -0.012073330754182843
-0.033422450824171446   -0.29045821871057975   -0.012172886478772012
-0.031152556787548018   -0.23949389871058832   -0.012035597033094444
-0.009644975230887129   -0.2902480360673233   -0.011584024537793284
-0.033422450824171446   -0.29045821871057975   -0.012172886478772012
-0.005591441705213044   -0.23890100169553194   -0.011890378591544811
-0.031152556787548018   -0.23949389871058832   -0.012035597033094444
-0.03302516881665092   -0.29073464212818   -0.012073330754182843
-0.0053620658026865995   -0.23900022296459905   -0.011644240844002462
-0.030902335853482166   -0.23982182578178768   -0.011933887403452467
-0.03302516881665092   -0.29073464212818   -0.012073330754182843
-0.009644975230887129   -0.2902480360673233   -0.011584024537793284
-0.0053620658026865995   -0.23900022296459905   -0.011644240844002462
-0.009290586140444855   -0.2904860284628274   -0.011323655528276706
-0.030902335853482166   -0.23982182578178768   -0.011933887403452467
-0.005168090227988077   -0.23914660213542488   -0.011454272428191211
-0.009290586140444855   -0.2904860284628274   -0.011323655528276706
-0.0053620658026865995   -0.23900022296459905   -0.011644240844002462
-0.030902335853482166   -0.23982182578178768   -0.011933887403452467
-0.009290586140444855   -0.2904860284628274   -0.011323655528276706
-0.03261680101195344   -0.2911352761541147   -0.012031768115684864
-0.03302516881665092   -0.29073464212818   -0.012073330754182843
-0.030902335853482166   -0.23982182578178768   -0.011933887403452467
-0.009290586140444855   -0.2904860284628274   -0.011323655528276706
-0.03302516881665092   -0.29073464212818   -0.012073330754182843
-0.0053620658026865995   -0.23900022296459905   -0.011644240844002462
-0.005834134214679173   -0.23884663843064527   -0.012190775835522024
-0.01045093145655611   -0.2901266625318226   -0.012274945573827878
0.020699798401161467   -0.2385362720195096   -0.012292456723547843
-0.005591441705213044   -0.23890100169553194   -0.011890378591544811
-0.01045093145655611   -0.2901266625318226   -0.012274945573827878
0.013700943354110493   -0.28955514076044514   -0.012493685535934001
0.020699798401161467   -0.2385362720195096   -0.012292456723547843
0.014200123304631955   -0.28939891517491173   -0.011904388575729863
-0.005591441705213044   -0.23890100169553194   -0.011890378591544811
0.021009942644398587   -0.2384149846259333   -0.01190611972017995
0.014200123304631955   -0.28939891517491173   -0.011904388575729863
0.020699798401161467   -0.2385362720195096   -0.012292456723547843
-0.005591441705213044   -0.23890100169553194   -0.011890378591544811
0.014200123304631955   -0.28939891517491173   -0.011904388575729863
-0.010042544503721405   -0.2901315034288621   -0.011901767184663221
-0.01045093145655611   -0.2901266625318226   -0.012274945573827878
-0.005591441705213044   -0.23890100169553194   -0.011890378591544811
0.014200123304631955   -0.28939891517491173   -0.011904388575729863
-0.01045093145655611   -0.2901266625318226   -0.012274945573827878
0.020699798401161467   -0.2385362720195096   -0.012292456723547843
-0.005591441705213044   -0.23890100169553194   -0.011890378591544811
-0.010042544503721405   -0.2901315034288621   -0.011901767184663221
0.021009942644398587   -0.2384149846259333   -0.01190611972017995
-0.0053620658026865995   -0.23900022296459905   -0.011644240844002462
-0.010042544503721405   -0.2901315034288621   -0.011901767184663221
0.014200123304631955   -0.28939891517491173   -0.011904388575729863
0.021009942644398587   -0.2384149846259333   -0.01190611972017995
0.014711496707607742   -0.2893702317473827   -0.011374111298042465
-0.0053620658026865995   -0.23900022296459905   -0.011644240844002462
0.02129578504734   -0.23835199843343202   -0.011573897083436821
0.014711496707607742   -0.2893702317473827   -0.011374111298042465
0.021009942644398587   -0.2384149846259333   -0.01190611972017995
-0.0053620658026865995   -0.23900022296459905   -0.011644240844002462
0.014711496707607742   -0.2893702317473827   -0.011374111298042465
-0.009644975230887129   -0.2902480360673233   -0.011584024537793284
-0.010042544503721405   -0.2901315034288621   -0.011901767184663221
-0.0053620658026865995   -0.23900022296459905   -0.011644240844002462
0.014711496707607742   -0.2893702317473827   -0.011374111298042465
-0.010042544503721405   -0.2901315034288621   -0.011901767184663221
0.021009942644398587   -0.2384149846259333   -0.01190611972017995
-0.0053620658026865995   -0.23900022296459905   -0.011644240844002462
-0.009644975230887129   -0.2902480360673233   -0.011584024537793284
0.02129578504734   -0.23835199843343202   -0.011573897083436821
-0.005168090227988077   -0.23914660213542488   -0.011454272428191211
-0.009644975230887129   -0.2902480360673233   -0.011584024537793284
0.014711496707607742   -0.2893702317473827   -0.011374111298042465
0.02129578504734   -0.23835199843343202   -0.011573897083436821
0.015050743216872902   -0.28944545666548316   -0.010895081235509588
-0.005168090227988077   -0.23914660213542488   -0.011454272428191211
0.021446929109193245   -0.23831633023901333   -0.011292256335507211
0.015050743216872902   -0.28944545666548316   -0.010895081235509588
0.02129578504734   -0.23835199843343202   -0.011573897083436821
-0.005168090227988077   -0.23914660213542488   -0.011454272428191211
0.015050743216872902   -0.28944545666548316   -0.010895081235509588
-0.009290586140444855   -0.2904860284628274   -0.011323655528276706
-0.009644975230887129   -0.2902480360673233   -0.011584024537793284
-0.005168090227988077   -0.23914660213542488   -0.011454272428191211
0.015050743216872902   -0.28944545666548316   -0.010895081235509588
-0.009644975230887129   -0.2902480360673233   -0.011584024537793284
0.02129578504734   -0.23835199843343202   -0.011573897083436821
0.020699798401161467   -0.2385362720195096   -0.012292456723547843
0.013700943354110493   -0.28955514076044514   -0.012493685535934001
0.049118902314140324   -0.2380157517173339   -0.012727425123255405
0.021009942644398587   -0.2384149846259333   -0.01190611972017995
0.013700943354110493   -0.28955514076044514   -0.012493685535934001
0.03940920555085296   -0.2885729730211697   -0.013062755292752755
0.049118902314140324   -0.2380157517173339   -0.012727425123255405
0.040736752319581834   -0.2882497647736587   -0.012206003726685722
0.021009942644398587   -0.2384149846259333   -0.01190611972017995
0.04993196181546449   -0.23773545137437802   -0.012221416407092137
0.040736752319581834   -0.2882497647736587   -0.012206003726685722
0.049118902314140324   -0.2380157517173339   -0.012727425123255405
0.021009942644398587   -0.2384149846259333   -0.01190611972017995
0.040736752319581834   -0.2882497647736587   -0.012206003726685722
0.014200123304631955   -0.28939891517491173   -0.011904388575729863
0.013700943354110493   -0.28955514076044514   -0.012493685535934001
0.021009942644398587   -0.2384149846259333   -0.01190611972017995
0.040736752319581834   -0.2882497647736587   -0.012206003726685722
0.013700943354110493   -0.28955514076044514   -0.012493685535934001
0.049118902314140324   -0.2380157517173339   -0.012727425123255405
0.021009942644398587   -0.2384149846259333   -0.01190611972017995
0.014200123304631955   -0.28939891517491173   -0.011904388575729863
0.04993196181546449   -0.23773545137437802   -0.012221416407092137
0.02129578504734   -0.23835199843343202   -0.011573897083436821
0.014200123304631955   -0.28939891517491173   -0.011904388575729863
0.040736752319581834   -0.2882497647736587   -0.012206003726685722
0.04993196181546449   -0.23773545137437802   -0.012221416407092137
0.04171873160296389   -0.28816132798179983   -0.011427668647119985
0.02129578504734   -0.23835199843343202   -0.011573897083436821
0.050488679767803996   -0.23759963668627065   -0.011792393000961045
0.04171873160296389   -0.28816132798179983   -0.011427668647119985
0.04993196181546449   -0.23773545137437802   -0.012221416407092137
0.02129578504734   -0.23835199843343202   -0.011573897083436821
0.04171873160296389   -0.28816132798179983   -0.011427668647119985
0.014711496707607742   -0.2893702317473827   -0.011374111298042465
0.014200123304631955   -0.28939891517491173   -0.011904388575729863
0.02129578504734   -0.23835199843343202   -0.011573897083436821
0.04171873160296389   -0.28816132798179983   -0.011427668647119985
0.014200123304631955   -0.28939891517491173   -0.011904388575729863
0.04993196181546449   -0.23773545137437802   -0.012221416407092137
0.02129578504734   -0.23835199843343202   -0.011573897083436821
0.014711496707607742   -0.2893702317473827   -0.011374111298042465
0.050488679767803996   -0.23759963668627065   -0.011792393000961045
0.021446929109193245   -0.23831633023901333   -0.011292256335507211
0.014711496707607742   -0.2893702317473827   -0.011374111298042465
0.04171873160296389   -0.28816132798179983   -0.011427668647119985
0.050488679767803996   -0.23759963668627065   -0.011792393000961045
0.042712346409366865   -0.28816007973192875   -0.01073127061574239
0.021446929109193245   -0.23831633023901333   -0.011292256335507211
0.050980422557704706   -0.2374504778465219   -0.011443530862590616
0.042712346409366865   -0.28816007973192875   -0.01073127061574239
0.050488679767803996   -0.23759963668627065   -0.011792393000961045
0.021446929109193245   -0.23831633023901333   -0.011292256335507211
0.042712346409366865   -0.28816007973192875   -0.01073127061574239
0.015050743216872902   -0.28944545666548316   -0.010895081235509588
0.014711496707607742   -0.2893702317473827   -0.011374111298042465
0.021446929109193245   -0.23831633023901333   -0.011292256335507211
0.042712346409366865   -0.28816007973192875   -0.01073127061574239
0.014711496707607742   -0.2893702317473827   -0.011374111298042465
0.050488679767803996   -0.23759963668627065   -0.011792393000961045
-0.08472654768455416   -0.28948564770470775   -0.01310765789094393
-0.07731602672266936   -0.33435517719327684   -0.012218447807598955
-0.057862809273974705   -0.2900698979678844   -0.012632335112867384
-0.0841156235199442   -0.2898887719428021   -0.013442745079462387
-0.07731602672266936   -0.33435517719327684   -0.012218447807598955
-0.0546974792267604   -0.33541233034327994   -0.012140744435352114
-0.057862809273974705   -0.2900698979678844   -0.012632335112867384
-0.05413073076719768   -0.33556544402717636   -0.01239027341692195
-0.0841156235199442   -0.2898887719428021   -0.013442745079462387
-0.057524213325092416   -0.2903685282505964   -0.012703511156297122
-0.05413073076719768   -0.33556544402717636   -0.01239027341692195
-0.057862809273974705   -0.2900698979678844   -0.012632335112867384
-0.0841156235199442   -0.2898887719428021   -0.013442745079462387
-0.05413073076719768   -0.33556544402717636   -0.01239027341692195
-0.0761379315455739   -0.334582659713473   -0.012915922777670114
-0.07731602672266936   -0.33435517719327684   -0.012218447807598955
-0.0841156235199442   -0.2898887719428021   -0.013442745079462387
-0.05413073076719768   -0.33556544402717636   -0.01239027341692195
-0.07731602672266936   -0.33435517719327684   -0.012218447807598955
-0.057862809273974705   -0.2900698979678844   -0.012632335112867384
-0.0841156235199442   -0.2898887719428021   -0.013442745079462387
-0.0761379315455739   -0.334582659713473   -0.012915922777670114
-0.057524213325092416   -0.2903685282505964   -0.012703511156297122
-0.0834166073292408   -0.29038211396447094   -0.013865925903501395
-0.0761379315455739   -0.334582659713473   -0.012915922777670114
-0.05413073076719768   -0.33556544402717636   -0.01239027341692195
-0.057524213325092416   -0.2903685282505964   -0.012703511156297122
-0.05341897963287087   -0.335931221700901   -0.012696793089053724
-0.0834166073292408   -0.29038211396447094   -0.013865925903501395
-0.057064997203825206   -0.2907925623454546   -0.012830681434398087
-0.05341897963287087   -0.335931221700901   -0.012696793089053724
-0.057524213325092416   -0.2903685282505964   -0.012703511156297122
-0.0834166073292408   -0.29038211396447094   -0.013865925903501395
-0.05341897963287087   -0.335931221700901   -0.012696793089053724
-0.07496161471368645   -0.33501187906177826   -0.013706210936264847
-0.0761379315455739   -0.334582659713473   -0.012915922777670114
-0.0834166073292408   -0.29038211396447094   -0.013865925903501395
-0.05341897963287087   -0.335931221700901   -0.012696793089053724
-0.0761379315455739   -0.334582659713473   -0.012915922777670114
-0.057524213325092416   -0.2903685282505964   -0.012703511156297122
-0.0834166073292408   -0.29038211396447094   -0.013865925903501395
-0.07496161471368645   -0.33501187906177826   -0.013706210936264847
-0.057064997203825206   -0.2907925623454546   -0.012830681434398087
-0.08246355485096092   -0.29113235053307407   -0.014378740596922011
-0.07496161471368645   -0.33501187906177826   -0.013706210936264847
-0.05341897963287087   -0.335931221700901   -0.012696793089053724
-0.057064997203825206   -0.2907925623454546   -0.012830681434398087
-0.0527164766713017   -0.3365304180009698   -0.013059772009298365
-0.08246355485096092   -0.29113235053307407   -0.014378740596922011
-0.05657190499422578   -0.291367812419666   -0.013015552873940168
-0.0527164766713017   -0.3365304180009698   -0.013059772009298365
-0.057064997203825206   -0.2907925623454546   -0.012830681434398087
-0.08246355485096092   -0.29113235053307407   -0.014378740596922011
-0.0527164766713017   -0.3365304180009698   -0.013059772009298365
-0.07345448296097878   -0.33581223404485333   -0.014587505631242838
-0.07496161471368645   -0.33501187906177826   -0.013706210936264847
-0.08246355485096092   -0.29113235053307407   -0.014378740596922011
-0.0527164766713017   -0.3365304180009698   -0.013059772009298365
-0.07496161471368645   -0.33501187906177826   -0.013706210936264847
-0.057064997203825206   -0.2907925623454546   -0.012830681434398087
-0.057862809273974705   -0.2900698979678844   -0.012632335112867384
-0.0546974792267604   -0.33541233034327994   -0.012140744435352114
-0.03379161218507596   -0.29030246341715726   -0.012327764693124554
-0.057524213325092416   -0.2903685282505964   -0.012703511156297122
-0.0546974792267604   -0.33541233034327994   -0.012140744435352114
-0.03512762817815881   -0.3359098550042693   -0.012109199568363229
-0.03379161218507596   -0.29030246341715726   -0.012327764693124554
-0.03454571539381427   -0.33596042720522756   -0.01199811065942441
-0.057524213325092416   -0.2903685282505964   -0.012703511156297122
-0.033422450824171446   -0.29045821871057975   -0.012172886478772012
-0.03454571539381427   -0.33596042720522756   -0.01199811065942441
-0.03379161218507596   -0.29030246341715726   -0.012327764693124554
-0.057524213325092416   -0.2903685282505964   -0.012703511156297122
-0.03454571539381427   -0.33596042720522756   -0.01199811065942441
-0.05413073076719768   -0.33556544402717636   -0.01239027341692195
-0.0546974792267604   -0.33541233034327994   -0.012140744435352114
-0.057524213325092416   -0.2903685282505964   -0.012703511156297122
-0.03454571539381427   -0.33596042720522756   -0.01199811065942441
-0.0546974792267604   -0.33541233034327994   -0.012140744435352114
-0.03379161218507596   -0.29030246341715726   -0.012327764693124554
-0.057524213325092416   -0.2903685282505964   -0.012703511156297122
-0.05413073076719768   -0.33556544402717636   -0.01239027341692195
-0.033422450824171446   -0.29045821871057975   -0.012172886478772012
-0.057064997203825206   -0.2907925623454546   -0.012830681434398087
-0.05413073076719768   -0.33556544402717636   -0.01239027341692195
-0.03454571539381427   -0.33596042720522756   -0.01199811065942441
-0.033422450824171446   -0.29045821871057975   -0.012172886478772012
-0.03394528253266408   -0.336200791741923   -0.011942327568152238
-0.057064997203825206   -0.2907925623454546   -0.012830681434398087
-0.03302516881665092   -0.29073464212818   -0.012073330754182843
-0.03394528253266408   -0.336200791741923   -0.011942327568152238
-0.033422450824171446   -0.29045821871057975   -0.012172886478772012
-0.057064997203825206   -0.2907925623454546   -0.012830681434398087
-0.03394528253266408   -0.336200791741923   -0.011942327568152238
-0.05341897963287087   -0.335931221700901   -0.012696793089053724
-0.05413073076719768   -0.33556544402717636   -0.01239027341692195
-0.057064997203825206   -0.2907925623454546   -0.012830681434398087
-0.03394528253266408   -0.336200791741923   -0.011942327568152238
-0.05413073076719768   -0.33556544402717636   -0.01239027341692195
-0.033422450824171446   -0.29045821871057975   -0.012172886478772012
-0.057064997203825206   -0.2907925623454546   -0.012830681434398087
-0.05341897963287087   -0.335931221700901   -0.012696793089053724
-0.03302516881665092   -0.29073464212818   -0.012073330754182843
-0.05657190499422578   -0.291367812419666   -0.013015552873940168
-0.05341897963287087   -0.335931221700901   -0.012696793089053724
-0.03394528253266408   -0.336200791741923   -0.011942327568152238
-0.03302516881665092   -0.29073464212818   -0.012073330754182843
-0.03334592304093395   -0.3366423513761247   -0.011941070903596297
-0.05657190499422578   -0.291367812419666   -0.013015552873940168
-0.03261680101195344   -0.2911352761541147   -0.012031768115684864
-0.03334592304093395   -0.3366423513761247   -0.011941070903596297
-0.03302516881665092   -0.29073464212818   -0.012073330754182843
-0.05657190499422578   -0.291367812419666   -0.013015552873940168
-0.03334592304093395   -0.3366423513761247   -0.011941070903596297
-0.0527164766713017   -0.3365304180009698   -0.013059772009298365
-0.05341897963287087   -0.335931221700901   -0.012696793089053724
-0.05657190499422578   -0.291367812419666   -0.013015552873940168
-0.03334592304093395   -0.3366423513761247   -0.011941070903596297
-0.05341897963287087   -0.335931221700901   -0.012696793089053724
-0.03302516881665092   -0.29073464212818   -0.012073330754182843
-0.03379161218507596   -0.29030246341715726   -0.012327764693124554
-0.03512762817815881   -0.3359098550042693   -0.012109199568363229
-0.01045093145655611   -0.2901266625318226   -0.012274945573827878
-0.033422450824171446   -0.29045821871057975   -0.012172886478772012
-0.03512762817815881   -0.3359098550042693   -0.012109199568363229
-0.01620903914136216   -0.3358241422545393   -0.012247747501298627
-0.01045093145655611   -0.2901266625318226   -0.012274945573827878
-0.015571595656408657   -0.3357597249169566   -0.011788740936560646
-0.033422450824171446   -0.29045821871057975   -0.012172886478772012
-0.010042544503721405   -0.2901315034288621   -0.011901767184663221
-0.015571595656408657   -0.3357597249169566   -0.011788740936560646
-0.01045093145655611   -0.2901266625318226   -0.012274945573827878
-0.033422450824171446   -0.29045821871057975   -0.012172886478772012
-0.015571595656408657   -0.3357597249169566   -0.011788740936560646
-0.03454571539381427   -0.33596042720522756   -0.01199811065942441
-0.03512762817815881   -0.3359098550042693   -0.012109199568363229
-0.033422450824171446   -0.29045821871057975   -0.012172886478772012
-0.015571595656408657   -0.3357597249169566   -0.011788740936560646
-0.03512762817815881   -0.3359098550042693   -0.012109199568363229
-0.01045093145655611   -0.2901266625318226   -0.012274945573827878
-0.033422450824171446   -0.29045821871057975   -0.012172886478772012
-0.03454571539381427   -0.33596042720522756   -0.01199811065942441
-0.010042544503721405   -0.2901315034288621   -0.011901767184663221
-0.03302516881665092   -0.29073464212818   -0.012073330754182843
-0.03454571539381427   -0.33596042720522756   -0.01199811065942441
-0.015571595656408657   -0.3357597249169566   -0.011788740936560646
-0.010042544503721405   -0.2901315034288621   -0.011901767184663221
-0.0149532034440701   -0.3358666661203685   -0.011388677725043086
-0.03302516881665092   -0.29073464212818   -0.012073330754182843
-0.009644975230887129   -0.2902480360673233   -0.011584024537793284
-0.0149532034440701   -0.3358666661203685   -0.011388677725043086
-0.010042544503721405   -0.2901315034288621   -0.011901767184663221
-0.03302516881665092   -0.29073464212818   -0.012073330754182843
-0.0149532034440701   -0.3358666661203685   -0.011388677725043086
-0.03394528253266408   -0.336200791741923   -0.011942327568152238
-0.03454571539381427   -0.33596042720522756   -0.01199811065942441
-0.03302516881665092   -0.29073464212818   -0.012073330754182843
-0.0149532034440701   -0.3358666661203685   -0.011388677725043086
-0.03454571539381427   -0.33596042720522756   -0.01199811065942441
-0.010042544503721405   -0.2901315034288621   -0.011901767184663221
-0.03302516881665092   -0.29073464212818   -0.012073330754182843
-0.03394528253266408   -0.336200791741923   -0.011942327568152238
-0.009644975230887129   -0.2902480360673233   -0.011584024537793284
-0.03261680101195344   -0.2911352761541147   -0.012031768115684864
-0.03394528253266408   -0.336200791741923   -0.011942327568152238
-0.0149532034440701   -0.3358666661203685   -0.011388677725043086
-0.009644975230887129   -0.2902480360673233   -0.011584024537793284
-0.014394743853116064   -0.33617028733462995   -0.011042416350783155
-0.03261680101195344   -0.2911352761541147   -0.012031768115684864
-0.009290586140444855   -0.2904860284628274   -0.011323655528276706
-0.014394743853116064   -0.33617028733462995   -0.011042416350783155
-0.009644975230887129   -0.2902480360673233   -0.011584024537793284
-0.03261680101195344   -0.2911352761541147   -0.012031768115684864
-0.014394743853116064   -0.33617028733462995   -0.011042416350783155
-0.03334592304093395   -0.3366423513761247   -0.011941070903596297
-0.03394528253266408   -0.336200791741923   -0.011942327568152238
-0.03261680101195344   -0.2911352761541147   -0.012031768115684864
-0.014394743853116064   -0.33617028733462995   -0.011042416350783155
-0.03394528253266408   -0.336200791741923   -0.011942327568152238
-0.009644975230887129   -0.2902480360673233   -0.011584024537793284
-0.01045093145655611   -0.2901266625318226   -0.012274945573827878
-0.01620903914136216   -0.3358241422545393   -0.012247747501298627
0.013700943354110493   -0.28955514076044514   -0.012493685535934001
-0.010042544503721405   -0.2901315034288621   -0.011901767184663221
-0.01620903914136216   -0.3358241422545393   -0.012247747501298627
0.0036072906440802275   -0.33513441989356146   -0.012587524459096042
0.013700943354110493   -0.28955514076044514   -0.012493685535934001
0.004382263074415181   -0.3349236488804385   -0.011781932055853256
-0.010042544503721405   -0.2901315034288621   -0.011901767184663221
0.014200123304631955   -0.28939891517491173   -0.011904388575729863
0.004382263074415181   -0.3349236488804385   -0.011781932055853256
0.013700943354110493   -0.28955514076044514   -0.012493685535934001
-0.010042544503721405   -0.2901315034288621   -0.011901767184663221
0.004382263074415181   -0.3349236488804385   -0.011781932055853256
-0.015571595656408657   -0.3357597249169566   -0.011788740936560646
-0.01620903914136216   -0.3358241422545393   -0.012247747501298627
-0.010042544503721405   -0.2901315034288621   -0.011901767184663221
0.004382263074415181   -0.3349236488804385   -0.011781932055853256
-0.01620903914136216   -0.3358241422545393   -0.012247747501298627
0.013700943354110493   -0.28955514076044514   -0.012493685535934001
-0.010042544503721405   -0.2901315034288621   -0.011901767184663221
-0.015571595656408657   -0.3357597249169566   -0.011788740936560646
0.014200123304631955   -0.28939891517491173   -0.011904388575729863
-0.009644975230887129   -0.2902480360673233   -0.011584024537793284
-0.015571595656408657   -0.3357597249169566   -0.011788740936560646
0.004382263074415181   -0.3349236488804385   -0.011781932055853256
0.014200123304631955   -0.28939891517491173   -0.011904388575729863
0.005198169015716723   -0.334904500413157   -0.011051122931455892
-0.009644975230887129   -0.2902480360673233   -0.011584024537793284
0.014711496707607742   -0.2893702317473827   -0.011374111298042465
0.005198169015716723   -0.334904500413157   -0.011051122931455892
0.014200123304631955   -0.28939891517491173   -0.011904388575729863
-0.009644975230887129   -0.2902480360673233   -0.011584024537793284
0.005198169015716723   -0.334904500413157   -0.011051122931455892
-0.0149532034440701   -0.3358666661203685   -0.011388677725043086
-0.015571595656408657   -0.3357597249169566   -0.011788740936560646
-0.009644975230887129   -0.2902480360673233   -0.011584024537793284
0.005198169015716723   -0.334904500413157   -0.011051122931455892
-0.015571595656408657   -0.3357597249169566   -0.011788740936560646
0.014200123304631955   -0.28939891517491173   -0.011904388575729863
-0.009644975230887129   -0.2902480360673233   -0.011584024537793284
-0.0149532034440701   -0.3358666661203685   -0.011388677725043086
0.014711496707607742   -0.2893702317473827   -0.011374111298042465
-0.009290586140444855   -0.2904860284628274   -0.011323655528276706
-0.0149532034440701   -0.3358666661203685   -0.011388677725043086
0.005198169015716723   -0.334904500413157   -0.011051122931455892
0.014711496707607742   -0.2893702317473827   -0.011374111298042465
0.005794914476978755   -0.33506837043279714   -0.010371836638095117
-0.009290586140444855   -0.2904860284628274   -0.011323655528276706
0.015050743216872902   -0.28944545666548316   -0.010895081235509588
0.005794914476978755   -0.33506837043279714   -0.010371836638095117
0.014711496707607742   -0.2893702317473827   -0.011374111298042465
-0.009290586140444855   -0.2904860284628274   -0.011323655528276706
0.005794914476978755   -0.33506837043279714   -0.010371836638095117
-0.014394743853116064   -0.33617028733462995   -0.011042416350783155
-0.0149532034440701   -0.3358666661203685   -0.011388677725043086
-0.009290586140444855   -0.2904860284628274   -0.011323655528276706
0.005794914476978755   -0.33506837043279714   -0.010371836638095117
-0.0149532034440701   -0.3358666661203685   -0.011388677725043086
0.014711496707607742   -0.2893702317473827   -0.011374111298042465
0.013700943354110493   -0.28955514076044514   -0.012493685535934001
0.0036072906440802275   -0.33513441989356146   -0.012587524459096042
0.03940920555085296   -0.2885729730211697   -0.013062755292752755
0.014200123304631955   -0.28939891517491173   -0.011904388575729863
0.0036072906440802275   -0.33513441989356146   -0.012587524459096042
0.024755186391906624   -0.33377494926706264   -0.013317830474681637
0.03940920555085296   -0.2885729730211697   -0.013062755292752755
0.026711695388970235   -0.333369770425298   -0.012085256853443674
0.014200123304631955   -0.28939891517491173   -0.011904388575729863
0.040736752319581834   -0.2882497647736587   -0.012206003726685722
0.026711695388970235   -0.333369770425298   -0.012085256853443674
0.03940920555085296   -0.2885729730211697   -0.013062755292752755
0.014200123304631955   -0.28939891517491173   -0.011904388575729863
0.026711695388970235   -0.333369770425298   -0.012085256853443674
0.004382263074415181   -0.3349236488804385   -0.011781932055853256
0.0036072906440802275   -0.33513441989356146   -0.012587524459096042
0.014200123304631955   -0.28939891517491173   -0.011904388575729863
0.026711695388970235   -0.333369770425298   -0.012085256853443674
0.0036072906440802275   -0.33513441989356146   -0.012587524459096042
0.03940920555085296   -0.2885729730211697   -0.013062755292752755
0.014200123304631955   -0.28939891517491173   -0.011904388575729863
0.004382263074415181   -0.3349236488804385   -0.011781932055853256
0.040736752319581834   -0.2882497647736587   -0.012206003726685722
0.014711496707607742   -0.2893702317473827   -0.011374111298042465
0.004382263074415181   -0.3349236488804385   -0.011781932055853256
0.026711695388970235   -0.333369770425298   -0.012085256853443674
0.040736752319581834   -0.2882497647736587   -0.012206003726685722
0.028211332538864074   -0.33329963575455557   -0.010945395308127237
0.014711496707607742   -0.2893702317473827   -0.011374111298042465
0.04171873160296389   -0.28816132798179983   -0.011427668647119985
0.028211332538864074   -0.33329963575455557   -0.010945395308127237
0.040736752319581834   -0.2882497647736587   -0.012206003726685722
0.014711496707607742   -0.2893702317473827   -0.011374111298042465
0.028211332538864074   -0.33329963575455557   -0.010945395308127237
0.005198169015716723   -0.334904500413157   -0.011051122931455892
0.004382263074415181   -0.3349236488804385   -0.011781932055853256
0.014711496707607742   -0.2893702317473827   -0.011374111298042465
0.028211332538864074   -0.33329963575455557   -0.010945395308127237
0.004382263074415181   -0.3349236488804385   -0.011781932055853256
0.040736752319581834   -0.2882497647736587   -0.012206003726685722
0.014711496707607742   -0.2893702317473827   -0.011374111298042465
0.005198169015716723   -0.334904500413157   -0.011051122931455892
0.04171873160296389   -0.28816132798179983   -0.011427668647119985
0.015050743216872902   -0.28944545666548316   -0.010895081235509588
0.005198169015716723   -0.334904500413157   -0.011051122931455892
0.028211332538864074   -0.33329963575455557   -0.010945395308127237
0.04171873160296389   -0.28816132798179983   -0.011427668647119985
0.029762278611273223   -0.33341878599141017   -0.00990760803387032
0.015050743216872902   -0.28944545666548316   -0.010895081235509588
0.042712346409366865   -0.28816007973192875   -0.01073127061574239
0.029762278611273223   -0.33341878599141017   -0.00990760803387032
0.04171873160296389   -0.28816132798179983   -0.011427668647119985
0.015050743216872902   -0.28944545666548316   -0.010895081235509588
0.029762278611273223   -0.33341878599141017   -0.00990760803387032
0.005794914476978755   -0.33506837043279714   -0.010371836638095117
0.005198169015716723   -0.334904500413157   -0.011051122931455892
0.015050743216872902   -0.28944545666548316   -0.010895081235509588
0.029762278611273223   -0.33341878599141017   -0.00990760803387032
0.005198169015716723   -0.334904500413157   -0.011051122931455892
0.04171873160296389   -0.28816132798179983   -0.011427668647119985
-0.07731602672266936   -0.33435517719327684   -0.012218447807598955
-0.06469752310315365   -0.36959181419622616   -0.011081285164252035
-0.0546974792267604   -0.33541233034327994   -0.012140744435352114
-0.0761379315455739   -0.334582659713473   -0.012915922777670114
-0.06469752310315365   -0.36959181419622616   -0.011081285164252035
-0.048607307348153134   -0.37116085002133925   -0.011552665231698804
-0.0546974792267604   -0.33541233034327994   -0.012140744435352114
-0.04778745482890553   -0.3710787997050131   -0.01193688016674112
-0.0761379315455739   -0.334582659713473   -0.012915922777670114
-0.05413073076719768   -0.33556544402717636   -0.01239027341692195
-0.04778745482890553   -0.3710787997050131   -0.01193688016674112
-0.0546974792267604   -0.33541233034327994   -0.012140744435352114
-0.0761379315455739   -0.334582659713473   -0.012915922777670114
-0.04778745482890553   -0.3710787997050131   -0.01193688016674112
-0.06293545315361303   -0.3695468429023278   -0.012117453857936921
-0.06469752310315365   -0.36959181419622616   -0.011081285164252035
-0.0761379315455739   -0.334582659713473   -0.012915922777670114
-0.04778745482890553   -0.3710787997050131   -0.01193688016674112
-0.06469752310315365   -0.36959181419622616   -0.011081285164252035
-0.0546974792267604   -0.33541233034327994   -0.012140744435352114
-0.0761379315455739   -0.334582659713473   -0.012915922777670114
-0.06293545315361303   -0.3695468429023278   -0.012117453857936921
-0.05413073076719768   -0.33556544402717636   -0.01239027341692195
-0.07496161471368645   -0.33501187906177826   -0.013706210936264847
-0.06293545315361303   -0.3695468429023278   -0.012117453857936921
-0.04778745482890553   -0.3710787997050131   -0.01193688016674112
-0.05413073076719768   -0.33556544402717636   -0.01239027341692195
-0.04682401849200178   -0.3713024723441651   -0.012379478486456381
-0.07496161471368645   -0.33501187906177826   -0.013706210936264847
-0.05341897963287087   -0.335931221700901   -0.012696793089053724
-0.04682401849200178   -0.3713024723441651   -0.012379478486456381
-0.05413073076719768   -0.33556544402717636   -0.01239027341692195
-0.07496161471368645   -0.33501187906177826   -0.013706210936264847
-0.04682401849200178   -0.3713024723441651   -0.012379478486456381
-0.061310335436229754   -0.36982355377599824   -0.013235784953599773
-0.06293545315361303   -0.3695468429023278   -0.012117453857936921
-0.07496161471368645   -0.33501187906177826   -0.013706210936264847
-0.04682401849200178   -0.3713024723441651   -0.012379478486456381
-0.06293545315361303   -0.3695468429023278   -0.012117453857936921
-0.05413073076719768   -0.33556544402717636   -0.01239027341692195
-0.07496161471368645   -0.33501187906177826   -0.013706210936264847
-0.061310335436229754   -0.36982355377599824   -0.013235784953599773
-0.05341897963287087   -0.335931221700901   -0.012696793089053724
-0.07345448296097878   -0.33581223404485333   -0.014587505631242838
-0.061310335436229754   -0.36982355377599824   -0.013235784953599773
-0.04682401849200178   -0.3713024723441651   -0.012379478486456381
-0.05341897963287087   -0.335931221700901   -0.012696793089053724
-0.04594994645411472   -0.3718368369538553   -0.012876708527466642
-0.07345448296097878   -0.33581223404485333   -0.014587505631242838
-0.0527164766713017   -0.3365304180009698   -0.013059772009298365
-0.04594994645411472   -0.3718368369538553   -0.012876708527466642
-0.05341897963287087   -0.335931221700901   -0.012696793089053724
-0.07345448296097878   -0.33581223404485333   -0.014587505631242838
-0.04594994645411472   -0.3718368369538553   -0.012876708527466642
-0.05932883138974557   -0.37056532566379474   -0.014431341759062292
-0.061310335436229754   -0.36982355377599824   -0.013235784953599773
-0.07345448296097878   -0.33581223404485333   -0.014587505631242838
-0.04594994645411472   -0.3718368369538553   -0.012876708527466642
-0.061310335436229754   -0.36982355377599824   -0.013235784953599773
-0.05341897963287087   -0.335931221700901   -0.012696793089053724
-0.0546974792267604   -0.33541233034327994   -0.012140744435352114
-0.048607307348153134   -0.37116085002133925   -0.011552665231698804
-0.03512762817815881   -0.3359098550042693   -0.012109199568363229
-0.05413073076719768   -0.33556544402717636   -0.01239027341692195
-0.048607307348153134   -0.37116085002133925   -0.011552665231698804
-0.0354796552929719   -0.3721836690007112   -0.011921365745099296
-0.03512762817815881   -0.3359098550042693   -0.012109199568363229
-0.03463757103270715   -0.3720534907461628   -0.011803692464851846
-0.05413073076719768   -0.33556544402717636   -0.01239027341692195
-0.03454571539381427   -0.33596042720522756   -0.01199811065942441
-0.03463757103270715   -0.3720534907461628   -0.011803692464851846
-0.03512762817815881   -0.3359098550042693   -0.012109199568363229
-0.05413073076719768   -0.33556544402717636   -0.01239027341692195
-0.03463757103270715   -0.3720534907461628   -0.011803692464851846
-0.04778745482890553   -0.3710787997050131   -0.01193688016674112
-0.048607307348153134   -0.37116085002133925   -0.011552665231698804
-0.05413073076719768   -0.33556544402717636   -0.01239027341692195
-0.03463757103270715   -0.3720534907461628   -0.011803692464851846
-0.048607307348153134   -0.37116085002133925   -0.011552665231698804
-0.03512762817815881   -0.3359098550042693   -0.012109199568363229
-0.05413073076719768   -0.33556544402717636   -0.01239027341692195
-0.04778745482890553   -0.3710787997050131   -0.01193688016674112
-0.03454571539381427   -0.33596042720522756   -0.01199811065942441
-0.05341897963287087   -0.335931221700901   -0.012696793089053724
-0.04778745482890553   -0.3710787997050131   -0.01193688016674112
-0.03463757103270715   -0.3720534907461628   -0.011803692464851846
-0.03454571539381427   -0.33596042720522756   -0.01199811065942441
-0.033807816221668466   -0.37218694420819476   -0.011742667654705372
-0.05341897963287087   -0.335931221700901   -0.012696793089053724
-0.03394528253266408   -0.336200791741923   -0.011942327568152238
-0.033807816221668466   -0.37218694420819476   -0.011742667654705372
-0.03454571539381427   -0.33596042720522756   -0.01199811065942441
-0.05341897963287087   -0.335931221700901   -0.012696793089053724
-0.033807816221668466   -0.37218694420819476   -0.011742667654705372
-0.04682401849200178   -0.3713024723441651   -0.012379478486456381
-0.04778745482890553   -0.3710787997050131   -0.01193688016674112
-0.05341897963287087   -0.335931221700901   -0.012696793089053724
-0.033807816221668466   -0.37218694420819476   -0.011742667654705372
-0.04778745482890553   -0.3710787997050131   -0.01193688016674112
-0.03454571539381427   -0.33596042720522756   -0.01199811065942441
-0.05341897963287087   -0.335931221700901   -0.012696793089053724
-0.04682401849200178   -0.3713024723441651   -0.012379478486456381
-0.03394528253266408   -0.336200791741923   -0.011942327568152238
-0.0527164766713017   -0.3365304180009698   -0.013059772009298365
-0.04682401849200178   -0.3713024723441651   -0.012379478486456381
-0.033807816221668466   -0.37218694420819476   -0.011742667654705372
-0.03394528253266408   -0.336200791741923   -0.011942327568152238
-0.03304486141551622   -0.37259299517792666   -0.011750244147315105
-0.0527164766713017   -0.3365304180009698   -0.013059772009298365
-0.03334592304093395   -0.3366423513761247   -0.011941070903596297
-0.03304486141551622   -0.37259299517792666   -0.011750244147315105
-0.03394528253266408   -0.336200791741923   -0.011942327568152238
-0.0527164766713017   -0.3365304180009698   -0.013059772009298365
-0.03304486141551622   -0.37259299517792666   -0.011750244147315105
-0.04594994645411472   -0.3718368369538553   -0.012876708527466642
-0.04682401849200178   -0.3713024723441651   -0.012379478486456381
-0.0527164766713017   -0.3365304180009698   -0.013059772009298365
-0.03304486141551622   -0.37259299517792666   -0.011750244147315105
-0.04682401849200178   -0.3713024723441651   -0.012379478486456381
-0.03394528253266408   -0.336200791741923   -0.011942327568152238
-0.03512762817815881   -0.3359098550042693   -0.012109199568363229
-0.0354796552929719   -0.3721836690007112   -0.011921365745099296
-0.01620903914136216   -0.3358241422545393   -0.012247747501298627
-0.03454571539381427   -0.33596042720522756   -0.01199811065942441
-0.0354796552929719   -0.3721836690007112   -0.011921365745099296
-0.022908050574769728   -0.3727301089826189   -0.012355071856085727
-0.01620903914136216   -0.3358241422545393   -0.012247747501298627
-0.021958585150385027   -0.3725434868470164   -0.011764437533902761
-0.03454571539381427   -0.33596042720522756   -0.01199811065942441
-0.015571595656408657   -0.3357597249169566   -0.011788740936560646
-0.021958585150385027   -0.3725434868470164   -0.011764437533902761
-0.01620903914136216   -0.3358241422545393   -0.012247747501298627
-0.03454571539381427   -0.33596042720522756   -0.01199811065942441
-0.021958585150385027   -0.3725434868470164   -0.011764437533902761
-0.03463757103270715   -0.3720534907461628   -0.011803692464851846
-0.0354796552929719   -0.3721836690007112   -0.011921365745099296
-0.03454571539381427   -0.33596042720522756   -0.01199811065942441
-0.021958585150385027   -0.3725434868470164   -0.011764437533902761
-0.0354796552929719   -0.3721836690007112   -0.011921365745099296
-0.01620903914136216   -0.3358241422545393   -0.012247747501298627
-0.03454571539381427   -0.33596042720522756   -0.01199811065942441
-0.03463757103270715   -0.3720534907461628   -0.011803692464851846
-0.015571595656408657   -0.3357597249169566   -0.011788740936560646
-0.03394528253266408   -0.336200791741923   -0.011942327568152238
-0.03463757103270715   -0.3720534907461628   -0.011803692464851846
-0.021958585150385027   -0.3725434868470164   -0.011764437533902761
-0.015571595656408657   -0.3357597249169566   -0.011788740936560646
-0.02105391239854683   -0.3725881842278545   -0.01122366285306739
-0.03394528253266408   -0.336200791741923   -0.011942327568152238
-0.0149532034440701   -0.3358666661203685   -0.011388677725043086
-0.02105391239854683   -0.3725881842278545   -0.01122366285306739
-0.015571595656408657   -0.3357597249169566   -0.011788740936560646
-0.03394528253266408   -0.336200791741923   -0.011942327568152238
-0.02105391239854683   -0.3725881842278545   -0.01122366285306739
-0.033807816221668466   -0.37218694420819476   -0.011742667654705372
-0.03463757103270715   -0.3720534907461628   -0.011803692464851846
-0.03394528253266408   -0.336200791741923   -0.011942327568152238
-0.02105391239854683   -0.3725881842278545   -0.01122366285306739
-0.03463757103270715   -0.3720534907461628   -0.011803692464851846
-0.015571595656408657   -0.3357597249169566   -0.011788740936560646
-0.03394528253266408   -0.336200791741923   -0.011942327568152238
-0.033807816221668466   -0.37218694420819476   -0.011742667654705372
-0.0149532034440701   -0.3358666661203685   -0.011388677725043086
-0.03334592304093395   -0.3366423513761247   -0.011941070903596297
-0.033807816221668466   -0.37218694420819476   -0.011742667654705372
-0.02105391239854683   -0.3725881842278545   -0.01122366285306739
-0.0149532034440701   -0.3358666661203685   -0.011388677725043086
-0.020302301719794833   -0.37291019377001566   -0.010764394848045186
-0.03334592304093395   -0.3366423513761247   -0.011941070903596297
-0.014394743853116064   -0.33617028733462995   -0.011042416350783155
-0.020302301719794833   -0.37291019377001566   -0.010764394848045186
-0.0149532034440701   -0.3358666661203685   -0.011388677725043086
-0.03334592304093395   -0.3366423513761247   -0.011941070903596297
-0.020302301719794833   -0.37291019377001566   -0.010764394848045186
-0.03304486141551622   -0.37259299517792666   -0.011750244147315105
-0.033807816221668466   -0.37218694420819476   -0.011742667654705372
-0.03334592304093395   -0.3366423513761247   -0.011941070903596297
-0.020302301719794833   -0.37291019377001566   -0.010764394848045186
-0.033807816221668466   -0.37218694420819476   -0.011742667654705372
-0.0149532034440701   -0.3358666661203685   -0.011388677725043086
-0.01620903914136216   -0.3358241422545393   -0.012247747501298627
-0.022908050574769728   -0.3727301089826189   -0.012355071856085727
0.0036072906440802275   -0.33513441989356146   -0.012587524459096042
-0.015571595656408657   -0.3357597249169566   -0.011788740936560646
-0.022908050574769728   -0.3727301089826189   -0.012355071856085727
-0.009525137169232903   -0.37261149139600624   -0.012864259318064675
0.0036072906440802275   -0.33513441989356146   -0.012587524459096042
-0.00830613198619413   -0.37231924975992503   -0.011821653513892874
-0.015571595656408657   -0.3357597249169566   -0.011788740936560646
0.004382263074415181   -0.3349236488804385   -0.011781932055853256
-0.00830613198619413   -0.37231924975992503   -0.011821653513892874
0.0036072906440802275   -0.33513441989356146   -0.012587524459096042
-0.015571595656408657   -0.3357597249169566   -0.011788740936560646
-0.00830613198619413   -0.37231924975992503   -0.011821653513892874
-0.021958585150385027   -0.3725434868470164   -0.011764437533902761
-0.022908050574769728   -0.3727301089826189   -0.012355071856085727
-0.015571595656408657   -0.3357597249169566   -0.011788740936560646
-0.00830613198619413   -0.37231924975992503   -0.011821653513892874
-0.022908050574769728   -0.3727301089826189   -0.012355071856085727
0.0036072906440802275   -0.33513441989356146   -0.012587524459096042
-0.015571595656408657   -0.3357597249169566   -0.011788740936560646
-0.021958585150385027   -0.3725434868470164   -0.011764437533902761
0.004382263074415181   -0.3349236488804385   -0.011781932055853256
-0.0149532034440701   -0.3358666661203685   -0.011388677725043086
-0.021958585150385027   -0.3725434868470164   -0.011764437533902761
-0.00830613198619413   -0.37231924975992503   -0.011821653513892874
0.004382263074415181   -0.3349236488804385   -0.011781932055853256
-0.007061680068746074   -0.3722665871318119   -0.010832514054505084
-0.0149532034440701   -0.3358666661203685   -0.011388677725043086
0.005198169015716723   -0.334904500413157   -0.011051122931455892
-0.007061680068746074   -0.3722665871318119   -0.010832514054505084
0.004382263074415181   -0.3349236488804385   -0.011781932055853256
-0.0149532034440701   -0.3358666661203685   -0.011388677725043086
-0.007061680068746074   -0.3722665871318119   -0.010832514054505084
-0.02105391239854683   -0.3725881842278545   -0.01122366285306739
-0.021958585150385027   -0.3725434868470164   -0.011764437533902761
-0.0149532034440701   -0.3358666661203685   -0.011388677725043086
-0.007061680068746074   -0.3722665871318119   -0.010832514054505084
-0.021958585150385027   -0.3725434868470164   -0.011764437533902761
0.004382263074415181   -0.3349236488804385   -0.011781932055853256
-0.0149532034440701   -0.3358666661203685   -0.011388677725043086
-0.02105391239854683   -0.3725881842278545   -0.01122366285306739
0.005198169015716723   -0.334904500413157   -0.011051122931455892
-0.014394743853116064   -0.33617028733462995   -0.011042416350783155
-0.02105391239854683   -0.3725881842278545   -0.01122366285306739
-0.007061680068746074   -0.3722665871318119   -0.010832514054505084
0.005198169015716723   -0.334904500413157   -0.011051122931455892
-0.006138837940348047   -0.37250596055674146   -0.00993510395631346
-0.014394743853116064   -0.33617028733462995   -0.011042416350783155
0.005794914476978755   -0.33506837043279714   -0.010371836638095117
-0.006138837940348047   -0.37250596055674146   -0.00993510395631346
0.005198169015716723   -0.334904500413157   -0.011051122931455892
-0.014394743853116064   -0.33617028733462995   -0.011042416350783155
-0.006138837940348047   -0.37250596055674146   -0.00993510395631346
-0.020302301719794833   -0.37291019377001566   -0.010764394848045186
-0.02105391239854683   -0.3725881842278545   -0.01122366285306739
-0.014394743853116064   -0.33617028733462995   -0.011042416350783155
-0.006138837940348047   -0.37250596055674146   -0.00993510395631346
-0.02105391239854683   -0.3725881842278545   -0.01122366285306739
0.005198169015716723   -0.334904500413157   -0.011051122931455892
0.0036072906440802275   -0.33513441989356146   -0.012587524459096042
-0.009525137169232903   -0.37261149139600624   -0.012864259318064675
0.024755186391906624   -0.33377494926706264   -0.013317830474681637
0.004382263074415181   -0.3349236488804385   -0.011781932055853256
-0.009525137169232903   -0.37261149139600624   -0.012864259318064675
0.004907216899573485   -0.3713319384283471   -0.013913609396848547
0.024755186391906624   -0.33377494926706264   -0.013317830474681637
0.007734123144160499   -0.37069412033083987   -0.012207132002217467
0.004382263074415181   -0.3349236488804385   -0.011781932055853256
0.026711695388970235   -0.333369770425298   -0.012085256853443674
0.007734123144160499   -0.37069412033083987   -0.012207132002217467
0.024755186391906624   -0.33377494926706264   -0.013317830474681637
0.004382263074415181   -0.3349236488804385   -0.011781932055853256
0.007734123144160499   -0.37069412033083987   -0.012207132002217467
-0.00830613198619413   -0.37231924975992503   -0.011821653513892874
-0.009525137169232903   -0.37261149139600624   -0.012864259318064675
0.004382263074415181   -0.3349236488804385   -0.011781932055853256
0.007734123144160499   -0.37069412033083987   -0.012207132002217467
-0.009525137169232903   -0.37261149139600624   -0.012864259318064675
0.024755186391906624   -0.33377494926706264   -0.013317830474681637
0.004382263074415181   -0.3349236488804385   -0.011781932055853256
-0.00830613198619413   -0.37231924975992503   -0.011821653513892874
0.026711695388970235   -0.333369770425298   -0.012085256853443674
0.005198169015716723   -0.334904500413157   -0.011051122931455892
-0.00830613198619413   -0.37231924975992503   -0.011821653513892874
0.007734123144160499   -0.37069412033083987   -0.012207132002217467
0.026711695388970235   -0.333369770425298   -0.012085256853443674
0.009956503296100774   -0.3705640334418   -0.010606043824920008
0.005198169015716723   -0.334904500413157   -0.011051122931455892
0.028211332538864074   -0.33329963575455557   -0.010945395308127237
0.009956503296100774   -0.3705640334418   -0.010606043824920008
0.026711695388970235   -0.333369770425298   -0.012085256853443674
0.005198169015716723   -0.334904500413157   -0.011051122931455892
0.009956503296100774   -0.3705640334418   -0.010606043824920008
-0.007061680068746074   -0.3722665871318119   -0.010832514054505084
-0.00830613198619413   -0.37231924975992503   -0.011821653513892874
0.005198169015716723   -0.334904500413157   -0.011051122931455892
0.009956503296100774   -0.3705640334418   -0.010606043824920008
-0.00830613198619413   -0.37231924975992503   -0.011821653513892874
0.026711695388970235   -0.333369770425298   -0.012085256853443674
0.005198169015716723   -0.334904500413157   -0.011051122931455892
-0.007061680068746074   -0.3722665871318119   -0.010832514054505084
0.028211332538864074   -0.33329963575455557   -0.010945395308127237
0.005794914476978755   -0.33506837043279714   -0.010371836638095117
-0.007061680068746074   -0.3722665871318119   -0.010832514054505084
0.009956503296100774   -0.3705640334418   -0.010606043824920008
0.028211332538864074   -0.33329963575455557   -0.010945395308127237
0.01226244216326666   -0.3706688462760702   -0.009145239216078738
0.005794914476978755   -0.33506837043279714   -0.010371836638095117
0.029762278611273223   -0.33341878599141017   -0.00990760803387032
0.01226244216326666   -0.3706688462760702   -0.009145239216078738
0.028211332538864074   -0.33329963575455557   -0.010945395308127237
0.005794914476978755   -0.33506837043279714   -0.010371836638095117
0.01226244216326666   -0.3706688462760702   -0.009145239216078738
-0.006138837940348047   -0.37250596055674146   -0.00993510395631346
-0.007061680068746074   -0.3722665871318119   -0.010832514054505084
0.005794914476978755   -0.33506837043279714   -0.010371836638095117
0.01226244216326666   -0.3706688462760702   -0.009145239216078738
-0.007061680068746074   -0.3722665871318119   -0.010832514054505084
0.028211332538864074   -0.33329963575455557   -0.010945395308127237
-0.06469752310315365   -0.36959181419622616   -0.011081285164252035
-0.04731681225490181   -0.3905116487220884   -0.009747423088627952
-0.048607307348153134   -0.37116085002133925   -0.011552665231698804
-0.06293545315361303   -0.3695468429023278   -0.012117453857936921
-0.04731681225490181   -0.3905116487220884   -0.009747423088627952
-0.039860888131631585   -0.39249884406522584   -0.010945556454049748
-0.048607307348153134   -0.37116085002133925   -0.011552665231698804
-0.03882406358358371   -0.3921033043752647   -0.011353354739347921
-0.06293545315361303   -0.3695468429023278   -0.012117453857936921
-0.04778745482890553   -0.3710787997050131   -0.01193688016674112
-0.03882406358358371   -0.3921033043752647   -0.011353354739347921
-0.048607307348153134   -0.37116085002133925   -0.011552665231698804
-0.06293545315361303   -0.3695468429023278   -0.012117453857936921
-0.03882406358358371   -0.3921033043752647   -0.011353354739347921
-0.04511739404047009   -0.39006641725755203   -0.01099125146887166
-0.04731681225490181   -0.3905116487220884   -0.009747423088627952
-0.06293545315361303   -0.3695468429023278   -0.012117453857936921
-0.03882406358358371   -0.3921033043752647   -0.011353354739347921
-0.04731681225490181   -0.3905116487220884   -0.009747423088627952
-0.048607307348153134   -0.37116085002133925   -0.011552665231698804
-0.06293545315361303   -0.3695468429023278   -0.012117453857936921
-0.04511739404047009   -0.39006641725755203   -0.01099125146887166
-0.04778745482890553   -0.3710787997050131   -0.01193688016674112
-0.061310335436229754   -0.36982355377599824   -0.013235784953599773
-0.04511739404047009   -0.39006641725755203   -0.01099125146887166
-0.03882406358358371   -0.3921033043752647   -0.011353354739347921
-0.04778745482890553   -0.3710787997050131   -0.01193688016674112
-0.03767715556778928   -0.39211902884864674   -0.011765219541150722
-0.061310335436229754   -0.36982355377599824   -0.013235784953599773
-0.04682401849200178   -0.3713024723441651   -0.012379478486456381
-0.03767715556778928   -0.39211902884864674   -0.011765219541150722
-0.04778745482890553   -0.3710787997050131   -0.01193688016674112
-0.061310335436229754   -0.36982355377599824   -0.013235784953599773
-0.03767715556778928   -0.39211902884864674   -0.011765219541150722
-0.043219383502857256   -0.3901002117457028   -0.01222995248557009
-0.04511739404047009   -0.39006641725755203   -0.01099125146887166
-0.061310335436229754   -0.36982355377599824   -0.013235784953599773
-0.03767715556778928   -0.39211902884864674   -0.011765219541150722
-0.04511739404047009   -0.39006641725755203   -0.01099125146887166
-0.04778745482890553   -0.3710787997050131   -0.01193688016674112
-0.061310335436229754   -0.36982355377599824   -0.013235784953599773
-0.043219383502857256   -0.3901002117457028   -0.01222995248557009
-0.04682401849200178   -0.3713024723441651   -0.012379478486456381
-0.05932883138974557   -0.37056532566379474   -0.014431341759062292
-0.043219383502857256   -0.3901002117457028   -0.01222995248557009
-0.03767715556778928   -0.39211902884864674   -0.011765219541150722
-0.04682401849200178   -0.3713024723441651   -0.012379478486456381
-0.03661091699113974   -0.39254774859153974   -0.012182884317766502
-0.05932883138974557   -0.37056532566379474   -0.014431341759062292
-0.04594994645411472   -0.3718368369538553   -0.012876708527466642
-0.03661091699113974   -0.39254774859153974   -0.012182884317766502
-0.04682401849200178   -0.3713024723441651   -0.012379478486456381
-0.05932883138974557   -0.37056532566379474   -0.014431341759062292
-0.03661091699113974   -0.39254774859153974   -0.012182884317766502
-0.04096921316717247   -0.3906401270315079   -0.013495441765504428
-0.043219383502857256   -0.3901002117457028   -0.01222995248557009
-0.05932883138974557   -0.37056532566379474   -0.014431341759062292
-0.03661091699113974   -0.39254774859153974   -0.012182884317766502
-0.043219383502857256   -0.3901002117457028   -0.01222995248557009
-0.04682401849200178   -0.3713024723441651   -0.012379478486456381
-0.048607307348153134   -0.37116085002133925   -0.011552665231698804
-0.039860888131631585   -0.39249884406522584   -0.010945556454049748
-0.0354796552929719   -0.3721836690007112   -0.011921365745099296
-0.04778745482890553   -0.3710787997050131   -0.01193688016674112
-0.039860888131631585   -0.39249884406522584   -0.010945556454049748
-0.034415467260895304   -0.39450702051804765   -0.012005432485572995
-0.0354796552929719   -0.3721836690007112   -0.011921365745099296
-0.03332018992361889   -0.3941019160487245   -0.011715728126771876
-0.04778745482890553   -0.3710787997050131   -0.01193688016674112
-0.03463757103270715   -0.3720534907461628   -0.011803692464851846
-0.03332018992361889   -0.3941019160487245   -0.011715728126771876
-0.0354796552929719   -0.3721836690007112   -0.011921365745099296
-0.04778745482890553   -0.3710787997050131   -0.01193688016674112
-0.03332018992361889   -0.3941019160487245   -0.011715728126771876
-0.03882406358358371   -0.3921033043752647   -0.011353354739347921
-0.039860888131631585   -0.39249884406522584   -0.010945556454049748
-0.04778745482890553   -0.3710787997050131   -0.01193688016674112
-0.03332018992361889   -0.3941019160487245   -0.011715728126771876
-0.039860888131631585   -0.39249884406522584   -0.010945556454049748
-0.0354796552929719   -0.3721836690007112   -0.011921365745099296
-0.04778745482890553   -0.3710787997050131   -0.01193688016674112
-0.03882406358358371   -0.3921033043752647   -0.011353354739347921
-0.03463757103270715   -0.3720534907461628   -0.011803692464851846
-0.04682401849200178   -0.3713024723441651   -0.012379478486456381
-0.03882406358358371   -0.3921033043752647   -0.011353354739347921
-0.03332018992361889   -0.3941019160487245   -0.011715728126771876
-0.03463757103270715   -0.3720534907461628   -0.011803692464851846
-0.0322618472526154   -0.3940918061601236   -0.01142232560555147
-0.04682401849200178   -0.3713024723441651   -0.012379478486456381
-0.033807816221668466   -0.37218694420819476   -0.011742667654705372
-0.0322618472526154   -0.3940918061601236   -0.01142232560555147
-0.03463757103270715   -0.3720534907461628   -0.011803692464851846
-0.04682401849200178   -0.3713024723441651   -0.012379478486456381
-0.0322618472526154   -0.3940918061601236   -0.01142232560555147
-0.03767715556778928   -0.39211902884864674   -0.011765219541150722
-0.03882406358358371   -0.3921033043752647   -0.011353354739347921
-0.04682401849200178   -0.3713024723441651   -0.012379478486456381
-0.0322618472526154   -0.3940918061601236   -0.01142232560555147
-0.03882406358358371   -0.3921033043752647   -0.011353354739347921
-0.03463757103270715   -0.3720534907461628   -0.011803692464851846
-0.04682401849200178   -0.3713024723441651   -0.012379478486456381
-0.03767715556778928   -0.39211902884864674   -0.011765219541150722
-0.033807816221668466   -0.37218694420819476   -0.011742667654705372
-0.04594994645411472   -0.3718368369538553   -0.012876708527466642
-0.03767715556778928   -0.39211902884864674   -0.011765219541150722
-0.0322618472526154   -0.3940918061601236   -0.01142232560555147
-0.033807816221668466   -0.37218694420819476   -0.011742667654705372
-0.031157995279169876   -0.3944682690951953   -0.011140276624616027
-0.04594994645411472   -0.3718368369538553   -0.012876708527466642
-0.03304486141551622   -0.37259299517792666   -0.011750244147315105
-0.031157995279169876   -0.3944682690951953   -0.011140276624616027
-0.033807816221668466   -0.37218694420819476   -0.011742667654705372
-0.04594994645411472   -0.3718368369538553   -0.012876708527466642
-0.031157995279169876   -0.3944682690951953   -0.011140276624616027
-0.03661091699113974   -0.39254774859153974   -0.012182884317766502
-0.03767715556778928   -0.39211902884864674   -0.011765219541150722
-0.04594994645411472   -0.3718368369538553   -0.012876708527466642
-0.031157995279169876   -0.3944682690951953   -0.011140276624616027
-0.03767715556778928   -0.39211902884864674   -0.011765219541150722
-0.033807816221668466   -0.37218694420819476   -0.011742667654705372
-0.0354796552929719   -0.3721836690007112   -0.011921365745099296
-0.034415467260895304   -0.39450702051804765   -0.012005432485572995
-0.022908050574769728   -0.3727301089826189   -0.012355071856085727
-0.03463757103270715   -0.3720534907461628   -0.011803692464851846
-0.034415467260895304   -0.39450702051804765   -0.012005432485572995
-0.02944776220923355   -0.3969450483660243   -0.01317060839399373
-0.022908050574769728   -0.3727301089826189   -0.012355071856085727
-0.028104187277426307   -0.3965950046147284   -0.012143980343021797
-0.03463757103270715   -0.3720534907461628   -0.011803692464851846
-0.021958585150385027   -0.3725434868470164   -0.011764437533902761
-0.028104187277426307   -0.3965950046147284   -0.012143980343021797
-0.022908050574769728   -0.3727301089826189   -0.012355071856085727
-0.03463757103270715   -0.3720534907461628   -0.011803692464851846
-0.028104187277426307   -0.3965950046147284   -0.012143980343021797
-0.03332018992361889   -0.3941019160487245   -0.011715728126771876
-0.034415467260895304   -0.39450702051804765   -0.012005432485572995
-0.03463757103270715   -0.3720534907461628   -0.011803692464851846
-0.028104187277426307   -0.3965950046147284   -0.012143980343021797
-0.034415467260895304   -0.39450702051804765   -0.012005432485572995
-0.022908050574769728   -0.3727301089826189   -0.012355071856085727
-0.03463757103270715   -0.3720534907461628   -0.011803692464851846
-0.03332018992361889   -0.3941019160487245   -0.011715728126771876
-0.021958585150385027   -0.3725434868470164   -0.011764437533902761
-0.033807816221668466   -0.37218694420819476   -0.011742667654705372
-0.03332018992361889   -0.3941019160487245   -0.011715728126771876
-0.028104187277426307   -0.3965950046147284   -0.012143980343021797
-0.021958585150385027   -0.3725434868470164   -0.011764437533902761
-0.026860230891233714   -0.39657461052477677   -0.011121410223618573
-0.033807816221668466   -0.37218694420819476   -0.011742667654705372
-0.02105391239854683   -0.3725881842278545   -0.01122366285306739
-0.026860230891233714   -0.39657461052477677   -0.011121410223618573
-0.021958585150385027   -0.3725434868470164   -0.011764437533902761
-0.033807816221668466   -0.37218694420819476   -0.011742667654705372
-0.026860230891233714   -0.39657461052477677   -0.011121410223618573
-0.0322618472526154   -0.3940918061601236   -0.01142232560555147
-0.03332018992361889   -0.3941019160487245   -0.011715728126771876
-0.033807816221668466   -0.37218694420819476   -0.011742667654705372
-0.026860230891233714   -0.39657461052477677   -0.011121410223618573
-0.03332018992361889   -0.3941019160487245   -0.011715728126771876
-0.021958585150385027   -0.3725434868470164   -0.011764437533902761
-0.033807816221668466   -0.37218694420819476   -0.011742667654705372
-0.0322618472526154   -0.3940918061601236   -0.01142232560555147
-0.02105391239854683   -0.3725881842278545   -0.01122366285306739
-0.03304486141551622   -0.37259299517792666   -0.011750244147315105
-0.0322618472526154   -0.3940918061601236   -0.01142232560555147
-0.026860230891233714   -0.39657461052477677   -0.011121410223618573
-0.02105391239854683   -0.3725881842278545   -0.01122366285306739
-0.02552343766080824   -0.3968656283464978   -0.010095561779306858
-0.03304486141551622   -0.37259299517792666   -0.011750244147315105
-0.020302301719794833   -0.37291019377001566   -0.010764394848045186
-0.02552343766080824   -0.3968656283464978   -0.010095561779306858
-0.02105391239854683   -0.3725881842278545   -0.01122366285306739
-0.03304486141551622   -0.37259299517792666   -0.011750244147315105
-0.02552343766080824   -0.3968656283464978   -0.010095561779306858
-0.031157995279169876   -0.3944682690951953   -0.011140276624616027
-0.0322618472526154   -0.3940918061601236   -0.01142232560555147
-0.03304486141551622   -0.37259299517792666   -0.011750244147315105
-0.02552343766080824   -0.3968656283464978   -0.010095561779306858
-0.0322618472526154   -0.3940918061601236   -0.01142232560555147
-0.02105391239854683   -0.3725881842278545   -0.01122366285306739
-0.022908050574769728   -0.3727301089826189   -0.012355071856085727
-0.02944776220923355   -0.3969450483660243   -0.01317060839399373
-0.009525137169232903   -0.37261149139600624   -0.012864259318064675
-0.021958585150385027   -0.3725434868470164   -0.011764437533902761
-0.02944776220923355   -0.3969450483660243   -0.01317060839399373
-0.024558703651706003   -0.4   -0.014058060824315896
-0.009525137169232903   -0.37261149139600624   -0.012864259318064675
-0.022871012672211897   -0.4   -0.01250485561158205
-0.021958585150385027   -0.3725434868470164   -0.011764437533902761
-0.00830613198619413   -0.37231924975992503   -0.011821653513892874
-0.022871012672211897   -0.4   -0.01250485561158205
-0.009525137169232903   -0.37261149139600624   -0.012864259318064675
-0.021958585150385027   -0.3725434868470164   -0.011764437533902761
-0.022871012672211897   -0.4   -0.01250485561158205
-0.028104187277426307   -0.3965950046147284   -0.012143980343021797
-0.02944776220923355   -0.3969450483660243   -0.01317060839399373
-0.021958585150385027   -0.3725434868470164   -0.011764437533902761
-0.022871012672211897   -0.4   -0.01250485561158205
-0.02944776220923355   -0.3969450483660243   -0.01317060839399373
-0.009525137169232903   -0.37261149139600624   -0.012864259318064675
-0.021958585150385027   -0.3725434868470164   -0.011764437533902761
-0.028104187277426307   -0.3965950046147284   -0.012143980343021797
-0.00830613198619413   -0.37231924975992503   -0.011821653513892874
-0.02105391239854683   -0.3725881842278545   -0.01122366285306739
-0.028104187277426307   -0.3965950046147284   -0.012143980343021797
-0.022871012672211897   -0.4   -0.01250485561158205
-0.00830613198619413   -0.37231924975992503   -0.011821653513892874
-0.02117706190738554   -0.4   -0.010933170770013951
-0.02105391239854683   -0.3725881842278545   -0.01122366285306739
-0.007061680068746074   -0.3722665871318119   -0.010832514054505084
-0.02117706190738554   -0.4   -0.010933170770013951
-0.00830613198619413   -0.37231924975992503   -0.011821653513892874
-0.02105391239854683   -0.3725881842278545   -0.01122366285306739
-0.02117706190738554   -0.4   -0.010933170770013951
-0.026860230891233714   -0.39657461052477677   -0.011121410223618573
-0.028104187277426307   -0.3965950046147284   -0.012143980343021797
-0.02105391239854683   -0.3725881842278545   -0.01122366285306739
-0.02117706190738554   -0.4   -0.010933170770013951
-0.028104187277426307   -0.3965950046147284   -0.012143980343021797
-0.00830613198619413   -0.37231924975992503   -0.011821653513892874
-0.02105391239854683   -0.3725881842278545   -0.01122366285306739
-0.026860230891233714   -0.39657461052477677   -0.011121410223618573
-0.007061680068746074   -0.3722665871318119   -0.010832514054505084
-0.020302301719794833   -0.37291019377001566   -0.010764394848045186
-0.026860230891233714   -0.39657461052477677   -0.011121410223618573
-0.02117706190738554   -0.4   -0.010933170770013951
-0.007061680068746074   -0.3722665871318119   -0.010832514054505084
-0.019518974978460966   -0.4   -0.00938211262459425
-0.020302301719794833   -0.37291019377001566   -0.010764394848045186
-0.006138837940348047   -0.37250596055674146   -0.00993510395631346
-0.019518974978460966   -0.4   -0.00938211262459425
-0.007061680068746074   -0.3722665871318119   -0.010832514054505084
-0.020302301719794833   -0.37291019377001566   -0.010764394848045186
-0.019518974978460966   -0.4   -0.00938211262459425
-0.02552343766080824   -0.3968656283464978   -0.010095561779306858
-0.026860230891233714   -0.39657461052477677   -0.011121410223618573
-0.020302301719794833   -0.37291019377001566   -0.010764394848045186
-0.019518974978460966   -0.4   -0.00938211262459425
-0.026860230891233714   -0.39657461052477677   -0.011121410223618573
-0.007061680068746074   -0.3722665871318119   -0.010832514054505084
-0.009525137169232903   -0.37261149139600624   -0.012864259318064675
-0.024558703651706003   -0.4   -0.014058060824315896
0.004907216899573485   -0.3713319384283471   -0.013913609396848547
-0.00830613198619413   -0.37231924975992503   -0.011821653513892874
-0.024558703651706003   -0.4   -0.014058060824315896
-0.021031521507365557   -0.4   -0.015132909547172411
0.004907216899573485   -0.3713319384283471   -0.013913609396848547
-0.017517052619423604   -0.4   -0.012889089932801207
-0.00830613198619413   -0.37231924975992503   -0.011821653513892874
0.007734123144160499   -0.37069412033083987   -0.012207132002217467
-0.017517052619423604   -0.4   -0.012889089932801207
0.004907216899573485   -0.3713319384283471   -0.013913609396848547
-0.00830613198619413   -0.37231924975992503   -0.011821653513892874
-0.017517052619423604   -0.4   -0.012889089932801207
-0.022871012672211897   -0.4   -0.01250485561158205
-0.024558703651706003   -0.4   -0.014058060824315896
-0.00830613198619413   -0.37231924975992503   -0.011821653513892874
-0.017517052619423604   -0.4   -0.012889089932801207
-0.024558703651706003   -0.4   -0.014058060824315896
0.004907216899573485   -0.3713319384283471   -0.013913609396848547
-0.00830613198619413   -0.37231924975992503   -0.011821653513892874
-0.022871012672211897   -0.4   -0.01250485561158205
0.007734123144160499   -0.37069412033083987   -0.012207132002217467
-0.007061680068746074   -0.3722665871318119   -0.010832514054505084
-0.022871012672211897   -0.4   -0.01250485561158205
-0.017517052619423604   -0.4   -0.012889089932801207
0.007734123144160499   -0.37069412033083987   -0.012207132002217467
-0.01471417119682679   -0.4   -0.01074241508396068
-0.007061680068746074   -0.3722665871318119   -0.010832514054505084
0.009956503296100774   -0.3705640334418   -0.010606043824920008
-0.01471417119682679   -0.4   -0.01074241508396068
0.007734123144160499   -0.37069412033083987   -0.012207132002217467
-0.007061680068746074   -0.3722665871318119   -0.010832514054505084
-0.01471417119682679   -0.4   -0.01074241508396068
-0.02117706190738554   -0.4   -0.010933170770013951
-0.022871012672211897   -0.4   -0.01250485561158205
-0.007061680068746074   -0.3722665871318119   -0.010832514054505084
-0.01471417119682679   -0.4   -0.01074241508396068
-0.022871012672211897   -0.4   -0.01250485561158205
0.007734123144160499   -0.37069412033083987   -0.012207132002217467
-0.007061680068746074   -0.3722665871318119   -0.010832514054505084
-0.02117706190738554   -0.4   -0.010933170770013951
0.009956503296100774   -0.3705640334418   -0.010606043824920008
-0.006138837940348047   -0.37250596055674146   -0.00993510395631346
-0.02117706190738554   -0.4   -0.010933170770013951
-0.01471417119682679   -0.4   -0.01074241508396068
0.009956503296100774   -0.3705640334418   -0.010606043824920008
-0.011251180363536837   -0.4   -0.008514082926710806
-0.006138837940348047   -0.37250596055674146   -0.00993510395631346
0.01226244216326666   -0.3706688462760702   -0.009145239216078738
-0.011251180363536837   -0.4   -0.008514082926710806
0.009956503296100774   -0.3705640334418   -0.010606043824920008
-0.006138837940348047   -0.37250596055674146   -0.00993510395631346
-0.011251180363536837   -0.4   -0.008514082926710806
-0.019518974978460966   -0.4   -0.00938211262459425
-0.02117706190738554   -0.4   -0.010933170770013951
-0.006138837940348047   -0.37250596055674146   -0.00993510395631346
-0.011251180363536837   -0.4   -0.008514082926710806
-0.02117706190738554   -0.4   -0.010933170770013951
0.009956503296100774   -0.3705640334418   -0.010606043824920008
-0.04731681225490181   -0.3905116487220884   -0.009747423088627952
-0.02808702849464646   -0.3914412252585843   -0.008340222207190887
-0.039860888131631585   -0.39249884406522584   -0.010945556454049748
-0.04511739404047009   -0.39006641725755203   -0.01099125146887166
-0.02808702849464646   -0.3914412252585843   -0.008340222207190887
-0.029871828973220074   -0.3929669756541349   -0.009882526578838736
-0.039860888131631585   -0.39249884406522584   -0.010945556454049748
-0.029088751027187103   -0.39242746416792507   -0.010440869319490733
-0.04511739404047009   -0.39006641725755203   -0.01099125146887166
-0.03882406358358371   -0.3921033043752647   -0.011353354739347921
-0.029088751027187103   -0.39242746416792507   -0.010440869319490733
-0.039860888131631585   -0.39249884406522584   -0.010945556454049748
-0.04511739404047009   -0.39006641725755203   -0.01099125146887166
-0.029088751027187103   -0.39242746416792507   -0.010440869319490733
-0.02609666826119761   -0.3907489217406856   -0.009646668345903074
-0.02808702849464646   -0.3914412252585843   -0.008340222207190887
-0.04511739404047009   -0.39006641725755203   -0.01099125146887166
-0.029088751027187103   -0.39242746416792507   -0.010440869319490733
-0.02808702849464646   -0.3914412252585843   -0.008340222207190887
-0.039860888131631585   -0.39249884406522584   -0.010945556454049748
-0.04511739404047009   -0.39006641725755203   -0.01099125146887166
-0.02609666826119761   -0.3907489217406856   -0.009646668345903074
-0.03882406358358371   -0.3921033043752647   -0.011353354739347921
-0.043219383502857256   -0.3901002117457028   -0.01222995248557009
-0.02609666826119761   -0.3907489217406856   -0.009646668345903074
-0.029088751027187103   -0.39242746416792507   -0.010440869319490733
-0.03882406358358371   -0.3921033043752647   -0.011353354739347921
-0.028171159654705992   -0.39222442258004137   -0.01095536909670458
-0.043219383502857256   -0.3901002117457028   -0.01222995248557009
-0.03767715556778928   -0.39211902884864674   -0.011765219541150722
-0.028171159654705992   -0.39222442258004137   -0.01095536909670458
-0.03882406358358371   -0.3921033043752647   -0.011353354739347921
-0.043219383502857256   -0.3901002117457028   -0.01222995248557009
-0.028171159654705992   -0.39222442258004137   -0.01095536909670458
-0.02443956045286428   -0.39053140478829457   -0.01089867299364363
-0.02609666826119761   -0.3907489217406856   -0.009646668345903074
-0.043219383502857256   -0.3901002117457028   -0.01222995248557009
-0.028171159654705992   -0.39222442258004137   -0.01095536909670458
-0.02609666826119761   -0.3907489217406856   -0.009646668345903074
-0.03882406358358371   -0.3921033043752647   -0.011353354739347921
-0.043219383502857256   -0.3901002117457028   -0.01222995248557009
-0.02443956045286428   -0.39053140478829457   -0.01089867299364363
-0.03767715556778928   -0.39211902884864674   -0.011765219541150722
-0.04096921316717247   -0.3906401270315079   -0.013495441765504428
-0.02443956045286428   -0.39053140478829457   -0.01089867299364363
-0.028171159654705992   -0.39222442258004137   -0.01095536909670458
-0.03767715556778928   -0.39211902884864674   -0.011765219541150722
-0.027384570051663747   -0.39236060948491414   -0.011423268174799859
-0.04096921316717247   -0.3906401270315079   -0.013495441765504428
-0.03661091699113974   -0.39254774859153974   -0.012182884317766502
-0.027384570051663747   -0.39236060948491414   -0.011423268174799859
-0.03767715556778928   -0.39211902884864674   -0.011765219541150722
-0.04096921316717247   -0.3906401270315079   -0.013495441765504428
-0.027384570051663747   -0.39236060948491414   -0.011423268174799859
-0.022566761424303246   -0.39070150337563914   -0.012090535865674847
-0.02443956045286428   -0.39053140478829457   -0.01089867299364363
-0.04096921316717247   -0.3906401270315079   -0.013495441765504428
-0.027384570051663747   -0.39236060948491414   -0.011423268174799859
-0.02443956045286428   -0.39053140478829457   -0.01089867299364363
-0.03767715556778928   -0.39211902884864674   -0.011765219541150722
-0.039860888131631585   -0.39249884406522584   -0.010945556454049748
-0.029871828973220074   -0.3929669756541349   -0.009882526578838736
-0.034415467260895304   -0.39450702051804765   -0.012005432485572995
-0.03882406358358371   -0.3921033043752647   -0.011353354739347921
-0.029871828973220074   -0.3929669756541349   -0.009882526578838736
-0.03225387216581119   -0.39391673195551946   -0.011116654267392403
-0.034415467260895304   -0.39450702051804765   -0.012005432485572995
-0.03156023771306271   -0.3934352566004936   -0.011132192861366703
-0.03882406358358371   -0.3921033043752647   -0.011353354739347921
-0.03332018992361889   -0.3941019160487245   -0.011715728126771876
-0.03156023771306271   -0.3934352566004936   -0.011132192861366703
-0.034415467260895304   -0.39450702051804765   -0.012005432485572995
-0.03882406358358371   -0.3921033043752647   -0.011353354739347921
-0.03156023771306271   -0.3934352566004936   -0.011132192861366703
-0.029088751027187103   -0.39242746416792507   -0.010440869319490733
-0.029871828973220074   -0.3929669756541349   -0.009882526578838736
-0.03882406358358371   -0.3921033043752647   -0.011353354739347921
-0.03156023771306271   -0.3934352566004936   -0.011132192861366703
-0.029871828973220074   -0.3929669756541349   -0.009882526578838736
-0.034415467260895304   -0.39450702051804765   -0.012005432485572995
-0.03882406358358371   -0.3921033043752647   -0.011353354739347921
-0.029088751027187103   -0.39242746416792507   -0.010440869319490733
-0.03332018992361889   -0.3941019160487245   -0.011715728126771876
-0.03767715556778928   -0.39211902884864674   -0.011765219541150722
-0.029088751027187103   -0.39242746416792507   -0.010440869319490733
-0.03156023771306271   -0.3934352566004936   -0.011132192861366703
-0.03332018992361889   -0.3941019160487245   -0.011715728126771876
-0.030787938456847457   -0.393258573355594   -0.011090881592558213
-0.03767715556778928   -0.39211902884864674   -0.011765219541150722
-0.0322618472526154   -0.3940918061601236   -0.01142232560555147
-0.030787938456847457   -0.393258573355594   -0.011090881592558213
-0.03332018992361889   -0.3941019160487245   -0.011715728126771876
-0.03767715556778928   -0.39211902884864674   -0.011765219541150722
-0.030787938456847457   -0.393258573355594   -0.011090881592558213
-0.028171159654705992   -0.39222442258004137   -0.01095536909670458
-0.029088751027187103   -0.39242746416792507   -0.010440869319490733
-0.03767715556778928   -0.39211902884864674   -0.011765219541150722
-0.030787938456847457   -0.393258573355594   -0.011090881592558213
-0.029088751027187103   -0.39242746416792507   -0.010440869319490733
-0.03332018992361889   -0.3941019160487245   -0.011715728126771876
-0.03767715556778928   -0.39211902884864674   -0.011765219541150722
-0.028171159654705992   -0.39222442258004137   -0.01095536909670458
-0.0322618472526154   -0.3940918061601236   -0.01142232560555147
-0.03661091699113974   -0.39254774859153974   -0.012182884317766502
-0.028171159654705992   -0.39222442258004137   -0.01095536909670458
-0.030787938456847457   -0.393258573355594   -0.011090881592558213
-0.0322618472526154   -0.3940918061601236   -0.01142232560555147
-0.030002435713356774   -0.39337242356016805   -0.011004975676581132
-0.03661091699113974   -0.39254774859153974   -0.012182884317766502
-0.031157995279169876   -0.3944682690951953   -0.011140276624616027
-0.030002435713356774   -0.39337242356016805   -0.011004975676581132
-0.0322618472526154   -0.3940918061601236   -0.01142232560555147
-0.03661091699113974   -0.39254774859153974   -0.012182884317766502
-0.030002435713356774   -0.39337242356016805   -0.011004975676581132
-0.027384570051663747   -0.39236060948491414   -0.011423268174799859
-0.028171159654705992   -0.39222442258004137   -0.01095536909670458
-0.03661091699113974   -0.39254774859153974   -0.012182884317766502
-0.030002435713356774   -0.39337242356016805   -0.011004975676581132
-0.028171159654705992   -0.39222442258004137   -0.01095536909670458
-0.0322618472526154   -0.3940918061601236   -0.01142232560555147
-0.034415467260895304   -0.39450702051804765   -0.012005432485572995
-0.03225387216581119   -0.39391673195551946   -0.011116654267392403
-0.02944776220923355   -0.3969450483660243   -0.01317060839399373
-0.03332018992361889   -0.3941019160487245   -0.011715728126771876
-0.03225387216581119   -0.39391673195551946   -0.011116654267392403
-0.034803008159278344   -0.39432590868910833   -0.012330279503306939
-0.02944776220923355   -0.3969450483660243   -0.01317060839399373
-0.03408451533766463   -0.3938676363259084   -0.011823965604736924
-0.03332018992361889   -0.3941019160487245   -0.011715728126771876
-0.028104187277426307   -0.3965950046147284   -0.012143980343021797
-0.03408451533766463   -0.3938676363259084   -0.011823965604736924
-0.02944776220923355   -0.3969450483660243   -0.01317060839399373
-0.03332018992361889   -0.3941019160487245   -0.011715728126771876
-0.03408451533766463   -0.3938676363259084   -0.011823965604736924
-0.03156023771306271   -0.3934352566004936   -0.011132192861366703
-0.03225387216581119   -0.39391673195551946   -0.011116654267392403
-0.03332018992361889   -0.3941019160487245   -0.011715728126771876
-0.03408451533766463   -0.3938676363259084   -0.011823965604736924
-0.03225387216581119   -0.39391673195551946   -0.011116654267392403
-0.02944776220923355   -0.3969450483660243   -0.01317060839399373
-0.03332018992361889   -0.3941019160487245   -0.011715728126771876
-0.03156023771306271   -0.3934352566004936   -0.011132192861366703
-0.028104187277426307   -0.3965950046147284   -0.012143980343021797
-0.0322618472526154   -0.3940918061601236   -0.01142232560555147
-0.03156023771306271   -0.3934352566004936   -0.011132192861366703
-0.03408451533766463   -0.3938676363259084   -0.011823965604736924
-0.028104187277426307   -0.3965950046147284   -0.012143980343021797
-0.03322199647047414   -0.3937192235537318   -0.011248437758855288
-0.0322618472526154   -0.3940918061601236   -0.01142232560555147
-0.026860230891233714   -0.39657461052477677   -0.011121410223618573
-0.03322199647047414   -0.3937192235537318   -0.011248437758855288
-0.028104187277426307   -0.3965950046147284   -0.012143980343021797
-0.0322618472526154   -0.3940918061601236   -0.01142232560555147
-0.03322199647047414   -0.3937192235537318   -0.011248437758855288
-0.030787938456847457   -0.393258573355594   -0.011090881592558213
-0.03156023771306271   -0.3934352566004936   -0.011132192861366703
-0.0322618472526154   -0.3940918061601236   -0.01142232560555147
-0.03322199647047414   -0.3937192235537318   -0.011248437758855288
-0.03156023771306271   -0.3934352566004936   -0.011132192861366703
-0.028104187277426307   -0.3965950046147284   -0.012143980343021797
-0.0322618472526154   -0.3940918061601236   -0.01142232560555147
-0.030787938456847457   -0.393258573355594   -0.011090881592558213
-0.026860230891233714   -0.39657461052477677   -0.011121410223618573
-0.031157995279169876   -0.3944682690951953   -0.011140276624616027
-0.030787938456847457   -0.393258573355594   -0.011090881592558213
-0.03322199647047414   -0.3937192235537318   -0.011248437758855288
-0.026860230891233714   -0.39657461052477677   -0.011121410223618573
-0.0323345600738638   -0.3938311489781686   -0.01063500576951998
-0.031157995279169876   -0.3944682690951953   -0.011140276624616027
-0.02552343766080824   -0.3968656283464978   -0.010095561779306858
-0.0323345600738638   -0.3938311489781686   -0.01063500576951998
-0.026860230891233714   -0.39657461052477677   -0.011121410223618573
-0.031157995279169876   -0.3944682690951953   -0.011140276624616027
-0.0323345600738638   -0.3938311489781686   -0.01063500576951998
-0.030002435713356774   -0.39337242356016805   -0.011004975676581132
-0.030787938456847457   -0.393258573355594   -0.011090881592558213
-0.031157995279169876   -0.3944682690951953   -0.011140276624616027
-0.0323345600738638   -0.3938311489781686   -0.01063500576951998
-0.030787938456847457   -0.393258573355594   -0.011090881592558213
-0.026860230891233714   -0.39657461052477677   -0.011121410223618573
-0.02944776220923355   -0.3969450483660243   -0.01317060839399373
-0.034803008159278344   -0.39432590868910833   -0.012330279503306939
-0.024558703651706003   -0.4   -0.014058060824315896
-0.028104187277426307   -0.3965950046147284   -0.012143980343021797
-0.034803008159278344   -0.39432590868910833   -0.012330279503306939
-0.03849193159883106   -0.3939139006522545   -0.013480614106504155
-0.024558703651706003   -0.4   -0.014058060824315896
-0.03755309975737842   -0.3934827720786499   -0.012478082160334237
-0.028104187277426307   -0.3965950046147284   -0.012143980343021797
-0.022871012672211897   -0.4   -0.01250485561158205
-0.03755309975737842   -0.3934827720786499   -0.012478082160334237
-0.024558703651706003   -0.4   -0.014058060824315896
-0.028104187277426307   -0.3965950046147284   -0.012143980343021797
-0.03755309975737842   -0.3934827720786499   -0.012478082160334237
-0.03408451533766463   -0.3938676363259084   -0.011823965604736924
-0.034803008159278344   -0.39432590868910833   -0.012330279503306939
-0.028104187277426307   -0.3965950046147284   -0.012143980343021797
-0.03755309975737842   -0.3934827720786499   -0.012478082160334237
-0.034803008159278344   -0.39432590868910833   -0.012330279503306939
-0.024558703651706003   -0.4   -0.014058060824315896
-0.028104187277426307   -0.3965950046147284   -0.012143980343021797
-0.03408451533766463   -0.3938676363259084   -0.011823965604736924
-0.022871012672211897   -0.4   -0.01250485561158205
-0.026860230891233714   -0.39657461052477677   -0.011121410223618573
-0.03408451533766463   -0.3938676363259084   -0.011823965604736924
-0.03755309975737842   -0.3934827720786499   -0.012478082160334237
-0.022871012672211897   -0.4   -0.01250485561158205
-0.03631604316655438   -0.3933826288863889   -0.011398736303083594
-0.026860230891233714   -0.39657461052477677   -0.011121410223618573
-0.02117706190738554   -0.4   -0.010933170770013951
-0.03631604316655438   -0.3933826288863889   -0.011398736303083594
-0.022871012672211897   -0.4   -0.01250485561158205
-0.026860230891233714   -0.39657461052477677   -0.011121410223618573
-0.03631604316655438   -0.3933826288863889   -0.011398736303083594
-0.03322199647047414   -0.3937192235537318   -0.011248437758855288
-0.03408451533766463   -0.3938676363259084   -0.011823965604736924
-0.026860230891233714   -0.39657461052477677   -0.011121410223618573
-0.03631604316655438   -0.3933826288863889   -0.011398736303083594
-0.03408451533766463   -0.3938676363259084   -0.011823965604736924
-0.022871012672211897   -0.4   -0.01250485561158205
-0.026860230891233714   -0.39657461052477677   -0.011121410223618573
-0.03322199647047414   -0.3937192235537318   -0.011248437758855288
-0.02117706190738554   -0.4   -0.010933170770013951
-0.02552343766080824   -0.3968656283464978   -0.010095561779306858
-0.03322199647047414   -0.3937192235537318   -0.011248437758855288
-0.03631604316655438   -0.3933826288863889   -0.011398736303083594
-0.02117706190738554   -0.4   -0.010933170770013951
-0.03514971245594997   -0.3935489768118431   -0.010277137845769242
-0.02552343766080824   -0.3968656283464978   -0.010095561779306858
-0.019518974978460966   -0.4   -0.00938211262459425
-0.03514971245594997   -0.3935489768118431   -0.010277137845769242
-0.02117706190738554   -0.4   -0.010933170770013951
-0.02552343766080824   -0.3968656283464978   -0.010095561779306858
-0.03514971245594997   -0.3935489768118431   -0.010277137845769242
-0.0323345600738638   -0.3938311489781686   -0.01063500576951998
-0.03322199647047414   -0.3937192235537318   -0.011248437758855288
-0.02552343766080824   -0.3968656283464978   -0.010095561779306858
-0.03514971245594997   -0.3935489768118431   -0.010277137845769242
-0.03322199647047414   -0.3937192235537318   -0.011248437758855288
-0.02117706190738554   -0.4   -0.010933170770013951
-0.024558703651706003   -0.4   -0.014058060824315896
-0.03849193159883106   -0.3939139006522545   -0.013480614106504155
-0.021031521507365557   -0.4   -0.015132909547172411
-0.022871012672211897   -0.4   -0.01250485561158205
-0.03849193159883106   -0.3939139006522545   -0.013480614106504155
-0.0456254270907319   -0.391982803240953   -0.01469515543308149
-0.021031521507365557   -0.4   -0.015132909547172411
-0.043148043299096585   -0.3916220486084736   -0.013049994074440272
-0.022871012672211897   -0.4   -0.01250485561158205
-0.017517052619423604   -0.4   -0.012889089932801207
-0.043148043299096585   -0.3916220486084736   -0.013049994074440272
-0.021031521507365557   -0.4   -0.015132909547172411
-0.022871012672211897   -0.4   -0.01250485561158205
-0.043148043299096585   -0.3916220486084736   -0.013049994074440272
-0.03755309975737842   -0.3934827720786499   -0.012478082160334237
-0.03849193159883106   -0.3939139006522545   -0.013480614106504155
-0.022871012672211897   -0.4   -0.01250485561158205
-0.043148043299096585   -0.3916220486084736   -0.013049994074440272
-0.03849193159883106   -0.3939139006522545   -0.013480614106504155
-0.021031521507365557   -0.4   -0.015132909547172411
-0.022871012672211897   -0.4   -0.01250485561158205
-0.03755309975737842   -0.3934827720786499   -0.012478082160334237
-0.017517052619423604   -0.4   -0.012889089932801207
-0.02117706190738554   -0.4   -0.010933170770013951
-0.03755309975737842   -0.3934827720786499   -0.012478082160334237
-0.043148043299096585   -0.3916220486084736   -0.013049994074440272
-0.017517052619423604   -0.4   -0.012889089932801207
-0.04086800333465855   -0.39157077256778655   -0.011292230494455192
-0.02117706190738554   -0.4   -0.010933170770013951
-0.01471417119682679   -0.4   -0.01074241508396068
-0.04086800333465855   -0.39157077256778655   -0.011292230494455192
-0.017517052619423604   -0.4   -0.012889089932801207
-0.02117706190738554   -0.4   -0.010933170770013951
-0.04086800333465855   -0.39157077256778655   -0.011292230494455192
-0.03631604316655438   -0.3933826288863889   -0.011398736303083594
-0.03755309975737842   -0.3934827720786499   -0.012478082160334237
-0.02117706190738554   -0.4   -0.010933170770013951
-0.04086800333465855   -0.39157077256778655   -0.011292230494455192
-0.03755309975737842   -0.3934827720786499   -0.012478082160334237
-0.017517052619423604   -0.4   -0.012889089932801207
-0.02117706190738554   -0.4   -0.010933170770013951
-0.03631604316655438   -0.3933826288863889   -0.011398736303083594
-0.01471417119682679   -0.4   -0.01074241508396068
-0.019518974978460966   -0.4   -0.00938211262459425
-0.03631604316655438   -0.3933826288863889   -0.011398736303083594
-0.04086800333465855   -0.39157077256778655   -0.011292230494455192
-0.01471417119682679   -0.4   -0.01074241508396068
-0.03798926712262862   -0.3920449368081222   -0.009452381159295175
-0.019518974978460966   -0.4   -0.00938211262459425
-0.011251180363536837   -0.4   -0.008514082926710806
-0.03798926712262862   -0.3920449368081222   -0.009452381159295175
-0.01471417119682679   -0.4   -0.01074241508396068
-0.019518974978460966   -0.4   -0.00938211262459425
-0.03798926712262862   -0.3920449368081222   -0.009452381159295175
-0.03514971245594997   -0.3935489768118431   -0.010277137845769242
-0.03631604316655438   -0.3933826288863889   -0.011398736303083594
-0.019518974978460966   -0.4   -0.00938211262459425
-0.03798926712262862   -0.3920449368081222   -0.009452381159295175
-0.03631604316655438   -0.3933826288863889   -0.011398736303083594
-0.01471417119682679   -0.4   -0.01074241508396068
-0.02808702849464646   -0.3914412252585843   -0.008340222207190887
-0.011213685477843235   -0.3764518914822019   -0.00721378664526295
-0.029871828973220074   -0.3929669756541349   -0.009882526578838736
-0.02609666826119761   -0.3907489217406856   -0.009646668345903074
-0.011213685477843235   -0.3764518914822019   -0.00721378664526295
-0.02132958530724479   -0.37759806703941334   -0.008850726376733562
-0.029871828973220074   -0.3929669756541349   -0.009882526578838736
-0.02077428673222817   -0.37694555962459564   -0.009347423511742768
-0.02609666826119761   -0.3907489217406856   -0.009646668345903074
-0.029088751027187103   -0.39242746416792507   -0.010440869319490733
-0.02077428673222817   -0.37694555962459564   -0.009347423511742768
-0.029871828973220074   -0.3929669756541349   -0.009882526578838736
-0.02609666826119761   -0.3907489217406856   -0.009646668345903074
-0.02077428673222817   -0.37694555962459564   -0.009347423511742768
-0.009631022723283554   -0.37564528446048195   -0.008339850640273207
-0.011213685477843235   -0.3764518914822019   -0.00721378664526295
-0.02609666826119761   -0.3907489217406856   -0.009646668345903074
-0.02077428673222817   -0.37694555962459564   -0.009347423511742768
-0.011213685477843235   -0.3764518914822019   -0.00721378664526295
-0.029871828973220074   -0.3929669756541349   -0.009882526578838736
-0.02609666826119761   -0.3907489217406856   -0.009646668345903074
-0.009631022723283554   -0.37564528446048195   -0.008339850640273207
-0.029088751027187103   -0.39242746416792507   -0.010440869319490733
-0.02443956045286428   -0.39053140478829457   -0.01089867299364363
-0.009631022723283554   -0.37564528446048195   -0.008339850640273207
-0.02077428673222817   -0.37694555962459564   -0.009347423511742768
-0.029088751027187103   -0.39242746416792507   -0.010440869319490733
-0.020150248785446766   -0.37657992913807065   -0.00979873740837311
-0.02443956045286428   -0.39053140478829457   -0.01089867299364363
-0.028171159654705992   -0.39222442258004137   -0.01095536909670458
-0.020150248785446766   -0.37657992913807065   -0.00979873740837311
-0.029088751027187103   -0.39242746416792507   -0.010440869319490733
-0.02443956045286428   -0.39053140478829457   -0.01089867299364363
-0.020150248785446766   -0.37657992913807065   -0.00979873740837311
-0.008385765380592944   -0.3752564538844512   -0.009398608291197217
-0.009631022723283554   -0.37564528446048195   -0.008339850640273207
-0.02443956045286428   -0.39053140478829457   -0.01089867299364363
-0.020150248785446766   -0.37657992913807065   -0.00979873740837311
-0.009631022723283554   -0.37564528446048195   -0.008339850640273207
-0.029088751027187103   -0.39242746416792507   -0.010440869319490733
-0.02443956045286428   -0.39053140478829457   -0.01089867299364363
-0.008385765380592944   -0.3752564538844512   -0.009398608291197217
-0.028171159654705992   -0.39222442258004137   -0.01095536909670458
-0.022566761424303246   -0.39070150337563914   -0.012090535865674847
-0.008385765380592944   -0.3752564538844512   -0.009398608291197217
-0.020150248785446766   -0.37657992913807065   -0.00979873740837311
-0.028171159654705992   -0.39222442258004137   -0.01095536909670458
-0.01967147067901172   -0.37649101323219925   -0.010206079858096238
-0.022566761424303246   -0.39070150337563914   -0.012090535865674847
-0.027384570051663747   -0.39236060948491414   -0.011423268174799859
-0.01967147067901172   -0.37649101323219925   -0.010206079858096238
-0.028171159654705992   -0.39222442258004137   -0.01095536909670458
-0.022566761424303246   -0.39070150337563914   -0.012090535865674847
-0.01967147067901172   -0.37649101323219925   -0.010206079858096238
-0.007028367027147572   -0.3751745998019785   -0.010387166039647028
-0.008385765380592944   -0.3752564538844512   -0.009398608291197217
-0.022566761424303246   -0.39070150337563914   -0.012090535865674847
-0.01967147067901172   -0.37649101323219925   -0.010206079858096238
-0.008385765380592944   -0.3752564538844512   -0.009398608291197217
-0.028171159654705992   -0.39222442258004137   -0.01095536909670458
-0.029871828973220074   -0.3929669756541349   -0.009882526578838736
-0.02132958530724479   -0.37759806703941334   -0.008850726376733562
-0.03225387216581119   -0.39391673195551946   -0.011116654267392403
-0.029088751027187103   -0.39242746416792507   -0.010440869319490733
-0.02132958530724479   -0.37759806703941334   -0.008850726376733562
-0.03129700711463711   -0.3780040730224918   -0.010187715386693464
-0.03225387216581119   -0.39391673195551946   -0.011116654267392403
-0.030829406768348635   -0.3774346595735474   -0.010216074656000301
-0.029088751027187103   -0.39242746416792507   -0.010440869319490733
-0.03156023771306271   -0.3934352566004936   -0.011132192861366703
-0.030829406768348635   -0.3774346595735474   -0.010216074656000301
-0.03225387216581119   -0.39391673195551946   -0.011116654267392403
-0.029088751027187103   -0.39242746416792507   -0.010440869319490733
-0.030829406768348635   -0.3774346595735474   -0.010216074656000301
-0.02077428673222817   -0.37694555962459564   -0.009347423511742768
-0.02132958530724479   -0.37759806703941334   -0.008850726376733562
-0.029088751027187103   -0.39242746416792507   -0.010440869319490733
-0.030829406768348635   -0.3774346595735474   -0.010216074656000301
-0.02132958530724479   -0.37759806703941334   -0.008850726376733562
-0.03225387216581119   -0.39391673195551946   -0.011116654267392403
-0.029088751027187103   -0.39242746416792507   -0.010440869319490733
-0.02077428673222817   -0.37694555962459564   -0.009347423511742768
-0.03156023771306271   -0.3934352566004936   -0.011132192861366703
-0.028171159654705992   -0.39222442258004137   -0.01095536909670458
-0.02077428673222817   -0.37694555962459564   -0.009347423511742768
-0.030829406768348635   -0.3774346595735474   -0.010216074656000301
-0.03156023771306271   -0.3934352566004936   -0.011132192861366703
-0.03034590386656977   -0.3771239089766909   -0.01020242027036873
-0.028171159654705992   -0.39222442258004137   -0.01095536909670458
-0.030787938456847457   -0.393258573355594   -0.011090881592558213
-0.03034590386656977   -0.3771239089766909   -0.01020242027036873
-0.03156023771306271   -0.3934352566004936   -0.011132192861366703
-0.028171159654705992   -0.39222442258004137   -0.01095536909670458
-0.03034590386656977   -0.3771239089766909   -0.01020242027036873
-0.020150248785446766   -0.37657992913807065   -0.00979873740837311
-0.02077428673222817   -0.37694555962459564   -0.009347423511742768
-0.028171159654705992   -0.39222442258004137   -0.01095536909670458
-0.03034590386656977   -0.3771239089766909   -0.01020242027036873
-0.02077428673222817   -0.37694555962459564   -0.009347423511742768
-0.03156023771306271   -0.3934352566004936   -0.011132192861366703
-0.028171159654705992   -0.39222442258004137   -0.01095536909670458
-0.020150248785446766   -0.37657992913807065   -0.00979873740837311
-0.030787938456847457   -0.393258573355594   -0.011090881592558213
-0.027384570051663747   -0.39236060948491414   -0.011423268174799859
-0.020150248785446766   -0.37657992913807065   -0.00979873740837311
-0.03034590386656977   -0.3771239089766909   -0.01020242027036873
-0.030787938456847457   -0.393258573355594   -0.011090881592558213
-0.029879459821807036   -0.3770590749139215   -0.010146282807068183
-0.027384570051663747   -0.39236060948491414   -0.011423268174799859
-0.030002435713356774   -0.39337242356016805   -0.011004975676581132
-0.029879459821807036   -0.3770590749139215   -0.010146282807068183
-0.030787938456847457   -0.393258573355594   -0.011090881592558213
-0.027384570051663747   -0.39236060948491414   -0.011423268174799859
-0.029879459821807036   -0.3770590749139215   -0.010146282807068183
-0.01967147067901172   -0.37649101323219925   -0.010206079858096238
-0.020150248785446766   -0.37657992913807065   -0.00979873740837311
-0.027384570051663747   -0.39236060948491414   -0.011423268174799859
-0.029879459821807036   -0.3770590749139215   -0.010146282807068183
-0.020150248785446766   -0.37657992913807065   -0.00979873740837311
-0.030787938456847457   -0.393258573355594   -0.011090881592558213
-0.03225387216581119   -0.39391673195551946   -0.011116654267392403
-0.03129700711463711   -0.3780040730224918   -0.010187715386693464
-0.034803008159278344   -0.39432590868910833   -0.012330279503306939
-0.03156023771306271   -0.3934352566004936   -0.011132192861366703
-0.03129700711463711   -0.3780040730224918   -0.010187715386693464
-0.04119275478756602   -0.37764667062930113   -0.011438553259598418
-0.034803008159278344   -0.39432590868910833   -0.012330279503306939
-0.04072884142846561   -0.3771413634723542   -0.011018006722782362
-0.03156023771306271   -0.3934352566004936   -0.011132192861366703
-0.03408451533766463   -0.3938676363259084   -0.011823965604736924
-0.04072884142846561   -0.3771413634723542   -0.011018006722782362
-0.034803008159278344   -0.39432590868910833   -0.012330279503306939
-0.03156023771306271   -0.3934352566004936   -0.011132192861366703
-0.04072884142846561   -0.3771413634723542   -0.011018006722782362
-0.030829406768348635   -0.3774346595735474   -0.010216074656000301
-0.03129700711463711   -0.3780040730224918   -0.010187715386693464
-0.03156023771306271   -0.3934352566004936   -0.011132192861366703
-0.04072884142846561   -0.3771413634723542   -0.011018006722782362
-0.03129700711463711   -0.3780040730224918   -0.010187715386693464
-0.034803008159278344   -0.39432590868910833   -0.012330279503306939
-0.03156023771306271   -0.3934352566004936   -0.011132192861366703
-0.030829406768348635   -0.3774346595735474   -0.010216074656000301
-0.03408451533766463   -0.3938676363259084   -0.011823965604736924
-0.030787938456847457   -0.393258573355594   -0.011090881592558213
-0.030829406768348635   -0.3774346595735474   -0.010216074656000301
-0.04072884142846561   -0.3771413634723542   -0.011018006722782362
-0.03408451533766463   -0.3938676363259084   -0.011823965604736924
-0.04020820042475924   -0.3768902926314186   -0.01055603438986478
-0.030787938456847457   -0.393258573355594   -0.011090881592558213
-0.03322199647047414   -0.3937192235537318   -0.011248437758855288
-0.04020820042475924   -0.3768902926314186   -0.01055603438986478
-0.03408451533766463   -0.3938676363259084   -0.011823965604736924
-0.030787938456847457   -0.393258573355594   -0.011090881592558213
-0.04020820042475924   -0.3768902926314186   -0.01055603438986478
-0.03034590386656977   -0.3771239089766909   -0.01020242027036873
-0.030829406768348635   -0.3774346595735474   -0.010216074656000301
-0.030787938456847457   -0.393258573355594   -0.011090881592558213
-0.04020820042475924   -0.3768902926314186   -0.01055603438986478
-0.030829406768348635   -0.3774346595735474   -0.010216074656000301
-0.03408451533766463   -0.3938676363259084   -0.011823965604736924
-0.030787938456847457   -0.393258573355594   -0.011090881592558213
-0.03034590386656977   -0.3771239089766909   -0.01020242027036873
-0.03322199647047414   -0.3937192235537318   -0.011248437758855288
-0.030002435713356774   -0.39337242356016805   -0.011004975676581132
-0.03034590386656977   -0.3771239089766909   -0.01020242027036873
-0.04020820042475924   -0.3768902926314186   -0.01055603438986478
-0.03322199647047414   -0.3937192235537318   -0.011248437758855288
-0.039685024828940006   -0.3768685715693213   -0.010047582859990084
-0.030002435713356774   -0.39337242356016805   -0.011004975676581132
-0.0323345600738638   -0.3938311489781686   -0.01063500576951998
-0.039685024828940006   -0.3768685715693213   -0.010047582859990084
-0.03322199647047414   -0.3937192235537318   -0.011248437758855288
-0.030002435713356774   -0.39337242356016805   -0.011004975676581132
-0.039685024828940006   -0.3768685715693213   -0.010047582859990084
-0.029879459821807036   -0.3770590749139215   -0.010146282807068183
-0.03034590386656977   -0.3771239089766909   -0.01020242027036873
-0.030002435713356774   -0.39337242356016805   -0.011004975676581132
-0.039685024828940006   -0.3768685715693213   -0.010047582859990084
-0.03034590386656977   -0.3771239089766909   -0.01020242027036873
-0.03322199647047414   -0.3937192235537318   -0.011248437758855288
-0.034803008159278344   -0.39432590868910833   -0.012330279503306939
-0.04119275478756602   -0.37764667062930113   -0.011438553259598418
-0.03849193159883106   -0.3939139006522545   -0.013480614106504155
-0.03408451533766463   -0.3938676363259084   -0.011823965604736924
-0.04119275478756602   -0.37764667062930113   -0.011438553259598418
-0.052072306807698865   -0.37647789257601866   -0.012586011838738741
-0.03849193159883106   -0.3939139006522545   -0.013480614106504155
-0.05150547197721051   -0.3760371352239594   -0.011726961951732397
-0.03408451533766463   -0.3938676363259084   -0.011823965604736924
-0.03755309975737842   -0.3934827720786499   -0.012478082160334237
-0.05150547197721051   -0.3760371352239594   -0.011726961951732397
-0.03849193159883106   -0.3939139006522545   -0.013480614106504155
-0.03408451533766463   -0.3938676363259084   -0.011823965604736924
-0.05150547197721051   -0.3760371352239594   -0.011726961951732397
-0.04072884142846561   -0.3771413634723542   -0.011018006722782362
-0.04119275478756602   -0.37764667062930113   -0.011438553259598418
-0.03408451533766463   -0.3938676363259084   -0.011823965604736924
-0.05150547197721051   -0.3760371352239594   -0.011726961951732397
-0.04119275478756602   -0.37764667062930113   -0.011438553259598418
-0.03849193159883106   -0.3939139006522545   -0.013480614106504155
-0.03408451533766463   -0.3938676363259084   -0.011823965604736924
-0.04072884142846561   -0.3771413634723542   -0.011018006722782362
-0.03755309975737842   -0.3934827720786499   -0.012478082160334237
-0.03322199647047414   -0.3937192235537318   -0.011248437758855288
-0.04072884142846561   -0.3771413634723542   -0.011018006722782362
-0.05150547197721051   -0.3760371352239594   -0.011726961951732397
-0.03755309975737842   -0.3934827720786499   -0.012478082160334237
-0.05072388086742333   -0.37584550368009045   -0.010829420240821142
-0.03322199647047414   -0.3937192235537318   -0.011248437758855288
-0.03631604316655438   -0.3933826288863889   -0.011398736303083594
-0.05072388086742333   -0.37584550368009045   -0.010829420240821142
-0.03755309975737842   -0.3934827720786499   -0.012478082160334237
-0.03322199647047414   -0.3937192235537318   -0.011248437758855288
-0.05072388086742333   -0.37584550368009045   -0.010829420240821142
-0.04020820042475924   -0.3768902926314186   -0.01055603438986478
-0.04072884142846561   -0.3771413634723542   -0.011018006722782362
-0.03322199647047414   -0.3937192235537318   -0.011248437758855288
-0.05072388086742333   -0.37584550368009045   -0.010829420240821142
-0.04072884142846561   -0.3771413634723542   -0.011018006722782362
-0.03755309975737842   -0.3934827720786499   -0.012478082160334237
-0.03322199647047414   -0.3937192235537318   -0.011248437758855288
-0.04020820042475924   -0.3768902926314186   -0.01055603438986478
-0.03631604316655438   -0.3933826288863889   -0.011398736303083594
-0.0323345600738638   -0.3938311489781686   -0.01063500576951998
-0.04020820042475924   -0.3768902926314186   -0.01055603438986478
-0.05072388086742333   -0.37584550368009045   -0.010829420240821142
-0.03631604316655438   -0.3933826288863889   -0.011398736303083594
-0.05003994138644335   -0.3759033912622839   -0.009868095989910753
-0.0323345600738638   -0.3938311489781686   -0.01063500576951998
-0.03514971245594997   -0.3935489768118431   -0.010277137845769242
-0.05003994138644335   -0.3759033912622839   -0.009868095989910753
-0.03631604316655438   -0.3933826288863889   -0.011398736303083594
-0.0323345600738638   -0.3938311489781686   -0.01063500576951998
-0.05003994138644335   -0.3759033912622839   -0.009868095989910753
-0.039685024828940006   -0.3768685715693213   -0.010047582859990084
-0.04020820042475924   -0.3768902926314186   -0.01055603438986478
-0.0323345600738638   -0.3938311489781686   -0.01063500576951998
-0.05003994138644335   -0.3759033912622839   -0.009868095989910753
-0.04020820042475924   -0.3768902926314186   -0.01055603438986478
-0.03631604316655438   -0.3933826288863889   -0.011398736303083594
-0.03849193159883106   -0.3939139006522545   -0.013480614106504155
-0.052072306807698865   -0.37647789257601866   -0.012586011838738741
-0.0456254270907319   -0.391982803240953   -0.01469515543308149
-0.03755309975737842   -0.3934827720786499   -0.012478082160334237
-0.052072306807698865   -0.37647789257601866   -0.012586011838738741
-0.06608412468465068   -0.3745770927047762   -0.01368278574125899
-0.0456254270907319   -0.391982803240953   -0.01469515543308149
-0.06427381692269059   -0.3741011832369857   -0.012326980648453799
-0.03755309975737842   -0.3934827720786499   -0.012478082160334237
-0.043148043299096585   -0.3916220486084736   -0.013049994074440272
-0.06427381692269059   -0.3741011832369857   -0.012326980648453799
-0.0456254270907319   -0.391982803240953   -0.01469515543308149
-0.03755309975737842   -0.3934827720786499   -0.012478082160334237
-0.06427381692269059   -0.3741011832369857   -0.012326980648453799
-0.05150547197721051   -0.3760371352239594   -0.011726961951732397
-0.052072306807698865   -0.37647789257601866   -0.012586011838738741
-0.03755309975737842   -0.3934827720786499   -0.012478082160334237
-0.06427381692269059   -0.3741011832369857   -0.012326980648453799
-0.052072306807698865   -0.37647789257601866   -0.012586011838738741
-0.0456254270907319   -0.391982803240953   -0.01469515543308149
-0.03755309975737842   -0.3934827720786499   -0.012478082160334237
-0.05150547197721051   -0.3760371352239594   -0.011726961951732397
-0.043148043299096585   -0.3916220486084736   -0.013049994074440272
-0.03631604316655438   -0.3933826288863889   -0.011398736303083594
-0.05150547197721051   -0.3760371352239594   -0.011726961951732397
-0.06427381692269059   -0.3741011832369857   -0.012326980648453799
-0.043148043299096585   -0.3916220486084736   -0.013049994074440272
-0.06264799470468245   -0.37392392921105094   -0.010890691032797722
-0.03631604316655438   -0.3933826288863889   -0.011398736303083594
-0.04086800333465855   -0.39157077256778655   -0.011292230494455192
-0.06264799470468245   -0.37392392921105094   -0.010890691032797722
-0.043148043299096585   -0.3916220486084736   -0.013049994074440272
-0.03631604316655438   -0.3933826288863889   -0.011398736303083594
-0.06264799470468245   -0.37392392921105094   -0.010890691032797722
-0.05072388086742333   -0.37584550368009045   -0.010829420240821142
-0.05150547197721051   -0.3760371352239594   -0.011726961951732397
-0.03631604316655438   -0.3933826288863889   -0.011398736303083594
-0.06264799470468245   -0.37392392921105094   -0.010890691032797722
-0.05150547197721051   -0.3760371352239594   -0.011726961951732397
-0.043148043299096585   -0.3916220486084736   -0.013049994074440272
-0.03631604316655438   -0.3933826288863889   -0.011398736303083594
-0.05072388086742333   -0.37584550368009045   -0.010829420240821142
-0.04086800333465855   -0.39157077256778655   -0.011292230494455192
-0.03514971245594997   -0.3935489768118431   -0.010277137845769242
-0.05072388086742333   -0.37584550368009045   -0.010829420240821142
-0.06264799470468245   -0.37392392921105094   -0.010890691032797722
-0.04086800333465855   -0.39157077256778655   -0.011292230494455192
-0.060540444577025954   -0.3741357611750136   -0.009387688426262725
-0.03514971245594997   -0.3935489768118431   -0.010277137845769242
-0.03798926712262862   -0.3920449368081222   -0.009452381159295175
-0.060540444577025954   -0.3741357611750136   -0.009387688426262725
-0.04086800333465855   -0.39157077256778655   -0.011292230494455192
-0.03514971245594997   -0.3935489768118431   -0.010277137845769242
-0.060540444577025954   -0.3741357611750136   -0.009387688426262725
-0.05003994138644335   -0.3759033912622839   -0.009868095989910753
-0.05072388086742333   -0.37584550368009045   -0.010829420240821142
-0.03514971245594997   -0.3935489768118431   -0.010277137845769242
-0.060540444577025954   -0.3741357611750136   -0.009387688426262725
-0.05072388086742333   -0.37584550368009045   -0.010829420240821142
-0.04086800333465855   -0.39157077256778655   -0.011292230494455192
-0.011213685477843235   -0.3764518914822019   -0.00721378664526295
0.0024266208855585154   -0.3490300155977809   -0.005973529618000824
-0.02132958530724479   -0.37759806703941334   -0.008850726376733562
-0.009631022723283554   -0.37564528446048195   -0.008339850640273207
0.0024266208855585154   -0.3490300155977809   -0.005973529618000824
-0.014569498737238866   -0.3498668265840821   -0.007579449820994016
-0.02132958530724479   -0.37759806703941334   -0.008850726376733562
-0.014276455133896405   -0.3491832669160702   -0.007972122735539197
-0.009631022723283554   -0.37564528446048195   -0.008339850640273207
-0.02077428673222817   -0.37694555962459564   -0.009347423511742768
-0.014276455133896405   -0.3491832669160702   -0.007972122735539197
-0.02132958530724479   -0.37759806703941334   -0.008850726376733562
-0.009631022723283554   -0.37564528446048195   -0.008339850640273207
-0.014276455133896405   -0.3491832669160702   -0.007972122735539197
0.0035266389216085116   -0.34821123431748535   -0.006866795645024619
0.0024266208855585154   -0.3490300155977809   -0.005973529618000824
-0.009631022723283554   -0.37564528446048195   -0.008339850640273207
-0.014276455133896405   -0.3491832669160702   -0.007972122735539197
0.0024266208855585154   -0.3490300155977809   -0.005973529618000824
-0.02132958530724479   -0.37759806703941334   -0.008850726376733562
-0.009631022723283554   -0.37564528446048195   -0.008339850640273207
0.0035266389216085116   -0.34821123431748535   -0.006866795645024619
-0.02077428673222817   -0.37694555962459564   -0.009347423511742768
-0.008385765380592944   -0.3752564538844512   -0.009398608291197217
0.0035266389216085116   -0.34821123431748535   -0.006866795645024619
-0.014276455133896405   -0.3491832669160702   -0.007972122735539197
-0.02077428673222817   -0.37694555962459564   -0.009347423511742768
-0.013943631626021719   -0.348732786528394   -0.008318419944146322
-0.008385765380592944   -0.3752564538844512   -0.009398608291197217
-0.020150248785446766   -0.37657992913807065   -0.00979873740837311
-0.013943631626021719   -0.348732786528394   -0.008318419944146322
-0.02077428673222817   -0.37694555962459564   -0.009347423511742768
-0.008385765380592944   -0.3752564538844512   -0.009398608291197217
-0.013943631626021719   -0.348732786528394   -0.008318419944146322
0.004335265569135159   -0.34773338629482   -0.0076951558820156874
0.0035266389216085116   -0.34821123431748535   -0.006866795645024619
-0.008385765380592944   -0.3752564538844512   -0.009398608291197217
-0.013943631626021719   -0.348732786528394   -0.008318419944146322
0.0035266389216085116   -0.34821123431748535   -0.006866795645024619
-0.02077428673222817   -0.37694555962459564   -0.009347423511742768
-0.008385765380592944   -0.3752564538844512   -0.009398608291197217
0.004335265569135159   -0.34773338629482   -0.0076951558820156874
-0.020150248785446766   -0.37657992913807065   -0.00979873740837311
-0.007028367027147572   -0.3751745998019785   -0.010387166039647028
0.004335265569135159   -0.34773338629482   -0.0076951558820156874
-0.013943631626021719   -0.348732786528394   -0.008318419944146322
-0.020150248785446766   -0.37657992913807065   -0.00979873740837311
-0.01374475601258154   -0.34850219596971416   -0.008622914272477399
-0.007028367027147572   -0.3751745998019785   -0.010387166039647028
-0.01967147067901172   -0.37649101323219925   -0.010206079858096238
-0.01374475601258154   -0.34850219596971416   -0.008622914272477399
-0.020150248785446766   -0.37657992913807065   -0.00979873740837311
-0.007028367027147572   -0.3751745998019785   -0.010387166039647028
-0.01374475601258154   -0.34850219596971416   -0.008622914272477399
0.00519853867514448   -0.3474907028858342   -0.008458253575356808
0.004335265569135159   -0.34773338629482   -0.0076951558820156874
-0.007028367027147572   -0.3751745998019785   -0.010387166039647028
-0.01374475601258154   -0.34850219596971416   -0.008622914272477399
0.004335265569135159   -0.34773338629482   -0.0076951558820156874
-0.020150248785446766   -0.37657992913807065   -0.00979873740837311
-0.02132958530724479   -0.37759806703941334   -0.008850726376733562
-0.014569498737238866   -0.3498668265840821   -0.007579449820994016
-0.03129700711463711   -0.3780040730224918   -0.010187715386693464
-0.02077428673222817   -0.37694555962459564   -0.009347423511742768
-0.014569498737238866   -0.3498668265840821   -0.007579449820994016
-0.030994705175130945   -0.3500264757349216   -0.008905305459985123
-0.03129700711463711   -0.3780040730224918   -0.010187715386693464
-0.030778649773457317   -0.34943905876314996   -0.008916147885672111
-0.02077428673222817   -0.37694555962459564   -0.009347423511742768
-0.030829406768348635   -0.3774346595735474   -0.010216074656000301
-0.030778649773457317   -0.34943905876314996   -0.008916147885672111
-0.03129700711463711   -0.3780040730224918   -0.010187715386693464
-0.02077428673222817   -0.37694555962459564   -0.009347423511742768
-0.030778649773457317   -0.34943905876314996   -0.008916147885672111
-0.014276455133896405   -0.3491832669160702   -0.007972122735539197
-0.014569498737238866   -0.3498668265840821   -0.007579449820994016
-0.02077428673222817   -0.37694555962459564   -0.009347423511742768
-0.030778649773457317   -0.34943905876314996   -0.008916147885672111
-0.014569498737238866   -0.3498668265840821   -0.007579449820994016
-0.03129700711463711   -0.3780040730224918   -0.010187715386693464
-0.02077428673222817   -0.37694555962459564   -0.009347423511742768
-0.014276455133896405   -0.3491832669160702   -0.007972122735539197
-0.030829406768348635   -0.3774346595735474   -0.010216074656000301
-0.020150248785446766   -0.37657992913807065   -0.00979873740837311
-0.014276455133896405   -0.3491832669160702   -0.007972122735539197
-0.030778649773457317   -0.34943905876314996   -0.008916147885672111
-0.030829406768348635   -0.3774346595735474   -0.010216074656000301
-0.030556596109123427   -0.34906032387611013   -0.008882594826646164
-0.020150248785446766   -0.37657992913807065   -0.00979873740837311
-0.03034590386656977   -0.3771239089766909   -0.01020242027036873
-0.030556596109123427   -0.34906032387611013   -0.008882594826646164
-0.030829406768348635   -0.3774346595735474   -0.010216074656000301
-0.020150248785446766   -0.37657992913807065   -0.00979873740837311
-0.030556596109123427   -0.34906032387611013   -0.008882594826646164
-0.013943631626021719   -0.348732786528394   -0.008318419944146322
-0.014276455133896405   -0.3491832669160702   -0.007972122735539197
-0.020150248785446766   -0.37657992913807065   -0.00979873740837311
-0.030556596109123427   -0.34906032387611013   -0.008882594826646164
-0.014276455133896405   -0.3491832669160702   -0.007972122735539197
-0.030829406768348635   -0.3774346595735474   -0.010216074656000301
-0.020150248785446766   -0.37657992913807065   -0.00979873740837311
-0.013943631626021719   -0.348732786528394   -0.008318419944146322
-0.03034590386656977   -0.3771239089766909   -0.01020242027036873
-0.01967147067901172   -0.37649101323219925   -0.010206079858096238
-0.013943631626021719   -0.348732786528394   -0.008318419944146322
-0.030556596109123427   -0.34906032387611013   -0.008882594826646164
-0.03034590386656977   -0.3771239089766909   -0.01020242027036873
-0.030362333050351388   -0.3488867220658631   -0.00880754485859484
-0.01967147067901172   -0.37649101323219925   -0.010206079858096238
-0.029879459821807036   -0.3770590749139215   -0.010146282807068183
-0.030362333050351388   -0.3488867220658631   -0.00880754485859484
-0.03034590386656977   -0.3771239089766909   -0.01020242027036873
-0.01967147067901172   -0.37649101323219925   -0.010206079858096238
-0.030362333050351388   -0.3488867220658631   -0.00880754485859484
-0.01374475601258154   -0.34850219596971416   -0.008622914272477399
-0.013943631626021719   -0.348732786528394   -0.008318419944146322
-0.01967147067901172   -0.37649101323219925   -0.010206079858096238
-0.030362333050351388   -0.3488867220658631   -0.00880754485859484
-0.013943631626021719   -0.348732786528394   -0.008318419944146322
-0.03034590386656977   -0.3771239089766909   -0.01020242027036873
-0.03129700711463711   -0.3780040730224918   -0.010187715386693464
-0.030994705175130945   -0.3500264757349216   -0.008905305459985123
-0.04119275478756602   -0.37764667062930113   -0.011438553259598418
-0.030829406768348635   -0.3774346595735474   -0.010216074656000301
-0.030994705175130945   -0.3500264757349216   -0.008905305459985123
-0.047158146388917126   -0.3495050729934707   -0.010102380060917588
-0.04119275478756602   -0.37764667062930113   -0.011438553259598418
-0.04695693417175549   -0.3489980347002509   -0.009740646107842274
-0.030829406768348635   -0.3774346595735474   -0.010216074656000301
-0.04072884142846561   -0.3771413634723542   -0.011018006722782362
-0.04695693417175549   -0.3489980347002509   -0.009740646107842274
-0.04119275478756602   -0.37764667062930113   -0.011438553259598418
-0.030829406768348635   -0.3774346595735474   -0.010216074656000301
-0.04695693417175549   -0.3489980347002509   -0.009740646107842274
-0.030778649773457317   -0.34943905876314996   -0.008916147885672111
-0.030994705175130945   -0.3500264757349216   -0.008905305459985123
-0.030829406768348635   -0.3774346595735474   -0.010216074656000301
-0.04695693417175549   -0.3489980347002509   -0.009740646107842274
-0.030994705175130945   -0.3500264757349216   -0.008905305459985123
-0.04119275478756602   -0.37764667062930113   -0.011438553259598418
-0.030829406768348635   -0.3774346595735474   -0.010216074656000301
-0.030778649773457317   -0.34943905876314996   -0.008916147885672111
-0.04072884142846561   -0.3771413634723542   -0.011018006722782362
-0.03034590386656977   -0.3771239089766909   -0.01020242027036873
-0.030778649773457317   -0.34943905876314996   -0.008916147885672111
-0.04695693417175549   -0.3489980347002509   -0.009740646107842274
-0.04072884142846561   -0.3771413634723542   -0.011018006722782362
-0.04671386419169015   -0.3486973644490712   -0.009335447966849438
-0.03034590386656977   -0.3771239089766909   -0.01020242027036873
-0.04020820042475924   -0.3768902926314186   -0.01055603438986478
-0.04671386419169015   -0.3486973644490712   -0.009335447966849438
-0.04072884142846561   -0.3771413634723542   -0.011018006722782362
-0.03034590386656977   -0.3771239089766909   -0.01020242027036873
-0.04671386419169015   -0.3486973644490712   -0.009335447966849438
-0.030556596109123427   -0.34906032387611013   -0.008882594826646164
-0.030778649773457317   -0.34943905876314996   -0.008916147885672111
-0.03034590386656977   -0.3771239089766909   -0.01020242027036873
-0.04671386419169015   -0.3486973644490712   -0.009335447966849438
-0.030778649773457317   -0.34943905876314996   -0.008916147885672111
-0.04072884142846561   -0.3771413634723542   -0.011018006722782362
-0.03034590386656977   -0.3771239089766909   -0.01020242027036873
-0.030556596109123427   -0.34906032387611013   -0.008882594826646164
-0.04020820042475924   -0.3768902926314186   -0.01055603438986478
-0.029879459821807036   -0.3770590749139215   -0.010146282807068183
-0.030556596109123427   -0.34906032387611013   -0.008882594826646164
-0.04671386419169015   -0.3486973644490712   -0.009335447966849438
-0.04020820042475924   -0.3768902926314186   -0.01055603438986478
-0.04647721289406295   -0.34859327311943206   -0.008888131892730952
-0.029879459821807036   -0.3770590749139215   -0.010146282807068183
-0.039685024828940006   -0.3768685715693213   -0.010047582859990084
-0.04647721289406295   -0.34859327311943206   -0.008888131892730952
-0.04020820042475924   -0.3768902926314186   -0.01055603438986478
-0.029879459821807036   -0.3770590749139215   -0.010146282807068183
-0.04647721289406295   -0.34859327311943206   -0.008888131892730952
-0.030362333050351388   -0.3488867220658631   -0.00880754485859484
-0.030556596109123427   -0.34906032387611013   -0.008882594826646164
-0.029879459821807036   -0.3770590749139215   -0.010146282807068183
-0.04647721289406295   -0.34859327311943206   -0.008888131892730952
-0.030556596109123427   -0.34906032387611013   -0.008882594826646164
-0.04020820042475924   -0.3768902926314186   -0.01055603438986478
-0.04119275478756602   -0.37764667062930113   -0.011438553259598418
-0.047158146388917126   -0.3495050729934707   -0.010102380060917588
-0.052072306807698865   -0.37647789257601866   -0.012586011838738741
-0.04072884142846561   -0.3771413634723542   -0.011018006722782362
-0.047158146388917126   -0.3495050729934707   -0.010102380060917588
-0.06410158575064592   -0.3483215918969954   -0.01116543186861235
-0.052072306807698865   -0.37647789257601866   -0.012586011838738741
-0.06383981097525135   -0.3478916454766332   -0.010430825150666111
-0.04072884142846561   -0.3771413634723542   -0.011018006722782362
-0.05150547197721051   -0.3760371352239594   -0.011726961951732397
-0.06383981097525135   -0.3478916454766332   -0.010430825150666111
-0.052072306807698865   -0.37647789257601866   -0.012586011838738741
-0.04072884142846561   -0.3771413634723542   -0.011018006722782362
-0.06383981097525135   -0.3478916454766332   -0.010430825150666111
-0.04695693417175549   -0.3489980347002509   -0.009740646107842274
-0.047158146388917126   -0.3495050729934707   -0.010102380060917588
-0.04072884142846561   -0.3771413634723542   -0.011018006722782362
-0.06383981097525135   -0.3478916454766332   -0.010430825150666111
-0.047158146388917126   -0.3495050729934707   -0.010102380060917588
-0.052072306807698865   -0.37647789257601866   -0.012586011838738741
-0.04072884142846561   -0.3771413634723542   -0.011018006722782362
-0.04695693417175549   -0.3489980347002509   -0.009740646107842274
-0.05150547197721051   -0.3760371352239594   -0.011726961951732397
-0.04020820042475924   -0.3768902926314186   -0.01055603438986478
-0.04695693417175549   -0.3489980347002509   -0.009740646107842274
-0.06383981097525135   -0.3478916454766332   -0.010430825150666111
-0.05150547197721051   -0.3760371352239594   -0.011726961951732397
-0.06339663164501756   -0.3476617559528147   -0.009659382802641604
-0.04020820042475924   -0.3768902926314186   -0.01055603438986478
-0.05072388086742333   -0.37584550368009045   -0.010829420240821142
-0.06339663164501756   -0.3476617559528147   -0.009659382802641604
-0.05150547197721051   -0.3760371352239594   -0.011726961951732397
-0.04020820042475924   -0.3768902926314186   -0.01055603438986478
-0.06339663164501756   -0.3476617559528147   -0.009659382802641604
-0.04671386419169015   -0.3486973644490712   -0.009335447966849438
-0.04695693417175549   -0.3489980347002509   -0.009740646107842274
-0.04020820042475924   -0.3768902926314186   -0.01055603438986478
-0.06339663164501756   -0.3476617559528147   -0.009659382802641604
-0.04695693417175549   -0.3489980347002509   -0.009740646107842274
-0.05150547197721051   -0.3760371352239594   -0.011726961951732397
-0.04020820042475924   -0.3768902926314186   -0.01055603438986478
-0.04671386419169015   -0.3486973644490712   -0.009335447966849438
-0.05072388086742333   -0.37584550368009045   -0.010829420240821142
-0.039685024828940006   -0.3768685715693213   -0.010047582859990084
-0.04671386419169015   -0.3486973644490712   -0.009335447966849438
-0.06339663164501756   -0.3476617559528147   -0.009659382802641604
-0.05072388086742333   -0.37584550368009045   -0.010829420240821142
-0.0630353978345805   -0.34764384180495816   -0.008839725267911035
-0.039685024828940006   -0.3768685715693213   -0.010047582859990084
-0.05003994138644335   -0.3759033912622839   -0.009868095989910753
-0.0630353978345805   -0.34764384180495816   -0.008839725267911035
-0.05072388086742333   -0.37584550368009045   -0.010829420240821142
-0.039685024828940006   -0.3768685715693213   -0.010047582859990084
-0.0630353978345805   -0.34764384180495816   -0.008839725267911035
-0.04647721289406295   -0.34859327311943206   -0.008888131892730952
-0.04671386419169015   -0.3486973644490712   -0.009335447966849438
-0.039685024828940006   -0.3768685715693213   -0.010047582859990084
-0.0630353978345805   -0.34764384180495816   -0.008839725267911035
-0.04671386419169015   -0.3486973644490712   -0.009335447966849438
-0.05072388086742333   -0.37584550368009045   -0.010829420240821142
-0.052072306807698865   -0.37647789257601866   -0.012586011838738741
-0.06410158575064592   -0.3483215918969954   -0.01116543186861235
-0.06608412468465068   -0.3745770927047762   -0.01368278574125899
-0.05150547197721051   -0.3760371352239594   -0.011726961951732397
-0.06410158575064592   -0.3483215918969954   -0.01116543186861235
-0.08386398480399279   -0.3466209823460712   -0.012153372232949187
-0.06608412468465068   -0.3745770927047762   -0.01368278574125899
-0.08253394347460317   -0.34617406999177075   -0.011004281108019827
-0.05150547197721051   -0.3760371352239594   -0.011726961951732397
-0.06427381692269059   -0.3741011832369857   -0.012326980648453799
-0.08253394347460317   -0.34617406999177075   -0.011004281108019827
-0.06608412468465068   -0.3745770927047762   -0.01368278574125899
-0.05150547197721051   -0.3760371352239594   -0.011726961951732397
-0.08253394347460317   -0.34617406999177075   -0.011004281108019827
-0.06383981097525135   -0.3478916454766332   -0.010430825150666111
-0.06410158575064592   -0.3483215918969954   -0.01116543186861235
-0.05150547197721051   -0.3760371352239594   -0.011726961951732397
-0.08253394347460317   -0.34617406999177075   -0.011004281108019827
-0.06410158575064592   -0.3483215918969954   -0.01116543186861235
-0.06608412468465068   -0.3745770927047762   -0.01368278574125899
-0.05150547197721051   -0.3760371352239594   -0.011726961951732397
-0.06383981097525135   -0.3478916454766332   -0.010430825150666111
-0.06427381692269059   -0.3741011832369857   -0.012326980648453799
-0.05072388086742333   -0.37584550368009045   -0.010829420240821142
-0.06383981097525135   -0.3478916454766332   -0.010430825150666111
-0.08253394347460317   -0.34617406999177075   -0.011004281108019827
-0.06427381692269059   -0.3741011832369857   -0.012326980648453799
-0.08137753621591794   -0.3459633849272217   -0.009794604518208194
-0.05072388086742333   -0.37584550368009045   -0.010829420240821142
-0.06264799470468245   -0.37392392921105094   -0.010890691032797722
-0.08137753621591794   -0.3459633849272217   -0.009794604518208194
-0.06427381692269059   -0.3741011832369857   -0.012326980648453799
-0.05072388086742333   -0.37584550368009045   -0.010829420240821142
-0.08137753621591794   -0.3459633849272217   -0.009794604518208194
-0.06339663164501756   -0.3476617559528147   -0.009659382802641604
-0.06383981097525135   -0.3478916454766332   -0.010430825150666111
-0.05072388086742333   -0.37584550368009045   -0.010829420240821142
-0.08137753621591794   -0.3459633849272217   -0.009794604518208194
-0.06383981097525135   -0.3478916454766332   -0.010430825150666111
-0.06427381692269059   -0.3741011832369857   -0.012326980648453799
-0.05072388086742333   -0.37584550368009045   -0.010829420240821142
-0.06339663164501756   -0.3476617559528147   -0.009659382802641604
-0.06264799470468245   -0.37392392921105094   -0.010890691032797722
-0.05003994138644335   -0.3759033912622839   -0.009868095989910753
-0.06339663164501756   -0.3476617559528147   -0.009659382802641604
-0.08137753621591794   -0.3459633849272217   -0.009794604518208194
-0.06264799470468245   -0.37392392921105094   -0.010890691032797722
-0.07981866866780708   -0.3460771923161541   -0.008532079088493565
-0.05003994138644335   -0.3759033912622839   -0.009868095989910753
-0.060540444577025954   -0.3741357611750136   -0.009387688426262725
-0.07981866866780708   -0.3460771923161541   -0.008532079088493565
-0.06264799470468245   -0.37392392921105094   -0.010890691032797722
-0.05003994138644335   -0.3759033912622839   -0.009868095989910753
-0.07981866866780708   -0.3460771923161541   -0.008532079088493565
-0.0630353978345805   -0.34764384180495816   -0.008839725267911035
-0.06339663164501756   -0.3476617559528147   -0.009659382802641604
-0.05003994138644335   -0.3759033912622839   -0.009868095989910753
-0.07981866866780708   -0.3460771923161541   -0.008532079088493565
-0.06339663164501756   -0.3476617559528147   -0.009659382802641604
-0.06264799470468245   -0.37392392921105094   -0.010890691032797722
0.0024266208855585154   -0.3490300155977809   -0.005973529618000824
0.012738665546532663   -0.3119154834552855   -0.004554300248200783
-0.014569498737238866   -0.3498668265840821   -0.007579449820994016
0.0035266389216085116   -0.34821123431748535   -0.006866795645024619
0.012738665546532663   -0.3119154834552855   -0.004554300248200783
-0.009710992096355394   -0.31246533620164874   -0.006086621369334573
-0.014569498737238866   -0.3498668265840821   -0.007579449820994016
-0.009651812059893308   -0.3117854926132012   -0.006357373861739687
0.0035266389216085116   -0.34821123431748535   -0.006866795645024619
-0.014276455133896405   -0.3491832669160702   -0.007972122735539197
-0.009651812059893308   -0.3117854926132012   -0.006357373861739687
-0.014569498737238866   -0.3498668265840821   -0.007579449820994016
0.0035266389216085116   -0.34821123431748535   -0.006866795645024619
-0.009651812059893308   -0.3117854926132012   -0.006357373861739687
0.013386508288348059   -0.31111695153978725   -0.00521176055264496
0.012738665546532663   -0.3119154834552855   -0.004554300248200783
0.0035266389216085116   -0.34821123431748535   -0.006866795645024619
-0.009651812059893308   -0.3117854926132012   -0.006357373861739687
0.012738665546532663   -0.3119154834552855   -0.004554300248200783
-0.014569498737238866   -0.3498668265840821   -0.007579449820994016
0.0035266389216085116   -0.34821123431748535   -0.006866795645024619
0.013386508288348059   -0.31111695153978725   -0.00521176055264496
-0.014276455133896405   -0.3491832669160702   -0.007972122735539197
0.004335265569135159   -0.34773338629482   -0.0076951558820156874
0.013386508288348059   -0.31111695153978725   -0.00521176055264496
-0.009651812059893308   -0.3117854926132012   -0.006357373861739687
-0.014276455133896405   -0.3491832669160702   -0.007972122735539197
-0.009576820364011588   -0.31128878670878385   -0.006585903518689966
0.004335265569135159   -0.34773338629482   -0.0076951558820156874
-0.013943631626021719   -0.348732786528394   -0.008318419944146322
-0.009576820364011588   -0.31128878670878385   -0.006585903518689966
-0.014276455133896405   -0.3491832669160702   -0.007972122735539197
0.004335265569135159   -0.34773338629482   -0.0076951558820156874
-0.009576820364011588   -0.31128878670878385   -0.006585903518689966
0.013799227587000066   -0.310588363619442   -0.00580959008011141
0.013386508288348059   -0.31111695153978725   -0.00521176055264496
0.004335265569135159   -0.34773338629482   -0.0076951558820156874
-0.009576820364011588   -0.31128878670878385   -0.006585903518689966
0.013386508288348059   -0.31111695153978725   -0.00521176055264496
-0.014276455133896405   -0.3491832669160702   -0.007972122735539197
0.004335265569135159   -0.34773338629482   -0.0076951558820156874
0.013799227587000066   -0.310588363619442   -0.00580959008011141
-0.013943631626021719   -0.348732786528394   -0.008318419944146322
0.00519853867514448   -0.3474907028858342   -0.008458253575356808
0.013799227587000066   -0.310588363619442   -0.00580959008011141
-0.009576820364011588   -0.31128878670878385   -0.006585903518689966
-0.013943631626021719   -0.348732786528394   -0.008318419944146322
-0.009615850476569765   -0.3109595403061121   -0.006775296360046468
0.00519853867514448   -0.3474907028858342   -0.008458253575356808
-0.01374475601258154   -0.34850219596971416   -0.008622914272477399
-0.009615850476569765   -0.3109595403061121   -0.006775296360046468
-0.013943631626021719   -0.348732786528394   -0.008318419944146322
0.00519853867514448   -0.3474907028858342   -0.008458253575356808
-0.009615850476569765   -0.3109595403061121   -0.006775296360046468
0.014220705523965692   -0.3102285118456988   -0.006349005384662119
0.013799227587000066   -0.310588363619442   -0.00580959008011141
0.00519853867514448   -0.3474907028858342   -0.008458253575356808
-0.009615850476569765   -0.3109595403061121   -0.006775296360046468
0.013799227587000066   -0.310588363619442   -0.00580959008011141
-0.013943631626021719   -0.348732786528394   -0.008318419944146322
-0.014569498737238866   -0.3498668265840821   -0.007579449820994016
-0.009710992096355394   -0.31246533620164874   -0.006086621369334573
-0.030994705175130945   -0.3500264757349216   -0.008905305459985123
-0.014276455133896405   -0.3491832669160702   -0.007972122735539197
-0.009710992096355394   -0.31246533620164874   -0.006086621369334573
-0.03130026183606717   -0.3124664793375872   -0.007353742726516634
-0.030994705175130945   -0.3500264757349216   -0.008905305459985123
-0.031303904925074684   -0.3118901809519461   -0.007328281808676306
-0.014276455133896405   -0.3491832669160702   -0.007972122735539197
-0.030778649773457317   -0.34943905876314996   -0.008916147885672111
-0.031303904925074684   -0.3118901809519461   -0.007328281808676306
-0.030994705175130945   -0.3500264757349216   -0.008905305459985123
-0.014276455133896405   -0.3491832669160702   -0.007972122735539197
-0.031303904925074684   -0.3118901809519461   -0.007328281808676306
-0.009651812059893308   -0.3117854926132012   -0.006357373861739687
-0.009710992096355394   -0.31246533620164874   -0.006086621369334573
-0.014276455133896405   -0.3491832669160702   -0.007972122735539197
-0.031303904925074684   -0.3118901809519461   -0.007328281808676306
-0.009710992096355394   -0.31246533620164874   -0.006086621369334573
-0.030994705175130945   -0.3500264757349216   -0.008905305459985123
-0.014276455133896405   -0.3491832669160702   -0.007972122735539197
-0.009651812059893308   -0.3117854926132012   -0.006357373861739687
-0.030778649773457317   -0.34943905876314996   -0.008916147885672111
-0.013943631626021719   -0.348732786528394   -0.008318419944146322
-0.009651812059893308   -0.3117854926132012   -0.006357373861739687
-0.031303904925074684   -0.3118901809519461   -0.007328281808676306
-0.030778649773457317   -0.34943905876314996   -0.008916147885672111
-0.031306156235476564   -0.3114753904255195   -0.007260803139660262
-0.013943631626021719   -0.348732786528394   -0.008318419944146322
-0.030556596109123427   -0.34906032387611013   -0.008882594826646164
-0.031306156235476564   -0.3114753904255195   -0.007260803139660262
-0.030778649773457317   -0.34943905876314996   -0.008916147885672111
-0.013943631626021719   -0.348732786528394   -0.008318419944146322
-0.031306156235476564   -0.3114753904255195   -0.007260803139660262
-0.009576820364011588   -0.31128878670878385   -0.006585903518689966
-0.009651812059893308   -0.3117854926132012   -0.006357373861739687
-0.013943631626021719   -0.348732786528394   -0.008318419944146322
-0.031306156235476564   -0.3114753904255195   -0.007260803139660262
-0.009651812059893308   -0.3117854926132012   -0.006357373861739687
-0.030778649773457317   -0.34943905876314996   -0.008916147885672111
-0.013943631626021719   -0.348732786528394   -0.008318419944146322
-0.009576820364011588   -0.31128878670878385   -0.006585903518689966
-0.030556596109123427   -0.34906032387611013   -0.008882594826646164
-0.01374475601258154   -0.34850219596971416   -0.008622914272477399
-0.009576820364011588   -0.31128878670878385   -0.006585903518689966
-0.031306156235476564   -0.3114753904255195   -0.007260803139660262
-0.030556596109123427   -0.34906032387611013   -0.008882594826646164
-0.031337373494390655   -0.31122237606308634   -0.007153433387160803
-0.01374475601258154   -0.34850219596971416   -0.008622914272477399
-0.030362333050351388   -0.3488867220658631   -0.00880754485859484
-0.031337373494390655   -0.31122237606308634   -0.007153433387160803
-0.030556596109123427   -0.34906032387611013   -0.008882594826646164
-0.01374475601258154   -0.34850219596971416   -0.008622914272477399
-0.031337373494390655   -0.31122237606308634   -0.007153433387160803
-0.009615850476569765   -0.3109595403061121   -0.006775296360046468
-0.009576820364011588   -0.31128878670878385   -0.006585903518689966
-0.01374475601258154   -0.34850219596971416   -0.008622914272477399
-0.031337373494390655   -0.31122237606308634   -0.007153433387160803
-0.009576820364011588   -0.31128878670878385   -0.006585903518689966
-0.030556596109123427   -0.34906032387611013   -0.008882594826646164
-0.030994705175130945   -0.3500264757349216   -0.008905305459985123
-0.03130026183606717   -0.3124664793375872   -0.007353742726516634
-0.047158146388917126   -0.3495050729934707   -0.010102380060917588
-0.030778649773457317   -0.34943905876314996   -0.008916147885672111
-0.03130026183606717   -0.3124664793375872   -0.007353742726516634
-0.052519489550417554   -0.311930462845792   -0.008464765629190976
-0.047158146388917126   -0.3495050729934707   -0.010102380060917588
-0.052538991770273366   -0.31144547966841823   -0.008146620492402534
-0.030778649773457317   -0.34943905876314996   -0.008916147885672111
-0.04695693417175549   -0.3489980347002509   -0.009740646107842274
-0.052538991770273366   -0.31144547966841823   -0.008146620492402534
-0.047158146388917126   -0.3495050729934707   -0.010102380060917588
-0.030778649773457317   -0.34943905876314996   -0.008916147885672111
-0.052538991770273366   -0.31144547966841823   -0.008146620492402534
-0.031303904925074684   -0.3118901809519461   -0.007328281808676306
-0.03130026183606717   -0.3124664793375872   -0.007353742726516634
-0.030778649773457317   -0.34943905876314996   -0.008916147885672111
-0.052538991770273366   -0.31144547966841823   -0.008146620492402534
-0.03130026183606717   -0.3124664793375872   -0.007353742726516634
-0.047158146388917126   -0.3495050729934707   -0.010102380060917588
-0.030778649773457317   -0.34943905876314996   -0.008916147885672111
-0.031303904925074684   -0.3118901809519461   -0.007328281808676306
-0.04695693417175549   -0.3489980347002509   -0.009740646107842274
-0.030556596109123427   -0.34906032387611013   -0.008882594826646164
-0.031303904925074684   -0.3118901809519461   -0.007328281808676306
-0.052538991770273366   -0.31144547966841823   -0.008146620492402534
-0.04695693417175549   -0.3489980347002509   -0.009740646107842274
-0.05252223856283366   -0.3111205705635287   -0.007787245079458527
-0.030556596109123427   -0.34906032387611013   -0.008882594826646164
-0.04671386419169015   -0.3486973644490712   -0.009335447966849438
-0.05252223856283366   -0.3111205705635287   -0.007787245079458527
-0.04695693417175549   -0.3489980347002509   -0.009740646107842274
-0.030556596109123427   -0.34906032387611013   -0.008882594826646164
-0.05252223856283366   -0.3111205705635287   -0.007787245079458527
-0.031306156235476564   -0.3114753904255195   -0.007260803139660262
-0.031303904925074684   -0.3118901809519461   -0.007328281808676306
-0.030556596109123427   -0.34906032387611013   -0.008882594826646164
-0.05252223856283366   -0.3111205705635287   -0.007787245079458527
-0.031303904925074684   -0.3118901809519461   -0.007328281808676306
-0.04695693417175549   -0.3489980347002509   -0.009740646107842274
-0.030556596109123427   -0.34906032387611013   -0.008882594826646164
-0.031306156235476564   -0.3114753904255195   -0.007260803139660262
-0.04671386419169015   -0.3486973644490712   -0.009335447966849438
-0.030362333050351388   -0.3488867220658631   -0.00880754485859484
-0.031306156235476564   -0.3114753904255195   -0.007260803139660262
-0.05252223856283366   -0.3111205705635287   -0.007787245079458527
-0.04671386419169015   -0.3486973644490712   -0.009335447966849438
-0.05251189686761781   -0.310952871793873   -0.0073878553549242346
-0.030362333050351388   -0.3488867220658631   -0.00880754485859484
-0.04647721289406295   -0.34859327311943206   -0.008888131892730952
-0.05251189686761781   -0.310952871793873   -0.0073878553549242346
-0.04671386419169015   -0.3486973644490712   -0.009335447966849438
-0.030362333050351388   -0.3488867220658631   -0.00880754485859484
-0.05251189686761781   -0.310952871793873   -0.0073878553549242346
-0.031337373494390655   -0.31122237606308634   -0.007153433387160803
-0.031306156235476564   -0.3114753904255195   -0.007260803139660262
-0.030362333050351388   -0.3488867220658631   -0.00880754485859484
-0.05251189686761781   -0.310952871793873   -0.0073878553549242346
-0.031306156235476564   -0.3114753904255195   -0.007260803139660262
-0.04671386419169015   -0.3486973644490712   -0.009335447966849438
-0.047158146388917126   -0.3495050729934707   -0.010102380060917588
-0.052519489550417554   -0.311930462845792   -0.008464765629190976
-0.06410158575064592   -0.3483215918969954   -0.01116543186861235
-0.04695693417175549   -0.3489980347002509   -0.009740646107842274
-0.052519489550417554   -0.311930462845792   -0.008464765629190976
-0.07440232203674048   -0.3108779935129638   -0.009421275449683563
-0.06410158575064592   -0.3483215918969954   -0.01116543186861235
-0.07437789925192294   -0.31048075126569213   -0.008807060362281285
-0.04695693417175549   -0.3489980347002509   -0.009740646107842274
-0.06383981097525135   -0.3478916454766332   -0.010430825150666111
-0.07437789925192294   -0.31048075126569213   -0.008807060362281285
-0.06410158575064592   -0.3483215918969954   -0.01116543186861235
-0.04695693417175549   -0.3489980347002509   -0.009740646107842274
-0.07437789925192294   -0.31048075126569213   -0.008807060362281285
-0.052538991770273366   -0.31144547966841823   -0.008146620492402534
-0.052519489550417554   -0.311930462845792   -0.008464765629190976
-0.04695693417175549   -0.3489980347002509   -0.009740646107842274
-0.07437789925192294   -0.31048075126569213   -0.008807060362281285
-0.052519489550417554   -0.311930462845792   -0.008464765629190976
-0.06410158575064592   -0.3483215918969954   -0.01116543186861235
-0.04695693417175549   -0.3489980347002509   -0.009740646107842274
-0.052538991770273366   -0.31144547966841823   -0.008146620492402534
-0.06383981097525135   -0.3478916454766332   -0.010430825150666111
-0.04671386419169015   -0.3486973644490712   -0.009335447966849438
-0.052538991770273366   -0.31144547966841823   -0.008146620492402534
-0.07437789925192294   -0.31048075126569213   -0.008807060362281285
-0.06383981097525135   -0.3478916454766332   -0.010430825150666111
-0.07419623588820178   -0.31023732442596186   -0.008157811407673353
-0.04671386419169015   -0.3486973644490712   -0.009335447966849438
-0.06339663164501756   -0.3476617559528147   -0.009659382802641604
-0.07419623588820178   -0.31023732442596186   -0.008157811407673353
-0.06383981097525135   -0.3478916454766332   -0.010430825150666111
-0.04671386419169015   -0.3486973644490712   -0.009335447966849438
-0.07419623588820178   -0.31023732442596186   -0.008157811407673353
-0.05252223856283366   -0.3111205705635287   -0.007787245079458527
-0.052538991770273366   -0.31144547966841823   -0.008146620492402534
-0.04671386419169015   -0.3486973644490712   -0.009335447966849438
-0.07419623588820178   -0.31023732442596186   -0.008157811407673353
-0.052538991770273366   -0.31144547966841823   -0.008146620492402534
-0.06383981097525135   -0.3478916454766332   -0.010430825150666111
-0.04671386419169015   -0.3486973644490712   -0.009335447966849438
-0.05252223856283366   -0.3111205705635287   -0.007787245079458527
-0.06339663164501756   -0.3476617559528147   -0.009659382802641604
-0.04647721289406295   -0.34859327311943206   -0.008888131892730952
-0.05252223856283366   -0.3111205705635287   -0.007787245079458527
-0.07419623588820178   -0.31023732442596186   -0.008157811407673353
-0.06339663164501756   -0.3476617559528147   -0.009659382802641604
-0.07407439135489927   -0.31016426378544515   -0.007465362787282798
-0.04647721289406295   -0.34859327311943206   -0.008888131892730952
-0.0630353978345805   -0.34764384180495816   -0.008839725267911035
-0.07407439135489927   -0.31016426378544515   -0.007465362787282798
-0.06339663164501756   -0.3476617559528147   -0.009659382802641604
-0.04647721289406295   -0.34859327311943206   -0.008888131892730952
-0.07407439135489927   -0.31016426378544515   -0.007465362787282798
-0.05251189686761781   -0.310952871793873   -0.0073878553549242346
-0.05252223856283366   -0.3111205705635287   -0.007787245079458527
-0.04647721289406295   -0.34859327311943206   -0.008888131892730952
-0.07407439135489927   -0.31016426378544515   -0.007465362787282798
-0.05252223856283366   -0.3111205705635287   -0.007787245079458527
-0.06339663164501756   -0.3476617559528147   -0.009659382802641604
-0.06410158575064592   -0.3483215918969954   -0.01116543186861235
-0.07440232203674048   -0.3108779935129638   -0.009421275449683563
-0.08386398480399279   -0.3466209823460712   -0.012153372232949187
-0.06383981097525135   -0.3478916454766332   -0.010430825150666111
-0.07440232203674048   -0.3108779935129638   -0.009421275449683563
-0.0988442682945758   -0.30943108623864163   -0.010281967848179847
-0.08386398480399279   -0.3466209823460712   -0.012153372232949187
-0.0979402507316223   -0.30904212923666646   -0.009343436331114365
-0.06383981097525135   -0.3478916454766332   -0.010430825150666111
-0.08253394347460317   -0.34617406999177075   -0.011004281108019827
-0.0979402507316223   -0.30904212923666646   -0.009343436331114365
-0.08386398480399279   -0.3466209823460712   -0.012153372232949187
-0.06383981097525135   -0.3478916454766332   -0.010430825150666111
-0.0979402507316223   -0.30904212923666646   -0.009343436331114365
-0.07437789925192294   -0.31048075126569213   -0.008807060362281285
-0.07440232203674048   -0.3108779935129638   -0.009421275449683563
-0.06383981097525135   -0.3478916454766332   -0.010430825150666111
-0.0979402507316223   -0.30904212923666646   -0.009343436331114365
-0.07440232203674048   -0.3108779935129638   -0.009421275449683563
-0.08386398480399279   -0.3466209823460712   -0.012153372232949187
-0.06383981097525135   -0.3478916454766332   -0.010430825150666111
-0.07437789925192294   -0.31048075126569213   -0.008807060362281285
-0.08253394347460317   -0.34617406999177075   -0.011004281108019827
-0.06339663164501756   -0.3476617559528147   -0.009659382802641604
-0.07437789925192294   -0.31048075126569213   -0.008807060362281285
-0.0979402507316223   -0.30904212923666646   -0.009343436331114365
-0.08253394347460317   -0.34617406999177075   -0.011004281108019827
-0.09716578830978163   -0.30882836805388275   -0.008346144013214445
-0.06339663164501756   -0.3476617559528147   -0.009659382802641604
-0.08137753621591794   -0.3459633849272217   -0.009794604518208194
-0.09716578830978163   -0.30882836805388275   -0.008346144013214445
-0.08253394347460317   -0.34617406999177075   -0.011004281108019827
-0.06339663164501756   -0.3476617559528147   -0.009659382802641604
-0.09716578830978163   -0.30882836805388275   -0.008346144013214445
-0.07419623588820178   -0.31023732442596186   -0.008157811407673353
-0.07437789925192294   -0.31048075126569213   -0.008807060362281285
-0.06339663164501756   -0.3476617559528147   -0.009659382802641604
-0.09716578830978163   -0.30882836805388275   -0.008346144013214445
-0.07437789925192294   -0.31048075126569213   -0.008807060362281285
-0.08253394347460317   -0.34617406999177075   -0.011004281108019827
-0.06339663164501756   -0.3476617559528147   -0.009659382802641604
-0.07419623588820178   -0.31023732442596186   -0.008157811407673353
-0.08137753621591794   -0.3459633849272217   -0.009794604518208194
-0.0630353978345805   -0.34764384180495816   -0.008839725267911035
-0.07419623588820178   -0.31023732442596186   -0.008157811407673353
-0.09716578830978163   -0.30882836805388275   -0.008346144013214445
-0.08137753621591794   -0.3459633849272217   -0.009794604518208194
-0.09604627692212857   -0.3088853289200599   -0.0072980866079187315
-0.0630353978345805   -0.34764384180495816   -0.008839725267911035
-0.07981866866780708   -0.3460771923161541   -0.008532079088493565
-0.09604627692212857   -0.3088853289200599   -0.0072980866079187315
-0.08137753621591794   -0.3459633849272217   -0.009794604518208194
-0.0630353978345805   -0.34764384180495816   -0.008839725267911035
-0.09604627692212857   -0.3088853289200599   -0.0072980866079187315
-0.07407439135489927   -0.31016426378544515   -0.007465362787282798
-0.07419623588820178   -0.31023732442596186   -0.008157811407673353
-0.0630353978345805   -0.34764384180495816   -0.008839725267911035
-0.09604627692212857   -0.3088853289200599   -0.0072980866079187315
-0.07419623588820178   -0.31023732442596186   -0.008157811407673353
-0.08137753621591794   -0.3459633849272217   -0.009794604518208194
0.012738665546532663   -0.3119154834552855   -0.004554300248200783
0.019802553048910196   -0.26737344658414886   -0.003031760441635592
-0.009710992096355394   -0.31246533620164874   -0.006086621369334573
0.013386508288348059   -0.31111695153978725   -0.00521176055264496
0.019802553048910196   -0.26737344658414886   -0.003031760441635592
-0.006782471473033735   -0.26764022371952684   -0.0044737305176507135
-0.009710992096355394   -0.31246533620164874   -0.006086621369334573
-0.006910862854732064   -0.26697670353901604   -0.004618006634614601
0.013386508288348059   -0.31111695153978725   -0.00521176055264496
-0.009651812059893308   -0.3117854926132012   -0.006357373861739687
-0.006910862854732064   -0.26697670353901604   -0.004618006634614601
-0.009710992096355394   -0.31246533620164874   -0.006086621369334573
0.013386508288348059   -0.31111695153978725   -0.00521176055264496
-0.006910862854732064   -0.26697670353901604   -0.004618006634614601
0.020051803390014514   -0.2666041602605933   -0.0034593109968267992
0.019802553048910196   -0.26737344658414886   -0.003031760441635592
0.013386508288348059   -0.31111695153978725   -0.00521176055264496
-0.006910862854732064   -0.26697670353901604   -0.004618006634614601
0.019802553048910196   -0.26737344658414886   -0.003031760441635592
-0.009710992096355394   -0.31246533620164874   -0.006086621369334573
0.013386508288348059   -0.31111695153978725   -0.00521176055264496
0.020051803390014514   -0.2666041602605933   -0.0034593109968267992
-0.009651812059893308   -0.3117854926132012   -0.006357373861739687
0.013799227587000066   -0.310588363619442   -0.00580959008011141
0.020051803390014514   -0.2666041602605933   -0.0034593109968267992
-0.006910862854732064   -0.26697670353901604   -0.004618006634614601
-0.009651812059893308   -0.3117854926132012   -0.006357373861739687
-0.007046203623225432   -0.26644824452908755   -0.004724755021055861
0.013799227587000066   -0.310588363619442   -0.00580959008011141
-0.009576820364011588   -0.31128878670878385   -0.006585903518689966
-0.007046203623225432   -0.26644824452908755   -0.004724755021055861
-0.009651812059893308   -0.3117854926132012   -0.006357373861739687
0.013799227587000066   -0.310588363619442   -0.00580959008011141
-0.007046203623225432   -0.26644824452908755   -0.004724755021055861
0.020122704607253124   -0.2660390766881759   -0.0038315373944639085
0.020051803390014514   -0.2666041602605933   -0.0034593109968267992
0.013799227587000066   -0.310588363619442   -0.00580959008011141
-0.007046203623225432   -0.26644824452908755   -0.004724755021055861
0.020051803390014514   -0.2666041602605933   -0.0034593109968267992
-0.009651812059893308   -0.3117854926132012   -0.006357373861739687
0.013799227587000066   -0.310588363619442   -0.00580959008011141
0.020122704607253124   -0.2660390766881759   -0.0038315373944639085
-0.009576820364011588   -0.31128878670878385   -0.006585903518689966
0.014220705523965692   -0.3102285118456988   -0.006349005384662119
0.020122704607253124   -0.2660390766881759   -0.0038315373944639085
-0.007046203623225432   -0.26644824452908755   -0.004724755021055861
-0.009576820364011588   -0.31128878670878385   -0.006585903518689966
-0.007273632239973924   -0.26603851292073943   -0.004795253796624407
0.014220705523965692   -0.3102285118456988   -0.006349005384662119
-0.009615850476569765   -0.3109595403061121   -0.006775296360046468
-0.007273632239973924   -0.26603851292073943   -0.004795253796624407
-0.009576820364011588   -0.31128878670878385   -0.006585903518689966
0.014220705523965692   -0.3102285118456988   -0.006349005384662119
-0.007273632239973924   -0.26603851292073943   -0.004795253796624407
0.020157077248191026   -0.26558024040818057   -0.00415103701160589
0.020122704607253124   -0.2660390766881759   -0.0038315373944639085
0.014220705523965692   -0.3102285118456988   -0.006349005384662119
-0.007273632239973924   -0.26603851292073943   -0.004795253796624407
0.020122704607253124   -0.2660390766881759   -0.0038315373944639085
-0.009576820364011588   -0.31128878670878385   -0.006585903518689966
-0.009710992096355394   -0.31246533620164874   -0.006086621369334573
-0.006782471473033735   -0.26764022371952684   -0.0044737305176507135
-0.03130026183606717   -0.3124664793375872   -0.007353742726516634
-0.009651812059893308   -0.3117854926132012   -0.006357373861739687
-0.006782471473033735   -0.26764022371952684   -0.0044737305176507135
-0.032255452454775485   -0.2674982451545423   -0.005665171933790998
-0.03130026183606717   -0.3124664793375872   -0.007353742726516634
-0.032431300038165946   -0.2669421786222924   -0.005596356401098066
-0.009651812059893308   -0.3117854926132012   -0.006357373861739687
-0.031303904925074684   -0.3118901809519461   -0.007328281808676306
-0.032431300038165946   -0.2669421786222924   -0.005596356401098066
-0.03130026183606717   -0.3124664793375872   -0.007353742726516634
-0.009651812059893308   -0.3117854926132012   -0.006357373861739687
-0.032431300038165946   -0.2669421786222924   -0.005596356401098066
-0.006910862854732064   -0.26697670353901604   -0.004618006634614601
-0.006782471473033735   -0.26764022371952684   -0.0044737305176507135
-0.009651812059893308   -0.3117854926132012   -0.006357373861739687
-0.032431300038165946   -0.2669421786222924   -0.005596356401098066
-0.006782471473033735   -0.26764022371952684   -0.0044737305176507135
-0.03130026183606717   -0.3124664793375872   -0.007353742726516634
-0.009651812059893308   -0.3117854926132012   -0.006357373861739687
-0.006910862854732064   -0.26697670353901604   -0.004618006634614601
-0.031303904925074684   -0.3118901809519461   -0.007328281808676306
-0.009576820364011588   -0.31128878670878385   -0.006585903518689966
-0.006910862854732064   -0.26697670353901604   -0.004618006634614601
-0.032431300038165946   -0.2669421786222924   -0.005596356401098066
-0.031303904925074684   -0.3118901809519461   -0.007328281808676306
-0.03260954167229646   -0.2665019287215244   -0.005488946226841432
-0.009576820364011588   -0.31128878670878385   -0.006585903518689966
-0.031306156235476564   -0.3114753904255195   -0.007260803139660262
-0.03260954167229646   -0.2665019287215244   -0.005488946226841432
-0.031303904925074684   -0.3118901809519461   -0.007328281808676306
-0.009576820364011588   -0.31128878670878385   -0.006585903518689966
-0.03260954167229646   -0.2665019287215244   -0.005488946226841432
-0.007046203623225432   -0.26644824452908755   -0.004724755021055861
-0.006910862854732064   -0.26697670353901604   -0.004618006634614601
-0.009576820364011588   -0.31128878670878385   -0.006585903518689966
-0.03260954167229646   -0.2665019287215244   -0.005488946226841432
-0.006910862854732064   -0.26697670353901604   -0.004618006634614601
-0.031303904925074684   -0.3118901809519461   -0.007328281808676306
-0.009576820364011588   -0.31128878670878385   -0.006585903518689966
-0.007046203623225432   -0.26644824452908755   -0.004724755021055861
-0.031306156235476564   -0.3114753904255195   -0.007260803139660262
-0.009615850476569765   -0.3109595403061121   -0.006775296360046468
-0.007046203623225432   -0.26644824452908755   -0.004724755021055861
-0.03260954167229646   -0.2665019287215244   -0.005488946226841432
-0.031306156235476564   -0.3114753904255195   -0.007260803139660262
-0.032815212659362075   -0.2661794826089698   -0.0053447525177595405
-0.009615850476569765   -0.3109595403061121   -0.006775296360046468
-0.031337373494390655   -0.31122237606308634   -0.007153433387160803
-0.032815212659362075   -0.2661794826089698   -0.0053447525177595405
-0.031306156235476564   -0.3114753904255195   -0.007260803139660262
-0.009615850476569765   -0.3109595403061121   -0.006775296360046468
-0.032815212659362075   -0.2661794826089698   -0.0053447525177595405
-0.007273632239973924   -0.26603851292073943   -0.004795253796624407
-0.007046203623225432   -0.26644824452908755   -0.004724755021055861
-0.009615850476569765   -0.3109595403061121   -0.006775296360046468
-0.032815212659362075   -0.2661794826089698   -0.0053447525177595405
-0.007046203623225432   -0.26644824452908755   -0.004724755021055861
-0.031306156235476564   -0.3114753904255195   -0.007260803139660262
-0.03130026183606717   -0.3124664793375872   -0.007353742726516634
-0.032255452454775485   -0.2674982451545423   -0.005665171933790998
-0.052519489550417554   -0.311930462845792   -0.008464765629190976
-0.031303904925074684   -0.3118901809519461   -0.007328281808676306
-0.032255452454775485   -0.2674982451545423   -0.005665171933790998
-0.057295602662011384   -0.26697172416552434   -0.006686494196370247
-0.052519489550417554   -0.311930462845792   -0.008464765629190976
-0.057484832146208246   -0.2665136159399675   -0.006405518090373376
-0.031303904925074684   -0.3118901809519461   -0.007328281808676306
-0.052538991770273366   -0.31144547966841823   -0.008146620492402534
-0.057484832146208246   -0.2665136159399675   -0.006405518090373376
-0.052519489550417554   -0.311930462845792   -0.008464765629190976
-0.031303904925074684   -0.3118901809519461   -0.007328281808676306
-0.057484832146208246   -0.2665136159399675   -0.006405518090373376
-0.032431300038165946   -0.2669421786222924   -0.005596356401098066
-0.032255452454775485   -0.2674982451545423   -0.005665171933790998
-0.031303904925074684   -0.3118901809519461   -0.007328281808676306
-0.057484832146208246   -0.2665136159399675   -0.006405518090373376
-0.032255452454775485   -0.2674982451545423   -0.005665171933790998
-0.052519489550417554   -0.311930462845792   -0.008464765629190976
-0.031303904925074684   -0.3118901809519461   -0.007328281808676306
-0.032431300038165946   -0.2669421786222924   -0.005596356401098066
-0.052538991770273366   -0.31144547966841823   -0.008146620492402534
-0.031306156235476564   -0.3114753904255195   -0.007260803139660262
-0.032431300038165946   -0.2669421786222924   -0.005596356401098066
-0.057484832146208246   -0.2665136159399675   -0.006405518090373376
-0.052538991770273366   -0.31144547966841823   -0.008146620492402534
-0.057641956224262436   -0.2661702106567702   -0.006086606209310252
-0.031306156235476564   -0.3114753904255195   -0.007260803139660262
-0.05252223856283366   -0.3111205705635287   -0.007787245079458527
-0.057641956224262436   -0.2661702106567702   -0.006086606209310252
-0.052538991770273366   -0.31144547966841823   -0.008146620492402534
-0.031306156235476564   -0.3114753904255195   -0.007260803139660262
-0.057641956224262436   -0.2661702106567702   -0.006086606209310252
-0.03260954167229646   -0.2665019287215244   -0.005488946226841432
-0.032431300038165946   -0.2669421786222924   -0.005596356401098066
-0.031306156235476564   -0.3114753904255195   -0.007260803139660262
-0.057641956224262436   -0.2661702106567702   -0.006086606209310252
-0.032431300038165946   -0.2669421786222924   -0.005596356401098066
-0.052538991770273366   -0.31144547966841823   -0.008146620492402534
-0.031306156235476564   -0.3114753904255195   -0.007260803139660262
-0.03260954167229646   -0.2665019287215244   -0.005488946226841432
-0.05252223856283366   -0.3111205705635287   -0.007787245079458527
-0.031337373494390655   -0.31122237606308634   -0.007153433387160803
-0.03260954167229646   -0.2665019287215244   -0.005488946226841432
-0.057641956224262436   -0.2661702106567702   -0.006086606209310252
-0.05252223856283366   -0.3111205705635287   -0.007787245079458527
-0.05780353547626623   -0.2659410454577131   -0.00573089122321679
-0.031337373494390655   -0.31122237606308634   -0.007153433387160803
-0.05251189686761781   -0.310952871793873   -0.0073878553549242346
-0.05780353547626623   -0.2659410454577131   -0.00573089122321679
-0.05252223856283366   -0.3111205705635287   -0.007787245079458527
-0.031337373494390655   -0.31122237606308634   -0.007153433387160803
-0.05780353547626623   -0.2659410454577131   -0.00573089122321679
-0.032815212659362075   -0.2661794826089698   -0.0053447525177595405
-0.03260954167229646   -0.2665019287215244   -0.005488946226841432
-0.031337373494390655   -0.31122237606308634   -0.007153433387160803
-0.05780353547626623   -0.2659410454577131   -0.00573089122321679
-0.03260954167229646   -0.2665019287215244   -0.005488946226841432
-0.05252223856283366   -0.3111205705635287   -0.007787245079458527
-0.052519489550417554   -0.311930462845792   -0.008464765629190976
-0.057295602662011384   -0.26697172416552434   -0.006686494196370247
-0.07440232203674048   -0.3108779935129638   -0.009421275449683563
-0.052538991770273366   -0.31144547966841823   -0.008146620492402534
-0.057295602662011384   -0.26697172416552434   -0.006686494196370247
-0.08293160552866333   -0.2660713491841716   -0.007541169621614541
-0.07440232203674048   -0.3108779935129638   -0.009421275449683563
-0.08308904542634504   -0.26570915871906503   -0.007045192552519429
-0.052538991770273366   -0.31144547966841823   -0.008146620492402534
-0.07437789925192294   -0.31048075126569213   -0.008807060362281285
-0.08308904542634504   -0.26570915871906503   -0.007045192552519429
-0.07440232203674048   -0.3108779935129638   -0.009421275449683563
-0.052538991770273366   -0.31144547966841823   -0.008146620492402534
-0.08308904542634504   -0.26570915871906503   -0.007045192552519429
-0.057484832146208246   -0.2665136159399675   -0.006405518090373376
-0.057295602662011384   -0.26697172416552434   -0.006686494196370247
-0.052538991770273366   -0.31144547966841823   -0.008146620492402534
-0.08308904542634504   -0.26570915871906503   -0.007045192552519429
-0.057295602662011384   -0.26697172416552434   -0.006686494196370247
-0.07440232203674048   -0.3108779935129638   -0.009421275449683563
-0.052538991770273366   -0.31144547966841823   -0.008146620492402534
-0.057484832146208246   -0.2665136159399675   -0.006405518090373376
-0.07437789925192294   -0.31048075126569213   -0.008807060362281285
-0.05252223856283366   -0.3111205705635287   -0.007787245079458527
-0.057484832146208246   -0.2665136159399675   -0.006405518090373376
-0.08308904542634504   -0.26570915871906503   -0.007045192552519429
-0.07437789925192294   -0.31048075126569213   -0.008807060362281285
-0.08311224042836471   -0.2654542676027079   -0.006516537230076081
-0.05252223856283366   -0.3111205705635287   -0.007787245079458527
-0.07419623588820178   -0.31023732442596186   -0.008157811407673353
-0.08311224042836471   -0.2654542676027079   -0.006516537230076081
-0.07437789925192294   -0.31048075126569213   -0.008807060362281285
-0.05252223856283366   -0.3111205705635287   -0.007787245079458527
-0.08311224042836471   -0.2654542676027079   -0.006516537230076081
-0.057641956224262436   -0.2661702106567702   -0.006086606209310252
-0.057484832146208246   -0.2665136159399675   -0.006405518090373376
-0.05252223856283366   -0.3111205705635287   -0.007787245079458527
-0.08311224042836471   -0.2654542676027079   -0.006516537230076081
-0.057484832146208246   -0.2665136159399675   -0.006405518090373376
-0.07437789925192294   -0.31048075126569213   -0.008807060362281285
-0.05252223856283366   -0.3111205705635287   -0.007787245079458527
-0.057641956224262436   -0.2661702106567702   -0.006086606209310252
-0.07419623588820178   -0.31023732442596186   -0.008157811407673353
-0.05251189686761781   -0.310952871793873   -0.0073878553549242346
-0.057641956224262436   -0.2661702106567702   -0.006086606209310252
-0.08311224042836471   -0.2654542676027079   -0.006516537230076081
-0.07419623588820178   -0.31023732442596186   -0.008157811407673353
-0.08317282889727325   -0.2653238147777042   -0.005948308310576502
-0.05251189686761781   -0.310952871793873   -0.0073878553549242346
-0.07407439135489927   -0.31016426378544515   -0.007465362787282798
-0.08317282889727325   -0.2653238147777042   -0.005948308310576502
-0.07419623588820178   -0.31023732442596186   -0.008157811407673353
-0.05251189686761781   -0.310952871793873   -0.0073878553549242346
-0.08317282889727325   -0.2653238147777042   -0.005948308310576502
-0.05780353547626623   -0.2659410454577131   -0.00573089122321679
-0.057641956224262436   -0.2661702106567702   -0.006086606209310252
-0.05251189686761781   -0.310952871793873   -0.0073878553549242346
-0.08317282889727325   -0.2653238147777042   -0.005948308310576502
-0.057641956224262436   -0.2661702106567702   -0.006086606209310252
-0.07419623588820178   -0.31023732442596186   -0.008157811407673353
-0.07440232203674048   -0.3108779935129638   -0.009421275449683563
-0.08293160552866333   -0.2660713491841716   -0.007541169621614541
-0.0988442682945758   -0.30943108623864163   -0.010281967848179847
-0.07437789925192294   -0.31048075126569213   -0.008807060362281285
-0.08293160552866333   -0.2660713491841716   -0.007541169621614541
-0.11088210349539199   -0.2648938186318357   -0.008271071614350289
-0.0988442682945758   -0.30943108623864163   -0.010281967848179847
-0.11035756612668916   -0.26456301212269284   -0.00754885631777393
-0.07437789925192294   -0.31048075126569213   -0.008807060362281285
-0.0979402507316223   -0.30904212923666646   -0.009343436331114365
-0.11035756612668916   -0.26456301212269284   -0.00754885631777393
-0.0988442682945758   -0.30943108623864163   -0.010281967848179847
-0.07437789925192294   -0.31048075126569213   -0.008807060362281285
-0.11035756612668916   -0.26456301212269284   -0.00754885631777393
-0.08308904542634504   -0.26570915871906503   -0.007045192552519429
-0.08293160552866333   -0.2660713491841716   -0.007541169621614541
-0.07437789925192294   -0.31048075126569213   -0.008807060362281285
-0.11035756612668916   -0.26456301212269284   -0.00754885631777393
-0.08293160552866333   -0.2660713491841716   -0.007541169621614541
-0.0988442682945758   -0.30943108623864163   -0.010281967848179847
-0.07437789925192294   -0.31048075126569213   -0.008807060362281285
-0.08308904542634504   -0.26570915871906503   -0.007045192552519429
-0.0979402507316223   -0.30904212923666646   -0.009343436331114365
-0.07419623588820178   -0.31023732442596186   -0.008157811407673353
-0.08308904542634504   -0.26570915871906503   -0.007045192552519429
-0.11035756612668916   -0.26456301212269284   -0.00754885631777393
-0.0979402507316223   -0.30904212923666646   -0.009343436331114365
-0.10991470579465411   -0.264345591862521   -0.006769659931833279
-0.07419623588820178   -0.31023732442596186   -0.008157811407673353
-0.09716578830978163   -0.30882836805388275   -0.008346144013214445
-0.10991470579465411   -0.264345591862521   -0.006769659931833279
-0.0979402507316223   -0.30904212923666646   -0.009343436331114365
-0.07419623588820178   -0.31023732442596186   -0.008157811407673353
-0.10991470579465411   -0.264345591862521   -0.006769659931833279
-0.08311224042836471   -0.2654542676027079   -0.006516537230076081
-0.08308904542634504   -0.26570915871906503   -0.007045192552519429
-0.07419623588820178   -0.31023732442596186   -0.008157811407673353
-0.10991470579465411   -0.264345591862521   -0.006769659931833279
-0.08308904542634504   -0.26570915871906503   -0.007045192552519429
-0.0979402507316223   -0.30904212923666646   -0.009343436331114365
-0.07419623588820178   -0.31023732442596186   -0.008157811407673353
-0.08311224042836471   -0.2654542676027079   -0.006516537230076081
-0.09716578830978163   -0.30882836805388275   -0.008346144013214445
-0.07407439135489927   -0.31016426378544515   -0.007465362787282798
-0.08311224042836471   -0.2654542676027079   -0.006516537230076081
-0.10991470579465411   -0.264345591862521   -0.006769659931833279
-0.09716578830978163   -0.30882836805388275   -0.008346144013214445
-0.1091802989957477   -0.2643401876586084   -0.005940563424689496
-0.07407439135489927   -0.31016426378544515   -0.007465362787282798
-0.09604627692212857   -0.3088853289200599   -0.0072980866079187315
-0.1091802989957477   -0.2643401876586084   -0.005940563424689496
-0.09716578830978163   -0.30882836805388275   -0.008346144013214445
-0.07407439135489927   -0.31016426378544515   -0.007465362787282798
-0.1091802989957477   -0.2643401876586084   -0.005940563424689496
-0.08317282889727325   -0.2653238147777042   -0.005948308310576502
-0.08311224042836471   -0.2654542676027079   -0.006516537230076081
-0.07407439135489927   -0.31016426378544515   -0.007465362787282798
-0.1091802989957477   -0.2643401876586084   -0.005940563424689496
-0.08311224042836471   -0.2654542676027079   -0.006516537230076081
-0.09716578830978163   -0.30882836805388275   -0.008346144013214445
0.019802553048910196   -0.26737344658414886   -0.003031760441635592
0.023680905533613173   -0.21748351760390414   -0.001537992632508447
-0.006782471473033735   -0.26764022371952684   -0.0044737305176507135
0.020051803390014514   -0.2666041602605933   -0.0034593109968267992
0.023680905533613173   -0.21748351760390414   -0.001537992632508447
-0.00578565478726398   -0.21747132050003612   -0.002876494306390568
-0.006782471473033735   -0.26764022371952684   -0.0044737305176507135
-0.006053631749504055   -0.2168289466196627   -0.0028932670550858306
0.020051803390014514   -0.2666041602605933   -0.0034593109968267992
-0.006910862854732064   -0.26697670353901604   -0.004618006634614601
-0.006053631749504055   -0.2168289466196627   -0.0028932670550858306
-0.006782471473033735   -0.26764022371952684   -0.0044737305176507135
0.020051803390014514   -0.2666041602605933   -0.0034593109968267992
-0.006053631749504055   -0.2168289466196627   -0.0028932670550858306
0.023585639387115023   -0.21674662792616936   -0.0017392253794248633
0.023680905533613173   -0.21748351760390414   -0.001537992632508447
0.020051803390014514   -0.2666041602605933   -0.0034593109968267992
-0.006053631749504055   -0.2168289466196627   -0.0028932670550858306
0.023680905533613173   -0.21748351760390414   -0.001537992632508447
-0.006782471473033735   -0.26764022371952684   -0.0044737305176507135
0.020051803390014514   -0.2666041602605933   -0.0034593109968267992
0.023585639387115023   -0.21674662792616936   -0.0017392253794248633
-0.006910862854732064   -0.26697670353901604   -0.004618006634614601
0.020122704607253124   -0.2660390766881759   -0.0038315373944639085
0.023585639387115023   -0.21674662792616936   -0.0017392253794248633
-0.006053631749504055   -0.2168289466196627   -0.0028932670550858306
-0.006910862854732064   -0.26697670353901604   -0.004618006634614601
-0.006351320239119353   -0.21627294620676338   -0.0028769274650454184
0.020122704607253124   -0.2660390766881759   -0.0038315373944639085
-0.007046203623225432   -0.26644824452908755   -0.004724755021055861
-0.006351320239119353   -0.21627294620676338   -0.0028769274650454184
-0.006910862854732064   -0.26697670353901604   -0.004618006634614601
0.020122704607253124   -0.2660390766881759   -0.0038315373944639085
-0.006351320239119353   -0.21627294620676338   -0.0028769274650454184
0.023365220959942885   -0.2161495692787255   -0.0018873860781831208
0.023585639387115023   -0.21674662792616936   -0.0017392253794248633
0.020122704607253124   -0.2660390766881759   -0.0038315373944639085
-0.006351320239119353   -0.21627294620676338   -0.0028769274650454184
0.023585639387115023   -0.21674662792616936   -0.0017392253794248633
-0.006910862854732064   -0.26697670353901604   -0.004618006634614601
0.020122704607253124   -0.2660390766881759   -0.0038315373944639085
0.023365220959942885   -0.2161495692787255   -0.0018873860781831208
-0.007046203623225432   -0.26644824452908755   -0.004724755021055861
0.020157077248191026   -0.26558024040818057   -0.00415103701160589
0.023365220959942885   -0.2161495692787255   -0.0018873860781831208
-0.006351320239119353   -0.21627294620676338   -0.0028769274650454184
-0.007046203623225432   -0.26644824452908755   -0.004724755021055861
-0.006719238288039005   -0.21578916750328697   -0.002826170163092492
0.020157077248191026   -0.26558024040818057   -0.00415103701160589
-0.007273632239973924   -0.26603851292073943   -0.004795253796624407
-0.006719238288039005   -0.21578916750328697   -0.002826170163092492
-0.007046203623225432   -0.26644824452908755   -0.004724755021055861
0.020157077248191026   -0.26558024040818057   -0.00415103701160589
-0.006719238288039005   -0.21578916750328697   -0.002826170163092492
0.023059001808156666   -0.21559681860014793   -0.0019861793631114188
0.023365220959942885   -0.2161495692787255   -0.0018873860781831208
0.020157077248191026   -0.26558024040818057   -0.00415103701160589
-0.006719238288039005   -0.21578916750328697   -0.002826170163092492
0.023365220959942885   -0.2161495692787255   -0.0018873860781831208
-0.007046203623225432   -0.26644824452908755   -0.004724755021055861
-0.006782471473033735   -0.26764022371952684   -0.0044737305176507135
-0.00578565478726398   -0.21747132050003612   -0.002876494306390568
-0.032255452454775485   -0.2674982451545423   -0.005665171933790998
-0.006910862854732064   -0.26697670353901604   -0.004618006634614601
-0.00578565478726398   -0.21747132050003612   -0.002876494306390568
-0.03388675818810564   -0.21720365108872633   -0.003985769024437786
-0.032255452454775485   -0.2674982451545423   -0.005665171933790998
-0.03418504783964919   -0.21666848895823823   -0.0038702080967879717
-0.006910862854732064   -0.26697670353901604   -0.004618006634614601
-0.032431300038165946   -0.2669421786222924   -0.005596356401098066
-0.03418504783964919   -0.21666848895823823   -0.0038702080967879717
-0.032255452454775485   -0.2674982451545423   -0.005665171933790998
-0.006910862854732064   -0.26697670353901604   -0.004618006634614601
-0.03418504783964919   -0.21666848895823823   -0.0038702080967879717
-0.006053631749504055   -0.2168289466196627   -0.0028932670550858306
-0.00578565478726398   -0.21747132050003612   -0.002876494306390568
-0.006910862854732064   -0.26697670353901604   -0.004618006634614601
-0.03418504783964919   -0.21666848895823823   -0.0038702080967879717
-0.00578565478726398   -0.21747132050003612   -0.002876494306390568
-0.032255452454775485   -0.2674982451545423   -0.005665171933790998
-0.006910862854732064   -0.26697670353901604   -0.004618006634614601
-0.006053631749504055   -0.2168289466196627   -0.0028932670550858306
-0.032431300038165946   -0.2669421786222924   -0.005596356401098066
-0.007046203623225432   -0.26644824452908755   -0.004724755021055861
-0.006053631749504055   -0.2168289466196627   -0.0028932670550858306
-0.03418504783964919   -0.21666848895823823   -0.0038702080967879717
-0.032431300038165946   -0.2669421786222924   -0.005596356401098066
-0.034489231192544705   -0.21620365226083213   -0.003720197671713253
-0.007046203623225432   -0.26644824452908755   -0.004724755021055861
-0.03260954167229646   -0.2665019287215244   -0.005488946226841432
-0.034489231192544705   -0.21620365226083213   -0.003720197671713253
-0.032431300038165946   -0.2669421786222924   -0.005596356401098066
-0.007046203623225432   -0.26644824452908755   -0.004724755021055861
-0.034489231192544705   -0.21620365226083213   -0.003720197671713253
-0.006351320239119353   -0.21627294620676338   -0.0028769274650454184
-0.006053631749504055   -0.2168289466196627   -0.0028932670550858306
-0.007046203623225432   -0.26644824452908755   -0.004724755021055861
-0.034489231192544705   -0.21620365226083213   -0.003720197671713253
-0.006053631749504055   -0.2168289466196627   -0.0028932670550858306
-0.032431300038165946   -0.2669421786222924   -0.005596356401098066
-0.007046203623225432   -0.26644824452908755   -0.004724755021055861
-0.006351320239119353   -0.21627294620676338   -0.0028769274650454184
-0.03260954167229646   -0.2665019287215244   -0.005488946226841432
-0.007273632239973924   -0.26603851292073943   -0.004795253796624407
-0.006351320239119353   -0.21627294620676338   -0.0028769274650454184
-0.034489231192544705   -0.21620365226083213   -0.003720197671713253
-0.03260954167229646   -0.2665019287215244   -0.005488946226841432
-0.034818878372008165   -0.21581340519821957   -0.003537304680371137
-0.007273632239973924   -0.26603851292073943   -0.004795253796624407
-0.032815212659362075   -0.2661794826089698   -0.0053447525177595405
-0.034818878372008165   -0.21581340519821957   -0.003537304680371137
-0.03260954167229646   -0.2665019287215244   -0.005488946226841432
-0.007273632239973924   -0.26603851292073943   -0.004795253796624407
-0.034818878372008165   -0.21581340519821957   -0.003537304680371137
-0.006719238288039005   -0.21578916750328697   -0.002826170163092492
-0.006351320239119353   -0.21627294620676338   -0.0028769274650454184
-0.007273632239973924   -0.26603851292073943   -0.004795253796624407
-0.034818878372008165   -0.21581340519821957   -0.003537304680371137
-0.006351320239119353   -0.21627294620676338   -0.0028769274650454184
-0.03260954167229646   -0.2665019287215244   -0.005488946226841432
-0.032255452454775485   -0.2674982451545423   -0.005665171933790998
-0.03388675818810564   -0.21720365108872633   -0.003985769024437786
-0.057295602662011384   -0.26697172416552434   -0.006686494196370247
-0.032431300038165946   -0.2669421786222924   -0.005596356401098066
-0.03388675818810564   -0.21720365108872633   -0.003985769024437786
-0.06151247432633159   -0.2167082754403926   -0.004924159586301711
-0.057295602662011384   -0.26697172416552434   -0.006686494196370247
-0.06181902414742032   -0.21627226344664516   -0.00467635943545993
-0.032431300038165946   -0.2669421786222924   -0.005596356401098066
-0.057484832146208246   -0.2665136159399675   -0.006405518090373376
-0.06181902414742032   -0.21627226344664516   -0.00467635943545993
-0.057295602662011384   -0.26697172416552434   -0.006686494196370247
-0.032431300038165946   -0.2669421786222924   -0.005596356401098066
-0.06181902414742032   -0.21627226344664516   -0.00467635943545993
-0.03418504783964919   -0.21666848895823823   -0.0038702080967879717
-0.03388675818810564   -0.21720365108872633   -0.003985769024437786
-0.032431300038165946   -0.2669421786222924   -0.005596356401098066
-0.06181902414742032   -0.21627226344664516   -0.00467635943545993
-0.03388675818810564   -0.21720365108872633   -0.003985769024437786
-0.057295602662011384   -0.26697172416552434   -0.006686494196370247
-0.032431300038165946   -0.2669421786222924   -0.005596356401098066
-0.03418504783964919   -0.21666848895823823   -0.0038702080967879717
-0.057484832146208246   -0.2665136159399675   -0.006405518090373376
-0.03260954167229646   -0.2665019287215244   -0.005488946226841432
-0.03418504783964919   -0.21666848895823823   -0.0038702080967879717
-0.06181902414742032   -0.21627226344664516   -0.00467635943545993
-0.057484832146208246   -0.2665136159399675   -0.006405518090373376
-0.06209737765882551   -0.21590607829614572   -0.004394897190876164
-0.03260954167229646   -0.2665019287215244   -0.005488946226841432
-0.057641956224262436   -0.2661702106567702   -0.006086606209310252
-0.06209737765882551   -0.21590607829614572   -0.004394897190876164
-0.057484832146208246   -0.2665136159399675   -0.006405518090373376
-0.03260954167229646   -0.2665019287215244   -0.005488946226841432
-0.06209737765882551   -0.21590607829614572   -0.004394897190876164
-0.034489231192544705   -0.21620365226083213   -0.003720197671713253
-0.03418504783964919   -0.21666848895823823   -0.0038702080967879717
-0.03260954167229646   -0.2665019287215244   -0.005488946226841432
-0.06209737765882551   -0.21590607829614572   -0.004394897190876164
-0.03418504783964919   -0.21666848895823823   -0.0038702080967879717
-0.057484832146208246   -0.2665136159399675   -0.006405518090373376
-0.03260954167229646   -0.2665019287215244   -0.005488946226841432
-0.034489231192544705   -0.21620365226083213   -0.003720197671713253
-0.057641956224262436   -0.2661702106567702   -0.006086606209310252
-0.032815212659362075   -0.2661794826089698   -0.0053447525177595405
-0.034489231192544705   -0.21620365226083213   -0.003720197671713253
-0.06209737765882551   -0.21590607829614572   -0.004394897190876164
-0.057641956224262436   -0.2661702106567702   -0.006086606209310252
-0.06237833554418255   -0.21561037380645426   -0.004081074842515096
-0.032815212659362075   -0.2661794826089698   -0.0053447525177595405
-0.05780353547626623   -0.2659410454577131   -0.00573089122321679
-0.06237833554418255   -0.21561037380645426   -0.004081074842515096
-0.057641956224262436   -0.2661702106567702   -0.006086606209310252
-0.032815212659362075   -0.2661794826089698   -0.0053447525177595405
-0.06237833554418255   -0.21561037380645426   -0.004081074842515096
-0.034818878372008165   -0.21581340519821957   -0.003537304680371137
-0.034489231192544705   -0.21620365226083213   -0.003720197671713253
-0.032815212659362075   -0.2661794826089698   -0.0053447525177595405
-0.06237833554418255   -0.21561037380645426   -0.004081074842515096
-0.034489231192544705   -0.21620365226083213   -0.003720197671713253
-0.057641956224262436   -0.2661702106567702   -0.006086606209310252
-0.057295602662011384   -0.26697172416552434   -0.006686494196370247
-0.06151247432633159   -0.2167082754403926   -0.004924159586301711
-0.08293160552866333   -0.2660713491841716   -0.007541169621614541
-0.057484832146208246   -0.2665136159399675   -0.006405518090373376
-0.06151247432633159   -0.2167082754403926   -0.004924159586301711
-0.08968420357771992   -0.215974573080391   -0.005693473200637581
-0.08293160552866333   -0.2660713491841716   -0.007541169621614541
-0.08996934069893295   -0.2156386954562349   -0.005312448994689099
-0.057484832146208246   -0.2665136159399675   -0.006405518090373376
-0.08308904542634504   -0.26570915871906503   -0.007045192552519429
-0.08996934069893295   -0.2156386954562349   -0.005312448994689099
-0.08293160552866333   -0.2660713491841716   -0.007541169621614541
-0.057484832146208246   -0.2665136159399675   -0.006405518090373376
-0.08996934069893295   -0.2156386954562349   -0.005312448994689099
-0.06181902414742032   -0.21627226344664516   -0.00467635943545993
-0.06151247432633159   -0.2167082754403926   -0.004924159586301711
-0.057484832146208246   -0.2665136159399675   -0.006405518090373376
-0.08996934069893295   -0.2156386954562349   -0.005312448994689099
-0.06151247432633159   -0.2167082754403926   -0.004924159586301711
-0.08293160552866333   -0.2660713491841716   -0.007541169621614541
-0.057484832146208246   -0.2665136159399675   -0.006405518090373376
-0.06181902414742032   -0.21627226344664516   -0.00467635943545993
-0.08308904542634504   -0.26570915871906503   -0.007045192552519429
-0.057641956224262436   -0.2661702106567702   -0.006086606209310252
-0.06181902414742032   -0.21627226344664516   -0.00467635943545993
-0.08996934069893295   -0.2156386954562349   -0.005312448994689099
-0.08308904542634504   -0.26570915871906503   -0.007045192552519429
-0.09014398068940137   -0.21536334197580384   -0.0049023463243225325
-0.057641956224262436   -0.2661702106567702   -0.006086606209310252
-0.08311224042836471   -0.2654542676027079   -0.006516537230076081
-0.09014398068940137   -0.21536334197580384   -0.0049023463243225325
-0.08308904542634504   -0.26570915871906503   -0.007045192552519429
-0.057641956224262436   -0.2661702106567702   -0.006086606209310252
-0.09014398068940137   -0.21536334197580384   -0.0049023463243225325
-0.06209737765882551   -0.21590607829614572   -0.004394897190876164
-0.06181902414742032   -0.21627226344664516   -0.00467635943545993
-0.057641956224262436   -0.2661702106567702   -0.006086606209310252
-0.09014398068940137   -0.21536334197580384   -0.0049023463243225325
-0.06181902414742032   -0.21627226344664516   -0.00467635943545993
-0.08308904542634504   -0.26570915871906503   -0.007045192552519429
-0.057641956224262436   -0.2661702106567702   -0.006086606209310252
-0.06209737765882551   -0.21590607829614572   -0.004394897190876164
-0.08311224042836471   -0.2654542676027079   -0.006516537230076081
-0.05780353547626623   -0.2659410454577131   -0.00573089122321679
-0.06209737765882551   -0.21590607829614572   -0.004394897190876164
-0.09014398068940137   -0.21536334197580384   -0.0049023463243225325
-0.08311224042836471   -0.2654542676027079   -0.006516537230076081
-0.09033479966330352   -0.2151644866942284   -0.004457133002223014
-0.05780353547626623   -0.2659410454577131   -0.00573089122321679
-0.08317282889727325   -0.2653238147777042   -0.005948308310576502
-0.09033479966330352   -0.2151644866942284   -0.004457133002223014
-0.08311224042836471   -0.2654542676027079   -0.006516537230076081
-0.05780353547626623   -0.2659410454577131   -0.00573089122321679
-0.09033479966330352   -0.2151644866942284   -0.004457133002223014
-0.06237833554418255   -0.21561037380645426   -0.004081074842515096
-0.06209737765882551   -0.21590607829614572   -0.004394897190876164
-0.05780353547626623   -0.2659410454577131   -0.00573089122321679
-0.09033479966330352   -0.2151644866942284   -0.004457133002223014
-0.06209737765882551   -0.21590607829614572   -0.004394897190876164
-0.08311224042836471   -0.2654542676027079   -0.006516537230076081
-0.08293160552866333   -0.2660713491841716   -0.007541169621614541
-0.08968420357771992   -0.215974573080391   -0.005693473200637581
-0.11088210349539199   -0.2648938186318357   -0.008271071614350289
-0.08308904542634504   -0.26570915871906503   -0.007045192552519429
-0.08968420357771992   -0.215974573080391   -0.005693473200637581
-0.11991046461046365   -0.2150752996867354   -0.0063068641394382965
-0.11088210349539199   -0.2648938186318357   -0.008271071614350289
-0.119712808610274   -0.21479109821860892   -0.005801303796421013
-0.08308904542634504   -0.26570915871906503   -0.007045192552519429
-0.11035756612668916   -0.26456301212269284   -0.00754885631777393
-0.119712808610274   -0.21479109821860892   -0.005801303796421013
-0.11088210349539199   -0.2648938186318357   -0.008271071614350289
-0.08308904542634504   -0.26570915871906503   -0.007045192552519429
-0.119712808610274   -0.21479109821860892   -0.005801303796421013
-0.08996934069893295   -0.2156386954562349   -0.005312448994689099
-0.08968420357771992   -0.215974573080391   -0.005693473200637581
-0.08308904542634504   -0.26570915871906503   -0.007045192552519429
-0.119712808610274   -0.21479109821860892   -0.005801303796421013
-0.08968420357771992   -0.215974573080391   -0.005693473200637581
-0.11088210349539199   -0.2648938186318357   -0.008271071614350289
-0.08308904542634504   -0.26570915871906503   -0.007045192552519429
-0.08996934069893295   -0.2156386954562349   -0.005312448994689099
-0.11035756612668916   -0.26456301212269284   -0.00754885631777393
-0.08311224042836471   -0.2654542676027079   -0.006516537230076081
-0.08996934069893295   -0.2156386954562349   -0.005312448994689099
-0.119712808610274   -0.21479109821860892   -0.005801303796421013
-0.11035756612668916   -0.26456301212269284   -0.00754885631777393
-0.11955187745180006   -0.21455849534134933   -0.005242393188038312
-0.08311224042836471   -0.2654542676027079   -0.006516537230076081
-0.10991470579465411   -0.264345591862521   -0.006769659931833279
-0.11955187745180006   -0.21455849534134933   -0.005242393188038312
-0.11035756612668916   -0.26456301212269284   -0.00754885631777393
-0.08311224042836471   -0.2654542676027079   -0.006516537230076081
-0.11955187745180006   -0.21455849534134933   -0.005242393188038312
-0.09014398068940137   -0.21536334197580384   -0.0049023463243225325
-0.08996934069893295   -0.2156386954562349   -0.005312448994689099
-0.08311224042836471   -0.2654542676027079   -0.006516537230076081
-0.11955187745180006   -0.21455849534134933   -0.005242393188038312
-0.08996934069893295   -0.2156386954562349   -0.005312448994689099
-0.11035756612668916   -0.26456301212269284   -0.00754885631777393
-0.08311224042836471   -0.2654542676027079   -0.006516537230076081
-0.09014398068940137   -0.21536334197580384   -0.0049023463243225325
-0.10991470579465411   -0.264345591862521   -0.006769659931833279
-0.08317282889727325   -0.2653238147777042   -0.005948308310576502
-0.09014398068940137   -0.21536334197580384   -0.0049023463243225325
-0.11955187745180006   -0.21455849534134933   -0.005242393188038312
-0.10991470579465411   -0.264345591862521   -0.006769659931833279
-0.11915543766478594   -0.21447522377436187   -0.004636230332496095
-0.08317282889727325   -0.2653238147777042   -0.005948308310576502
-0.1091802989957477   -0.2643401876586084   -0.005940563424689496
-0.11915543766478594   -0.21447522377436187   -0.004636230332496095
-0.10991470579465411   -0.264345591862521   -0.006769659931833279
-0.08317282889727325   -0.2653238147777042   -0.005948308310576502
-0.11915543766478594   -0.21447522377436187   -0.004636230332496095
-0.09033479966330352   -0.2151644866942284   -0.004457133002223014
-0.09014398068940137   -0.21536334197580384   -0.0049023463243225325
-0.08317282889727325   -0.2653238147777042   -0.005948308310576502
-0.11915543766478594   -0.21447522377436187   -0.004636230332496095
-0.09014398068940137   -0.21536334197580384   -0.0049023463243225325
-0.10991470579465411   -0.264345591862521   -0.006769659931833279
0.023680905533613173   -0.21748351760390414   -0.001537992632508447
0.024388974131197654   -0.16423156564951763   -0.0002284809374315587
-0.00578565478726398   -0.21747132050003612   -0.002876494306390568
0.023585639387115023   -0.21674662792616936   -0.0017392253794248633
0.024388974131197654   -0.16423156564951763   -0.0002284809374315587
-0.006705765665365743   -0.16395256239243486   -0.0014345872614872069
-0.00578565478726398   -0.21747132050003612   -0.002876494306390568
-0.0070715431528436175   -0.16333685958733815   -0.0013245061240806507
0.023585639387115023   -0.21674662792616936   -0.0017392253794248633
-0.006053631749504055   -0.2168289466196627   -0.0028932670550858306
-0.0070715431528436175   -0.16333685958733815   -0.0013245061240806507
-0.00578565478726398   -0.21747132050003612   -0.002876494306390568
0.023585639387115023   -0.21674662792616936   -0.0017392253794248633
-0.0070715431528436175   -0.16333685958733815   -0.0013245061240806507
0.02399519407782921   -0.16352773492514464   -0.00020036674869634505
0.024388974131197654   -0.16423156564951763   -0.0002284809374315587
0.023585639387115023   -0.21674662792616936   -0.0017392253794248633
-0.0070715431528436175   -0.16333685958733815   -0.0013245061240806507
0.024388974131197654   -0.16423156564951763   -0.0002284809374315587
-0.00578565478726398   -0.21747132050003612   -0.002876494306390568
0.023585639387115023   -0.21674662792616936   -0.0017392253794248633
0.02399519407782921   -0.16352773492514464   -0.00020036674869634505
-0.006053631749504055   -0.2168289466196627   -0.0028932670550858306
0.023365220959942885   -0.2161495692787255   -0.0018873860781831208
0.02399519407782921   -0.16352773492514464   -0.00020036674869634505
-0.0070715431528436175   -0.16333685958733815   -0.0013245061240806507
-0.006053631749504055   -0.2168289466196627   -0.0028932670550858306
-0.007489869001428273   -0.16275351385665912   -0.0011845472022913746
0.023365220959942885   -0.2161495692787255   -0.0018873860781831208
-0.006351320239119353   -0.21627294620676338   -0.0028769274650454184
-0.007489869001428273   -0.16275351385665912   -0.0011845472022913746
-0.006053631749504055   -0.2168289466196627   -0.0028932670550858306
0.023365220959942885   -0.2161495692787255   -0.0018873860781831208
-0.007489869001428273   -0.16275351385665912   -0.0011845472022913746
0.02351620591846337   -0.16289544075053056   -0.00011110421309582991
0.02399519407782921   -0.16352773492514464   -0.00020036674869634505
0.023365220959942885   -0.2161495692787255   -0.0018873860781831208
-0.007489869001428273   -0.16275351385665912   -0.0011845472022913746
0.02399519407782921   -0.16352773492514464   -0.00020036674869634505
-0.006053631749504055   -0.2168289466196627   -0.0028932670550858306
0.023365220959942885   -0.2161495692787255   -0.0018873860781831208
0.02351620591846337   -0.16289544075053056   -0.00011110421309582991
-0.006351320239119353   -0.21627294620676338   -0.0028769274650454184
0.023059001808156666   -0.21559681860014793   -0.0019861793631114188
0.02351620591846337   -0.16289544075053056   -0.00011110421309582991
-0.007489869001428273   -0.16275351385665912   -0.0011845472022913746
-0.006351320239119353   -0.21627294620676338   -0.0028769274650454184
-0.007958310573432015   -0.16219465591532922   -0.0010072013701805038
0.023059001808156666   -0.21559681860014793   -0.0019861793631114188
-0.006719238288039005   -0.21578916750328697   -0.002826170163092492
-0.007958310573432015   -0.16219465591532922   -0.0010072013701805038
-0.006351320239119353   -0.21627294620676338   -0.0028769274650454184
0.023059001808156666   -0.21559681860014793   -0.0019861793631114188
-0.007958310573432015   -0.16219465591532922   -0.0010072013701805038
0.022885960145911783   -0.16223234189641153   3.650867754054528e-05
0.02351620591846337   -0.16289544075053056   -0.00011110421309582991
0.023059001808156666   -0.21559681860014793   -0.0019861793631114188
-0.007958310573432015   -0.16219465591532922   -0.0010072013701805038
0.02351620591846337   -0.16289544075053056   -0.00011110421309582991
-0.006351320239119353   -0.21627294620676338   -0.0028769274650454184
-0.00578565478726398   -0.21747132050003612   -0.002876494306390568
-0.006705765665365743   -0.16395256239243486   -0.0014345872614872069
-0.03388675818810564   -0.21720365108872633   -0.003985769024437786
-0.006053631749504055   -0.2168289466196627   -0.0028932670550858306
-0.006705765665365743   -0.16395256239243486   -0.0014345872614872069
-0.03617111831291204   -0.16363308639241253   -0.0024600251674210902
-0.03388675818810564   -0.21720365108872633   -0.003985769024437786
-0.03654279178654273   -0.16311603582295459   -0.0022950546450438724
-0.006053631749504055   -0.2168289466196627   -0.0028932670550858306
-0.03418504783964919   -0.21666848895823823   -0.0038702080967879717
-0.03654279178654273   -0.16311603582295459   -0.0022950546450438724
-0.03388675818810564   -0.21720365108872633   -0.003985769024437786
-0.006053631749504055   -0.2168289466196627   -0.0028932670550858306
-0.03654279178654273   -0.16311603582295459   -0.0022950546450438724
-0.0070715431528436175   -0.16333685958733815   -0.0013245061240806507
-0.006705765665365743   -0.16395256239243486   -0.0014345872614872069
-0.006053631749504055   -0.2168289466196627   -0.0028932670550858306
-0.03654279178654273   -0.16311603582295459   -0.0022950546450438724
-0.006705765665365743   -0.16395256239243486   -0.0014345872614872069
-0.03388675818810564   -0.21720365108872633   -0.003985769024437786
-0.006053631749504055   -0.2168289466196627   -0.0028932670550858306
-0.0070715431528436175   -0.16333685958733815   -0.0013245061240806507
-0.03418504783964919   -0.21666848895823823   -0.0038702080967879717
-0.006351320239119353   -0.21627294620676338   -0.0028769274650454184
-0.0070715431528436175   -0.16333685958733815   -0.0013245061240806507
-0.03654279178654273   -0.16311603582295459   -0.0022950546450438724
-0.03418504783964919   -0.21666848895823823   -0.0038702080967879717
-0.03692261290746125   -0.1626241511750018   -0.0021016919788835377
-0.006351320239119353   -0.21627294620676338   -0.0028769274650454184
-0.034489231192544705   -0.21620365226083213   -0.003720197671713253
-0.03692261290746125   -0.1626241511750018   -0.0021016919788835377
-0.03418504783964919   -0.21666848895823823   -0.0038702080967879717
-0.006351320239119353   -0.21627294620676338   -0.0028769274650454184
-0.03692261290746125   -0.1626241511750018   -0.0021016919788835377
-0.007489869001428273   -0.16275351385665912   -0.0011845472022913746
-0.0070715431528436175   -0.16333685958733815   -0.0013245061240806507
-0.006351320239119353   -0.21627294620676338   -0.0028769274650454184
-0.03692261290746125   -0.1626241511750018   -0.0021016919788835377
-0.0070715431528436175   -0.16333685958733815   -0.0013245061240806507
-0.03418504783964919   -0.21666848895823823   -0.0038702080967879717
-0.006351320239119353   -0.21627294620676338   -0.0028769274650454184
-0.007489869001428273   -0.16275351385665912   -0.0011845472022913746
-0.034489231192544705   -0.21620365226083213   -0.003720197671713253
-0.006719238288039005   -0.21578916750328697   -0.002826170163092492
-0.007489869001428273   -0.16275351385665912   -0.0011845472022913746
-0.03692261290746125   -0.1626241511750018   -0.0021016919788835377
-0.034489231192544705   -0.21620365226083213   -0.003720197671713253
-0.03732631545154558   -0.16216480108152617   -0.0018795677295521279
-0.006719238288039005   -0.21578916750328697   -0.002826170163092492
-0.034818878372008165   -0.21581340519821957   -0.003537304680371137
-0.03732631545154558   -0.16216480108152617   -0.0018795677295521279
-0.034489231192544705   -0.21620365226083213   -0.003720197671713253
-0.006719238288039005   -0.21578916750328697   -0.002826170163092492
-0.03732631545154558   -0.16216480108152617   -0.0018795677295521279
-0.007958310573432015   -0.16219465591532922   -0.0010072013701805038
-0.007489869001428273   -0.16275351385665912   -0.0011845472022913746
-0.006719238288039005   -0.21578916750328697   -0.002826170163092492
-0.03732631545154558   -0.16216480108152617   -0.0018795677295521279
-0.007489869001428273   -0.16275351385665912   -0.0011845472022913746
-0.034489231192544705   -0.21620365226083213   -0.003720197671713253
-0.03388675818810564   -0.21720365108872633   -0.003985769024437786
-0.03617111831291204   -0.16363308639241253   -0.0024600251674210902
-0.06151247432633159   -0.2167082754403926   -0.004924159586301711
-0.03418504783964919   -0.21666848895823823   -0.0038702080967879717
-0.03617111831291204   -0.16363308639241253   -0.0024600251674210902
-0.06516009437041137   -0.1632525884691276   -0.003333676649107955
-0.06151247432633159   -0.2167082754403926   -0.004924159586301711
-0.065528506082549   -0.1628272725045378   -0.003113629924122577
-0.03418504783964919   -0.21666848895823823   -0.0038702080967879717
-0.06181902414742032   -0.21627226344664516   -0.00467635943545993
-0.065528506082549   -0.1628272725045378   -0.003113629924122577
-0.06151247432633159   -0.2167082754403926   -0.004924159586301711
-0.03418504783964919   -0.21666848895823823   -0.0038702080967879717
-0.065528506082549   -0.1628272725045378   -0.003113629924122577
-0.03654279178654273   -0.16311603582295459   -0.0022950546450438724
-0.03617111831291204   -0.16363308639241253   -0.0024600251674210902
-0.03418504783964919   -0.21666848895823823   -0.0038702080967879717
-0.065528506082549   -0.1628272725045378   -0.003113629924122577
-0.03617111831291204   -0.16363308639241253   -0.0024600251674210902
-0.06151247432633159   -0.2167082754403926   -0.004924159586301711
-0.03418504783964919   -0.21666848895823823   -0.0038702080967879717
-0.03654279178654273   -0.16311603582295459   -0.0022950546450438724
-0.06181902414742032   -0.21627226344664516   -0.00467635943545993
-0.034489231192544705   -0.21620365226083213   -0.003720197671713253
-0.03654279178654273   -0.16311603582295459   -0.0022950546450438724
-0.065528506082549   -0.1628272725045378   -0.003113629924122577
-0.06181902414742032   -0.21627226344664516   -0.00467635943545993
-0.0658732441799152   -0.16242865482852456   -0.002866165642813934
-0.034489231192544705   -0.21620365226083213   -0.003720197671713253
-0.06209737765882551   -0.21590607829614572   -0.004394897190876164
-0.0658732441799152   -0.16242865482852456   -0.002866165642813934
-0.06181902414742032   -0.21627226344664516   -0.00467635943545993
-0.034489231192544705   -0.21620365226083213   -0.003720197671713253
-0.0658732441799152   -0.16242865482852456   -0.002866165642813934
-0.03692261290746125   -0.1626241511750018   -0.0021016919788835377
-0.03654279178654273   -0.16311603582295459   -0.0022950546450438724
-0.034489231192544705   -0.21620365226083213   -0.003720197671713253
-0.0658732441799152   -0.16242865482852456   -0.002866165642813934
-0.03654279178654273   -0.16311603582295459   -0.0022950546450438724
-0.06181902414742032   -0.21627226344664516   -0.00467635943545993
-0.034489231192544705   -0.21620365226083213   -0.003720197671713253
-0.03692261290746125   -0.1626241511750018   -0.0021016919788835377
-0.06209737765882551   -0.21590607829614572   -0.004394897190876164
-0.034818878372008165   -0.21581340519821957   -0.003537304680371137
-0.03692261290746125   -0.1626241511750018   -0.0021016919788835377
-0.0658732441799152   -0.16242865482852456   -0.002866165642813934
-0.06209737765882551   -0.21590607829614572   -0.004394897190876164
-0.06621921004033413   -0.16205787833186625   -0.0025926604718489116
-0.034818878372008165   -0.21581340519821957   -0.003537304680371137
-0.06237833554418255   -0.21561037380645426   -0.004081074842515096
-0.06621921004033413   -0.16205787833186625   -0.0025926604718489116
-0.06209737765882551   -0.21590607829614572   -0.004394897190876164
-0.034818878372008165   -0.21581340519821957   -0.003537304680371137
-0.06621921004033413   -0.16205787833186625   -0.0025926604718489116
-0.03732631545154558   -0.16216480108152617   -0.0018795677295521279
-0.03692261290746125   -0.1626241511750018   -0.0021016919788835377
-0.034818878372008165   -0.21581340519821957   -0.003537304680371137
-0.06621921004033413   -0.16205787833186625   -0.0025926604718489116
-0.03692261290746125   -0.1626241511750018   -0.0021016919788835377
-0.06209737765882551   -0.21590607829614572   -0.004394897190876164
-0.06151247432633159   -0.2167082754403926   -0.004924159586301711
-0.06516009437041137   -0.1632525884691276   -0.003333676649107955
-0.08968420357771992   -0.215974573080391   -0.005693473200637581
-0.06181902414742032   -0.21627226344664516   -0.00467635943545993
-0.06516009437041137   -0.1632525884691276   -0.003333676649107955
-0.09467089849469468   -0.16273988912773033   -0.0040481188430372935
-0.08968420357771992   -0.215974573080391   -0.005693473200637581
-0.09502392394144685   -0.16241112389551413   -0.003773638353976712
-0.06181902414742032   -0.21627226344664516   -0.00467635943545993
-0.08996934069893295   -0.2156386954562349   -0.005312448994689099
-0.09502392394144685   -0.16241112389551413   -0.003773638353976712
-0.08968420357771992   -0.215974573080391   -0.005693473200637581
-0.06181902414742032   -0.21627226344664516   -0.00467635943545993
-0.09502392394144685   -0.16241112389551413   -0.003773638353976712
-0.065528506082549   -0.1628272725045378   -0.003113629924122577
-0.06516009437041137   -0.1632525884691276   -0.003333676649107955
-0.06181902414742032   -0.21627226344664516   -0.00467635943545993
-0.09502392394144685   -0.16241112389551413   -0.003773638353976712
-0.06516009437041137   -0.1632525884691276   -0.003333676649107955
-0.08968420357771992   -0.215974573080391   -0.005693473200637581
-0.06181902414742032   -0.21627226344664516   -0.00467635943545993
-0.065528506082549   -0.1628272725045378   -0.003113629924122577
-0.08996934069893295   -0.2156386954562349   -0.005312448994689099
-0.06209737765882551   -0.21590607829614572   -0.004394897190876164
-0.065528506082549   -0.1628272725045378   -0.003113629924122577
-0.09502392394144685   -0.16241112389551413   -0.003773638353976712
-0.08996934069893295   -0.2156386954562349   -0.005312448994689099
-0.09529288471185098   -0.16209824076218332   -0.0034763528038433142
-0.06209737765882551   -0.21590607829614572   -0.004394897190876164
-0.09014398068940137   -0.21536334197580384   -0.0049023463243225325
-0.09529288471185098   -0.16209824076218332   -0.0034763528038433142
-0.08996934069893295   -0.2156386954562349   -0.005312448994689099
-0.06209737765882551   -0.21590607829614572   -0.004394897190876164
-0.09529288471185098   -0.16209824076218332   -0.0034763528038433142
-0.0658732441799152   -0.16242865482852456   -0.002866165642813934
-0.065528506082549   -0.1628272725045378   -0.003113629924122577
-0.06209737765882551   -0.21590607829614572   -0.004394897190876164
-0.09529288471185098   -0.16209824076218332   -0.0034763528038433142
-0.065528506082549   -0.1628272725045378   -0.003113629924122577
-0.08996934069893295   -0.2156386954562349   -0.005312448994689099
-0.06209737765882551   -0.21590607829614572   -0.004394897190876164
-0.0658732441799152   -0.16242865482852456   -0.002866165642813934
-0.09014398068940137   -0.21536334197580384   -0.0049023463243225325
-0.06237833554418255   -0.21561037380645426   -0.004081074842515096
-0.0658732441799152   -0.16242865482852456   -0.002866165642813934
-0.09529288471185098   -0.16209824076218332   -0.0034763528038433142
-0.09014398068940137   -0.21536334197580384   -0.0049023463243225325
-0.09555943481610919   -0.16181463124741086   -0.003150235363692528
-0.06237833554418255   -0.21561037380645426   -0.004081074842515096
-0.09033479966330352   -0.2151644866942284   -0.004457133002223014
-0.09555943481610919   -0.16181463124741086   -0.003150235363692528
-0.09014398068940137   -0.21536334197580384   -0.0049023463243225325
-0.06237833554418255   -0.21561037380645426   -0.004081074842515096
-0.09555943481610919   -0.16181463124741086   -0.003150235363692528
-0.06621921004033413   -0.16205787833186625   -0.0025926604718489116
-0.0658732441799152   -0.16242865482852456   -0.002866165642813934
-0.06237833554418255   -0.21561037380645426   -0.004081074842515096
-0.09555943481610919   -0.16181463124741086   -0.003150235363692528
-0.0658732441799152   -0.16242865482852456   -0.002866165642813934
-0.09014398068940137   -0.21536334197580384   -0.0049023463243225325
-0.08968420357771992   -0.215974573080391   -0.005693473200637581
-0.09467089849469468   -0.16273988912773033   -0.0040481188430372935
-0.11991046461046365   -0.2150752996867354   -0.0063068641394382965
-0.08996934069893295   -0.2156386954562349   -0.005312448994689099
-0.09467089849469468   -0.16273988912773033   -0.0040481188430372935
-0.12593527318262734   -0.16213709516187252   -0.004582035697486863
-0.11991046461046365   -0.2150752996867354   -0.0063068641394382965
-0.12599690907188552   -0.1618726219124981   -0.004281221699203567
-0.08996934069893295   -0.2156386954562349   -0.005312448994689099
-0.119712808610274   -0.21479109821860892   -0.005801303796421013
-0.12599690907188552   -0.1618726219124981   -0.004281221699203567
-0.11991046461046365   -0.2150752996867354   -0.0063068641394382965
-0.08996934069893295   -0.2156386954562349   -0.005312448994689099
-0.12599690907188552   -0.1618726219124981   -0.004281221699203567
-0.09502392394144685   -0.16241112389551413   -0.003773638353976712
-0.09467089849469468   -0.16273988912773033   -0.0040481188430372935
-0.08996934069893295   -0.2156386954562349   -0.005312448994689099
-0.12599690907188552   -0.1618726219124981   -0.004281221699203567
-0.09467089849469468   -0.16273988912773033   -0.0040481188430372935
-0.11991046461046365   -0.2150752996867354   -0.0063068641394382965
-0.08996934069893295   -0.2156386954562349   -0.005312448994689099
-0.09502392394144685   -0.16241112389551413   -0.003773638353976712
-0.119712808610274   -0.21479109821860892   -0.005801303796421013
-0.09014398068940137   -0.21536334197580384   -0.0049023463243225325
-0.09502392394144685   -0.16241112389551413   -0.003773638353976712
-0.12599690907188552   -0.1618726219124981   -0.004281221699203567
-0.119712808610274   -0.21479109821860892   -0.005801303796421013
-0.12605897070434863   -0.16160374007300182   -0.003934391837270613
-0.09014398068940137   -0.21536334197580384   -0.0049023463243225325
-0.11955187745180006   -0.21455849534134933   -0.005242393188038312
-0.12605897070434863   -0.16160374007300182   -0.003934391837270613
-0.119712808610274   -0.21479109821860892   -0.005801303796421013
-0.09014398068940137   -0.21536334197580384   -0.0049023463243225325
-0.12605897070434863   -0.16160374007300182   -0.003934391837270613
-0.09529288471185098   -0.16209824076218332   -0.0034763528038433142
-0.09502392394144685   -0.16241112389551413   -0.003773638353976712
-0.09014398068940137   -0.21536334197580384   -0.0049023463243225325
-0.12605897070434863   -0.16160374007300182   -0.003934391837270613
-0.09502392394144685   -0.16241112389551413   -0.003773638353976712
-0.119712808610274   -0.21479109821860892   -0.005801303796421013
-0.09014398068940137   -0.21536334197580384   -0.0049023463243225325
-0.09529288471185098   -0.16209824076218332   -0.0034763528038433142
-0.11955187745180006   -0.21455849534134933   -0.005242393188038312
-0.09033479966330352   -0.2151644866942284   -0.004457133002223014
-0.09529288471185098   -0.16209824076218332   -0.0034763528038433142
-0.12605897070434863   -0.16160374007300182   -0.003934391837270613
-0.11955187745180006   -0.21455849534134933   -0.005242393188038312
-0.12594731435508397   -0.16142041770786028   -0.003547062060333425
-0.09033479966330352   -0.2151644866942284   -0.004457133002223014
-0.11915543766478594   -0.21447522377436187   -0.004636230332496095
-0.12594731435508397   -0.16142041770786028   -0.003547062060333425
-0.11955187745180006   -0.21455849534134933   -0.005242393188038312
-0.09033479966330352   -0.2151644866942284   -0.004457133002223014
-0.12594731435508397   -0.16142041770786028   -0.003547062060333425
-0.09555943481610919   -0.16181463124741086   -0.003150235363692528
-0.09529288471185098   -0.16209824076218332   -0.0034763528038433142
-0.09033479966330352   -0.2151644866942284   -0.004457133002223014
-0.12594731435508397   -0.16142041770786028   -0.003547062060333425
-0.09529288471185098   -0.16209824076218332   -0.0034763528038433142
-0.11955187745180006   -0.21455849534134933   -0.005242393188038312
0.024388974131197654   -0.16423156564951763   -0.0002284809374315587
0.02180158661964398   -0.10947584516621936   0.0006745234809366728
-0.006705765665365743   -0.16395256239243486   -0.0014345872614872069
0.02399519407782921   -0.16352773492514464   -0.00020036674869634505
0.02180158661964398   -0.10947584516621936   0.0006745234809366728
-0.009482511242047931   -0.10895463595356625   -0.00028950129835517575
-0.006705765665365743   -0.16395256239243486   -0.0014345872614872069
-0.00991704659918073   -0.10839580390935757   -6.338841527416472e-05
0.02399519407782921   -0.16352773492514464   -0.00020036674869634505
-0.0070715431528436175   -0.16333685958733815   -0.0013245061240806507
-0.00991704659918073   -0.10839580390935757   -6.338841527416472e-05
-0.006705765665365743   -0.16395256239243486   -0.0014345872614872069
0.02399519407782921   -0.16352773492514464   -0.00020036674869634505
-0.00991704659918073   -0.10839580390935757   -6.338841527416472e-05
0.021113221994690106   -0.1088041573740969   0.0009593240082889432
0.02180158661964398   -0.10947584516621936   0.0006745234809366728
0.02399519407782921   -0.16352773492514464   -0.00020036674869634505
-0.00991704659918073   -0.10839580390935757   -6.338841527416472e-05
0.02180158661964398   -0.10947584516621936   0.0006745234809366728
-0.006705765665365743   -0.16395256239243486   -0.0014345872614872069
0.02399519407782921   -0.16352773492514464   -0.00020036674869634505
0.021113221994690106   -0.1088041573740969   0.0009593240082889432
-0.0070715431528436175   -0.16333685958733815   -0.0013245061240806507
0.02351620591846337   -0.16289544075053056   -0.00011110421309582991
0.021113221994690106   -0.1088041573740969   0.0009593240082889432
-0.00991704659918073   -0.10839580390935757   -6.338841527416472e-05
-0.0070715431528436175   -0.16333685958733815   -0.0013245061240806507
-0.010424715364585353   -0.10780515028079828   0.00020242818060632
0.02351620591846337   -0.16289544075053056   -0.00011110421309582991
-0.007489869001428273   -0.16275351385665912   -0.0011845472022913746
-0.010424715364585353   -0.10780515028079828   0.00020242818060632
-0.0070715431528436175   -0.16333685958733815   -0.0013245061240806507
0.02351620591846337   -0.16289544075053056   -0.00011110421309582991
-0.010424715364585353   -0.10780515028079828   0.00020242818060632
0.020348336097645674   -0.10813503310438104   0.0013653402760432966
0.021113221994690106   -0.1088041573740969   0.0009593240082889432
0.02351620591846337   -0.16289544075053056   -0.00011110421309582991
-0.010424715364585353   -0.10780515028079828   0.00020242818060632
0.021113221994690106   -0.1088041573740969   0.0009593240082889432
-0.0070715431528436175   -0.16333685958733815   -0.0013245061240806507
0.02351620591846337   -0.16289544075053056   -0.00011110421309582991
0.020348336097645674   -0.10813503310438104   0.0013653402760432966
-0.007489869001428273   -0.16275351385665912   -0.0011845472022913746
0.022885960145911783   -0.16223234189641153   3.650867754054528e-05
0.020348336097645674   -0.10813503310438104   0.0013653402760432966
-0.010424715364585353   -0.10780515028079828   0.00020242818060632
-0.007489869001428273   -0.16275351385665912   -0.0011845472022913746
-0.01094905735145214   -0.10717722952470654   0.0005073128077972866
0.022885960145911783   -0.16223234189641153   3.650867754054528e-05
-0.007958310573432015   -0.16219465591532922   -0.0010072013701805038
-0.01094905735145214   -0.10717722952470654   0.0005073128077972866
-0.007489869001428273   -0.16275351385665912   -0.0011845472022913746
0.022885960145911783   -0.16223234189641153   3.650867754054528e-05
-0.01094905735145214   -0.10717722952470654   0.0005073128077972866
0.019414075446353426   -0.10731385565852332   0.0018115773649827797
0.020348336097645674   -0.10813503310438104   0.0013653402760432966
0.022885960145911783   -0.16223234189641153   3.650867754054528e-05
-0.01094905735145214   -0.10717722952470654   0.0005073128077972866
0.020348336097645674   -0.10813503310438104   0.0013653402760432966
-0.007489869001428273   -0.16275351385665912   -0.0011845472022913746
-0.006705765665365743   -0.16395256239243486   -0.0014345872614872069
-0.009482511242047931   -0.10895463595356625   -0.00028950129835517575
-0.03617111831291204   -0.16363308639241253   -0.0024600251674210902
-0.0070715431528436175   -0.16333685958733815   -0.0013245061240806507
-0.009482511242047931   -0.10895463595356625   -0.00028950129835517575
-0.03895343090735062   -0.1088200196625693   -0.0012211446066929016
-0.03617111831291204   -0.16363308639241253   -0.0024600251674210902
-0.039344931809734904   -0.10833041515018293   -0.001012402206547833
-0.0070715431528436175   -0.16333685958733815   -0.0013245061240806507
-0.03654279178654273   -0.16311603582295459   -0.0022950546450438724
-0.039344931809734904   -0.10833041515018293   -0.001012402206547833
-0.03617111831291204   -0.16363308639241253   -0.0024600251674210902
-0.0070715431528436175   -0.16333685958733815   -0.0013245061240806507
-0.039344931809734904   -0.10833041515018293   -0.001012402206547833
-0.00991704659918073   -0.10839580390935757   -6.338841527416472e-05
-0.009482511242047931   -0.10895463595356625   -0.00028950129835517575
-0.0070715431528436175   -0.16333685958733815   -0.0013245061240806507
-0.039344931809734904   -0.10833041515018293   -0.001012402206547833
-0.009482511242047931   -0.10895463595356625   -0.00028950129835517575
-0.03617111831291204   -0.16363308639241253   -0.0024600251674210902
-0.0070715431528436175   -0.16333685958733815   -0.0013245061240806507
-0.00991704659918073   -0.10839580390935757   -6.338841527416472e-05
-0.03654279178654273   -0.16311603582295459   -0.0022950546450438724
-0.007489869001428273   -0.16275351385665912   -0.0011845472022913746
-0.00991704659918073   -0.10839580390935757   -6.338841527416472e-05
-0.039344931809734904   -0.10833041515018293   -0.001012402206547833
-0.03654279178654273   -0.16311603582295459   -0.0022950546450438724
-0.03974959812797229   -0.10782080178300854   -0.000783264615941364
-0.007489869001428273   -0.16275351385665912   -0.0011845472022913746
-0.03692261290746125   -0.1626241511750018   -0.0021016919788835377
-0.03974959812797229   -0.10782080178300854   -0.000783264615941364
-0.03654279178654273   -0.16311603582295459   -0.0022950546450438724
-0.007489869001428273   -0.16275351385665912   -0.0011845472022913746
-0.03974959812797229   -0.10782080178300854   -0.000783264615941364
-0.010424715364585353   -0.10780515028079828   0.00020242818060632
-0.00991704659918073   -0.10839580390935757   -6.338841527416472e-05
-0.007489869001428273   -0.16275351385665912   -0.0011845472022913746
-0.03974959812797229   -0.10782080178300854   -0.000783264615941364
-0.00991704659918073   -0.10839580390935757   -6.338841527416472e-05
-0.03654279178654273   -0.16311603582295459   -0.0022950546450438724
-0.007489869001428273   -0.16275351385665912   -0.0011845472022913746
-0.010424715364585353   -0.10780515028079828   0.00020242818060632
-0.03692261290746125   -0.1626241511750018   -0.0021016919788835377
-0.007958310573432015   -0.16219465591532922   -0.0010072013701805038
-0.010424715364585353   -0.10780515028079828   0.00020242818060632
-0.03974959812797229   -0.10782080178300854   -0.000783264615941364
-0.03692261290746125   -0.1626241511750018   -0.0021016919788835377
-0.040170565032563915   -0.10729984604757925   -0.0005295838100320946
-0.007958310573432015   -0.16219465591532922   -0.0010072013701805038
-0.03732631545154558   -0.16216480108152617   -0.0018795677295521279
-0.040170565032563915   -0.10729984604757925   -0.0005295838100320946
-0.03692261290746125   -0.1626241511750018   -0.0021016919788835377
-0.007958310573432015   -0.16219465591532922   -0.0010072013701805038
-0.040170565032563915   -0.10729984604757925   -0.0005295838100320946
-0.01094905735145214   -0.10717722952470654   0.0005073128077972866
-0.010424715364585353   -0.10780515028079828   0.00020242818060632
-0.007958310573432015   -0.16219465591532922   -0.0010072013701805038
-0.040170565032563915   -0.10729984604757925   -0.0005295838100320946
-0.010424715364585353   -0.10780515028079828   0.00020242818060632
-0.03692261290746125   -0.1626241511750018   -0.0021016919788835377
-0.03617111831291204   -0.16363308639241253   -0.0024600251674210902
-0.03895343090735062   -0.1088200196625693   -0.0012211446066929016
-0.06516009437041137   -0.1632525884691276   -0.003333676649107955
-0.03654279178654273   -0.16311603582295459   -0.0022950546450438724
-0.03895343090735062   -0.1088200196625693   -0.0012211446066929016
-0.06813035435514754   -0.10878298435730338   -0.0020647704719577247
-0.06516009437041137   -0.1632525884691276   -0.003333676649107955
-0.06850399711235443   -0.10835233103951535   -0.0018670365765983794
-0.03654279178654273   -0.16311603582295459   -0.0022950546450438724
-0.065528506082549   -0.1628272725045378   -0.003113629924122577
-0.06850399711235443   -0.10835233103951535   -0.0018670365765983794
-0.06516009437041137   -0.1632525884691276   -0.003333676649107955
-0.03654279178654273   -0.16311603582295459   -0.0022950546450438724
-0.06850399711235443   -0.10835233103951535   -0.0018670365765983794
-0.039344931809734904   -0.10833041515018293   -0.001012402206547833
-0.03895343090735062   -0.1088200196625693   -0.0012211446066929016
-0.03654279178654273   -0.16311603582295459   -0.0022950546450438724
-0.06850399711235443   -0.10835233103951535   -0.0018670365765983794
-0.03895343090735062   -0.1088200196625693   -0.0012211446066929016
-0.06516009437041137   -0.1632525884691276   -0.003333676649107955
-0.03654279178654273   -0.16311603582295459   -0.0022950546450438724
-0.039344931809734904   -0.10833041515018293   -0.001012402206547833
-0.065528506082549   -0.1628272725045378   -0.003113629924122577
-0.03692261290746125   -0.1626241511750018   -0.0021016919788835377
-0.039344931809734904   -0.10833041515018293   -0.001012402206547833
-0.06850399711235443   -0.10835233103951535   -0.0018670365765983794
-0.065528506082549   -0.1628272725045378   -0.003113629924122577
-0.06885989426186963   -0.10791334571054999   -0.0016515217909100093
-0.03692261290746125   -0.1626241511750018   -0.0021016919788835377
-0.0658732441799152   -0.16242865482852456   -0.002866165642813934
-0.06885989426186963   -0.10791334571054999   -0.0016515217909100093
-0.065528506082549   -0.1628272725045378   -0.003113629924122577
-0.03692261290746125   -0.1626241511750018   -0.0021016919788835377
-0.06885989426186963   -0.10791334571054999   -0.0016515217909100093
-0.03974959812797229   -0.10782080178300854   -0.000783264615941364
-0.039344931809734904   -0.10833041515018293   -0.001012402206547833
-0.03692261290746125   -0.1626241511750018   -0.0021016919788835377
-0.06885989426186963   -0.10791334571054999   -0.0016515217909100093
-0.039344931809734904   -0.10833041515018293   -0.001012402206547833
-0.065528506082549   -0.1628272725045378   -0.003113629924122577
-0.03692261290746125   -0.1626241511750018   -0.0021016919788835377
-0.03974959812797229   -0.10782080178300854   -0.000783264615941364
-0.0658732441799152   -0.16242865482852456   -0.002866165642813934
-0.03732631545154558   -0.16216480108152617   -0.0018795677295521279
-0.03974959812797229   -0.10782080178300854   -0.000783264615941364
-0.06885989426186963   -0.10791334571054999   -0.0016515217909100093
-0.0658732441799152   -0.16242865482852456   -0.002866165642813934
-0.06921217597902068   -0.10746360900619999   -0.0014192839184481488
-0.03732631545154558   -0.16216480108152617   -0.0018795677295521279
-0.06621921004033413   -0.16205787833186625   -0.0025926604718489116
-0.06921217597902068   -0.10746360900619999   -0.0014192839184481488
-0.0658732441799152   -0.16242865482852456   -0.002866165642813934
-0.03732631545154558   -0.16216480108152617   -0.0018795677295521279
-0.06921217597902068   -0.10746360900619999   -0.0014192839184481488
-0.040170565032563915   -0.10729984604757925   -0.0005295838100320946
-0.03974959812797229   -0.10782080178300854   -0.000783264615941364
-0.03732631545154558   -0.16216480108152617   -0.0018795677295521279
-0.06921217597902068   -0.10746360900619999   -0.0014192839184481488
-0.03974959812797229   -0.10782080178300854   -0.000783264615941364
-0.0658732441799152   -0.16242865482852456   -0.002866165642813934
-0.06516009437041137   -0.1632525884691276   -0.003333676649107955
-0.06813035435514754   -0.10878298435730338   -0.0020647704719577247
-0.09467089849469468   -0.16273988912773033   -0.0040481188430372935
-0.065528506082549   -0.1628272725045378   -0.003113629924122577
-0.06813035435514754   -0.10878298435730338   -0.0020647704719577247
-0.09792414138439404   -0.1086154382325556   -0.002776407902427354
-0.09467089849469468   -0.16273988912773033   -0.0040481188430372935
-0.09828036581949964   -0.10826228968589043   -0.002590502762518251
-0.065528506082549   -0.1628272725045378   -0.003113629924122577
-0.09502392394144685   -0.16241112389551413   -0.003773638353976712
-0.09828036581949964   -0.10826228968589043   -0.002590502762518251
-0.09467089849469468   -0.16273988912773033   -0.0040481188430372935
-0.065528506082549   -0.1628272725045378   -0.003113629924122577
-0.09828036581949964   -0.10826228968589043   -0.002590502762518251
-0.06850399711235443   -0.10835233103951535   -0.0018670365765983794
-0.06813035435514754   -0.10878298435730338   -0.0020647704719577247
-0.065528506082549   -0.1628272725045378   -0.003113629924122577
-0.09828036581949964   -0.10826228968589043   -0.002590502762518251
-0.06813035435514754   -0.10878298435730338   -0.0020647704719577247
-0.09467089849469468   -0.16273988912773033   -0.0040481188430372935
-0.065528506082549   -0.1628272725045378   -0.003113629924122577
-0.06850399711235443   -0.10835233103951535   -0.0018670365765983794
-0.09502392394144685   -0.16241112389551413   -0.003773638353976712
-0.0658732441799152   -0.16242865482852456   -0.002866165642813934
-0.06850399711235443   -0.10835233103951535   -0.0018670365765983794
-0.09828036581949964   -0.10826228968589043   -0.002590502762518251
-0.09502392394144685   -0.16241112389551413   -0.003773638353976712
-0.09858289825667323   -0.10788957845697696   -0.0023921269482639887
-0.0658732441799152   -0.16242865482852456   -0.002866165642813934
-0.09529288471185098   -0.16209824076218332   -0.0034763528038433142
-0.09858289825667323   -0.10788957845697696   -0.0023921269482639887
-0.09502392394144685   -0.16241112389551413   -0.003773638353976712
-0.0658732441799152   -0.16242865482852456   -0.002866165642813934
-0.09858289825667323   -0.10788957845697696   -0.0023921269482639887
-0.06885989426186963   -0.10791334571054999   -0.0016515217909100093
-0.06850399711235443   -0.10835233103951535   -0.0018670365765983794
-0.0658732441799152   -0.16242865482852456   -0.002866165642813934
-0.09858289825667323   -0.10788957845697696   -0.0023921269482639887
-0.06850399711235443   -0.10835233103951535   -0.0018670365765983794
-0.09502392394144685   -0.16241112389551413   -0.003773638353976712
-0.0658732441799152   -0.16242865482852456   -0.002866165642813934
-0.06885989426186963   -0.10791334571054999   -0.0016515217909100093
-0.09529288471185098   -0.16209824076218332   -0.0034763528038433142
-0.06621921004033413   -0.16205787833186625   -0.0025926604718489116
-0.06885989426186963   -0.10791334571054999   -0.0016515217909100093
-0.09858289825667323   -0.10788957845697696   -0.0023921269482639887
-0.09529288471185098   -0.16209824076218332   -0.0034763528038433142
-0.09886887609214869   -0.10750659016511618   -0.0021757002242177026
-0.06621921004033413   -0.16205787833186625   -0.0025926604718489116
-0.09555943481610919   -0.16181463124741086   -0.003150235363692528
-0.09886887609214869   -0.10750659016511618   -0.0021757002242177026
-0.09529288471185098   -0.16209824076218332   -0.0034763528038433142
-0.06621921004033413   -0.16205787833186625   -0.0025926604718489116
-0.09886887609214869   -0.10750659016511618   -0.0021757002242177026
-0.06921217597902068   -0.10746360900619999   -0.0014192839184481488
-0.06885989426186963   -0.10791334571054999   -0.0016515217909100093
-0.06621921004033413   -0.16205787833186625   -0.0025926604718489116
-0.09886887609214869   -0.10750659016511618   -0.0021757002242177026
-0.06885989426186963   -0.10791334571054999   -0.0016515217909100093
-0.09529288471185098   -0.16209824076218332   -0.0034763528038433142
-0.09467089849469468   -0.16273988912773033   -0.0040481188430372935
-0.09792414138439404   -0.1086154382325556   -0.002776407902427354
-0.12593527318262734   -0.16213709516187252   -0.004582035697486863
-0.09502392394144685   -0.16241112389551413   -0.003773638353976712
-0.09792414138439404   -0.1086154382325556   -0.002776407902427354
-0.12911804756455433   -0.10834143509459077   -0.0033077925882884726
-0.12593527318262734   -0.16213709516187252   -0.004582035697486863
-0.1293431989624055   -0.10804286511316645   -0.003170606375302411
-0.09502392394144685   -0.16241112389551413   -0.003773638353976712
-0.12599690907188552   -0.1618726219124981   -0.004281221699203567
-0.1293431989624055   -0.10804286511316645   -0.003170606375302411
-0.12593527318262734   -0.16213709516187252   -0.004582035697486863
-0.09502392394144685   -0.16241112389551413   -0.003773638353976712
-0.1293431989624055   -0.10804286511316645   -0.003170606375302411
-0.09828036581949964   -0.10826228968589043   -0.002590502762518251
-0.09792414138439404   -0.1086154382325556   -0.002776407902427354
-0.09502392394144685   -0.16241112389551413   -0.003773638353976712
-0.1293431989624055   -0.10804286511316645   -0.003170606375302411
-0.09792414138439404   -0.1086154382325556   -0.002776407902427354
-0.12593527318262734   -0.16213709516187252   -0.004582035697486863
-0.09502392394144685   -0.16241112389551413   -0.003773638353976712
-0.09828036581949964   -0.10826228968589043   -0.002590502762518251
-0.12599690907188552   -0.1618726219124981   -0.004281221699203567
-0.09529288471185098   -0.16209824076218332   -0.0034763528038433142
-0.09828036581949964   -0.10826228968589043   -0.002590502762518251
-0.1293431989624055   -0.10804286511316645   -0.003170606375302411
-0.12599690907188552   -0.1618726219124981   -0.004281221699203567
-0.1295490714697402   -0.10770590979944865   -0.0030025092402962764
-0.09529288471185098   -0.16209824076218332   -0.0034763528038433142
-0.12605897070434863   -0.16160374007300182   -0.003934391837270613
-0.1295490714697402   -0.10770590979944865   -0.0030025092402962764
-0.12599690907188552   -0.1618726219124981   -0.004281221699203567
-0.09529288471185098   -0.16209824076218332   -0.0034763528038433142
-0.1295490714697402   -0.10770590979944865   -0.0030025092402962764
-0.09858289825667323   -0.10788957845697696   -0.0023921269482639887
-0.09828036581949964   -0.10826228968589043   -0.002590502762518251
-0.09529288471185098   -0.16209824076218332   -0.0034763528038433142
-0.1295490714697402   -0.10770590979944865   -0.0030025092402962764
-0.09828036581949964   -0.10826228968589043   -0.002590502762518251
-0.12599690907188552   -0.1618726219124981   -0.004281221699203567
-0.09529288471185098   -0.16209824076218332   -0.0034763528038433142
-0.09858289825667323   -0.10788957845697696   -0.0023921269482639887
-0.12605897070434863   -0.16160374007300182   -0.003934391837270613
-0.09555943481610919   -0.16181463124741086   -0.003150235363692528
-0.09858289825667323   -0.10788957845697696   -0.0023921269482639887
-0.1295490714697402   -0.10770590979944865   -0.0030025092402962764
-0.12605897070434863   -0.16160374007300182   -0.003934391837270613
-0.1296530609279616   -0.1073940448483536   -0.002811405864253432
-0.09555943481610919   -0.16181463124741086   -0.003150235363692528
-0.12594731435508397   -0.16142041770786028   -0.003547062060333425
-0.1296530609279616   -0.1073940448483536   -0.002811405864253432
-0.12605897070434863   -0.16160374007300182   -0.003934391837270613
-0.09555943481610919   -0.16181463124741086   -0.003150235363692528
-0.1296530609279616   -0.1073940448483536   -0.002811405864253432
-0.09886887609214869   -0.10750659016511618   -0.0021757002242177026
-0.09858289825667323   -0.10788957845697696   -0.0023921269482639887
-0.09555943481610919   -0.16181463124741086   -0.003150235363692528
-0.1296530609279616   -0.1073940448483536   -0.002811405864253432
-0.09858289825667323   -0.10788957845697696   -0.0023921269482639887
-0.12605897070434863   -0.16160374007300182   -0.003934391837270613
0.02180158661964398   -0.10947584516621936   0.0006745234809366728
0.015236477068086764   -0.05490333050525969   0.0007201686640016491
-0.009482511242047931   -0.10895463595356625   -0.00028950129835517575
0.021113221994690106   -0.1088041573740969   0.0009593240082889432
0.015236477068086764   -0.05490333050525969   0.0007201686640016491
-0.013889338817880655   -0.05417975148364109   0.00034704525994759766
-0.009482511242047931   -0.10895463595356625   -0.00028950129835517575
-0.014319994438925846   -0.053891729835628406   0.0006587599864446989
0.021113221994690106   -0.1088041573740969   0.0009593240082889432
-0.00991704659918073   -0.10839580390935757   -6.338841527416472e-05
-0.014319994438925846   -0.053891729835628406   0.0006587599864446989
-0.009482511242047931   -0.10895463595356625   -0.00028950129835517575
0.021113221994690106   -0.1088041573740969   0.0009593240082889432
-0.014319994438925846   -0.053891729835628406   0.0006587599864446989
0.01389597139217789   -0.05419252059264227   0.0014941669632710373
0.015236477068086764   -0.05490333050525969   0.0007201686640016491
0.021113221994690106   -0.1088041573740969   0.0009593240082889432
-0.014319994438925846   -0.053891729835628406   0.0006587599864446989
0.015236477068086764   -0.05490333050525969   0.0007201686640016491
-0.009482511242047931   -0.10895463595356625   -0.00028950129835517575
0.021113221994690106   -0.1088041573740969   0.0009593240082889432
0.01389597139217789   -0.05419252059264227   0.0014941669632710373
-0.00991704659918073   -0.10839580390935757   -6.338841527416472e-05
0.020348336097645674   -0.10813503310438104   0.0013653402760432966
0.01389597139217789   -0.05419252059264227   0.0014941669632710373
-0.014319994438925846   -0.053891729835628406   0.0006587599864446989
-0.00991704659918073   -0.10839580390935757   -6.338841527416472e-05
-0.014883223359098492   -0.053388128953607054   0.0010364754566235825
0.020348336097645674   -0.10813503310438104   0.0013653402760432966
-0.010424715364585353   -0.10780515028079828   0.00020242818060632
-0.014883223359098492   -0.053388128953607054   0.0010364754566235825
-0.00991704659918073   -0.10839580390935757   -6.338841527416472e-05
0.020348336097645674   -0.10813503310438104   0.0013653402760432966
-0.014883223359098492   -0.053388128953607054   0.0010364754566235825
0.013109766602042489   -0.05360669090980472   0.002073312160814343
0.01389597139217789   -0.05419252059264227   0.0014941669632710373
0.020348336097645674   -0.10813503310438104   0.0013653402760432966
-0.014883223359098492   -0.053388128953607054   0.0010364754566235825
0.01389597139217789   -0.05419252059264227   0.0014941669632710373
-0.00991704659918073   -0.10839580390935757   -6.338841527416472e-05
0.020348336097645674   -0.10813503310438104   0.0013653402760432966
0.013109766602042489   -0.05360669090980472   0.002073312160814343
-0.010424715364585353   -0.10780515028079828   0.00020242818060632
0.019414075446353426   -0.10731385565852332   0.0018115773649827797
0.013109766602042489   -0.05360669090980472   0.002073312160814343
-0.014883223359098492   -0.053388128953607054   0.0010364754566235825
-0.010424715364585353   -0.10780515028079828   0.00020242818060632
-0.015355536699586007   -0.05284496698338956   0.0013691408083825402
0.019414075446353426   -0.10731385565852332   0.0018115773649827797
-0.01094905735145214   -0.10717722952470654   0.0005073128077972866
-0.015355536699586007   -0.05284496698338956   0.0013691408083825402
-0.010424715364585353   -0.10780515028079828   0.00020242818060632
0.019414075446353426   -0.10731385565852332   0.0018115773649827797
-0.015355536699586007   -0.05284496698338956   0.0013691408083825402
0.012104206056431826   -0.052715448512564184   0.0027357338224313697
0.013109766602042489   -0.05360669090980472   0.002073312160814343
0.019414075446353426   -0.10731385565852332   0.0018115773649827797
-0.015355536699586007   -0.05284496698338956   0.0013691408083825402
0.013109766602042489   -0.05360669090980472   0.002073312160814343
-0.010424715364585353   -0.10780515028079828   0.00020242818060632
-0.009482511242047931   -0.10895463595356625   -0.00028950129835517575
-0.013889338817880655   -0.05417975148364109   0.00034704525994759766
-0.03895343090735062   -0.1088200196625693   -0.0012211446066929016
-0.00991704659918073   -0.10839580390935757   -6.338841527416472e-05
-0.013889338817880655   -0.05417975148364109   0.00034704525994759766
-0.04164522012443775   -0.05497218279381722   -0.00040045955534336264
-0.03895343090735062   -0.1088200196625693   -0.0012211446066929016
-0.042039310881960036   -0.05453831848268629   -0.00018065707173784166
-0.00991704659918073   -0.10839580390935757   -6.338841527416472e-05
-0.039344931809734904   -0.10833041515018293   -0.001012402206547833
-0.042039310881960036   -0.05453831848268629   -0.00018065707173784166
-0.03895343090735062   -0.1088200196625693   -0.0012211446066929016
-0.00991704659918073   -0.10839580390935757   -6.338841527416472e-05
-0.042039310881960036   -0.05453831848268629   -0.00018065707173784166
-0.014319994438925846   -0.053891729835628406   0.0006587599864446989
-0.013889338817880655   -0.05417975148364109   0.00034704525994759766
-0.00991704659918073   -0.10839580390935757   -6.338841527416472e-05
-0.042039310881960036   -0.05453831848268629   -0.00018065707173784166
-0.013889338817880655   -0.05417975148364109   0.00034704525994759766
-0.03895343090735062   -0.1088200196625693   -0.0012211446066929016
-0.00991704659918073   -0.10839580390935757   -6.338841527416472e-05
-0.014319994438925846   -0.053891729835628406   0.0006587599864446989
-0.039344931809734904   -0.10833041515018293   -0.001012402206547833
-0.010424715364585353   -0.10780515028079828   0.00020242818060632
-0.014319994438925846   -0.053891729835628406   0.0006587599864446989
-0.042039310881960036   -0.05453831848268629   -0.00018065707173784166
-0.039344931809734904   -0.10833041515018293   -0.001012402206547833
-0.042450487257508725   -0.05405014323635859   5.129488795093596e-05
-0.010424715364585353   -0.10780515028079828   0.00020242818060632
-0.03974959812797229   -0.10782080178300854   -0.000783264615941364
-0.042450487257508725   -0.05405014323635859   5.129488795093596e-05
-0.039344931809734904   -0.10833041515018293   -0.001012402206547833
-0.010424715364585353   -0.10780515028079828   0.00020242818060632
-0.042450487257508725   -0.05405014323635859   5.129488795093596e-05
-0.014883223359098492   -0.053388128953607054   0.0010364754566235825
-0.014319994438925846   -0.053891729835628406   0.0006587599864446989
-0.010424715364585353   -0.10780515028079828   0.00020242818060632
-0.042450487257508725   -0.05405014323635859   5.129488795093596e-05
-0.014319994438925846   -0.053891729835628406   0.0006587599864446989
-0.039344931809734904   -0.10833041515018293   -0.001012402206547833
-0.010424715364585353   -0.10780515028079828   0.00020242818060632
-0.014883223359098492   -0.053388128953607054   0.0010364754566235825
-0.03974959812797229   -0.10782080178300854   -0.000783264615941364
-0.01094905735145214   -0.10717722952470654   0.0005073128077972866
-0.014883223359098492   -0.053388128953607054   0.0010364754566235825
-0.042450487257508725   -0.05405014323635859   5.129488795093596e-05
-0.03974959812797229   -0.10782080178300854   -0.000783264615941364
-0.04284020331856214   -0.05351512349623377   0.00030670398298873557
-0.01094905735145214   -0.10717722952470654   0.0005073128077972866
-0.040170565032563915   -0.10729984604757925   -0.0005295838100320946
-0.04284020331856214   -0.05351512349623377   0.00030670398298873557
-0.03974959812797229   -0.10782080178300854   -0.000783264615941364
-0.01094905735145214   -0.10717722952470654   0.0005073128077972866
-0.04284020331856214   -0.05351512349623377   0.00030670398298873557
-0.015355536699586007   -0.05284496698338956   0.0013691408083825402
-0.014883223359098492   -0.053388128953607054   0.0010364754566235825
-0.01094905735145214   -0.10717722952470654   0.0005073128077972866
-0.04284020331856214   -0.05351512349623377   0.00030670398298873557
-0.014883223359098492   -0.053388128953607054   0.0010364754566235825
-0.03974959812797229   -0.10782080178300854   -0.000783264615941364
-0.03895343090735062   -0.1088200196625693   -0.0012211446066929016
-0.04164522012443775   -0.05497218279381722   -0.00040045955534336264
-0.06813035435514754   -0.10878298435730338   -0.0020647704719577247
-0.039344931809734904   -0.10833041515018293   -0.001012402206547833
-0.04164522012443775   -0.05497218279381722   -0.00040045955534336264
-0.07009693894604856   -0.05559097674833862   -0.0012246660657147556
-0.06813035435514754   -0.10878298435730338   -0.0020647704719577247
-0.07044981329215796   -0.05514603581412393   -0.0010551753939091245
-0.039344931809734904   -0.10833041515018293   -0.001012402206547833
-0.06850399711235443   -0.10835233103951535   -0.0018670365765983794
-0.07044981329215796   -0.05514603581412393   -0.0010551753939091245
-0.06813035435514754   -0.10878298435730338   -0.0020647704719577247
-0.039344931809734904   -0.10833041515018293   -0.001012402206547833
-0.07044981329215796   -0.05514603581412393   -0.0010551753939091245
-0.042039310881960036   -0.05453831848268629   -0.00018065707173784166
-0.04164522012443775   -0.05497218279381722   -0.00040045955534336264
-0.039344931809734904   -0.10833041515018293   -0.001012402206547833
-0.07044981329215796   -0.05514603581412393   -0.0010551753939091245
-0.04164522012443775   -0.05497218279381722   -0.00040045955534336264
-0.06813035435514754   -0.10878298435730338   -0.0020647704719577247
-0.039344931809734904   -0.10833041515018293   -0.001012402206547833
-0.042039310881960036   -0.05453831848268629   -0.00018065707173784166
-0.06850399711235443   -0.10835233103951535   -0.0018670365765983794
-0.03974959812797229   -0.10782080178300854   -0.000783264615941364
-0.042039310881960036   -0.05453831848268629   -0.00018065707173784166
-0.07044981329215796   -0.05514603581412393   -0.0010551753939091245
-0.06850399711235443   -0.10835233103951535   -0.0018670365765983794
-0.0707868181825718   -0.05467685641880647   -0.000886718123413104
-0.03974959812797229   -0.10782080178300854   -0.000783264615941364
-0.06885989426186963   -0.10791334571054999   -0.0016515217909100093
-0.0707868181825718   -0.05467685641880647   -0.000886718123413104
-0.06850399711235443   -0.10835233103951535   -0.0018670365765983794
-0.03974959812797229   -0.10782080178300854   -0.000783264615941364
-0.0707868181825718   -0.05467685641880647   -0.000886718123413104
-0.042450487257508725   -0.05405014323635859   5.129488795093596e-05
-0.042039310881960036   -0.05453831848268629   -0.00018065707173784166
-0.03974959812797229   -0.10782080178300854   -0.000783264615941364
-0.0707868181825718   -0.05467685641880647   -0.000886718123413104
-0.042039310881960036   -0.05453831848268629   -0.00018065707173784166
-0.06850399711235443   -0.10835233103951535   -0.0018670365765983794
-0.03974959812797229   -0.10782080178300854   -0.000783264615941364
-0.042450487257508725   -0.05405014323635859   5.129488795093596e-05
-0.06885989426186963   -0.10791334571054999   -0.0016515217909100093
-0.040170565032563915   -0.10729984604757925   -0.0005295838100320946
-0.042450487257508725   -0.05405014323635859   5.129488795093596e-05
-0.0707868181825718   -0.05467685641880647   -0.000886718123413104
-0.06885989426186963   -0.10791334571054999   -0.0016515217909100093
-0.07109682862995105   -0.0541694657562909   -0.0007038302188991786
-0.040170565032563915   -0.10729984604757925   -0.0005295838100320946
-0.06921217597902068   -0.10746360900619999   -0.0014192839184481488
-0.07109682862995105   -0.0541694657562909   -0.0007038302188991786
-0.06885989426186963   -0.10791334571054999   -0.0016515217909100093
-0.040170565032563915   -0.10729984604757925   -0.0005295838100320946
-0.07109682862995105   -0.0541694657562909   -0.0007038302188991786
-0.04284020331856214   -0.05351512349623377   0.00030670398298873557
-0.042450487257508725   -0.05405014323635859   5.129488795093596e-05
-0.040170565032563915   -0.10729984604757925   -0.0005295838100320946
-0.07109682862995105   -0.0541694657562909   -0.0007038302188991786
-0.042450487257508725   -0.05405014323635859   5.129488795093596e-05
-0.06885989426186963   -0.10791334571054999   -0.0016515217909100093
-0.06813035435514754   -0.10878298435730338   -0.0020647704719577247
-0.07009693894604856   -0.05559097674833862   -0.0012246660657147556
-0.09792414138439404   -0.1086154382325556   -0.002776407902427354
-0.06850399711235443   -0.10835233103951535   -0.0018670365765983794
-0.07009693894604856   -0.05559097674833862   -0.0012246660657147556
-0.0995475988077203   -0.05584405619437639   -0.001986577956482945
-0.09792414138439404   -0.1086154382325556   -0.002776407902427354
-0.09986527239357054   -0.05544306883146082   -0.0018637257790210416
-0.06850399711235443   -0.10835233103951535   -0.0018670365765983794
-0.09828036581949964   -0.10826228968589043   -0.002590502762518251
-0.09986527239357054   -0.05544306883146082   -0.0018637257790210416
-0.09792414138439404   -0.1086154382325556   -0.002776407902427354
-0.06850399711235443   -0.10835233103951535   -0.0018670365765983794
-0.09986527239357054   -0.05544306883146082   -0.0018637257790210416
-0.07044981329215796   -0.05514603581412393   -0.0010551753939091245
-0.07009693894604856   -0.05559097674833862   -0.0012246660657147556
-0.06850399711235443   -0.10835233103951535   -0.0018670365765983794
-0.09986527239357054   -0.05544306883146082   -0.0018637257790210416
-0.07009693894604856   -0.05559097674833862   -0.0012246660657147556
-0.09792414138439404   -0.1086154382325556   -0.002776407902427354
-0.06850399711235443   -0.10835233103951535   -0.0018670365765983794
-0.07044981329215796   -0.05514603581412393   -0.0010551753939091245
-0.09828036581949964   -0.10826228968589043   -0.002590502762518251
-0.06885989426186963   -0.10791334571054999   -0.0016515217909100093
-0.07044981329215796   -0.05514603581412393   -0.0010551753939091245
-0.09986527239357054   -0.05544306883146082   -0.0018637257790210416
-0.09828036581949964   -0.10826228968589043   -0.002590502762518251
-0.10014830596528916   -0.05500736679595089   -0.0017448224515966384
-0.06885989426186963   -0.10791334571054999   -0.0016515217909100093
-0.09858289825667323   -0.10788957845697696   -0.0023921269482639887
-0.10014830596528916   -0.05500736679595089   -0.0017448224515966384
-0.09828036581949964   -0.10826228968589043   -0.002590502762518251
-0.06885989426186963   -0.10791334571054999   -0.0016515217909100093
-0.10014830596528916   -0.05500736679595089   -0.0017448224515966384
-0.0707868181825718   -0.05467685641880647   -0.000886718123413104
-0.07044981329215796   -0.05514603581412393   -0.0010551753939091245
-0.06885989426186963   -0.10791334571054999   -0.0016515217909100093
-0.10014830596528916   -0.05500736679595089   -0.0017448224515966384
-0.07044981329215796   -0.05514603581412393   -0.0010551753939091245
-0.09828036581949964   -0.10826228968589043   -0.002590502762518251
-0.06885989426186963   -0.10791334571054999   -0.0016515217909100093
-0.0707868181825718   -0.05467685641880647   -0.000886718123413104
-0.09858289825667323   -0.10788957845697696   -0.0023921269482639887
-0.06921217597902068   -0.10746360900619999   -0.0014192839184481488
-0.0707868181825718   -0.05467685641880647   -0.000886718123413104
-0.10014830596528916   -0.05500736679595089   -0.0017448224515966384
-0.09858289825667323   -0.10788957845697696   -0.0023921269482639887
-0.10040441157090589   -0.05454407774427713   -0.0016229104525673085
-0.06921217597902068   -0.10746360900619999   -0.0014192839184481488
-0.09886887609214869   -0.10750659016511618   -0.0021757002242177026
-0.10040441157090589   -0.05454407774427713   -0.0016229104525673085
-0.09858289825667323   -0.10788957845697696   -0.0023921269482639887
-0.06921217597902068   -0.10746360900619999   -0.0014192839184481488
-0.10040441157090589   -0.05454407774427713   -0.0016229104525673085
-0.07109682862995105   -0.0541694657562909   -0.0007038302188991786
-0.0707868181825718   -0.05467685641880647   -0.000886718123413104
-0.06921217597902068   -0.10746360900619999   -0.0014192839184481488
-0.10040441157090589   -0.05454407774427713   -0.0016229104525673085
-0.0707868181825718   -0.05467685641880647   -0.000886718123413104
-0.09858289825667323   -0.10788957845697696   -0.0023921269482639887
-0.09792414138439404   -0.1086154382325556   -0.002776407902427354
-0.0995475988077203   -0.05584405619437639   -0.001986577956482945
-0.12911804756455433   -0.10834143509459077   -0.0033077925882884726
-0.09828036581949964   -0.10826228968589043   -0.002590502762518251
-0.0995475988077203   -0.05584405619437639   -0.001986577956482945
-0.13003192581127154   -0.05587373083114887   -0.002622569154069544
-0.12911804756455433   -0.10834143509459077   -0.0033077925882884726
-0.13030609477637511   -0.055483875464855247   -0.002571189859501459
-0.09828036581949964   -0.10826228968589043   -0.002590502762518251
-0.1293431989624055   -0.10804286511316645   -0.003170606375302411
-0.13030609477637511   -0.055483875464855247   -0.002571189859501459
-0.12911804756455433   -0.10834143509459077   -0.0033077925882884726
-0.09828036581949964   -0.10826228968589043   -0.002590502762518251
-0.13030609477637511   -0.055483875464855247   -0.002571189859501459
-0.09986527239357054   -0.05544306883146082   -0.0018637257790210416
-0.0995475988077203   -0.05584405619437639   -0.001986577956482945
-0.09828036581949964   -0.10826228968589043   -0.002590502762518251
-0.13030609477637511   -0.055483875464855247   -0.002571189859501459
-0.0995475988077203   -0.05584405619437639   -0.001986577956482945
-0.12911804756455433   -0.10834143509459077   -0.0033077925882884726
-0.09828036581949964   -0.10826228968589043   -0.002590502762518251
-0.09986527239357054   -0.05544306883146082   -0.0018637257790210416
-0.1293431989624055   -0.10804286511316645   -0.003170606375302411
-0.09858289825667323   -0.10788957845697696   -0.0023921269482639887
-0.09986527239357054   -0.05544306883146082   -0.0018637257790210416
-0.13030609477637511   -0.055483875464855247   -0.002571189859501459
-0.1293431989624055   -0.10804286511316645   -0.003170606375302411
-0.1305517246207535   -0.05506343162862964   -0.002511351806474722
-0.09858289825667323   -0.10788957845697696   -0.0023921269482639887
-0.1295490714697402   -0.10770590979944865   -0.0030025092402962764
-0.1305517246207535   -0.05506343162862964   -0.002511351806474722
-0.1293431989624055   -0.10804286511316645   -0.003170606375302411
-0.09858289825667323   -0.10788957845697696   -0.0023921269482639887
-0.1305517246207535   -0.05506343162862964   -0.002511351806474722
-0.10014830596528916   -0.05500736679595089   -0.0017448224515966384
-0.09986527239357054   -0.05544306883146082   -0.0018637257790210416
-0.09858289825667323   -0.10788957845697696   -0.0023921269482639887
-0.1305517246207535   -0.05506343162862964   -0.002511351806474722
-0.09986527239357054   -0.05544306883146082   -0.0018637257790210416
-0.1293431989624055   -0.10804286511316645   -0.003170606375302411
-0.09858289825667323   -0.10788957845697696   -0.0023921269482639887
-0.10014830596528916   -0.05500736679595089   -0.0017448224515966384
-0.1295490714697402   -0.10770590979944865   -0.0030025092402962764
-0.09886887609214869   -0.10750659016511618   -0.0021757002242177026
-0.10014830596528916   -0.05500736679595089   -0.0017448224515966384
-0.1305517246207535   -0.05506343162862964   -0.002511351806474722
-0.1295490714697402   -0.10770590979944865   -0.0030025092402962764
-0.1307598565297332   -0.05461801901363483   -0.0024565680717095837
-0.09886887609214869   -0.10750659016511618   -0.0021757002242177026
-0.1296530609279616   -0.1073940448483536   -0.002811405864253432
-0.1307598565297332   -0.05461801901363483   -0.0024565680717095837
-0.1295490714697402   -0.10770590979944865   -0.0030025092402962764
-0.09886887609214869   -0.10750659016511618   -0.0021757002242177026
-0.1307598565297332   -0.05461801901363483   -0.0024565680717095837
-0.10040441157090589   -0.05454407774427713   -0.0016229104525673085
-0.10014830596528916   -0.05500736679595089   -0.0017448224515966384
-0.09886887609214869   -0.10750659016511618   -0.0021757002242177026
-0.1307598565297332   -0.05461801901363483   -0.0024565680717095837
-0.10014830596528916   -0.05500736679595089   -0.0017448224515966384
-0.1295490714697402   -0.10770590979944865   -0.0030025092402962764
0.015236477068086764   -0.05490333050525969   0.0007201686640016491
0.0   0.0   0.0
-0.013889338817880655   -0.05417975148364109   0.00034704525994759766
0.01389597139217789   -0.05419252059264227   0.0014941669632710373
0.0   0.0   0.0
-0.017490733444694977   -0.004342916239657355   -0.0001691158754634112
-0.013889338817880655   -0.05417975148364109   0.00034704525994759766
-0.018533797161595127   -0.003356755216899169   0.0004240566325697476
0.01389597139217789   -0.05419252059264227   0.0014941669632710373
-0.014319994438925846   -0.053891729835628406   0.0006587599864446989
-0.018533797161595127   -0.003356755216899169   0.0004240566325697476
-0.013889338817880655   -0.05417975148364109   0.00034704525994759766
0.01389597139217789   -0.05419252059264227   0.0014941669632710373
-0.018533797161595127   -0.003356755216899169   0.0004240566325697476
0.0   0.0   0.0
0.0   0.0   0.0
0.01389597139217789   -0.05419252059264227   0.0014941669632710373
-0.018533797161595127   -0.003356755216899169   0.0004240566325697476
0.0   0.0   0.0
-0.013889338817880655   -0.05417975148364109   0.00034704525994759766
0.01389597139217789   -0.05419252059264227   0.0014941669632710373
0.0   0.0   0.0
-0.014319994438925846   -0.053891729835628406   0.0006587599864446989
0.013109766602042489   -0.05360669090980472   0.002073312160814343
0.0   0.0   0.0
-0.018533797161595127   -0.003356755216899169   0.0004240566325697476
-0.014319994438925846   -0.053891729835628406   0.0006587599864446989
-0.019185653043151688   -0.002879063929526713   0.0007633984365118456
0.013109766602042489   -0.05360669090980472   0.002073312160814343
-0.014883223359098492   -0.053388128953607054   0.0010364754566235825
-0.019185653043151688   -0.002879063929526713   0.0007633984365118456
-0.014319994438925846   -0.053891729835628406   0.0006587599864446989
0.013109766602042489   -0.05360669090980472   0.002073312160814343
-0.019185653043151688   -0.002879063929526713   0.0007633984365118456
0.0   0.0   0.0
0.0   0.0   0.0
0.013109766602042489   -0.05360669090980472   0.002073312160814343
-0.019185653043151688   -0.002879063929526713   0.0007633984365118456
0.0   0.0   0.0
-0.014319994438925846   -0.053891729835628406   0.0006587599864446989
0.013109766602042489   -0.05360669090980472   0.002073312160814343
0.0   0.0   0.0
-0.014883223359098492   -0.053388128953607054   0.0010364754566235825
0.012104206056431826   -0.052715448512564184   0.0027357338224313697
0.0   0.0   0.0
-0.019185653043151688   -0.002879063929526713   0.0007633984365118456
-0.014883223359098492   -0.053388128953607054   0.0010364754566235825
-0.02005478873276467   -0.0022462991392124855   0.001152318063395782
0.012104206056431826   -0.052715448512564184   0.0027357338224313697
-0.015355536699586007   -0.05284496698338956   0.0013691408083825402
-0.02005478873276467   -0.0022462991392124855   0.001152318063395782
-0.014883223359098492   -0.053388128953607054   0.0010364754566235825
0.012104206056431826   -0.052715448512564184   0.0027357338224313697
-0.02005478873276467   -0.0022462991392124855   0.001152318063395782
0.0   0.0   0.0
0.0   0.0   0.0
0.012104206056431826   -0.052715448512564184   0.0027357338224313697
-0.02005478873276467   -0.0022462991392124855   0.001152318063395782
0.0   0.0   0.0
-0.014883223359098492   -0.053388128953607054   0.0010364754566235825
-0.013889338817880655   -0.05417975148364109   0.00034704525994759766
-0.017490733444694977   -0.004342916239657355   -0.0001691158754634112
-0.04164522012443775   -0.05497218279381722   -0.00040045955534336264
-0.014319994438925846   -0.053891729835628406   0.0006587599864446989
-0.017490733444694977   -0.004342916239657355   -0.0001691158754634112
-0.042905427983714044   -0.005654876544739685   -0.00019133459759029415
-0.04164522012443775   -0.05497218279381722   -0.00040045955534336264
-0.043439264484185246   -0.005110537523138083   -4.3571119005252396e-05
-0.014319994438925846   -0.053891729835628406   0.0006587599864446989
-0.042039310881960036   -0.05453831848268629   -0.00018065707173784166
-0.043439264484185246   -0.005110537523138083   -4.3571119005252396e-05
-0.04164522012443775   -0.05497218279381722   -0.00040045955534336264
-0.014319994438925846   -0.053891729835628406   0.0006587599864446989
-0.043439264484185246   -0.005110537523138083   -4.3571119005252396e-05
-0.018533797161595127   -0.003356755216899169   0.0004240566325697476
-0.017490733444694977   -0.004342916239657355   -0.0001691158754634112
-0.014319994438925846   -0.053891729835628406   0.0006587599864446989
-0.043439264484185246   -0.005110537523138083   -4.3571119005252396e-05
-0.017490733444694977   -0.004342916239657355   -0.0001691158754634112
-0.04164522012443775   -0.05497218279381722   -0.00040045955534336264
-0.014319994438925846   -0.053891729835628406   0.0006587599864446989
-0.018533797161595127   -0.003356755216899169   0.0004240566325697476
-0.042039310881960036   -0.05453831848268629   -0.00018065707173784166
-0.014883223359098492   -0.053388128953607054   0.0010364754566235825
-0.018533797161595127   -0.003356755216899169   0.0004240566325697476
-0.043439264484185246   -0.005110537523138083   -4.3571119005252396e-05
-0.042039310881960036   -0.05453831848268629   -0.00018065707173784166
-0.04396956705503822   -0.004475071133643767   0.00022436734405300123
-0.014883223359098492   -0.053388128953607054   0.0010364754566235825
-0.042450487257508725   -0.05405014323635859   5.129488795093596e-05
-0.04396956705503822   -0.004475071133643767   0.00022436734405300123
-0.042039310881960036   -0.05453831848268629   -0.00018065707173784166
-0.014883223359098492   -0.053388128953607054   0.0010364754566235825
-0.04396956705503822   -0.004475071133643767   0.00022436734405300123
-0.019185653043151688   -0.002879063929526713   0.0007633984365118456
-0.018533797161595127   -0.003356755216899169   0.0004240566325697476
-0.014883223359098492   -0.053388128953607054   0.0010364754566235825
-0.04396956705503822   -0.004475071133643767   0.00022436734405300123
-0.018533797161595127   -0.003356755216899169   0.0004240566325697476
-0.042039310881960036   -0.05453831848268629   -0.00018065707173784166
-0.014883223359098492   -0.053388128953607054   0.0010364754566235825
-0.019185653043151688   -0.002879063929526713   0.0007633984365118456
-0.042450487257508725   -0.05405014323635859   5.129488795093596e-05
-0.015355536699586007   -0.05284496698338956   0.0013691408083825402
-0.019185653043151688   -0.002879063929526713   0.0007633984365118456
-0.04396956705503822   -0.004475071133643767   0.00022436734405300123
-0.042450487257508725   -0.05405014323635859   5.129488795093596e-05
-0.04455175278917604   -0.003743636608837584   0.00047888409397934064
-0.015355536699586007   -0.05284496698338956   0.0013691408083825402
-0.04284020331856214   -0.05351512349623377   0.00030670398298873557
-0.04455175278917604   -0.003743636608837584   0.00047888409397934064
-0.042450487257508725   -0.05405014323635859   5.129488795093596e-05
-0.015355536699586007   -0.05284496698338956   0.0013691408083825402
-0.04455175278917604   -0.003743636608837584   0.00047888409397934064
-0.02005478873276467   -0.0022462991392124855   0.001152318063395782
-0.019185653043151688   -0.002879063929526713   0.0007633984365118456
-0.015355536699586007   -0.05284496698338956   0.0013691408083825402
-0.04455175278917604   -0.003743636608837584   0.00047888409397934064
-0.019185653043151688   -0.002879063929526713   0.0007633984365118456
-0.042450487257508725   -0.05405014323635859   5.129488795093596e-05
-0.04164522012443775   -0.05497218279381722   -0.00040045955534336264
-0.042905427983714044   -0.005654876544739685   -0.00019133459759029415
-0.07009693894604856   -0.05559097674833862   -0.0012246660657147556
-0.042039310881960036   -0.05453831848268629   -0.00018065707173784166
-0.042905427983714044   -0.005654876544739685   -0.00019133459759029415
-0.0707965181044513   -0.006001997916781031   -0.0007249466138397917
-0.07009693894604856   -0.05559097674833862   -0.0012246660657147556
-0.07111819445385505   -0.005571281636530261   -0.0006861655642314387
-0.042039310881960036   -0.05453831848268629   -0.00018065707173784166
-0.07044981329215796   -0.05514603581412393   -0.0010551753939091245
-0.07111819445385505   -0.005571281636530261   -0.0006861655642314387
-0.07009693894604856   -0.05559097674833862   -0.0012246660657147556
-0.042039310881960036   -0.05453831848268629   -0.00018065707173784166
-0.07111819445385505   -0.005571281636530261   -0.0006861655642314387
-0.043439264484185246   -0.005110537523138083   -4.3571119005252396e-05
-0.042905427983714044   -0.005654876544739685   -0.00019133459759029415
-0.042039310881960036   -0.05453831848268629   -0.00018065707173784166
-0.07111819445385505   -0.005571281636530261   -0.0006861655642314387
-0.042905427983714044   -0.005654876544739685   -0.00019133459759029415
-0.07009693894604856   -0.05559097674833862   -0.0012246660657147556
-0.042039310881960036   -0.05453831848268629   -0.00018065707173784166
-0.043439264484185246   -0.005110537523138083   -4.3571119005252396e-05
-0.07044981329215796   -0.05514603581412393   -0.0010551753939091245
-0.042450487257508725   -0.05405014323635859   5.129488795093596e-05
-0.043439264484185246   -0.005110537523138083   -4.3571119005252396e-05
-0.07111819445385505   -0.005571281636530261   -0.0006861655642314387
-0.07044981329215796   -0.05514603581412393   -0.0010551753939091245
-0.07145227729721577   -0.005074482418505883   -0.000616873769173708
-0.042450487257508725   -0.05405014323635859   5.129488795093596e-05
-0.0707868181825718   -0.05467685641880647   -0.000886718123413104
-0.07145227729721577   -0.005074482418505883   -0.000616873769173708
-0.07044981329215796   -0.05514603581412393   -0.0010551753939091245
-0.042450487257508725   -0.05405014323635859   5.129488795093596e-05
-0.07145227729721577   -0.005074482418505883   -0.000616873769173708
-0.04396956705503822   -0.004475071133643767   0.00022436734405300123
-0.043439264484185246   -0.005110537523138083   -4.3571119005252396e-05
-0.042450487257508725   -0.05405014323635859   5.129488795093596e-05
-0.07145227729721577   -0.005074482418505883   -0.000616873769173708
-0.043439264484185246   -0.005110537523138083   -4.3571119005252396e-05
-0.07044981329215796   -0.05514603581412393   -0.0010551753939091245
-0.042450487257508725   -0.05405014323635859   5.129488795093596e-05
-0.04396956705503822   -0.004475071133643767   0.00022436734405300123
-0.0707868181825718   -0.05467685641880647   -0.000886718123413104
-0.04284020331856214   -0.05351512349623377   0.00030670398298873557
-0.04396956705503822   -0.004475071133643767   0.00022436734405300123
-0.07145227729721577   -0.005074482418505883   -0.000616873769173708
-0.0707868181825718   -0.05467685641880647   -0.000886718123413104
-0.07176509538026797   -0.0044751990670672944   -0.0005252063501119857
-0.04284020331856214   -0.05351512349623377   0.00030670398298873557
-0.07109682862995105   -0.0541694657562909   -0.0007038302188991786
-0.07176509538026797   -0.0044751990670672944   -0.0005252063501119857
-0.0707868181825718   -0.05467685641880647   -0.000886718123413104
-0.04284020331856214   -0.05351512349623377   0.00030670398298873557
-0.07176509538026797   -0.0044751990670672944   -0.0005252063501119857
-0.04455175278917604   -0.003743636608837584   0.00047888409397934064
-0.04396956705503822   -0.004475071133643767   0.00022436734405300123
-0.04284020331856214   -0.05351512349623377   0.00030670398298873557
-0.07176509538026797   -0.0044751990670672944   -0.0005252063501119857
-0.04396956705503822   -0.004475071133643767   0.00022436734405300123
-0.0707868181825718   -0.05467685641880647   -0.000886718123413104
-0.07009693894604856   -0.05559097674833862   -0.0012246660657147556
-0.0707965181044513   -0.006001997916781031   -0.0007249466138397917
-0.0995475988077203   -0.05584405619437639   -0.001986577956482945
-0.07044981329215796   -0.05514603581412393   -0.0010551753939091245
-0.0707965181044513   -0.006001997916781031   -0.0007249466138397917
-0.10005938724329254   -0.0059200961365279805   -0.0014763878779476241
-0.0995475988077203   -0.05584405619437639   -0.001986577956482945
-0.10027607611951342   -0.005528384999682218   -0.0014601090504931912
-0.07044981329215796   -0.05514603581412393   -0.0010551753939091245
-0.09986527239357054   -0.05544306883146082   -0.0018637257790210416
-0.10027607611951342   -0.005528384999682218   -0.0014601090504931912
-0.0995475988077203   -0.05584405619437639   -0.001986577956482945
-0.07044981329215796   -0.05514603581412393   -0.0010551753939091245
-0.10027607611951342   -0.005528384999682218   -0.0014601090504931912
-0.07111819445385505   -0.005571281636530261   -0.0006861655642314387
-0.0707965181044513   -0.006001997916781031   -0.0007249466138397917
-0.07044981329215796   -0.05514603581412393   -0.0010551753939091245
-0.10027607611951342   -0.005528384999682218   -0.0014601090504931912
-0.0707965181044513   -0.006001997916781031   -0.0007249466138397917
-0.0995475988077203   -0.05584405619437639   -0.001986577956482945
-0.07044981329215796   -0.05514603581412393   -0.0010551753939091245
-0.07111819445385505   -0.005571281636530261   -0.0006861655642314387
-0.09986527239357054   -0.05544306883146082   -0.0018637257790210416
-0.0707868181825718   -0.05467685641880647   -0.000886718123413104
-0.07111819445385505   -0.005571281636530261   -0.0006861655642314387
-0.10027607611951342   -0.005528384999682218   -0.0014601090504931912
-0.09986527239357054   -0.05544306883146082   -0.0018637257790210416
-0.10050228156315678   -0.005095388860712847   -0.0014505984437106479
-0.0707868181825718   -0.05467685641880647   -0.000886718123413104
-0.10014830596528916   -0.05500736679595089   -0.0017448224515966384
-0.10050228156315678   -0.005095388860712847   -0.0014505984437106479
-0.09986527239357054   -0.05544306883146082   -0.0018637257790210416
-0.0707868181825718   -0.05467685641880647   -0.000886718123413104
-0.10050228156315678   -0.005095388860712847   -0.0014505984437106479
-0.07145227729721577   -0.005074482418505883   -0.000616873769173708
-0.07111819445385505   -0.005571281636530261   -0.0006861655642314387
-0.0707868181825718   -0.05467685641880647   -0.000886718123413104
-0.10050228156315678   -0.005095388860712847   -0.0014505984437106479
-0.07111819445385505   -0.005571281636530261   -0.0006861655642314387
-0.09986527239357054   -0.05544306883146082   -0.0018637257790210416
-0.0707868181825718   -0.05467685641880647   -0.000886718123413104
-0.07145227729721577   -0.005074482418505883   -0.000616873769173708
-0.10014830596528916   -0.05500736679595089   -0.0017448224515966384
-0.07109682862995105   -0.0541694657562909   -0.0007038302188991786
-0.07145227729721577   -0.005074482418505883   -0.000616873769173708
-0.10050228156315678   -0.005095388860712847   -0.0014505984437106479
-0.10014830596528916   -0.05500736679595089   -0.0017448224515966384
-0.10067101545993691   -0.004629615498009649   -0.0014489904537902862
-0.07109682862995105   -0.0541694657562909   -0.0007038302188991786
-0.10040441157090589   -0.05454407774427713   -0.0016229104525673085
-0.10067101545993691   -0.004629615498009649   -0.0014489904537902862
-0.10014830596528916   -0.05500736679595089   -0.0017448224515966384
-0.07109682862995105   -0.0541694657562909   -0.0007038302188991786
-0.10067101545993691   -0.004629615498009649   -0.0014489904537902862
-0.07176509538026797   -0.0044751990670672944   -0.0005252063501119857
-0.07145227729721577   -0.005074482418505883   -0.000616873769173708
-0.07109682862995105   -0.0541694657562909   -0.0007038302188991786
-0.10067101545993691   -0.004629615498009649   -0.0014489904537902862
-0.07145227729721577   -0.005074482418505883   -0.000616873769173708
-0.10014830596528916   -0.05500736679595089   -0.0017448224515966384
-0.0995475988077203   -0.05584405619437639   -0.001986577956482945
-0.10005938724329254   -0.0059200961365279805   -0.0014763878779476241
-0.13003192581127154   -0.05587373083114887   -0.002622569154069544
-0.09986527239357054   -0.05544306883146082   -0.0018637257790210416
-0.10005938724329254   -0.0059200961365279805   -0.0014763878779476241
-0.1301189656046121   -0.005874158645842651   -0.0022146556155651638
-0.13003192581127154   -0.05587373083114887   -0.002622569154069544
-0.1302936695450884   -0.005448133770279386   -0.00221531657402277
-0.09986527239357054   -0.05544306883146082   -0.0018637257790210416
-0.13030609477637511   -0.055483875464855247   -0.002571189859501459
-0.1302936695450884   -0.005448133770279386   -0.00221531657402277
-0.13003192581127154   -0.05587373083114887   -0.002622569154069544
-0.09986527239357054   -0.05544306883146082   -0.0018637257790210416
-0.1302936695450884   -0.005448133770279386   -0.00221531657402277
-0.10027607611951342   -0.005528384999682218   -0.0014601090504931912
-0.10005938724329254   -0.0059200961365279805   -0.0014763878779476241
-0.09986527239357054   -0.05544306883146082   -0.0018637257790210416
-0.1302936695450884   -0.005448133770279386   -0.00221531657402277
-0.10005938724329254   -0.0059200961365279805   -0.0014763878779476241
-0.13003192581127154   -0.05587373083114887   -0.002622569154069544
-0.09986527239357054   -0.05544306883146082   -0.0018637257790210416
-0.10027607611951342   -0.005528384999682218   -0.0014601090504931912
-0.13030609477637511   -0.055483875464855247   -0.002571189859501459
-0.10014830596528916   -0.05500736679595089   -0.0017448224515966384
-0.10027607611951342   -0.005528384999682218   -0.0014601090504931912
-0.1302936695450884   -0.005448133770279386   -0.00221531657402277
-0.13030609477637511   -0.055483875464855247   -0.002571189859501459
-0.13048571720907678   -0.005024557732880282   -0.002249112891911729
-0.10014830596528916   -0.05500736679595089   -0.0017448224515966384
-0.1305517246207535   -0.05506343162862964   -0.002511351806474722
-0.13048571720907678   -0.005024557732880282   -0.002249112891911729
-0.13030609477637511   -0.055483875464855247   -0.002571189859501459
-0.10014830596528916   -0.05500736679595089   -0.0017448224515966384
-0.13048571720907678   -0.005024557732880282   -0.002249112891911729
-0.10050228156315678   -0.005095388860712847   -0.0014505984437106479
-0.10027607611951342   -0.005528384999682218   -0.0014601090504931912
-0.10014830596528916   -0.05500736679595089   -0.0017448224515966384
-0.13048571720907678   -0.005024557732880282   -0.002249112891911729
-0.10027607611951342   -0.005528384999682218   -0.0014601090504931912
-0.13030609477637511   -0.055483875464855247   -0.002571189859501459
-0.10014830596528916   -0.05500736679595089   -0.0017448224515966384
-0.10050228156315678   -0.005095388860712847   -0.0014505984437106479
-0.1305517246207535   -0.05506343162862964   -0.002511351806474722
-0.10040441157090589   -0.05454407774427713   -0.0016229104525673085
-0.10050228156315678   -0.005095388860712847   -0.0014505984437106479
-0.13048571720907678   -0.005024557732880282   -0.002249112891911729
-0.1305517246207535   -0.05506343162862964   -0.002511351806474722
-0.1306261969149709   -0.004564821412665375   -0.0022855240970169966
-0.10040441157090589   -0.05454407774427713   -0.0016229104525673085
-0.1307598565297332   -0.05461801901363483   -0.0024565680717095837
-0.1306261969149709   -0.004564821412665375   -0.0022855240970169966
-0.1305517246207535   -0.05506343162862964   -0.002511351806474722
-0.10040441157090589   -0.05454407774427713   -0.0016229104525673085
-0.1306261969149709   -0.004564821412665375   -0.0022855240970169966
-0.10067101545993691   -0.004629615498009649   -0.0014489904537902862
-0.10050228156315678   -0.005095388860712847   -0.0014505984437106479
-0.10040441157090589   -0.05454407774427713   -0.0016229104525673085
-0.1306261969149709   -0.004564821412665375   -0.0022855240970169966
-0.10050228156315678   -0.005095388860712847   -0.0014505984437106479
-0.1305517246207535   -0.05506343162862964   -0.002511351806474722
              </DataArray>   
          </PointData>  
       </Piece>  
   </UnstructuredGrid> 
</VTKFile> 
