<?xml version="1.0"?> 
<VTKFile type="UnstructuredGrid"> 
   <UnstructuredGrid> 
      <Piece NumberOfPoints="6000"  NumberOfCells="1500">  
          <Points>  
             <DataArray type="Float64" NumberOfComponents="3" format="ascii">   
-500.0   0.0   0.0
-450.0   0.0   0.0
-500.0   30.0   0.0
-500.0   0.0   16.666666666666668
-450.0   0.0   0.0
-450.0   30.0   0.0
-500.0   30.0   0.0
-450.0   30.0   16.666666666666668
-500.0   0.0   16.666666666666668
-500.0   30.0   16.666666666666668
-450.0   30.0   16.666666666666668
-500.0   30.0   0.0
-500.0   0.0   16.666666666666668
-450.0   30.0   16.666666666666668
-450.0   0.0   16.666666666666668
-450.0   0.0   0.0
-500.0   0.0   16.666666666666668
-450.0   30.0   16.666666666666668
-450.0   0.0   0.0
-500.0   30.0   0.0
-500.0   0.0   16.666666666666668
-450.0   0.0   16.666666666666668
-500.0   30.0   16.666666666666668
-500.0   0.0   33.333333333333336
-450.0   0.0   16.666666666666668
-450.0   30.0   16.666666666666668
-500.0   30.0   16.666666666666668
-450.0   30.0   33.333333333333336
-500.0   0.0   33.333333333333336
-500.0   30.0   33.333333333333336
-450.0   30.0   33.333333333333336
-500.0   30.0   16.666666666666668
-500.0   0.0   33.333333333333336
-450.0   30.0   33.333333333333336
-450.0   0.0   33.333333333333336
-450.0   0.0   16.666666666666668
-500.0   0.0   33.333333333333336
-450.0   30.0   33.333333333333336
-450.0   0.0   16.666666666666668
-500.0   30.0   16.666666666666668
-500.0   0.0   33.333333333333336
-450.0   0.0   33.333333333333336
-500.0   30.0   33.333333333333336
-500.0   0.0   50.0
-450.0   0.0   33.333333333333336
-450.0   30.0   33.333333333333336
-500.0   30.0   33.333333333333336
-450.0   30.0   50.0
-500.0   0.0   50.0
-500.0   30.0   50.0
-450.0   30.0   50.0
-500.0   30.0   33.333333333333336
-500.0   0.0   50.0
-450.0   30.0   50.0
-450.0   0.0   50.0
-450.0   0.0   33.333333333333336
-500.0   0.0   50.0
-450.0   30.0   50.0
-450.0   0.0   33.333333333333336
-500.0   30.0   33.333333333333336
-500.0   30.0   0.0
-450.0   30.0   0.0
-500.0   60.0   0.0
-500.0   30.0   16.666666666666668
-450.0   30.0   0.0
-450.0   60.0   0.0
-500.0   60.0   0.0
-450.0   60.0   16.666666666666668
-500.0   30.0   16.666666666666668
-500.0   60.0   16.666666666666668
-450.0   60.0   16.666666666666668
-500.0   60.0   0.0
-500.0   30.0   16.666666666666668
-450.0   60.0   16.666666666666668
-450.0   30.0   16.666666666666668
-450.0   30.0   0.0
-500.0   30.0   16.666666666666668
-450.0   60.0   16.666666666666668
-450.0   30.0   0.0
-500.0   60.0   0.0
-500.0   30.0   16.666666666666668
-450.0   30.0   16.666666666666668
-500.0   60.0   16.666666666666668
-500.0   30.0   33.333333333333336
-450.0   30.0   16.666666666666668
-450.0   60.0   16.666666666666668
-500.0   60.0   16.666666666666668
-450.0   60.0   33.333333333333336
-500.0   30.0   33.333333333333336
-500.0   60.0   33.333333333333336
-450.0   60.0   33.333333333333336
-500.0   60.0   16.666666666666668
-500.0   30.0   33.333333333333336
-450.0   60.0   33.333333333333336
-450.0   30.0   33.333333333333336
-450.0   30.0   16.666666666666668
-500.0   30.0   33.333333333333336
-450.0   60.0   33.333333333333336
-450.0   30.0   16.666666666666668
-500.0   60.0   16.666666666666668
-500.0   30.0   33.333333333333336
-450.0   30.0   33.333333333333336
-500.0   60.0   33.333333333333336
-500.0   30.0   50.0
-450.0   30.0   33.333333333333336
-450.0   60.0   33.333333333333336
-500.0   60.0   33.333333333333336
-450.0   60.0   50.0
-500.0   30.0   50.0
-500.0   60.0   50.0
-450.0   60.0   50.0
-500.0   60.0   33.333333333333336
-500.0   30.0   50.0
-450.0   60.0   50.0
-450.0   30.0   50.0
-450.0   30.0   33.333333333333336
-500.0   30.0   50.0
-450.0   60.0   50.0
-450.0   30.0   33.333333333333336
-500.0   60.0   33.333333333333336
-500.0   60.0   0.0
-450.0   60.0   0.0
-500.0   90.0   0.0
-500.0   60.0   16.666666666666668
-450.0   60.0   0.0
-450.0   90.0   0.0
-500.0   90.0   0.0
-450.0   90.0   16.666666666666668
-500.0   60.0   16.666666666666668
-500.0   90.0   16.666666666666668
-450.0   90.0   16.666666666666668
-500.0   90.0   0.0
-500.0   60.0   16.666666666666668
-450.0   90.0   16.666666666666668
-450.0   60.0   16.666666666666668
-450.0   60.0   0.0
-500.0   60.0   16.666666666666668
-450.0   90.0   16.666666666666668
-450.0   60.0   0.0
-500.0   90.0   0.0
-500.0   60.0   16.666666666666668
-450.0   60.0   16.666666666666668
-500.0   90.0   16.666666666666668
-500.0   60.0   33.333333333333336
-450.0   60.0   16.666666666666668
-450.0   90.0   16.666666666666668
-500.0   90.0   16.666666666666668
-450.0   90.0   33.333333333333336
-500.0   60.0   33.333333333333336
-500.0   90.0   33.333333333333336
-450.0   90.0   33.333333333333336
-500.0   90.0   16.666666666666668
-500.0   60.0   33.333333333333336
-450.0   90.0   33.333333333333336
-450.0   60.0   33.333333333333336
-450.0   60.0   16.666666666666668
-500.0   60.0   33.333333333333336
-450.0   90.0   33.333333333333336
-450.0   60.0   16.666666666666668
-500.0   90.0   16.666666666666668
-500.0   60.0   33.333333333333336
-450.0   60.0   33.333333333333336
-500.0   90.0   33.333333333333336
-500.0   60.0   50.0
-450.0   60.0   33.333333333333336
-450.0   90.0   33.333333333333336
-500.0   90.0   33.333333333333336
-450.0   90.0   50.0
-500.0   60.0   50.0
-500.0   90.0   50.0
-450.0   90.0   50.0
-500.0   90.0   33.333333333333336
-500.0   60.0   50.0
-450.0   90.0   50.0
-450.0   60.0   50.0
-450.0   60.0   33.333333333333336
-500.0   60.0   50.0
-450.0   90.0   50.0
-450.0   60.0   33.333333333333336
-500.0   90.0   33.333333333333336
-500.0   90.0   0.0
-450.0   90.0   0.0
-500.0   120.0   0.0
-500.0   90.0   16.666666666666668
-450.0   90.0   0.0
-450.0   120.0   0.0
-500.0   120.0   0.0
-450.0   120.0   16.666666666666668
-500.0   90.0   16.666666666666668
-500.0   120.0   16.666666666666668
-450.0   120.0   16.666666666666668
-500.0   120.0   0.0
-500.0   90.0   16.666666666666668
-450.0   120.0   16.666666666666668
-450.0   90.0   16.666666666666668
-450.0   90.0   0.0
-500.0   90.0   16.666666666666668
-450.0   120.0   16.666666666666668
-450.0   90.0   0.0
-500.0   120.0   0.0
-500.0   90.0   16.666666666666668
-450.0   90.0   16.666666666666668
-500.0   120.0   16.666666666666668
-500.0   90.0   33.333333333333336
-450.0   90.0   16.666666666666668
-450.0   120.0   16.666666666666668
-500.0   120.0   16.666666666666668
-450.0   120.0   33.333333333333336
-500.0   90.0   33.333333333333336
-500.0   120.0   33.333333333333336
-450.0   120.0   33.333333333333336
-500.0   120.0   16.666666666666668
-500.0   90.0   33.333333333333336
-450.0   120.0   33.333333333333336
-450.0   90.0   33.333333333333336
-450.0   90.0   16.666666666666668
-500.0   90.0   33.333333333333336
-450.0   120.0   33.333333333333336
-450.0   90.0   16.666666666666668
-500.0   120.0   16.666666666666668
-500.0   90.0   33.333333333333336
-450.0   90.0   33.333333333333336
-500.0   120.0   33.333333333333336
-500.0   90.0   50.0
-450.0   90.0   33.333333333333336
-450.0   120.0   33.333333333333336
-500.0   120.0   33.333333333333336
-450.0   120.0   50.0
-500.0   90.0   50.0
-500.0   120.0   50.0
-450.0   120.0   50.0
-500.0   120.0   33.333333333333336
-500.0   90.0   50.0
-450.0   120.0   50.0
-450.0   90.0   50.0
-450.0   90.0   33.333333333333336
-500.0   90.0   50.0
-450.0   120.0   50.0
-450.0   90.0   33.333333333333336
-500.0   120.0   33.333333333333336
-500.0   120.0   0.0
-450.0   120.0   0.0
-500.0   150.0   0.0
-500.0   120.0   16.666666666666668
-450.0   120.0   0.0
-450.0   150.0   0.0
-500.0   150.0   0.0
-450.0   150.0   16.666666666666668
-500.0   120.0   16.666666666666668
-500.0   150.0   16.666666666666668
-450.0   150.0   16.666666666666668
-500.0   150.0   0.0
-500.0   120.0   16.666666666666668
-450.0   150.0   16.666666666666668
-450.0   120.0   16.666666666666668
-450.0   120.0   0.0
-500.0   120.0   16.666666666666668
-450.0   150.0   16.666666666666668
-450.0   120.0   0.0
-500.0   150.0   0.0
-500.0   120.0   16.666666666666668
-450.0   120.0   16.666666666666668
-500.0   150.0   16.666666666666668
-500.0   120.0   33.333333333333336
-450.0   120.0   16.666666666666668
-450.0   150.0   16.666666666666668
-500.0   150.0   16.666666666666668
-450.0   150.0   33.333333333333336
-500.0   120.0   33.333333333333336
-500.0   150.0   33.333333333333336
-450.0   150.0   33.333333333333336
-500.0   150.0   16.666666666666668
-500.0   120.0   33.333333333333336
-450.0   150.0   33.333333333333336
-450.0   120.0   33.333333333333336
-450.0   120.0   16.666666666666668
-500.0   120.0   33.333333333333336
-450.0   150.0   33.333333333333336
-450.0   120.0   16.666666666666668
-500.0   150.0   16.666666666666668
-500.0   120.0   33.333333333333336
-450.0   120.0   33.333333333333336
-500.0   150.0   33.333333333333336
-500.0   120.0   50.0
-450.0   120.0   33.333333333333336
-450.0   150.0   33.333333333333336
-500.0   150.0   33.333333333333336
-450.0   150.0   50.0
-500.0   120.0   50.0
-500.0   150.0   50.0
-450.0   150.0   50.0
-500.0   150.0   33.333333333333336
-500.0   120.0   50.0
-450.0   150.0   50.0
-450.0   120.0   50.0
-450.0   120.0   33.333333333333336
-500.0   120.0   50.0
-450.0   150.0   50.0
-450.0   120.0   33.333333333333336
-500.0   150.0   33.333333333333336
-450.0   0.0   0.0
-400.0   0.0   0.0
-450.0   30.0   0.0
-450.0   0.0   16.666666666666668
-400.0   0.0   0.0
-400.0   30.0   0.0
-450.0   30.0   0.0
-400.0   30.0   16.666666666666668
-450.0   0.0   16.666666666666668
-450.0   30.0   16.666666666666668
-400.0   30.0   16.666666666666668
-450.0   30.0   0.0
-450.0   0.0   16.666666666666668
-400.0   30.0   16.666666666666668
-400.0   0.0   16.666666666666668
-400.0   0.0   0.0
-450.0   0.0   16.666666666666668
-400.0   30.0   16.666666666666668
-400.0   0.0   0.0
-450.0   30.0   0.0
-450.0   0.0   16.666666666666668
-400.0   0.0   16.666666666666668
-450.0   30.0   16.666666666666668
-450.0   0.0   33.333333333333336
-400.0   0.0   16.666666666666668
-400.0   30.0   16.666666666666668
-450.0   30.0   16.666666666666668
-400.0   30.0   33.333333333333336
-450.0   0.0   33.333333333333336
-450.0   30.0   33.333333333333336
-400.0   30.0   33.333333333333336
-450.0   30.0   16.666666666666668
-450.0   0.0   33.333333333333336
-400.0   30.0   33.333333333333336
-400.0   0.0   33.333333333333336
-400.0   0.0   16.666666666666668
-450.0   0.0   33.333333333333336
-400.0   30.0   33.333333333333336
-400.0   0.0   16.666666666666668
-450.0   30.0   16.666666666666668
-450.0   0.0   33.333333333333336
-400.0   0.0   33.333333333333336
-450.0   30.0   33.333333333333336
-450.0   0.0   50.0
-400.0   0.0   33.333333333333336
-400.0   30.0   33.333333333333336
-450.0   30.0   33.333333333333336
-400.0   30.0   50.0
-450.0   0.0   50.0
-450.0   30.0   50.0
-400.0   30.0   50.0
-450.0   30.0   33.333333333333336
-450.0   0.0   50.0
-400.0   30.0   50.0
-400.0   0.0   50.0
-400.0   0.0   33.333333333333336
-450.0   0.0   50.0
-400.0   30.0   50.0
-400.0   0.0   33.333333333333336
-450.0   30.0   33.333333333333336
-450.0   30.0   0.0
-400.0   30.0   0.0
-450.0   60.0   0.0
-450.0   30.0   16.666666666666668
-400.0   30.0   0.0
-400.0   60.0   0.0
-450.0   60.0   0.0
-400.0   60.0   16.666666666666668
-450.0   30.0   16.666666666666668
-450.0   60.0   16.666666666666668
-400.0   60.0   16.666666666666668
-450.0   60.0   0.0
-450.0   30.0   16.666666666666668
-400.0   60.0   16.666666666666668
-400.0   30.0   16.666666666666668
-400.0   30.0   0.0
-450.0   30.0   16.666666666666668
-400.0   60.0   16.666666666666668
-400.0   30.0   0.0
-450.0   60.0   0.0
-450.0   30.0   16.666666666666668
-400.0   30.0   16.666666666666668
-450.0   60.0   16.666666666666668
-450.0   30.0   33.333333333333336
-400.0   30.0   16.666666666666668
-400.0   60.0   16.666666666666668
-450.0   60.0   16.666666666666668
-400.0   60.0   33.333333333333336
-450.0   30.0   33.333333333333336
-450.0   60.0   33.333333333333336
-400.0   60.0   33.333333333333336
-450.0   60.0   16.666666666666668
-450.0   30.0   33.333333333333336
-400.0   60.0   33.333333333333336
-400.0   30.0   33.333333333333336
-400.0   30.0   16.666666666666668
-450.0   30.0   33.333333333333336
-400.0   60.0   33.333333333333336
-400.0   30.0   16.666666666666668
-450.0   60.0   16.666666666666668
-450.0   30.0   33.333333333333336
-400.0   30.0   33.333333333333336
-450.0   60.0   33.333333333333336
-450.0   30.0   50.0
-400.0   30.0   33.333333333333336
-400.0   60.0   33.333333333333336
-450.0   60.0   33.333333333333336
-400.0   60.0   50.0
-450.0   30.0   50.0
-450.0   60.0   50.0
-400.0   60.0   50.0
-450.0   60.0   33.333333333333336
-450.0   30.0   50.0
-400.0   60.0   50.0
-400.0   30.0   50.0
-400.0   30.0   33.333333333333336
-450.0   30.0   50.0
-400.0   60.0   50.0
-400.0   30.0   33.333333333333336
-450.0   60.0   33.333333333333336
-450.0   60.0   0.0
-400.0   60.0   0.0
-450.0   90.0   0.0
-450.0   60.0   16.666666666666668
-400.0   60.0   0.0
-400.0   90.0   0.0
-450.0   90.0   0.0
-400.0   90.0   16.666666666666668
-450.0   60.0   16.666666666666668
-450.0   90.0   16.666666666666668
-400.0   90.0   16.666666666666668
-450.0   90.0   0.0
-450.0   60.0   16.666666666666668
-400.0   90.0   16.666666666666668
-400.0   60.0   16.666666666666668
-400.0   60.0   0.0
-450.0   60.0   16.666666666666668
-400.0   90.0   16.666666666666668
-400.0   60.0   0.0
-450.0   90.0   0.0
-450.0   60.0   16.666666666666668
-400.0   60.0   16.666666666666668
-450.0   90.0   16.666666666666668
-450.0   60.0   33.333333333333336
-400.0   60.0   16.666666666666668
-400.0   90.0   16.666666666666668
-450.0   90.0   16.666666666666668
-400.0   90.0   33.333333333333336
-450.0   60.0   33.333333333333336
-450.0   90.0   33.333333333333336
-400.0   90.0   33.333333333333336
-450.0   90.0   16.666666666666668
-450.0   60.0   33.333333333333336
-400.0   90.0   33.333333333333336
-400.0   60.0   33.333333333333336
-400.0   60.0   16.666666666666668
-450.0   60.0   33.333333333333336
-400.0   90.0   33.333333333333336
-400.0   60.0   16.666666666666668
-450.0   90.0   16.666666666666668
-450.0   60.0   33.333333333333336
-400.0   60.0   33.333333333333336
-450.0   90.0   33.333333333333336
-450.0   60.0   50.0
-400.0   60.0   33.333333333333336
-400.0   90.0   33.333333333333336
-450.0   90.0   33.333333333333336
-400.0   90.0   50.0
-450.0   60.0   50.0
-450.0   90.0   50.0
-400.0   90.0   50.0
-450.0   90.0   33.333333333333336
-450.0   60.0   50.0
-400.0   90.0   50.0
-400.0   60.0   50.0
-400.0   60.0   33.333333333333336
-450.0   60.0   50.0
-400.0   90.0   50.0
-400.0   60.0   33.333333333333336
-450.0   90.0   33.333333333333336
-450.0   90.0   0.0
-400.0   90.0   0.0
-450.0   120.0   0.0
-450.0   90.0   16.666666666666668
-400.0   90.0   0.0
-400.0   120.0   0.0
-450.0   120.0   0.0
-400.0   120.0   16.666666666666668
-450.0   90.0   16.666666666666668
-450.0   120.0   16.666666666666668
-400.0   120.0   16.666666666666668
-450.0   120.0   0.0
-450.0   90.0   16.666666666666668
-400.0   120.0   16.666666666666668
-400.0   90.0   16.666666666666668
-400.0   90.0   0.0
-450.0   90.0   16.666666666666668
-400.0   120.0   16.666666666666668
-400.0   90.0   0.0
-450.0   120.0   0.0
-450.0   90.0   16.666666666666668
-400.0   90.0   16.666666666666668
-450.0   120.0   16.666666666666668
-450.0   90.0   33.333333333333336
-400.0   90.0   16.666666666666668
-400.0   120.0   16.666666666666668
-450.0   120.0   16.666666666666668
-400.0   120.0   33.333333333333336
-450.0   90.0   33.333333333333336
-450.0   120.0   33.333333333333336
-400.0   120.0   33.333333333333336
-450.0   120.0   16.666666666666668
-450.0   90.0   33.333333333333336
-400.0   120.0   33.333333333333336
-400.0   90.0   33.333333333333336
-400.0   90.0   16.666666666666668
-450.0   90.0   33.333333333333336
-400.0   120.0   33.333333333333336
-400.0   90.0   16.666666666666668
-450.0   120.0   16.666666666666668
-450.0   90.0   33.333333333333336
-400.0   90.0   33.333333333333336
-450.0   120.0   33.333333333333336
-450.0   90.0   50.0
-400.0   90.0   33.333333333333336
-400.0   120.0   33.333333333333336
-450.0   120.0   33.333333333333336
-400.0   120.0   50.0
-450.0   90.0   50.0
-450.0   120.0   50.0
-400.0   120.0   50.0
-450.0   120.0   33.333333333333336
-450.0   90.0   50.0
-400.0   120.0   50.0
-400.0   90.0   50.0
-400.0   90.0   33.333333333333336
-450.0   90.0   50.0
-400.0   120.0   50.0
-400.0   90.0   33.333333333333336
-450.0   120.0   33.333333333333336
-450.0   120.0   0.0
-400.0   120.0   0.0
-450.0   150.0   0.0
-450.0   120.0   16.666666666666668
-400.0   120.0   0.0
-400.0   150.0   0.0
-450.0   150.0   0.0
-400.0   150.0   16.666666666666668
-450.0   120.0   16.666666666666668
-450.0   150.0   16.666666666666668
-400.0   150.0   16.666666666666668
-450.0   150.0   0.0
-450.0   120.0   16.666666666666668
-400.0   150.0   16.666666666666668
-400.0   120.0   16.666666666666668
-400.0   120.0   0.0
-450.0   120.0   16.666666666666668
-400.0   150.0   16.666666666666668
-400.0   120.0   0.0
-450.0   150.0   0.0
-450.0   120.0   16.666666666666668
-400.0   120.0   16.666666666666668
-450.0   150.0   16.666666666666668
-450.0   120.0   33.333333333333336
-400.0   120.0   16.666666666666668
-400.0   150.0   16.666666666666668
-450.0   150.0   16.666666666666668
-400.0   150.0   33.333333333333336
-450.0   120.0   33.333333333333336
-450.0   150.0   33.333333333333336
-400.0   150.0   33.333333333333336
-450.0   150.0   16.666666666666668
-450.0   120.0   33.333333333333336
-400.0   150.0   33.333333333333336
-400.0   120.0   33.333333333333336
-400.0   120.0   16.666666666666668
-450.0   120.0   33.333333333333336
-400.0   150.0   33.333333333333336
-400.0   120.0   16.666666666666668
-450.0   150.0   16.666666666666668
-450.0   120.0   33.333333333333336
-400.0   120.0   33.333333333333336
-450.0   150.0   33.333333333333336
-450.0   120.0   50.0
-400.0   120.0   33.333333333333336
-400.0   150.0   33.333333333333336
-450.0   150.0   33.333333333333336
-400.0   150.0   50.0
-450.0   120.0   50.0
-450.0   150.0   50.0
-400.0   150.0   50.0
-450.0   150.0   33.333333333333336
-450.0   120.0   50.0
-400.0   150.0   50.0
-400.0   120.0   50.0
-400.0   120.0   33.333333333333336
-450.0   120.0   50.0
-400.0   150.0   50.0
-400.0   120.0   33.333333333333336
-450.0   150.0   33.333333333333336
-400.0   0.0   0.0
-350.0   0.0   0.0
-400.0   30.0   0.0
-400.0   0.0   16.666666666666668
-350.0   0.0   0.0
-350.0   30.0   0.0
-400.0   30.0   0.0
-350.0   30.0   16.666666666666668
-400.0   0.0   16.666666666666668
-400.0   30.0   16.666666666666668
-350.0   30.0   16.666666666666668
-400.0   30.0   0.0
-400.0   0.0   16.666666666666668
-350.0   30.0   16.666666666666668
-350.0   0.0   16.666666666666668
-350.0   0.0   0.0
-400.0   0.0   16.666666666666668
-350.0   30.0   16.666666666666668
-350.0   0.0   0.0
-400.0   30.0   0.0
-400.0   0.0   16.666666666666668
-350.0   0.0   16.666666666666668
-400.0   30.0   16.666666666666668
-400.0   0.0   33.333333333333336
-350.0   0.0   16.666666666666668
-350.0   30.0   16.666666666666668
-400.0   30.0   16.666666666666668
-350.0   30.0   33.333333333333336
-400.0   0.0   33.333333333333336
-400.0   30.0   33.333333333333336
-350.0   30.0   33.333333333333336
-400.0   30.0   16.666666666666668
-400.0   0.0   33.333333333333336
-350.0   30.0   33.333333333333336
-350.0   0.0   33.333333333333336
-350.0   0.0   16.666666666666668
-400.0   0.0   33.333333333333336
-350.0   30.0   33.333333333333336
-350.0   0.0   16.666666666666668
-400.0   30.0   16.666666666666668
-400.0   0.0   33.333333333333336
-350.0   0.0   33.333333333333336
-400.0   30.0   33.333333333333336
-400.0   0.0   50.0
-350.0   0.0   33.333333333333336
-350.0   30.0   33.333333333333336
-400.0   30.0   33.333333333333336
-350.0   30.0   50.0
-400.0   0.0   50.0
-400.0   30.0   50.0
-350.0   30.0   50.0
-400.0   30.0   33.333333333333336
-400.0   0.0   50.0
-350.0   30.0   50.0
-350.0   0.0   50.0
-350.0   0.0   33.333333333333336
-400.0   0.0   50.0
-350.0   30.0   50.0
-350.0   0.0   33.333333333333336
-400.0   30.0   33.333333333333336
-400.0   30.0   0.0
-350.0   30.0   0.0
-400.0   60.0   0.0
-400.0   30.0   16.666666666666668
-350.0   30.0   0.0
-350.0   60.0   0.0
-400.0   60.0   0.0
-350.0   60.0   16.666666666666668
-400.0   30.0   16.666666666666668
-400.0   60.0   16.666666666666668
-350.0   60.0   16.666666666666668
-400.0   60.0   0.0
-400.0   30.0   16.666666666666668
-350.0   60.0   16.666666666666668
-350.0   30.0   16.666666666666668
-350.0   30.0   0.0
-400.0   30.0   16.666666666666668
-350.0   60.0   16.666666666666668
-350.0   30.0   0.0
-400.0   60.0   0.0
-400.0   30.0   16.666666666666668
-350.0   30.0   16.666666666666668
-400.0   60.0   16.666666666666668
-400.0   30.0   33.333333333333336
-350.0   30.0   16.666666666666668
-350.0   60.0   16.666666666666668
-400.0   60.0   16.666666666666668
-350.0   60.0   33.333333333333336
-400.0   30.0   33.333333333333336
-400.0   60.0   33.333333333333336
-350.0   60.0   33.333333333333336
-400.0   60.0   16.666666666666668
-400.0   30.0   33.333333333333336
-350.0   60.0   33.333333333333336
-350.0   30.0   33.333333333333336
-350.0   30.0   16.666666666666668
-400.0   30.0   33.333333333333336
-350.0   60.0   33.333333333333336
-350.0   30.0   16.666666666666668
-400.0   60.0   16.666666666666668
-400.0   30.0   33.333333333333336
-350.0   30.0   33.333333333333336
-400.0   60.0   33.333333333333336
-400.0   30.0   50.0
-350.0   30.0   33.333333333333336
-350.0   60.0   33.333333333333336
-400.0   60.0   33.333333333333336
-350.0   60.0   50.0
-400.0   30.0   50.0
-400.0   60.0   50.0
-350.0   60.0   50.0
-400.0   60.0   33.333333333333336
-400.0   30.0   50.0
-350.0   60.0   50.0
-350.0   30.0   50.0
-350.0   30.0   33.333333333333336
-400.0   30.0   50.0
-350.0   60.0   50.0
-350.0   30.0   33.333333333333336
-400.0   60.0   33.333333333333336
-400.0   60.0   0.0
-350.0   60.0   0.0
-400.0   90.0   0.0
-400.0   60.0   16.666666666666668
-350.0   60.0   0.0
-350.0   90.0   0.0
-400.0   90.0   0.0
-350.0   90.0   16.666666666666668
-400.0   60.0   16.666666666666668
-400.0   90.0   16.666666666666668
-350.0   90.0   16.666666666666668
-400.0   90.0   0.0
-400.0   60.0   16.666666666666668
-350.0   90.0   16.666666666666668
-350.0   60.0   16.666666666666668
-350.0   60.0   0.0
-400.0   60.0   16.666666666666668
-350.0   90.0   16.666666666666668
-350.0   60.0   0.0
-400.0   90.0   0.0
-400.0   60.0   16.666666666666668
-350.0   60.0   16.666666666666668
-400.0   90.0   16.666666666666668
-400.0   60.0   33.333333333333336
-350.0   60.0   16.666666666666668
-350.0   90.0   16.666666666666668
-400.0   90.0   16.666666666666668
-350.0   90.0   33.333333333333336
-400.0   60.0   33.333333333333336
-400.0   90.0   33.333333333333336
-350.0   90.0   33.333333333333336
-400.0   90.0   16.666666666666668
-400.0   60.0   33.333333333333336
-350.0   90.0   33.333333333333336
-350.0   60.0   33.333333333333336
-350.0   60.0   16.666666666666668
-400.0   60.0   33.333333333333336
-350.0   90.0   33.333333333333336
-350.0   60.0   16.666666666666668
-400.0   90.0   16.666666666666668
-400.0   60.0   33.333333333333336
-350.0   60.0   33.333333333333336
-400.0   90.0   33.333333333333336
-400.0   60.0   50.0
-350.0   60.0   33.333333333333336
-350.0   90.0   33.333333333333336
-400.0   90.0   33.333333333333336
-350.0   90.0   50.0
-400.0   60.0   50.0
-400.0   90.0   50.0
-350.0   90.0   50.0
-400.0   90.0   33.333333333333336
-400.0   60.0   50.0
-350.0   90.0   50.0
-350.0   60.0   50.0
-350.0   60.0   33.333333333333336
-400.0   60.0   50.0
-350.0   90.0   50.0
-350.0   60.0   33.333333333333336
-400.0   90.0   33.333333333333336
-400.0   90.0   0.0
-350.0   90.0   0.0
-400.0   120.0   0.0
-400.0   90.0   16.666666666666668
-350.0   90.0   0.0
-350.0   120.0   0.0
-400.0   120.0   0.0
-350.0   120.0   16.666666666666668
-400.0   90.0   16.666666666666668
-400.0   120.0   16.666666666666668
-350.0   120.0   16.666666666666668
-400.0   120.0   0.0
-400.0   90.0   16.666666666666668
-350.0   120.0   16.666666666666668
-350.0   90.0   16.666666666666668
-350.0   90.0   0.0
-400.0   90.0   16.666666666666668
-350.0   120.0   16.666666666666668
-350.0   90.0   0.0
-400.0   120.0   0.0
-400.0   90.0   16.666666666666668
-350.0   90.0   16.666666666666668
-400.0   120.0   16.666666666666668
-400.0   90.0   33.333333333333336
-350.0   90.0   16.666666666666668
-350.0   120.0   16.666666666666668
-400.0   120.0   16.666666666666668
-350.0   120.0   33.333333333333336
-400.0   90.0   33.333333333333336
-400.0   120.0   33.333333333333336
-350.0   120.0   33.333333333333336
-400.0   120.0   16.666666666666668
-400.0   90.0   33.333333333333336
-350.0   120.0   33.333333333333336
-350.0   90.0   33.333333333333336
-350.0   90.0   16.666666666666668
-400.0   90.0   33.333333333333336
-350.0   120.0   33.333333333333336
-350.0   90.0   16.666666666666668
-400.0   120.0   16.666666666666668
-400.0   90.0   33.333333333333336
-350.0   90.0   33.333333333333336
-400.0   120.0   33.333333333333336
-400.0   90.0   50.0
-350.0   90.0   33.333333333333336
-350.0   120.0   33.333333333333336
-400.0   120.0   33.333333333333336
-350.0   120.0   50.0
-400.0   90.0   50.0
-400.0   120.0   50.0
-350.0   120.0   50.0
-400.0   120.0   33.333333333333336
-400.0   90.0   50.0
-350.0   120.0   50.0
-350.0   90.0   50.0
-350.0   90.0   33.333333333333336
-400.0   90.0   50.0
-350.0   120.0   50.0
-350.0   90.0   33.333333333333336
-400.0   120.0   33.333333333333336
-400.0   120.0   0.0
-350.0   120.0   0.0
-400.0   150.0   0.0
-400.0   120.0   16.666666666666668
-350.0   120.0   0.0
-350.0   150.0   0.0
-400.0   150.0   0.0
-350.0   150.0   16.666666666666668
-400.0   120.0   16.666666666666668
-400.0   150.0   16.666666666666668
-350.0   150.0   16.666666666666668
-400.0   150.0   0.0
-400.0   120.0   16.666666666666668
-350.0   150.0   16.666666666666668
-350.0   120.0   16.666666666666668
-350.0   120.0   0.0
-400.0   120.0   16.666666666666668
-350.0   150.0   16.666666666666668
-350.0   120.0   0.0
-400.0   150.0   0.0
-400.0   120.0   16.666666666666668
-350.0   120.0   16.666666666666668
-400.0   150.0   16.666666666666668
-400.0   120.0   33.333333333333336
-350.0   120.0   16.666666666666668
-350.0   150.0   16.666666666666668
-400.0   150.0   16.666666666666668
-350.0   150.0   33.333333333333336
-400.0   120.0   33.333333333333336
-400.0   150.0   33.333333333333336
-350.0   150.0   33.333333333333336
-400.0   150.0   16.666666666666668
-400.0   120.0   33.333333333333336
-350.0   150.0   33.333333333333336
-350.0   120.0   33.333333333333336
-350.0   120.0   16.666666666666668
-400.0   120.0   33.333333333333336
-350.0   150.0   33.333333333333336
-350.0   120.0   16.666666666666668
-400.0   150.0   16.666666666666668
-400.0   120.0   33.333333333333336
-350.0   120.0   33.333333333333336
-400.0   150.0   33.333333333333336
-400.0   120.0   50.0
-350.0   120.0   33.333333333333336
-350.0   150.0   33.333333333333336
-400.0   150.0   33.333333333333336
-350.0   150.0   50.0
-400.0   120.0   50.0
-400.0   150.0   50.0
-350.0   150.0   50.0
-400.0   150.0   33.333333333333336
-400.0   120.0   50.0
-350.0   150.0   50.0
-350.0   120.0   50.0
-350.0   120.0   33.333333333333336
-400.0   120.0   50.0
-350.0   150.0   50.0
-350.0   120.0   33.333333333333336
-400.0   150.0   33.333333333333336
-350.0   0.0   0.0
-300.0   0.0   0.0
-350.0   30.0   0.0
-350.0   0.0   16.666666666666668
-300.0   0.0   0.0
-300.0   30.0   0.0
-350.0   30.0   0.0
-300.0   30.0   16.666666666666668
-350.0   0.0   16.666666666666668
-350.0   30.0   16.666666666666668
-300.0   30.0   16.666666666666668
-350.0   30.0   0.0
-350.0   0.0   16.666666666666668
-300.0   30.0   16.666666666666668
-300.0   0.0   16.666666666666668
-300.0   0.0   0.0
-350.0   0.0   16.666666666666668
-300.0   30.0   16.666666666666668
-300.0   0.0   0.0
-350.0   30.0   0.0
-350.0   0.0   16.666666666666668
-300.0   0.0   16.666666666666668
-350.0   30.0   16.666666666666668
-350.0   0.0   33.333333333333336
-300.0   0.0   16.666666666666668
-300.0   30.0   16.666666666666668
-350.0   30.0   16.666666666666668
-300.0   30.0   33.333333333333336
-350.0   0.0   33.333333333333336
-350.0   30.0   33.333333333333336
-300.0   30.0   33.333333333333336
-350.0   30.0   16.666666666666668
-350.0   0.0   33.333333333333336
-300.0   30.0   33.333333333333336
-300.0   0.0   33.333333333333336
-300.0   0.0   16.666666666666668
-350.0   0.0   33.333333333333336
-300.0   30.0   33.333333333333336
-300.0   0.0   16.666666666666668
-350.0   30.0   16.666666666666668
-350.0   0.0   33.333333333333336
-300.0   0.0   33.333333333333336
-350.0   30.0   33.333333333333336
-350.0   0.0   50.0
-300.0   0.0   33.333333333333336
-300.0   30.0   33.333333333333336
-350.0   30.0   33.333333333333336
-300.0   30.0   50.0
-350.0   0.0   50.0
-350.0   30.0   50.0
-300.0   30.0   50.0
-350.0   30.0   33.333333333333336
-350.0   0.0   50.0
-300.0   30.0   50.0
-300.0   0.0   50.0
-300.0   0.0   33.333333333333336
-350.0   0.0   50.0
-300.0   30.0   50.0
-300.0   0.0   33.333333333333336
-350.0   30.0   33.333333333333336
-350.0   30.0   0.0
-300.0   30.0   0.0
-350.0   60.0   0.0
-350.0   30.0   16.666666666666668
-300.0   30.0   0.0
-300.0   60.0   0.0
-350.0   60.0   0.0
-300.0   60.0   16.666666666666668
-350.0   30.0   16.666666666666668
-350.0   60.0   16.666666666666668
-300.0   60.0   16.666666666666668
-350.0   60.0   0.0
-350.0   30.0   16.666666666666668
-300.0   60.0   16.666666666666668
-300.0   30.0   16.666666666666668
-300.0   30.0   0.0
-350.0   30.0   16.666666666666668
-300.0   60.0   16.666666666666668
-300.0   30.0   0.0
-350.0   60.0   0.0
-350.0   30.0   16.666666666666668
-300.0   30.0   16.666666666666668
-350.0   60.0   16.666666666666668
-350.0   30.0   33.333333333333336
-300.0   30.0   16.666666666666668
-300.0   60.0   16.666666666666668
-350.0   60.0   16.666666666666668
-300.0   60.0   33.333333333333336
-350.0   30.0   33.333333333333336
-350.0   60.0   33.333333333333336
-300.0   60.0   33.333333333333336
-350.0   60.0   16.666666666666668
-350.0   30.0   33.333333333333336
-300.0   60.0   33.333333333333336
-300.0   30.0   33.333333333333336
-300.0   30.0   16.666666666666668
-350.0   30.0   33.333333333333336
-300.0   60.0   33.333333333333336
-300.0   30.0   16.666666666666668
-350.0   60.0   16.666666666666668
-350.0   30.0   33.333333333333336
-300.0   30.0   33.333333333333336
-350.0   60.0   33.333333333333336
-350.0   30.0   50.0
-300.0   30.0   33.333333333333336
-300.0   60.0   33.333333333333336
-350.0   60.0   33.333333333333336
-300.0   60.0   50.0
-350.0   30.0   50.0
-350.0   60.0   50.0
-300.0   60.0   50.0
-350.0   60.0   33.333333333333336
-350.0   30.0   50.0
-300.0   60.0   50.0
-300.0   30.0   50.0
-300.0   30.0   33.333333333333336
-350.0   30.0   50.0
-300.0   60.0   50.0
-300.0   30.0   33.333333333333336
-350.0   60.0   33.333333333333336
-350.0   60.0   0.0
-300.0   60.0   0.0
-350.0   90.0   0.0
-350.0   60.0   16.666666666666668
-300.0   60.0   0.0
-300.0   90.0   0.0
-350.0   90.0   0.0
-300.0   90.0   16.666666666666668
-350.0   60.0   16.666666666666668
-350.0   90.0   16.666666666666668
-300.0   90.0   16.666666666666668
-350.0   90.0   0.0
-350.0   60.0   16.666666666666668
-300.0   90.0   16.666666666666668
-300.0   60.0   16.666666666666668
-300.0   60.0   0.0
-350.0   60.0   16.666666666666668
-300.0   90.0   16.666666666666668
-300.0   60.0   0.0
-350.0   90.0   0.0
-350.0   60.0   16.666666666666668
-300.0   60.0   16.666666666666668
-350.0   90.0   16.666666666666668
-350.0   60.0   33.333333333333336
-300.0   60.0   16.666666666666668
-300.0   90.0   16.666666666666668
-350.0   90.0   16.666666666666668
-300.0   90.0   33.333333333333336
-350.0   60.0   33.333333333333336
-350.0   90.0   33.333333333333336
-300.0   90.0   33.333333333333336
-350.0   90.0   16.666666666666668
-350.0   60.0   33.333333333333336
-300.0   90.0   33.333333333333336
-300.0   60.0   33.333333333333336
-300.0   60.0   16.666666666666668
-350.0   60.0   33.333333333333336
-300.0   90.0   33.333333333333336
-300.0   60.0   16.666666666666668
-350.0   90.0   16.666666666666668
-350.0   60.0   33.333333333333336
-300.0   60.0   33.333333333333336
-350.0   90.0   33.333333333333336
-350.0   60.0   50.0
-300.0   60.0   33.333333333333336
-300.0   90.0   33.333333333333336
-350.0   90.0   33.333333333333336
-300.0   90.0   50.0
-350.0   60.0   50.0
-350.0   90.0   50.0
-300.0   90.0   50.0
-350.0   90.0   33.333333333333336
-350.0   60.0   50.0
-300.0   90.0   50.0
-300.0   60.0   50.0
-300.0   60.0   33.333333333333336
-350.0   60.0   50.0
-300.0   90.0   50.0
-300.0   60.0   33.333333333333336
-350.0   90.0   33.333333333333336
-350.0   90.0   0.0
-300.0   90.0   0.0
-350.0   120.0   0.0
-350.0   90.0   16.666666666666668
-300.0   90.0   0.0
-300.0   120.0   0.0
-350.0   120.0   0.0
-300.0   120.0   16.666666666666668
-350.0   90.0   16.666666666666668
-350.0   120.0   16.666666666666668
-300.0   120.0   16.666666666666668
-350.0   120.0   0.0
-350.0   90.0   16.666666666666668
-300.0   120.0   16.666666666666668
-300.0   90.0   16.666666666666668
-300.0   90.0   0.0
-350.0   90.0   16.666666666666668
-300.0   120.0   16.666666666666668
-300.0   90.0   0.0
-350.0   120.0   0.0
-350.0   90.0   16.666666666666668
-300.0   90.0   16.666666666666668
-350.0   120.0   16.666666666666668
-350.0   90.0   33.333333333333336
-300.0   90.0   16.666666666666668
-300.0   120.0   16.666666666666668
-350.0   120.0   16.666666666666668
-300.0   120.0   33.333333333333336
-350.0   90.0   33.333333333333336
-350.0   120.0   33.333333333333336
-300.0   120.0   33.333333333333336
-350.0   120.0   16.666666666666668
-350.0   90.0   33.333333333333336
-300.0   120.0   33.333333333333336
-300.0   90.0   33.333333333333336
-300.0   90.0   16.666666666666668
-350.0   90.0   33.333333333333336
-300.0   120.0   33.333333333333336
-300.0   90.0   16.666666666666668
-350.0   120.0   16.666666666666668
-350.0   90.0   33.333333333333336
-300.0   90.0   33.333333333333336
-350.0   120.0   33.333333333333336
-350.0   90.0   50.0
-300.0   90.0   33.333333333333336
-300.0   120.0   33.333333333333336
-350.0   120.0   33.333333333333336
-300.0   120.0   50.0
-350.0   90.0   50.0
-350.0   120.0   50.0
-300.0   120.0   50.0
-350.0   120.0   33.333333333333336
-350.0   90.0   50.0
-300.0   120.0   50.0
-300.0   90.0   50.0
-300.0   90.0   33.333333333333336
-350.0   90.0   50.0
-300.0   120.0   50.0
-300.0   90.0   33.333333333333336
-350.0   120.0   33.333333333333336
-350.0   120.0   0.0
-300.0   120.0   0.0
-350.0   150.0   0.0
-350.0   120.0   16.666666666666668
-300.0   120.0   0.0
-300.0   150.0   0.0
-350.0   150.0   0.0
-300.0   150.0   16.666666666666668
-350.0   120.0   16.666666666666668
-350.0   150.0   16.666666666666668
-300.0   150.0   16.666666666666668
-350.0   150.0   0.0
-350.0   120.0   16.666666666666668
-300.0   150.0   16.666666666666668
-300.0   120.0   16.666666666666668
-300.0   120.0   0.0
-350.0   120.0   16.666666666666668
-300.0   150.0   16.666666666666668
-300.0   120.0   0.0
-350.0   150.0   0.0
-350.0   120.0   16.666666666666668
-300.0   120.0   16.666666666666668
-350.0   150.0   16.666666666666668
-350.0   120.0   33.333333333333336
-300.0   120.0   16.666666666666668
-300.0   150.0   16.666666666666668
-350.0   150.0   16.666666666666668
-300.0   150.0   33.333333333333336
-350.0   120.0   33.333333333333336
-350.0   150.0   33.333333333333336
-300.0   150.0   33.333333333333336
-350.0   150.0   16.666666666666668
-350.0   120.0   33.333333333333336
-300.0   150.0   33.333333333333336
-300.0   120.0   33.333333333333336
-300.0   120.0   16.666666666666668
-350.0   120.0   33.333333333333336
-300.0   150.0   33.333333333333336
-300.0   120.0   16.666666666666668
-350.0   150.0   16.666666666666668
-350.0   120.0   33.333333333333336
-300.0   120.0   33.333333333333336
-350.0   150.0   33.333333333333336
-350.0   120.0   50.0
-300.0   120.0   33.333333333333336
-300.0   150.0   33.333333333333336
-350.0   150.0   33.333333333333336
-300.0   150.0   50.0
-350.0   120.0   50.0
-350.0   150.0   50.0
-300.0   150.0   50.0
-350.0   150.0   33.333333333333336
-350.0   120.0   50.0
-300.0   150.0   50.0
-300.0   120.0   50.0
-300.0   120.0   33.333333333333336
-350.0   120.0   50.0
-300.0   150.0   50.0
-300.0   120.0   33.333333333333336
-350.0   150.0   33.333333333333336
-300.0   0.0   0.0
-250.0   0.0   0.0
-300.0   30.0   0.0
-300.0   0.0   16.666666666666668
-250.0   0.0   0.0
-250.0   30.0   0.0
-300.0   30.0   0.0
-250.0   30.0   16.666666666666668
-300.0   0.0   16.666666666666668
-300.0   30.0   16.666666666666668
-250.0   30.0   16.666666666666668
-300.0   30.0   0.0
-300.0   0.0   16.666666666666668
-250.0   30.0   16.666666666666668
-250.0   0.0   16.666666666666668
-250.0   0.0   0.0
-300.0   0.0   16.666666666666668
-250.0   30.0   16.666666666666668
-250.0   0.0   0.0
-300.0   30.0   0.0
-300.0   0.0   16.666666666666668
-250.0   0.0   16.666666666666668
-300.0   30.0   16.666666666666668
-300.0   0.0   33.333333333333336
-250.0   0.0   16.666666666666668
-250.0   30.0   16.666666666666668
-300.0   30.0   16.666666666666668
-250.0   30.0   33.333333333333336
-300.0   0.0   33.333333333333336
-300.0   30.0   33.333333333333336
-250.0   30.0   33.333333333333336
-300.0   30.0   16.666666666666668
-300.0   0.0   33.333333333333336
-250.0   30.0   33.333333333333336
-250.0   0.0   33.333333333333336
-250.0   0.0   16.666666666666668
-300.0   0.0   33.333333333333336
-250.0   30.0   33.333333333333336
-250.0   0.0   16.666666666666668
-300.0   30.0   16.666666666666668
-300.0   0.0   33.333333333333336
-250.0   0.0   33.333333333333336
-300.0   30.0   33.333333333333336
-300.0   0.0   50.0
-250.0   0.0   33.333333333333336
-250.0   30.0   33.333333333333336
-300.0   30.0   33.333333333333336
-250.0   30.0   50.0
-300.0   0.0   50.0
-300.0   30.0   50.0
-250.0   30.0   50.0
-300.0   30.0   33.333333333333336
-300.0   0.0   50.0
-250.0   30.0   50.0
-250.0   0.0   50.0
-250.0   0.0   33.333333333333336
-300.0   0.0   50.0
-250.0   30.0   50.0
-250.0   0.0   33.333333333333336
-300.0   30.0   33.333333333333336
-300.0   30.0   0.0
-250.0   30.0   0.0
-300.0   60.0   0.0
-300.0   30.0   16.666666666666668
-250.0   30.0   0.0
-250.0   60.0   0.0
-300.0   60.0   0.0
-250.0   60.0   16.666666666666668
-300.0   30.0   16.666666666666668
-300.0   60.0   16.666666666666668
-250.0   60.0   16.666666666666668
-300.0   60.0   0.0
-300.0   30.0   16.666666666666668
-250.0   60.0   16.666666666666668
-250.0   30.0   16.666666666666668
-250.0   30.0   0.0
-300.0   30.0   16.666666666666668
-250.0   60.0   16.666666666666668
-250.0   30.0   0.0
-300.0   60.0   0.0
-300.0   30.0   16.666666666666668
-250.0   30.0   16.666666666666668
-300.0   60.0   16.666666666666668
-300.0   30.0   33.333333333333336
-250.0   30.0   16.666666666666668
-250.0   60.0   16.666666666666668
-300.0   60.0   16.666666666666668
-250.0   60.0   33.333333333333336
-300.0   30.0   33.333333333333336
-300.0   60.0   33.333333333333336
-250.0   60.0   33.333333333333336
-300.0   60.0   16.666666666666668
-300.0   30.0   33.333333333333336
-250.0   60.0   33.333333333333336
-250.0   30.0   33.333333333333336
-250.0   30.0   16.666666666666668
-300.0   30.0   33.333333333333336
-250.0   60.0   33.333333333333336
-250.0   30.0   16.666666666666668
-300.0   60.0   16.666666666666668
-300.0   30.0   33.333333333333336
-250.0   30.0   33.333333333333336
-300.0   60.0   33.333333333333336
-300.0   30.0   50.0
-250.0   30.0   33.333333333333336
-250.0   60.0   33.333333333333336
-300.0   60.0   33.333333333333336
-250.0   60.0   50.0
-300.0   30.0   50.0
-300.0   60.0   50.0
-250.0   60.0   50.0
-300.0   60.0   33.333333333333336
-300.0   30.0   50.0
-250.0   60.0   50.0
-250.0   30.0   50.0
-250.0   30.0   33.333333333333336
-300.0   30.0   50.0
-250.0   60.0   50.0
-250.0   30.0   33.333333333333336
-300.0   60.0   33.333333333333336
-300.0   60.0   0.0
-250.0   60.0   0.0
-300.0   90.0   0.0
-300.0   60.0   16.666666666666668
-250.0   60.0   0.0
-250.0   90.0   0.0
-300.0   90.0   0.0
-250.0   90.0   16.666666666666668
-300.0   60.0   16.666666666666668
-300.0   90.0   16.666666666666668
-250.0   90.0   16.666666666666668
-300.0   90.0   0.0
-300.0   60.0   16.666666666666668
-250.0   90.0   16.666666666666668
-250.0   60.0   16.666666666666668
-250.0   60.0   0.0
-300.0   60.0   16.666666666666668
-250.0   90.0   16.666666666666668
-250.0   60.0   0.0
-300.0   90.0   0.0
-300.0   60.0   16.666666666666668
-250.0   60.0   16.666666666666668
-300.0   90.0   16.666666666666668
-300.0   60.0   33.333333333333336
-250.0   60.0   16.666666666666668
-250.0   90.0   16.666666666666668
-300.0   90.0   16.666666666666668
-250.0   90.0   33.333333333333336
-300.0   60.0   33.333333333333336
-300.0   90.0   33.333333333333336
-250.0   90.0   33.333333333333336
-300.0   90.0   16.666666666666668
-300.0   60.0   33.333333333333336
-250.0   90.0   33.333333333333336
-250.0   60.0   33.333333333333336
-250.0   60.0   16.666666666666668
-300.0   60.0   33.333333333333336
-250.0   90.0   33.333333333333336
-250.0   60.0   16.666666666666668
-300.0   90.0   16.666666666666668
-300.0   60.0   33.333333333333336
-250.0   60.0   33.333333333333336
-300.0   90.0   33.333333333333336
-300.0   60.0   50.0
-250.0   60.0   33.333333333333336
-250.0   90.0   33.333333333333336
-300.0   90.0   33.333333333333336
-250.0   90.0   50.0
-300.0   60.0   50.0
-300.0   90.0   50.0
-250.0   90.0   50.0
-300.0   90.0   33.333333333333336
-300.0   60.0   50.0
-250.0   90.0   50.0
-250.0   60.0   50.0
-250.0   60.0   33.333333333333336
-300.0   60.0   50.0
-250.0   90.0   50.0
-250.0   60.0   33.333333333333336
-300.0   90.0   33.333333333333336
-300.0   90.0   0.0
-250.0   90.0   0.0
-300.0   120.0   0.0
-300.0   90.0   16.666666666666668
-250.0   90.0   0.0
-250.0   120.0   0.0
-300.0   120.0   0.0
-250.0   120.0   16.666666666666668
-300.0   90.0   16.666666666666668
-300.0   120.0   16.666666666666668
-250.0   120.0   16.666666666666668
-300.0   120.0   0.0
-300.0   90.0   16.666666666666668
-250.0   120.0   16.666666666666668
-250.0   90.0   16.666666666666668
-250.0   90.0   0.0
-300.0   90.0   16.666666666666668
-250.0   120.0   16.666666666666668
-250.0   90.0   0.0
-300.0   120.0   0.0
-300.0   90.0   16.666666666666668
-250.0   90.0   16.666666666666668
-300.0   120.0   16.666666666666668
-300.0   90.0   33.333333333333336
-250.0   90.0   16.666666666666668
-250.0   120.0   16.666666666666668
-300.0   120.0   16.666666666666668
-250.0   120.0   33.333333333333336
-300.0   90.0   33.333333333333336
-300.0   120.0   33.333333333333336
-250.0   120.0   33.333333333333336
-300.0   120.0   16.666666666666668
-300.0   90.0   33.333333333333336
-250.0   120.0   33.333333333333336
-250.0   90.0   33.333333333333336
-250.0   90.0   16.666666666666668
-300.0   90.0   33.333333333333336
-250.0   120.0   33.333333333333336
-250.0   90.0   16.666666666666668
-300.0   120.0   16.666666666666668
-300.0   90.0   33.333333333333336
-250.0   90.0   33.333333333333336
-300.0   120.0   33.333333333333336
-300.0   90.0   50.0
-250.0   90.0   33.333333333333336
-250.0   120.0   33.333333333333336
-300.0   120.0   33.333333333333336
-250.0   120.0   50.0
-300.0   90.0   50.0
-300.0   120.0   50.0
-250.0   120.0   50.0
-300.0   120.0   33.333333333333336
-300.0   90.0   50.0
-250.0   120.0   50.0
-250.0   90.0   50.0
-250.0   90.0   33.333333333333336
-300.0   90.0   50.0
-250.0   120.0   50.0
-250.0   90.0   33.333333333333336
-300.0   120.0   33.333333333333336
-300.0   120.0   0.0
-250.0   120.0   0.0
-300.0   150.0   0.0
-300.0   120.0   16.666666666666668
-250.0   120.0   0.0
-250.0   150.0   0.0
-300.0   150.0   0.0
-250.0   150.0   16.666666666666668
-300.0   120.0   16.666666666666668
-300.0   150.0   16.666666666666668
-250.0   150.0   16.666666666666668
-300.0   150.0   0.0
-300.0   120.0   16.666666666666668
-250.0   150.0   16.666666666666668
-250.0   120.0   16.666666666666668
-250.0   120.0   0.0
-300.0   120.0   16.666666666666668
-250.0   150.0   16.666666666666668
-250.0   120.0   0.0
-300.0   150.0   0.0
-300.0   120.0   16.666666666666668
-250.0   120.0   16.666666666666668
-300.0   150.0   16.666666666666668
-300.0   120.0   33.333333333333336
-250.0   120.0   16.666666666666668
-250.0   150.0   16.666666666666668
-300.0   150.0   16.666666666666668
-250.0   150.0   33.333333333333336
-300.0   120.0   33.333333333333336
-300.0   150.0   33.333333333333336
-250.0   150.0   33.333333333333336
-300.0   150.0   16.666666666666668
-300.0   120.0   33.333333333333336
-250.0   150.0   33.333333333333336
-250.0   120.0   33.333333333333336
-250.0   120.0   16.666666666666668
-300.0   120.0   33.333333333333336
-250.0   150.0   33.333333333333336
-250.0   120.0   16.666666666666668
-300.0   150.0   16.666666666666668
-300.0   120.0   33.333333333333336
-250.0   120.0   33.333333333333336
-300.0   150.0   33.333333333333336
-300.0   120.0   50.0
-250.0   120.0   33.333333333333336
-250.0   150.0   33.333333333333336
-300.0   150.0   33.333333333333336
-250.0   150.0   50.0
-300.0   120.0   50.0
-300.0   150.0   50.0
-250.0   150.0   50.0
-300.0   150.0   33.333333333333336
-300.0   120.0   50.0
-250.0   150.0   50.0
-250.0   120.0   50.0
-250.0   120.0   33.333333333333336
-300.0   120.0   50.0
-250.0   150.0   50.0
-250.0   120.0   33.333333333333336
-300.0   150.0   33.333333333333336
-250.0   0.0   0.0
-200.0   0.0   0.0
-250.0   30.0   0.0
-250.0   0.0   16.666666666666668
-200.0   0.0   0.0
-200.0   30.0   0.0
-250.0   30.0   0.0
-200.0   30.0   16.666666666666668
-250.0   0.0   16.666666666666668
-250.0   30.0   16.666666666666668
-200.0   30.0   16.666666666666668
-250.0   30.0   0.0
-250.0   0.0   16.666666666666668
-200.0   30.0   16.666666666666668
-200.0   0.0   16.666666666666668
-200.0   0.0   0.0
-250.0   0.0   16.666666666666668
-200.0   30.0   16.666666666666668
-200.0   0.0   0.0
-250.0   30.0   0.0
-250.0   0.0   16.666666666666668
-200.0   0.0   16.666666666666668
-250.0   30.0   16.666666666666668
-250.0   0.0   33.333333333333336
-200.0   0.0   16.666666666666668
-200.0   30.0   16.666666666666668
-250.0   30.0   16.666666666666668
-200.0   30.0   33.333333333333336
-250.0   0.0   33.333333333333336
-250.0   30.0   33.333333333333336
-200.0   30.0   33.333333333333336
-250.0   30.0   16.666666666666668
-250.0   0.0   33.333333333333336
-200.0   30.0   33.333333333333336
-200.0   0.0   33.333333333333336
-200.0   0.0   16.666666666666668
-250.0   0.0   33.333333333333336
-200.0   30.0   33.333333333333336
-200.0   0.0   16.666666666666668
-250.0   30.0   16.666666666666668
-250.0   0.0   33.333333333333336
-200.0   0.0   33.333333333333336
-250.0   30.0   33.333333333333336
-250.0   0.0   50.0
-200.0   0.0   33.333333333333336
-200.0   30.0   33.333333333333336
-250.0   30.0   33.333333333333336
-200.0   30.0   50.0
-250.0   0.0   50.0
-250.0   30.0   50.0
-200.0   30.0   50.0
-250.0   30.0   33.333333333333336
-250.0   0.0   50.0
-200.0   30.0   50.0
-200.0   0.0   50.0
-200.0   0.0   33.333333333333336
-250.0   0.0   50.0
-200.0   30.0   50.0
-200.0   0.0   33.333333333333336
-250.0   30.0   33.333333333333336
-250.0   30.0   0.0
-200.0   30.0   0.0
-250.0   60.0   0.0
-250.0   30.0   16.666666666666668
-200.0   30.0   0.0
-200.0   60.0   0.0
-250.0   60.0   0.0
-200.0   60.0   16.666666666666668
-250.0   30.0   16.666666666666668
-250.0   60.0   16.666666666666668
-200.0   60.0   16.666666666666668
-250.0   60.0   0.0
-250.0   30.0   16.666666666666668
-200.0   60.0   16.666666666666668
-200.0   30.0   16.666666666666668
-200.0   30.0   0.0
-250.0   30.0   16.666666666666668
-200.0   60.0   16.666666666666668
-200.0   30.0   0.0
-250.0   60.0   0.0
-250.0   30.0   16.666666666666668
-200.0   30.0   16.666666666666668
-250.0   60.0   16.666666666666668
-250.0   30.0   33.333333333333336
-200.0   30.0   16.666666666666668
-200.0   60.0   16.666666666666668
-250.0   60.0   16.666666666666668
-200.0   60.0   33.333333333333336
-250.0   30.0   33.333333333333336
-250.0   60.0   33.333333333333336
-200.0   60.0   33.333333333333336
-250.0   60.0   16.666666666666668
-250.0   30.0   33.333333333333336
-200.0   60.0   33.333333333333336
-200.0   30.0   33.333333333333336
-200.0   30.0   16.666666666666668
-250.0   30.0   33.333333333333336
-200.0   60.0   33.333333333333336
-200.0   30.0   16.666666666666668
-250.0   60.0   16.666666666666668
-250.0   30.0   33.333333333333336
-200.0   30.0   33.333333333333336
-250.0   60.0   33.333333333333336
-250.0   30.0   50.0
-200.0   30.0   33.333333333333336
-200.0   60.0   33.333333333333336
-250.0   60.0   33.333333333333336
-200.0   60.0   50.0
-250.0   30.0   50.0
-250.0   60.0   50.0
-200.0   60.0   50.0
-250.0   60.0   33.333333333333336
-250.0   30.0   50.0
-200.0   60.0   50.0
-200.0   30.0   50.0
-200.0   30.0   33.333333333333336
-250.0   30.0   50.0
-200.0   60.0   50.0
-200.0   30.0   33.333333333333336
-250.0   60.0   33.333333333333336
-250.0   60.0   0.0
-200.0   60.0   0.0
-250.0   90.0   0.0
-250.0   60.0   16.666666666666668
-200.0   60.0   0.0
-200.0   90.0   0.0
-250.0   90.0   0.0
-200.0   90.0   16.666666666666668
-250.0   60.0   16.666666666666668
-250.0   90.0   16.666666666666668
-200.0   90.0   16.666666666666668
-250.0   90.0   0.0
-250.0   60.0   16.666666666666668
-200.0   90.0   16.666666666666668
-200.0   60.0   16.666666666666668
-200.0   60.0   0.0
-250.0   60.0   16.666666666666668
-200.0   90.0   16.666666666666668
-200.0   60.0   0.0
-250.0   90.0   0.0
-250.0   60.0   16.666666666666668
-200.0   60.0   16.666666666666668
-250.0   90.0   16.666666666666668
-250.0   60.0   33.333333333333336
-200.0   60.0   16.666666666666668
-200.0   90.0   16.666666666666668
-250.0   90.0   16.666666666666668
-200.0   90.0   33.333333333333336
-250.0   60.0   33.333333333333336
-250.0   90.0   33.333333333333336
-200.0   90.0   33.333333333333336
-250.0   90.0   16.666666666666668
-250.0   60.0   33.333333333333336
-200.0   90.0   33.333333333333336
-200.0   60.0   33.333333333333336
-200.0   60.0   16.666666666666668
-250.0   60.0   33.333333333333336
-200.0   90.0   33.333333333333336
-200.0   60.0   16.666666666666668
-250.0   90.0   16.666666666666668
-250.0   60.0   33.333333333333336
-200.0   60.0   33.333333333333336
-250.0   90.0   33.333333333333336
-250.0   60.0   50.0
-200.0   60.0   33.333333333333336
-200.0   90.0   33.333333333333336
-250.0   90.0   33.333333333333336
-200.0   90.0   50.0
-250.0   60.0   50.0
-250.0   90.0   50.0
-200.0   90.0   50.0
-250.0   90.0   33.333333333333336
-250.0   60.0   50.0
-200.0   90.0   50.0
-200.0   60.0   50.0
-200.0   60.0   33.333333333333336
-250.0   60.0   50.0
-200.0   90.0   50.0
-200.0   60.0   33.333333333333336
-250.0   90.0   33.333333333333336
-250.0   90.0   0.0
-200.0   90.0   0.0
-250.0   120.0   0.0
-250.0   90.0   16.666666666666668
-200.0   90.0   0.0
-200.0   120.0   0.0
-250.0   120.0   0.0
-200.0   120.0   16.666666666666668
-250.0   90.0   16.666666666666668
-250.0   120.0   16.666666666666668
-200.0   120.0   16.666666666666668
-250.0   120.0   0.0
-250.0   90.0   16.666666666666668
-200.0   120.0   16.666666666666668
-200.0   90.0   16.666666666666668
-200.0   90.0   0.0
-250.0   90.0   16.666666666666668
-200.0   120.0   16.666666666666668
-200.0   90.0   0.0
-250.0   120.0   0.0
-250.0   90.0   16.666666666666668
-200.0   90.0   16.666666666666668
-250.0   120.0   16.666666666666668
-250.0   90.0   33.333333333333336
-200.0   90.0   16.666666666666668
-200.0   120.0   16.666666666666668
-250.0   120.0   16.666666666666668
-200.0   120.0   33.333333333333336
-250.0   90.0   33.333333333333336
-250.0   120.0   33.333333333333336
-200.0   120.0   33.333333333333336
-250.0   120.0   16.666666666666668
-250.0   90.0   33.333333333333336
-200.0   120.0   33.333333333333336
-200.0   90.0   33.333333333333336
-200.0   90.0   16.666666666666668
-250.0   90.0   33.333333333333336
-200.0   120.0   33.333333333333336
-200.0   90.0   16.666666666666668
-250.0   120.0   16.666666666666668
-250.0   90.0   33.333333333333336
-200.0   90.0   33.333333333333336
-250.0   120.0   33.333333333333336
-250.0   90.0   50.0
-200.0   90.0   33.333333333333336
-200.0   120.0   33.333333333333336
-250.0   120.0   33.333333333333336
-200.0   120.0   50.0
-250.0   90.0   50.0
-250.0   120.0   50.0
-200.0   120.0   50.0
-250.0   120.0   33.333333333333336
-250.0   90.0   50.0
-200.0   120.0   50.0
-200.0   90.0   50.0
-200.0   90.0   33.333333333333336
-250.0   90.0   50.0
-200.0   120.0   50.0
-200.0   90.0   33.333333333333336
-250.0   120.0   33.333333333333336
-250.0   120.0   0.0
-200.0   120.0   0.0
-250.0   150.0   0.0
-250.0   120.0   16.666666666666668
-200.0   120.0   0.0
-200.0   150.0   0.0
-250.0   150.0   0.0
-200.0   150.0   16.666666666666668
-250.0   120.0   16.666666666666668
-250.0   150.0   16.666666666666668
-200.0   150.0   16.666666666666668
-250.0   150.0   0.0
-250.0   120.0   16.666666666666668
-200.0   150.0   16.666666666666668
-200.0   120.0   16.666666666666668
-200.0   120.0   0.0
-250.0   120.0   16.666666666666668
-200.0   150.0   16.666666666666668
-200.0   120.0   0.0
-250.0   150.0   0.0
-250.0   120.0   16.666666666666668
-200.0   120.0   16.666666666666668
-250.0   150.0   16.666666666666668
-250.0   120.0   33.333333333333336
-200.0   120.0   16.666666666666668
-200.0   150.0   16.666666666666668
-250.0   150.0   16.666666666666668
-200.0   150.0   33.333333333333336
-250.0   120.0   33.333333333333336
-250.0   150.0   33.333333333333336
-200.0   150.0   33.333333333333336
-250.0   150.0   16.666666666666668
-250.0   120.0   33.333333333333336
-200.0   150.0   33.333333333333336
-200.0   120.0   33.333333333333336
-200.0   120.0   16.666666666666668
-250.0   120.0   33.333333333333336
-200.0   150.0   33.333333333333336
-200.0   120.0   16.666666666666668
-250.0   150.0   16.666666666666668
-250.0   120.0   33.333333333333336
-200.0   120.0   33.333333333333336
-250.0   150.0   33.333333333333336
-250.0   120.0   50.0
-200.0   120.0   33.333333333333336
-200.0   150.0   33.333333333333336
-250.0   150.0   33.333333333333336
-200.0   150.0   50.0
-250.0   120.0   50.0
-250.0   150.0   50.0
-200.0   150.0   50.0
-250.0   150.0   33.333333333333336
-250.0   120.0   50.0
-200.0   150.0   50.0
-200.0   120.0   50.0
-200.0   120.0   33.333333333333336
-250.0   120.0   50.0
-200.0   150.0   50.0
-200.0   120.0   33.333333333333336
-250.0   150.0   33.333333333333336
-200.0   0.0   0.0
-150.0   0.0   0.0
-200.0   30.0   0.0
-200.0   0.0   16.666666666666668
-150.0   0.0   0.0
-150.0   30.0   0.0
-200.0   30.0   0.0
-150.0   30.0   16.666666666666668
-200.0   0.0   16.666666666666668
-200.0   30.0   16.666666666666668
-150.0   30.0   16.666666666666668
-200.0   30.0   0.0
-200.0   0.0   16.666666666666668
-150.0   30.0   16.666666666666668
-150.0   0.0   16.666666666666668
-150.0   0.0   0.0
-200.0   0.0   16.666666666666668
-150.0   30.0   16.666666666666668
-150.0   0.0   0.0
-200.0   30.0   0.0
-200.0   0.0   16.666666666666668
-150.0   0.0   16.666666666666668
-200.0   30.0   16.666666666666668
-200.0   0.0   33.333333333333336
-150.0   0.0   16.666666666666668
-150.0   30.0   16.666666666666668
-200.0   30.0   16.666666666666668
-150.0   30.0   33.333333333333336
-200.0   0.0   33.333333333333336
-200.0   30.0   33.333333333333336
-150.0   30.0   33.333333333333336
-200.0   30.0   16.666666666666668
-200.0   0.0   33.333333333333336
-150.0   30.0   33.333333333333336
-150.0   0.0   33.333333333333336
-150.0   0.0   16.666666666666668
-200.0   0.0   33.333333333333336
-150.0   30.0   33.333333333333336
-150.0   0.0   16.666666666666668
-200.0   30.0   16.666666666666668
-200.0   0.0   33.333333333333336
-150.0   0.0   33.333333333333336
-200.0   30.0   33.333333333333336
-200.0   0.0   50.0
-150.0   0.0   33.333333333333336
-150.0   30.0   33.333333333333336
-200.0   30.0   33.333333333333336
-150.0   30.0   50.0
-200.0   0.0   50.0
-200.0   30.0   50.0
-150.0   30.0   50.0
-200.0   30.0   33.333333333333336
-200.0   0.0   50.0
-150.0   30.0   50.0
-150.0   0.0   50.0
-150.0   0.0   33.333333333333336
-200.0   0.0   50.0
-150.0   30.0   50.0
-150.0   0.0   33.333333333333336
-200.0   30.0   33.333333333333336
-200.0   30.0   0.0
-150.0   30.0   0.0
-200.0   60.0   0.0
-200.0   30.0   16.666666666666668
-150.0   30.0   0.0
-150.0   60.0   0.0
-200.0   60.0   0.0
-150.0   60.0   16.666666666666668
-200.0   30.0   16.666666666666668
-200.0   60.0   16.666666666666668
-150.0   60.0   16.666666666666668
-200.0   60.0   0.0
-200.0   30.0   16.666666666666668
-150.0   60.0   16.666666666666668
-150.0   30.0   16.666666666666668
-150.0   30.0   0.0
-200.0   30.0   16.666666666666668
-150.0   60.0   16.666666666666668
-150.0   30.0   0.0
-200.0   60.0   0.0
-200.0   30.0   16.666666666666668
-150.0   30.0   16.666666666666668
-200.0   60.0   16.666666666666668
-200.0   30.0   33.333333333333336
-150.0   30.0   16.666666666666668
-150.0   60.0   16.666666666666668
-200.0   60.0   16.666666666666668
-150.0   60.0   33.333333333333336
-200.0   30.0   33.333333333333336
-200.0   60.0   33.333333333333336
-150.0   60.0   33.333333333333336
-200.0   60.0   16.666666666666668
-200.0   30.0   33.333333333333336
-150.0   60.0   33.333333333333336
-150.0   30.0   33.333333333333336
-150.0   30.0   16.666666666666668
-200.0   30.0   33.333333333333336
-150.0   60.0   33.333333333333336
-150.0   30.0   16.666666666666668
-200.0   60.0   16.666666666666668
-200.0   30.0   33.333333333333336
-150.0   30.0   33.333333333333336
-200.0   60.0   33.333333333333336
-200.0   30.0   50.0
-150.0   30.0   33.333333333333336
-150.0   60.0   33.333333333333336
-200.0   60.0   33.333333333333336
-150.0   60.0   50.0
-200.0   30.0   50.0
-200.0   60.0   50.0
-150.0   60.0   50.0
-200.0   60.0   33.333333333333336
-200.0   30.0   50.0
-150.0   60.0   50.0
-150.0   30.0   50.0
-150.0   30.0   33.333333333333336
-200.0   30.0   50.0
-150.0   60.0   50.0
-150.0   30.0   33.333333333333336
-200.0   60.0   33.333333333333336
-200.0   60.0   0.0
-150.0   60.0   0.0
-200.0   90.0   0.0
-200.0   60.0   16.666666666666668
-150.0   60.0   0.0
-150.0   90.0   0.0
-200.0   90.0   0.0
-150.0   90.0   16.666666666666668
-200.0   60.0   16.666666666666668
-200.0   90.0   16.666666666666668
-150.0   90.0   16.666666666666668
-200.0   90.0   0.0
-200.0   60.0   16.666666666666668
-150.0   90.0   16.666666666666668
-150.0   60.0   16.666666666666668
-150.0   60.0   0.0
-200.0   60.0   16.666666666666668
-150.0   90.0   16.666666666666668
-150.0   60.0   0.0
-200.0   90.0   0.0
-200.0   60.0   16.666666666666668
-150.0   60.0   16.666666666666668
-200.0   90.0   16.666666666666668
-200.0   60.0   33.333333333333336
-150.0   60.0   16.666666666666668
-150.0   90.0   16.666666666666668
-200.0   90.0   16.666666666666668
-150.0   90.0   33.333333333333336
-200.0   60.0   33.333333333333336
-200.0   90.0   33.333333333333336
-150.0   90.0   33.333333333333336
-200.0   90.0   16.666666666666668
-200.0   60.0   33.333333333333336
-150.0   90.0   33.333333333333336
-150.0   60.0   33.333333333333336
-150.0   60.0   16.666666666666668
-200.0   60.0   33.333333333333336
-150.0   90.0   33.333333333333336
-150.0   60.0   16.666666666666668
-200.0   90.0   16.666666666666668
-200.0   60.0   33.333333333333336
-150.0   60.0   33.333333333333336
-200.0   90.0   33.333333333333336
-200.0   60.0   50.0
-150.0   60.0   33.333333333333336
-150.0   90.0   33.333333333333336
-200.0   90.0   33.333333333333336
-150.0   90.0   50.0
-200.0   60.0   50.0
-200.0   90.0   50.0
-150.0   90.0   50.0
-200.0   90.0   33.333333333333336
-200.0   60.0   50.0
-150.0   90.0   50.0
-150.0   60.0   50.0
-150.0   60.0   33.333333333333336
-200.0   60.0   50.0
-150.0   90.0   50.0
-150.0   60.0   33.333333333333336
-200.0   90.0   33.333333333333336
-200.0   90.0   0.0
-150.0   90.0   0.0
-200.0   120.0   0.0
-200.0   90.0   16.666666666666668
-150.0   90.0   0.0
-150.0   120.0   0.0
-200.0   120.0   0.0
-150.0   120.0   16.666666666666668
-200.0   90.0   16.666666666666668
-200.0   120.0   16.666666666666668
-150.0   120.0   16.666666666666668
-200.0   120.0   0.0
-200.0   90.0   16.666666666666668
-150.0   120.0   16.666666666666668
-150.0   90.0   16.666666666666668
-150.0   90.0   0.0
-200.0   90.0   16.666666666666668
-150.0   120.0   16.666666666666668
-150.0   90.0   0.0
-200.0   120.0   0.0
-200.0   90.0   16.666666666666668
-150.0   90.0   16.666666666666668
-200.0   120.0   16.666666666666668
-200.0   90.0   33.333333333333336
-150.0   90.0   16.666666666666668
-150.0   120.0   16.666666666666668
-200.0   120.0   16.666666666666668
-150.0   120.0   33.333333333333336
-200.0   90.0   33.333333333333336
-200.0   120.0   33.333333333333336
-150.0   120.0   33.333333333333336
-200.0   120.0   16.666666666666668
-200.0   90.0   33.333333333333336
-150.0   120.0   33.333333333333336
-150.0   90.0   33.333333333333336
-150.0   90.0   16.666666666666668
-200.0   90.0   33.333333333333336
-150.0   120.0   33.333333333333336
-150.0   90.0   16.666666666666668
-200.0   120.0   16.666666666666668
-200.0   90.0   33.333333333333336
-150.0   90.0   33.333333333333336
-200.0   120.0   33.333333333333336
-200.0   90.0   50.0
-150.0   90.0   33.333333333333336
-150.0   120.0   33.333333333333336
-200.0   120.0   33.333333333333336
-150.0   120.0   50.0
-200.0   90.0   50.0
-200.0   120.0   50.0
-150.0   120.0   50.0
-200.0   120.0   33.333333333333336
-200.0   90.0   50.0
-150.0   120.0   50.0
-150.0   90.0   50.0
-150.0   90.0   33.333333333333336
-200.0   90.0   50.0
-150.0   120.0   50.0
-150.0   90.0   33.333333333333336
-200.0   120.0   33.333333333333336
-200.0   120.0   0.0
-150.0   120.0   0.0
-200.0   150.0   0.0
-200.0   120.0   16.666666666666668
-150.0   120.0   0.0
-150.0   150.0   0.0
-200.0   150.0   0.0
-150.0   150.0   16.666666666666668
-200.0   120.0   16.666666666666668
-200.0   150.0   16.666666666666668
-150.0   150.0   16.666666666666668
-200.0   150.0   0.0
-200.0   120.0   16.666666666666668
-150.0   150.0   16.666666666666668
-150.0   120.0   16.666666666666668
-150.0   120.0   0.0
-200.0   120.0   16.666666666666668
-150.0   150.0   16.666666666666668
-150.0   120.0   0.0
-200.0   150.0   0.0
-200.0   120.0   16.666666666666668
-150.0   120.0   16.666666666666668
-200.0   150.0   16.666666666666668
-200.0   120.0   33.333333333333336
-150.0   120.0   16.666666666666668
-150.0   150.0   16.666666666666668
-200.0   150.0   16.666666666666668
-150.0   150.0   33.333333333333336
-200.0   120.0   33.333333333333336
-200.0   150.0   33.333333333333336
-150.0   150.0   33.333333333333336
-200.0   150.0   16.666666666666668
-200.0   120.0   33.333333333333336
-150.0   150.0   33.333333333333336
-150.0   120.0   33.333333333333336
-150.0   120.0   16.666666666666668
-200.0   120.0   33.333333333333336
-150.0   150.0   33.333333333333336
-150.0   120.0   16.666666666666668
-200.0   150.0   16.666666666666668
-200.0   120.0   33.333333333333336
-150.0   120.0   33.333333333333336
-200.0   150.0   33.333333333333336
-200.0   120.0   50.0
-150.0   120.0   33.333333333333336
-150.0   150.0   33.333333333333336
-200.0   150.0   33.333333333333336
-150.0   150.0   50.0
-200.0   120.0   50.0
-200.0   150.0   50.0
-150.0   150.0   50.0
-200.0   150.0   33.333333333333336
-200.0   120.0   50.0
-150.0   150.0   50.0
-150.0   120.0   50.0
-150.0   120.0   33.333333333333336
-200.0   120.0   50.0
-150.0   150.0   50.0
-150.0   120.0   33.333333333333336
-200.0   150.0   33.333333333333336
-150.0   0.0   0.0
-100.0   0.0   0.0
-150.0   30.0   0.0
-150.0   0.0   16.666666666666668
-100.0   0.0   0.0
-100.0   30.0   0.0
-150.0   30.0   0.0
-100.0   30.0   16.666666666666668
-150.0   0.0   16.666666666666668
-150.0   30.0   16.666666666666668
-100.0   30.0   16.666666666666668
-150.0   30.0   0.0
-150.0   0.0   16.666666666666668
-100.0   30.0   16.666666666666668
-100.0   0.0   16.666666666666668
-100.0   0.0   0.0
-150.0   0.0   16.666666666666668
-100.0   30.0   16.666666666666668
-100.0   0.0   0.0
-150.0   30.0   0.0
-150.0   0.0   16.666666666666668
-100.0   0.0   16.666666666666668
-150.0   30.0   16.666666666666668
-150.0   0.0   33.333333333333336
-100.0   0.0   16.666666666666668
-100.0   30.0   16.666666666666668
-150.0   30.0   16.666666666666668
-100.0   30.0   33.333333333333336
-150.0   0.0   33.333333333333336
-150.0   30.0   33.333333333333336
-100.0   30.0   33.333333333333336
-150.0   30.0   16.666666666666668
-150.0   0.0   33.333333333333336
-100.0   30.0   33.333333333333336
-100.0   0.0   33.333333333333336
-100.0   0.0   16.666666666666668
-150.0   0.0   33.333333333333336
-100.0   30.0   33.333333333333336
-100.0   0.0   16.666666666666668
-150.0   30.0   16.666666666666668
-150.0   0.0   33.333333333333336
-100.0   0.0   33.333333333333336
-150.0   30.0   33.333333333333336
-150.0   0.0   50.0
-100.0   0.0   33.333333333333336
-100.0   30.0   33.333333333333336
-150.0   30.0   33.333333333333336
-100.0   30.0   50.0
-150.0   0.0   50.0
-150.0   30.0   50.0
-100.0   30.0   50.0
-150.0   30.0   33.333333333333336
-150.0   0.0   50.0
-100.0   30.0   50.0
-100.0   0.0   50.0
-100.0   0.0   33.333333333333336
-150.0   0.0   50.0
-100.0   30.0   50.0
-100.0   0.0   33.333333333333336
-150.0   30.0   33.333333333333336
-150.0   30.0   0.0
-100.0   30.0   0.0
-150.0   60.0   0.0
-150.0   30.0   16.666666666666668
-100.0   30.0   0.0
-100.0   60.0   0.0
-150.0   60.0   0.0
-100.0   60.0   16.666666666666668
-150.0   30.0   16.666666666666668
-150.0   60.0   16.666666666666668
-100.0   60.0   16.666666666666668
-150.0   60.0   0.0
-150.0   30.0   16.666666666666668
-100.0   60.0   16.666666666666668
-100.0   30.0   16.666666666666668
-100.0   30.0   0.0
-150.0   30.0   16.666666666666668
-100.0   60.0   16.666666666666668
-100.0   30.0   0.0
-150.0   60.0   0.0
-150.0   30.0   16.666666666666668
-100.0   30.0   16.666666666666668
-150.0   60.0   16.666666666666668
-150.0   30.0   33.333333333333336
-100.0   30.0   16.666666666666668
-100.0   60.0   16.666666666666668
-150.0   60.0   16.666666666666668
-100.0   60.0   33.333333333333336
-150.0   30.0   33.333333333333336
-150.0   60.0   33.333333333333336
-100.0   60.0   33.333333333333336
-150.0   60.0   16.666666666666668
-150.0   30.0   33.333333333333336
-100.0   60.0   33.333333333333336
-100.0   30.0   33.333333333333336
-100.0   30.0   16.666666666666668
-150.0   30.0   33.333333333333336
-100.0   60.0   33.333333333333336
-100.0   30.0   16.666666666666668
-150.0   60.0   16.666666666666668
-150.0   30.0   33.333333333333336
-100.0   30.0   33.333333333333336
-150.0   60.0   33.333333333333336
-150.0   30.0   50.0
-100.0   30.0   33.333333333333336
-100.0   60.0   33.333333333333336
-150.0   60.0   33.333333333333336
-100.0   60.0   50.0
-150.0   30.0   50.0
-150.0   60.0   50.0
-100.0   60.0   50.0
-150.0   60.0   33.333333333333336
-150.0   30.0   50.0
-100.0   60.0   50.0
-100.0   30.0   50.0
-100.0   30.0   33.333333333333336
-150.0   30.0   50.0
-100.0   60.0   50.0
-100.0   30.0   33.333333333333336
-150.0   60.0   33.333333333333336
-150.0   60.0   0.0
-100.0   60.0   0.0
-150.0   90.0   0.0
-150.0   60.0   16.666666666666668
-100.0   60.0   0.0
-100.0   90.0   0.0
-150.0   90.0   0.0
-100.0   90.0   16.666666666666668
-150.0   60.0   16.666666666666668
-150.0   90.0   16.666666666666668
-100.0   90.0   16.666666666666668
-150.0   90.0   0.0
-150.0   60.0   16.666666666666668
-100.0   90.0   16.666666666666668
-100.0   60.0   16.666666666666668
-100.0   60.0   0.0
-150.0   60.0   16.666666666666668
-100.0   90.0   16.666666666666668
-100.0   60.0   0.0
-150.0   90.0   0.0
-150.0   60.0   16.666666666666668
-100.0   60.0   16.666666666666668
-150.0   90.0   16.666666666666668
-150.0   60.0   33.333333333333336
-100.0   60.0   16.666666666666668
-100.0   90.0   16.666666666666668
-150.0   90.0   16.666666666666668
-100.0   90.0   33.333333333333336
-150.0   60.0   33.333333333333336
-150.0   90.0   33.333333333333336
-100.0   90.0   33.333333333333336
-150.0   90.0   16.666666666666668
-150.0   60.0   33.333333333333336
-100.0   90.0   33.333333333333336
-100.0   60.0   33.333333333333336
-100.0   60.0   16.666666666666668
-150.0   60.0   33.333333333333336
-100.0   90.0   33.333333333333336
-100.0   60.0   16.666666666666668
-150.0   90.0   16.666666666666668
-150.0   60.0   33.333333333333336
-100.0   60.0   33.333333333333336
-150.0   90.0   33.333333333333336
-150.0   60.0   50.0
-100.0   60.0   33.333333333333336
-100.0   90.0   33.333333333333336
-150.0   90.0   33.333333333333336
-100.0   90.0   50.0
-150.0   60.0   50.0
-150.0   90.0   50.0
-100.0   90.0   50.0
-150.0   90.0   33.333333333333336
-150.0   60.0   50.0
-100.0   90.0   50.0
-100.0   60.0   50.0
-100.0   60.0   33.333333333333336
-150.0   60.0   50.0
-100.0   90.0   50.0
-100.0   60.0   33.333333333333336
-150.0   90.0   33.333333333333336
-150.0   90.0   0.0
-100.0   90.0   0.0
-150.0   120.0   0.0
-150.0   90.0   16.666666666666668
-100.0   90.0   0.0
-100.0   120.0   0.0
-150.0   120.0   0.0
-100.0   120.0   16.666666666666668
-150.0   90.0   16.666666666666668
-150.0   120.0   16.666666666666668
-100.0   120.0   16.666666666666668
-150.0   120.0   0.0
-150.0   90.0   16.666666666666668
-100.0   120.0   16.666666666666668
-100.0   90.0   16.666666666666668
-100.0   90.0   0.0
-150.0   90.0   16.666666666666668
-100.0   120.0   16.666666666666668
-100.0   90.0   0.0
-150.0   120.0   0.0
-150.0   90.0   16.666666666666668
-100.0   90.0   16.666666666666668
-150.0   120.0   16.666666666666668
-150.0   90.0   33.333333333333336
-100.0   90.0   16.666666666666668
-100.0   120.0   16.666666666666668
-150.0   120.0   16.666666666666668
-100.0   120.0   33.333333333333336
-150.0   90.0   33.333333333333336
-150.0   120.0   33.333333333333336
-100.0   120.0   33.333333333333336
-150.0   120.0   16.666666666666668
-150.0   90.0   33.333333333333336
-100.0   120.0   33.333333333333336
-100.0   90.0   33.333333333333336
-100.0   90.0   16.666666666666668
-150.0   90.0   33.333333333333336
-100.0   120.0   33.333333333333336
-100.0   90.0   16.666666666666668
-150.0   120.0   16.666666666666668
-150.0   90.0   33.333333333333336
-100.0   90.0   33.333333333333336
-150.0   120.0   33.333333333333336
-150.0   90.0   50.0
-100.0   90.0   33.333333333333336
-100.0   120.0   33.333333333333336
-150.0   120.0   33.333333333333336
-100.0   120.0   50.0
-150.0   90.0   50.0
-150.0   120.0   50.0
-100.0   120.0   50.0
-150.0   120.0   33.333333333333336
-150.0   90.0   50.0
-100.0   120.0   50.0
-100.0   90.0   50.0
-100.0   90.0   33.333333333333336
-150.0   90.0   50.0
-100.0   120.0   50.0
-100.0   90.0   33.333333333333336
-150.0   120.0   33.333333333333336
-150.0   120.0   0.0
-100.0   120.0   0.0
-150.0   150.0   0.0
-150.0   120.0   16.666666666666668
-100.0   120.0   0.0
-100.0   150.0   0.0
-150.0   150.0   0.0
-100.0   150.0   16.666666666666668
-150.0   120.0   16.666666666666668
-150.0   150.0   16.666666666666668
-100.0   150.0   16.666666666666668
-150.0   150.0   0.0
-150.0   120.0   16.666666666666668
-100.0   150.0   16.666666666666668
-100.0   120.0   16.666666666666668
-100.0   120.0   0.0
-150.0   120.0   16.666666666666668
-100.0   150.0   16.666666666666668
-100.0   120.0   0.0
-150.0   150.0   0.0
-150.0   120.0   16.666666666666668
-100.0   120.0   16.666666666666668
-150.0   150.0   16.666666666666668
-150.0   120.0   33.333333333333336
-100.0   120.0   16.666666666666668
-100.0   150.0   16.666666666666668
-150.0   150.0   16.666666666666668
-100.0   150.0   33.333333333333336
-150.0   120.0   33.333333333333336
-150.0   150.0   33.333333333333336
-100.0   150.0   33.333333333333336
-150.0   150.0   16.666666666666668
-150.0   120.0   33.333333333333336
-100.0   150.0   33.333333333333336
-100.0   120.0   33.333333333333336
-100.0   120.0   16.666666666666668
-150.0   120.0   33.333333333333336
-100.0   150.0   33.333333333333336
-100.0   120.0   16.666666666666668
-150.0   150.0   16.666666666666668
-150.0   120.0   33.333333333333336
-100.0   120.0   33.333333333333336
-150.0   150.0   33.333333333333336
-150.0   120.0   50.0
-100.0   120.0   33.333333333333336
-100.0   150.0   33.333333333333336
-150.0   150.0   33.333333333333336
-100.0   150.0   50.0
-150.0   120.0   50.0
-150.0   150.0   50.0
-100.0   150.0   50.0
-150.0   150.0   33.333333333333336
-150.0   120.0   50.0
-100.0   150.0   50.0
-100.0   120.0   50.0
-100.0   120.0   33.333333333333336
-150.0   120.0   50.0
-100.0   150.0   50.0
-100.0   120.0   33.333333333333336
-150.0   150.0   33.333333333333336
-100.0   0.0   0.0
-50.0   0.0   0.0
-100.0   30.0   0.0
-100.0   0.0   16.666666666666668
-50.0   0.0   0.0
-50.0   30.0   0.0
-100.0   30.0   0.0
-50.0   30.0   16.666666666666668
-100.0   0.0   16.666666666666668
-100.0   30.0   16.666666666666668
-50.0   30.0   16.666666666666668
-100.0   30.0   0.0
-100.0   0.0   16.666666666666668
-50.0   30.0   16.666666666666668
-50.0   0.0   16.666666666666668
-50.0   0.0   0.0
-100.0   0.0   16.666666666666668
-50.0   30.0   16.666666666666668
-50.0   0.0   0.0
-100.0   30.0   0.0
-100.0   0.0   16.666666666666668
-50.0   0.0   16.666666666666668
-100.0   30.0   16.666666666666668
-100.0   0.0   33.333333333333336
-50.0   0.0   16.666666666666668
-50.0   30.0   16.666666666666668
-100.0   30.0   16.666666666666668
-50.0   30.0   33.333333333333336
-100.0   0.0   33.333333333333336
-100.0   30.0   33.333333333333336
-50.0   30.0   33.333333333333336
-100.0   30.0   16.666666666666668
-100.0   0.0   33.333333333333336
-50.0   30.0   33.333333333333336
-50.0   0.0   33.333333333333336
-50.0   0.0   16.666666666666668
-100.0   0.0   33.333333333333336
-50.0   30.0   33.333333333333336
-50.0   0.0   16.666666666666668
-100.0   30.0   16.666666666666668
-100.0   0.0   33.333333333333336
-50.0   0.0   33.333333333333336
-100.0   30.0   33.333333333333336
-100.0   0.0   50.0
-50.0   0.0   33.333333333333336
-50.0   30.0   33.333333333333336
-100.0   30.0   33.333333333333336
-50.0   30.0   50.0
-100.0   0.0   50.0
-100.0   30.0   50.0
-50.0   30.0   50.0
-100.0   30.0   33.333333333333336
-100.0   0.0   50.0
-50.0   30.0   50.0
-50.0   0.0   50.0
-50.0   0.0   33.333333333333336
-100.0   0.0   50.0
-50.0   30.0   50.0
-50.0   0.0   33.333333333333336
-100.0   30.0   33.333333333333336
-100.0   30.0   0.0
-50.0   30.0   0.0
-100.0   60.0   0.0
-100.0   30.0   16.666666666666668
-50.0   30.0   0.0
-50.0   60.0   0.0
-100.0   60.0   0.0
-50.0   60.0   16.666666666666668
-100.0   30.0   16.666666666666668
-100.0   60.0   16.666666666666668
-50.0   60.0   16.666666666666668
-100.0   60.0   0.0
-100.0   30.0   16.666666666666668
-50.0   60.0   16.666666666666668
-50.0   30.0   16.666666666666668
-50.0   30.0   0.0
-100.0   30.0   16.666666666666668
-50.0   60.0   16.666666666666668
-50.0   30.0   0.0
-100.0   60.0   0.0
-100.0   30.0   16.666666666666668
-50.0   30.0   16.666666666666668
-100.0   60.0   16.666666666666668
-100.0   30.0   33.333333333333336
-50.0   30.0   16.666666666666668
-50.0   60.0   16.666666666666668
-100.0   60.0   16.666666666666668
-50.0   60.0   33.333333333333336
-100.0   30.0   33.333333333333336
-100.0   60.0   33.333333333333336
-50.0   60.0   33.333333333333336
-100.0   60.0   16.666666666666668
-100.0   30.0   33.333333333333336
-50.0   60.0   33.333333333333336
-50.0   30.0   33.333333333333336
-50.0   30.0   16.666666666666668
-100.0   30.0   33.333333333333336
-50.0   60.0   33.333333333333336
-50.0   30.0   16.666666666666668
-100.0   60.0   16.666666666666668
-100.0   30.0   33.333333333333336
-50.0   30.0   33.333333333333336
-100.0   60.0   33.333333333333336
-100.0   30.0   50.0
-50.0   30.0   33.333333333333336
-50.0   60.0   33.333333333333336
-100.0   60.0   33.333333333333336
-50.0   60.0   50.0
-100.0   30.0   50.0
-100.0   60.0   50.0
-50.0   60.0   50.0
-100.0   60.0   33.333333333333336
-100.0   30.0   50.0
-50.0   60.0   50.0
-50.0   30.0   50.0
-50.0   30.0   33.333333333333336
-100.0   30.0   50.0
-50.0   60.0   50.0
-50.0   30.0   33.333333333333336
-100.0   60.0   33.333333333333336
-100.0   60.0   0.0
-50.0   60.0   0.0
-100.0   90.0   0.0
-100.0   60.0   16.666666666666668
-50.0   60.0   0.0
-50.0   90.0   0.0
-100.0   90.0   0.0
-50.0   90.0   16.666666666666668
-100.0   60.0   16.666666666666668
-100.0   90.0   16.666666666666668
-50.0   90.0   16.666666666666668
-100.0   90.0   0.0
-100.0   60.0   16.666666666666668
-50.0   90.0   16.666666666666668
-50.0   60.0   16.666666666666668
-50.0   60.0   0.0
-100.0   60.0   16.666666666666668
-50.0   90.0   16.666666666666668
-50.0   60.0   0.0
-100.0   90.0   0.0
-100.0   60.0   16.666666666666668
-50.0   60.0   16.666666666666668
-100.0   90.0   16.666666666666668
-100.0   60.0   33.333333333333336
-50.0   60.0   16.666666666666668
-50.0   90.0   16.666666666666668
-100.0   90.0   16.666666666666668
-50.0   90.0   33.333333333333336
-100.0   60.0   33.333333333333336
-100.0   90.0   33.333333333333336
-50.0   90.0   33.333333333333336
-100.0   90.0   16.666666666666668
-100.0   60.0   33.333333333333336
-50.0   90.0   33.333333333333336
-50.0   60.0   33.333333333333336
-50.0   60.0   16.666666666666668
-100.0   60.0   33.333333333333336
-50.0   90.0   33.333333333333336
-50.0   60.0   16.666666666666668
-100.0   90.0   16.666666666666668
-100.0   60.0   33.333333333333336
-50.0   60.0   33.333333333333336
-100.0   90.0   33.333333333333336
-100.0   60.0   50.0
-50.0   60.0   33.333333333333336
-50.0   90.0   33.333333333333336
-100.0   90.0   33.333333333333336
-50.0   90.0   50.0
-100.0   60.0   50.0
-100.0   90.0   50.0
-50.0   90.0   50.0
-100.0   90.0   33.333333333333336
-100.0   60.0   50.0
-50.0   90.0   50.0
-50.0   60.0   50.0
-50.0   60.0   33.333333333333336
-100.0   60.0   50.0
-50.0   90.0   50.0
-50.0   60.0   33.333333333333336
-100.0   90.0   33.333333333333336
-100.0   90.0   0.0
-50.0   90.0   0.0
-100.0   120.0   0.0
-100.0   90.0   16.666666666666668
-50.0   90.0   0.0
-50.0   120.0   0.0
-100.0   120.0   0.0
-50.0   120.0   16.666666666666668
-100.0   90.0   16.666666666666668
-100.0   120.0   16.666666666666668
-50.0   120.0   16.666666666666668
-100.0   120.0   0.0
-100.0   90.0   16.666666666666668
-50.0   120.0   16.666666666666668
-50.0   90.0   16.666666666666668
-50.0   90.0   0.0
-100.0   90.0   16.666666666666668
-50.0   120.0   16.666666666666668
-50.0   90.0   0.0
-100.0   120.0   0.0
-100.0   90.0   16.666666666666668
-50.0   90.0   16.666666666666668
-100.0   120.0   16.666666666666668
-100.0   90.0   33.333333333333336
-50.0   90.0   16.666666666666668
-50.0   120.0   16.666666666666668
-100.0   120.0   16.666666666666668
-50.0   120.0   33.333333333333336
-100.0   90.0   33.333333333333336
-100.0   120.0   33.333333333333336
-50.0   120.0   33.333333333333336
-100.0   120.0   16.666666666666668
-100.0   90.0   33.333333333333336
-50.0   120.0   33.333333333333336
-50.0   90.0   33.333333333333336
-50.0   90.0   16.666666666666668
-100.0   90.0   33.333333333333336
-50.0   120.0   33.333333333333336
-50.0   90.0   16.666666666666668
-100.0   120.0   16.666666666666668
-100.0   90.0   33.333333333333336
-50.0   90.0   33.333333333333336
-100.0   120.0   33.333333333333336
-100.0   90.0   50.0
-50.0   90.0   33.333333333333336
-50.0   120.0   33.333333333333336
-100.0   120.0   33.333333333333336
-50.0   120.0   50.0
-100.0   90.0   50.0
-100.0   120.0   50.0
-50.0   120.0   50.0
-100.0   120.0   33.333333333333336
-100.0   90.0   50.0
-50.0   120.0   50.0
-50.0   90.0   50.0
-50.0   90.0   33.333333333333336
-100.0   90.0   50.0
-50.0   120.0   50.0
-50.0   90.0   33.333333333333336
-100.0   120.0   33.333333333333336
-100.0   120.0   0.0
-50.0   120.0   0.0
-100.0   150.0   0.0
-100.0   120.0   16.666666666666668
-50.0   120.0   0.0
-50.0   150.0   0.0
-100.0   150.0   0.0
-50.0   150.0   16.666666666666668
-100.0   120.0   16.666666666666668
-100.0   150.0   16.666666666666668
-50.0   150.0   16.666666666666668
-100.0   150.0   0.0
-100.0   120.0   16.666666666666668
-50.0   150.0   16.666666666666668
-50.0   120.0   16.666666666666668
-50.0   120.0   0.0
-100.0   120.0   16.666666666666668
-50.0   150.0   16.666666666666668
-50.0   120.0   0.0
-100.0   150.0   0.0
-100.0   120.0   16.666666666666668
-50.0   120.0   16.666666666666668
-100.0   150.0   16.666666666666668
-100.0   120.0   33.333333333333336
-50.0   120.0   16.666666666666668
-50.0   150.0   16.666666666666668
-100.0   150.0   16.666666666666668
-50.0   150.0   33.333333333333336
-100.0   120.0   33.333333333333336
-100.0   150.0   33.333333333333336
-50.0   150.0   33.333333333333336
-100.0   150.0   16.666666666666668
-100.0   120.0   33.333333333333336
-50.0   150.0   33.333333333333336
-50.0   120.0   33.333333333333336
-50.0   120.0   16.666666666666668
-100.0   120.0   33.333333333333336
-50.0   150.0   33.333333333333336
-50.0   120.0   16.666666666666668
-100.0   150.0   16.666666666666668
-100.0   120.0   33.333333333333336
-50.0   120.0   33.333333333333336
-100.0   150.0   33.333333333333336
-100.0   120.0   50.0
-50.0   120.0   33.333333333333336
-50.0   150.0   33.333333333333336
-100.0   150.0   33.333333333333336
-50.0   150.0   50.0
-100.0   120.0   50.0
-100.0   150.0   50.0
-50.0   150.0   50.0
-100.0   150.0   33.333333333333336
-100.0   120.0   50.0
-50.0   150.0   50.0
-50.0   120.0   50.0
-50.0   120.0   33.333333333333336
-100.0   120.0   50.0
-50.0   150.0   50.0
-50.0   120.0   33.333333333333336
-100.0   150.0   33.333333333333336
-50.0   0.0   0.0
0.0   0.0   0.0
-50.0   30.0   0.0
-50.0   0.0   16.666666666666668
0.0   0.0   0.0
0.0   30.0   0.0
-50.0   30.0   0.0
0.0   30.0   16.666666666666668
-50.0   0.0   16.666666666666668
-50.0   30.0   16.666666666666668
0.0   30.0   16.666666666666668
-50.0   30.0   0.0
-50.0   0.0   16.666666666666668
0.0   30.0   16.666666666666668
0.0   0.0   16.666666666666668
0.0   0.0   0.0
-50.0   0.0   16.666666666666668
0.0   30.0   16.666666666666668
0.0   0.0   0.0
-50.0   30.0   0.0
-50.0   0.0   16.666666666666668
0.0   0.0   16.666666666666668
-50.0   30.0   16.666666666666668
-50.0   0.0   33.333333333333336
0.0   0.0   16.666666666666668
0.0   30.0   16.666666666666668
-50.0   30.0   16.666666666666668
0.0   30.0   33.333333333333336
-50.0   0.0   33.333333333333336
-50.0   30.0   33.333333333333336
0.0   30.0   33.333333333333336
-50.0   30.0   16.666666666666668
-50.0   0.0   33.333333333333336
0.0   30.0   33.333333333333336
0.0   0.0   33.333333333333336
0.0   0.0   16.666666666666668
-50.0   0.0   33.333333333333336
0.0   30.0   33.333333333333336
0.0   0.0   16.666666666666668
-50.0   30.0   16.666666666666668
-50.0   0.0   33.333333333333336
0.0   0.0   33.333333333333336
-50.0   30.0   33.333333333333336
-50.0   0.0   50.0
0.0   0.0   33.333333333333336
0.0   30.0   33.333333333333336
-50.0   30.0   33.333333333333336
0.0   30.0   50.0
-50.0   0.0   50.0
-50.0   30.0   50.0
0.0   30.0   50.0
-50.0   30.0   33.333333333333336
-50.0   0.0   50.0
0.0   30.0   50.0
0.0   0.0   50.0
0.0   0.0   33.333333333333336
-50.0   0.0   50.0
0.0   30.0   50.0
0.0   0.0   33.333333333333336
-50.0   30.0   33.333333333333336
-50.0   30.0   0.0
0.0   30.0   0.0
-50.0   60.0   0.0
-50.0   30.0   16.666666666666668
0.0   30.0   0.0
0.0   60.0   0.0
-50.0   60.0   0.0
0.0   60.0   16.666666666666668
-50.0   30.0   16.666666666666668
-50.0   60.0   16.666666666666668
0.0   60.0   16.666666666666668
-50.0   60.0   0.0
-50.0   30.0   16.666666666666668
0.0   60.0   16.666666666666668
0.0   30.0   16.666666666666668
0.0   30.0   0.0
-50.0   30.0   16.666666666666668
0.0   60.0   16.666666666666668
0.0   30.0   0.0
-50.0   60.0   0.0
-50.0   30.0   16.666666666666668
0.0   30.0   16.666666666666668
-50.0   60.0   16.666666666666668
-50.0   30.0   33.333333333333336
0.0   30.0   16.666666666666668
0.0   60.0   16.666666666666668
-50.0   60.0   16.666666666666668
0.0   60.0   33.333333333333336
-50.0   30.0   33.333333333333336
-50.0   60.0   33.333333333333336
0.0   60.0   33.333333333333336
-50.0   60.0   16.666666666666668
-50.0   30.0   33.333333333333336
0.0   60.0   33.333333333333336
0.0   30.0   33.333333333333336
0.0   30.0   16.666666666666668
-50.0   30.0   33.333333333333336
0.0   60.0   33.333333333333336
0.0   30.0   16.666666666666668
-50.0   60.0   16.666666666666668
-50.0   30.0   33.333333333333336
0.0   30.0   33.333333333333336
-50.0   60.0   33.333333333333336
-50.0   30.0   50.0
0.0   30.0   33.333333333333336
0.0   60.0   33.333333333333336
-50.0   60.0   33.333333333333336
0.0   60.0   50.0
-50.0   30.0   50.0
-50.0   60.0   50.0
0.0   60.0   50.0
-50.0   60.0   33.333333333333336
-50.0   30.0   50.0
0.0   60.0   50.0
0.0   30.0   50.0
0.0   30.0   33.333333333333336
-50.0   30.0   50.0
0.0   60.0   50.0
0.0   30.0   33.333333333333336
-50.0   60.0   33.333333333333336
-50.0   60.0   0.0
0.0   60.0   0.0
-50.0   90.0   0.0
-50.0   60.0   16.666666666666668
0.0   60.0   0.0
0.0   90.0   0.0
-50.0   90.0   0.0
0.0   90.0   16.666666666666668
-50.0   60.0   16.666666666666668
-50.0   90.0   16.666666666666668
0.0   90.0   16.666666666666668
-50.0   90.0   0.0
-50.0   60.0   16.666666666666668
0.0   90.0   16.666666666666668
0.0   60.0   16.666666666666668
0.0   60.0   0.0
-50.0   60.0   16.666666666666668
0.0   90.0   16.666666666666668
0.0   60.0   0.0
-50.0   90.0   0.0
-50.0   60.0   16.666666666666668
0.0   60.0   16.666666666666668
-50.0   90.0   16.666666666666668
-50.0   60.0   33.333333333333336
0.0   60.0   16.666666666666668
0.0   90.0   16.666666666666668
-50.0   90.0   16.666666666666668
0.0   90.0   33.333333333333336
-50.0   60.0   33.333333333333336
-50.0   90.0   33.333333333333336
0.0   90.0   33.333333333333336
-50.0   90.0   16.666666666666668
-50.0   60.0   33.333333333333336
0.0   90.0   33.333333333333336
0.0   60.0   33.333333333333336
0.0   60.0   16.666666666666668
-50.0   60.0   33.333333333333336
0.0   90.0   33.333333333333336
0.0   60.0   16.666666666666668
-50.0   90.0   16.666666666666668
-50.0   60.0   33.333333333333336
0.0   60.0   33.333333333333336
-50.0   90.0   33.333333333333336
-50.0   60.0   50.0
0.0   60.0   33.333333333333336
0.0   90.0   33.333333333333336
-50.0   90.0   33.333333333333336
0.0   90.0   50.0
-50.0   60.0   50.0
-50.0   90.0   50.0
0.0   90.0   50.0
-50.0   90.0   33.333333333333336
-50.0   60.0   50.0
0.0   90.0   50.0
0.0   60.0   50.0
0.0   60.0   33.333333333333336
-50.0   60.0   50.0
0.0   90.0   50.0
0.0   60.0   33.333333333333336
-50.0   90.0   33.333333333333336
-50.0   90.0   0.0
0.0   90.0   0.0
-50.0   120.0   0.0
-50.0   90.0   16.666666666666668
0.0   90.0   0.0
0.0   120.0   0.0
-50.0   120.0   0.0
0.0   120.0   16.666666666666668
-50.0   90.0   16.666666666666668
-50.0   120.0   16.666666666666668
0.0   120.0   16.666666666666668
-50.0   120.0   0.0
-50.0   90.0   16.666666666666668
0.0   120.0   16.666666666666668
0.0   90.0   16.666666666666668
0.0   90.0   0.0
-50.0   90.0   16.666666666666668
0.0   120.0   16.666666666666668
0.0   90.0   0.0
-50.0   120.0   0.0
-50.0   90.0   16.666666666666668
0.0   90.0   16.666666666666668
-50.0   120.0   16.666666666666668
-50.0   90.0   33.333333333333336
0.0   90.0   16.666666666666668
0.0   120.0   16.666666666666668
-50.0   120.0   16.666666666666668
0.0   120.0   33.333333333333336
-50.0   90.0   33.333333333333336
-50.0   120.0   33.333333333333336
0.0   120.0   33.333333333333336
-50.0   120.0   16.666666666666668
-50.0   90.0   33.333333333333336
0.0   120.0   33.333333333333336
0.0   90.0   33.333333333333336
0.0   90.0   16.666666666666668
-50.0   90.0   33.333333333333336
0.0   120.0   33.333333333333336
0.0   90.0   16.666666666666668
-50.0   120.0   16.666666666666668
-50.0   90.0   33.333333333333336
0.0   90.0   33.333333333333336
-50.0   120.0   33.333333333333336
-50.0   90.0   50.0
0.0   90.0   33.333333333333336
0.0   120.0   33.333333333333336
-50.0   120.0   33.333333333333336
0.0   120.0   50.0
-50.0   90.0   50.0
-50.0   120.0   50.0
0.0   120.0   50.0
-50.0   120.0   33.333333333333336
-50.0   90.0   50.0
0.0   120.0   50.0
0.0   90.0   50.0
0.0   90.0   33.333333333333336
-50.0   90.0   50.0
0.0   120.0   50.0
0.0   90.0   33.333333333333336
-50.0   120.0   33.333333333333336
-50.0   120.0   0.0
0.0   120.0   0.0
-50.0   150.0   0.0
-50.0   120.0   16.666666666666668
0.0   120.0   0.0
0.0   150.0   0.0
-50.0   150.0   0.0
0.0   150.0   16.666666666666668
-50.0   120.0   16.666666666666668
-50.0   150.0   16.666666666666668
0.0   150.0   16.666666666666668
-50.0   150.0   0.0
-50.0   120.0   16.666666666666668
0.0   150.0   16.666666666666668
0.0   120.0   16.666666666666668
0.0   120.0   0.0
-50.0   120.0   16.666666666666668
0.0   150.0   16.666666666666668
0.0   120.0   0.0
-50.0   150.0   0.0
-50.0   120.0   16.666666666666668
0.0   120.0   16.666666666666668
-50.0   150.0   16.666666666666668
-50.0   120.0   33.333333333333336
0.0   120.0   16.666666666666668
0.0   150.0   16.666666666666668
-50.0   150.0   16.666666666666668
0.0   150.0   33.333333333333336
-50.0   120.0   33.333333333333336
-50.0   150.0   33.333333333333336
0.0   150.0   33.333333333333336
-50.0   150.0   16.666666666666668
-50.0   120.0   33.333333333333336
0.0   150.0   33.333333333333336
0.0   120.0   33.333333333333336
0.0   120.0   16.666666666666668
-50.0   120.0   33.333333333333336
0.0   150.0   33.333333333333336
0.0   120.0   16.666666666666668
-50.0   150.0   16.666666666666668
-50.0   120.0   33.333333333333336
0.0   120.0   33.333333333333336
-50.0   150.0   33.333333333333336
-50.0   120.0   50.0
0.0   120.0   33.333333333333336
0.0   150.0   33.333333333333336
-50.0   150.0   33.333333333333336
0.0   150.0   50.0
-50.0   120.0   50.0
-50.0   150.0   50.0
0.0   150.0   50.0
-50.0   150.0   33.333333333333336
-50.0   120.0   50.0
0.0   150.0   50.0
0.0   120.0   50.0
0.0   120.0   33.333333333333336
-50.0   120.0   50.0
0.0   150.0   50.0
0.0   120.0   33.333333333333336
-50.0   150.0   33.333333333333336
0.0   0.0   0.0
50.0   0.0   0.0
0.0   30.0   0.0
0.0   0.0   16.666666666666668
50.0   0.0   0.0
50.0   30.0   0.0
0.0   30.0   0.0
50.0   30.0   16.666666666666668
0.0   0.0   16.666666666666668
0.0   30.0   16.666666666666668
50.0   30.0   16.666666666666668
0.0   30.0   0.0
0.0   0.0   16.666666666666668
50.0   30.0   16.666666666666668
50.0   0.0   16.666666666666668
50.0   0.0   0.0
0.0   0.0   16.666666666666668
50.0   30.0   16.666666666666668
50.0   0.0   0.0
0.0   30.0   0.0
0.0   0.0   16.666666666666668
50.0   0.0   16.666666666666668
0.0   30.0   16.666666666666668
0.0   0.0   33.333333333333336
50.0   0.0   16.666666666666668
50.0   30.0   16.666666666666668
0.0   30.0   16.666666666666668
50.0   30.0   33.333333333333336
0.0   0.0   33.333333333333336
0.0   30.0   33.333333333333336
50.0   30.0   33.333333333333336
0.0   30.0   16.666666666666668
0.0   0.0   33.333333333333336
50.0   30.0   33.333333333333336
50.0   0.0   33.333333333333336
50.0   0.0   16.666666666666668
0.0   0.0   33.333333333333336
50.0   30.0   33.333333333333336
50.0   0.0   16.666666666666668
0.0   30.0   16.666666666666668
0.0   0.0   33.333333333333336
50.0   0.0   33.333333333333336
0.0   30.0   33.333333333333336
0.0   0.0   50.0
50.0   0.0   33.333333333333336
50.0   30.0   33.333333333333336
0.0   30.0   33.333333333333336
50.0   30.0   50.0
0.0   0.0   50.0
0.0   30.0   50.0
50.0   30.0   50.0
0.0   30.0   33.333333333333336
0.0   0.0   50.0
50.0   30.0   50.0
50.0   0.0   50.0
50.0   0.0   33.333333333333336
0.0   0.0   50.0
50.0   30.0   50.0
50.0   0.0   33.333333333333336
0.0   30.0   33.333333333333336
0.0   30.0   0.0
50.0   30.0   0.0
0.0   60.0   0.0
0.0   30.0   16.666666666666668
50.0   30.0   0.0
50.0   60.0   0.0
0.0   60.0   0.0
50.0   60.0   16.666666666666668
0.0   30.0   16.666666666666668
0.0   60.0   16.666666666666668
50.0   60.0   16.666666666666668
0.0   60.0   0.0
0.0   30.0   16.666666666666668
50.0   60.0   16.666666666666668
50.0   30.0   16.666666666666668
50.0   30.0   0.0
0.0   30.0   16.666666666666668
50.0   60.0   16.666666666666668
50.0   30.0   0.0
0.0   60.0   0.0
0.0   30.0   16.666666666666668
50.0   30.0   16.666666666666668
0.0   60.0   16.666666666666668
0.0   30.0   33.333333333333336
50.0   30.0   16.666666666666668
50.0   60.0   16.666666666666668
0.0   60.0   16.666666666666668
50.0   60.0   33.333333333333336
0.0   30.0   33.333333333333336
0.0   60.0   33.333333333333336
50.0   60.0   33.333333333333336
0.0   60.0   16.666666666666668
0.0   30.0   33.333333333333336
50.0   60.0   33.333333333333336
50.0   30.0   33.333333333333336
50.0   30.0   16.666666666666668
0.0   30.0   33.333333333333336
50.0   60.0   33.333333333333336
50.0   30.0   16.666666666666668
0.0   60.0   16.666666666666668
0.0   30.0   33.333333333333336
50.0   30.0   33.333333333333336
0.0   60.0   33.333333333333336
0.0   30.0   50.0
50.0   30.0   33.333333333333336
50.0   60.0   33.333333333333336
0.0   60.0   33.333333333333336
50.0   60.0   50.0
0.0   30.0   50.0
0.0   60.0   50.0
50.0   60.0   50.0
0.0   60.0   33.333333333333336
0.0   30.0   50.0
50.0   60.0   50.0
50.0   30.0   50.0
50.0   30.0   33.333333333333336
0.0   30.0   50.0
50.0   60.0   50.0
50.0   30.0   33.333333333333336
0.0   60.0   33.333333333333336
0.0   60.0   0.0
50.0   60.0   0.0
0.0   90.0   0.0
0.0   60.0   16.666666666666668
50.0   60.0   0.0
50.0   90.0   0.0
0.0   90.0   0.0
50.0   90.0   16.666666666666668
0.0   60.0   16.666666666666668
0.0   90.0   16.666666666666668
50.0   90.0   16.666666666666668
0.0   90.0   0.0
0.0   60.0   16.666666666666668
50.0   90.0   16.666666666666668
50.0   60.0   16.666666666666668
50.0   60.0   0.0
0.0   60.0   16.666666666666668
50.0   90.0   16.666666666666668
50.0   60.0   0.0
0.0   90.0   0.0
0.0   60.0   16.666666666666668
50.0   60.0   16.666666666666668
0.0   90.0   16.666666666666668
0.0   60.0   33.333333333333336
50.0   60.0   16.666666666666668
50.0   90.0   16.666666666666668
0.0   90.0   16.666666666666668
50.0   90.0   33.333333333333336
0.0   60.0   33.333333333333336
0.0   90.0   33.333333333333336
50.0   90.0   33.333333333333336
0.0   90.0   16.666666666666668
0.0   60.0   33.333333333333336
50.0   90.0   33.333333333333336
50.0   60.0   33.333333333333336
50.0   60.0   16.666666666666668
0.0   60.0   33.333333333333336
50.0   90.0   33.333333333333336
50.0   60.0   16.666666666666668
0.0   90.0   16.666666666666668
0.0   60.0   33.333333333333336
50.0   60.0   33.333333333333336
0.0   90.0   33.333333333333336
0.0   60.0   50.0
50.0   60.0   33.333333333333336
50.0   90.0   33.333333333333336
0.0   90.0   33.333333333333336
50.0   90.0   50.0
0.0   60.0   50.0
0.0   90.0   50.0
50.0   90.0   50.0
0.0   90.0   33.333333333333336
0.0   60.0   50.0
50.0   90.0   50.0
50.0   60.0   50.0
50.0   60.0   33.333333333333336
0.0   60.0   50.0
50.0   90.0   50.0
50.0   60.0   33.333333333333336
0.0   90.0   33.333333333333336
0.0   90.0   0.0
50.0   90.0   0.0
0.0   120.0   0.0
0.0   90.0   16.666666666666668
50.0   90.0   0.0
50.0   120.0   0.0
0.0   120.0   0.0
50.0   120.0   16.666666666666668
0.0   90.0   16.666666666666668
0.0   120.0   16.666666666666668
50.0   120.0   16.666666666666668
0.0   120.0   0.0
0.0   90.0   16.666666666666668
50.0   120.0   16.666666666666668
50.0   90.0   16.666666666666668
50.0   90.0   0.0
0.0   90.0   16.666666666666668
50.0   120.0   16.666666666666668
50.0   90.0   0.0
0.0   120.0   0.0
0.0   90.0   16.666666666666668
50.0   90.0   16.666666666666668
0.0   120.0   16.666666666666668
0.0   90.0   33.333333333333336
50.0   90.0   16.666666666666668
50.0   120.0   16.666666666666668
0.0   120.0   16.666666666666668
50.0   120.0   33.333333333333336
0.0   90.0   33.333333333333336
0.0   120.0   33.333333333333336
50.0   120.0   33.333333333333336
0.0   120.0   16.666666666666668
0.0   90.0   33.333333333333336
50.0   120.0   33.333333333333336
50.0   90.0   33.333333333333336
50.0   90.0   16.666666666666668
0.0   90.0   33.333333333333336
50.0   120.0   33.333333333333336
50.0   90.0   16.666666666666668
0.0   120.0   16.666666666666668
0.0   90.0   33.333333333333336
50.0   90.0   33.333333333333336
0.0   120.0   33.333333333333336
0.0   90.0   50.0
50.0   90.0   33.333333333333336
50.0   120.0   33.333333333333336
0.0   120.0   33.333333333333336
50.0   120.0   50.0
0.0   90.0   50.0
0.0   120.0   50.0
50.0   120.0   50.0
0.0   120.0   33.333333333333336
0.0   90.0   50.0
50.0   120.0   50.0
50.0   90.0   50.0
50.0   90.0   33.333333333333336
0.0   90.0   50.0
50.0   120.0   50.0
50.0   90.0   33.333333333333336
0.0   120.0   33.333333333333336
0.0   120.0   0.0
50.0   120.0   0.0
0.0   150.0   0.0
0.0   120.0   16.666666666666668
50.0   120.0   0.0
50.0   150.0   0.0
0.0   150.0   0.0
50.0   150.0   16.666666666666668
0.0   120.0   16.666666666666668
0.0   150.0   16.666666666666668
50.0   150.0   16.666666666666668
0.0   150.0   0.0
0.0   120.0   16.666666666666668
50.0   150.0   16.666666666666668
50.0   120.0   16.666666666666668
50.0   120.0   0.0
0.0   120.0   16.666666666666668
50.0   150.0   16.666666666666668
50.0   120.0   0.0
0.0   150.0   0.0
0.0   120.0   16.666666666666668
50.0   120.0   16.666666666666668
0.0   150.0   16.666666666666668
0.0   120.0   33.333333333333336
50.0   120.0   16.666666666666668
50.0   150.0   16.666666666666668
0.0   150.0   16.666666666666668
50.0   150.0   33.333333333333336
0.0   120.0   33.333333333333336
0.0   150.0   33.333333333333336
50.0   150.0   33.333333333333336
0.0   150.0   16.666666666666668
0.0   120.0   33.333333333333336
50.0   150.0   33.333333333333336
50.0   120.0   33.333333333333336
50.0   120.0   16.666666666666668
0.0   120.0   33.333333333333336
50.0   150.0   33.333333333333336
50.0   120.0   16.666666666666668
0.0   150.0   16.666666666666668
0.0   120.0   33.333333333333336
50.0   120.0   33.333333333333336
0.0   150.0   33.333333333333336
0.0   120.0   50.0
50.0   120.0   33.333333333333336
50.0   150.0   33.333333333333336
0.0   150.0   33.333333333333336
50.0   150.0   50.0
0.0   120.0   50.0
0.0   150.0   50.0
50.0   150.0   50.0
0.0   150.0   33.333333333333336
0.0   120.0   50.0
50.0   150.0   50.0
50.0   120.0   50.0
50.0   120.0   33.333333333333336
0.0   120.0   50.0
50.0   150.0   50.0
50.0   120.0   33.333333333333336
0.0   150.0   33.333333333333336
50.0   0.0   0.0
100.0   0.0   0.0
50.0   30.0   0.0
50.0   0.0   16.666666666666668
100.0   0.0   0.0
100.0   30.0   0.0
50.0   30.0   0.0
100.0   30.0   16.666666666666668
50.0   0.0   16.666666666666668
50.0   30.0   16.666666666666668
100.0   30.0   16.666666666666668
50.0   30.0   0.0
50.0   0.0   16.666666666666668
100.0   30.0   16.666666666666668
100.0   0.0   16.666666666666668
100.0   0.0   0.0
50.0   0.0   16.666666666666668
100.0   30.0   16.666666666666668
100.0   0.0   0.0
50.0   30.0   0.0
50.0   0.0   16.666666666666668
100.0   0.0   16.666666666666668
50.0   30.0   16.666666666666668
50.0   0.0   33.333333333333336
100.0   0.0   16.666666666666668
100.0   30.0   16.666666666666668
50.0   30.0   16.666666666666668
100.0   30.0   33.333333333333336
50.0   0.0   33.333333333333336
50.0   30.0   33.333333333333336
100.0   30.0   33.333333333333336
50.0   30.0   16.666666666666668
50.0   0.0   33.333333333333336
100.0   30.0   33.333333333333336
100.0   0.0   33.333333333333336
100.0   0.0   16.666666666666668
50.0   0.0   33.333333333333336
100.0   30.0   33.333333333333336
100.0   0.0   16.666666666666668
50.0   30.0   16.666666666666668
50.0   0.0   33.333333333333336
100.0   0.0   33.333333333333336
50.0   30.0   33.333333333333336
50.0   0.0   50.0
100.0   0.0   33.333333333333336
100.0   30.0   33.333333333333336
50.0   30.0   33.333333333333336
100.0   30.0   50.0
50.0   0.0   50.0
50.0   30.0   50.0
100.0   30.0   50.0
50.0   30.0   33.333333333333336
50.0   0.0   50.0
100.0   30.0   50.0
100.0   0.0   50.0
100.0   0.0   33.333333333333336
50.0   0.0   50.0
100.0   30.0   50.0
100.0   0.0   33.333333333333336
50.0   30.0   33.333333333333336
50.0   30.0   0.0
100.0   30.0   0.0
50.0   60.0   0.0
50.0   30.0   16.666666666666668
100.0   30.0   0.0
100.0   60.0   0.0
50.0   60.0   0.0
100.0   60.0   16.666666666666668
50.0   30.0   16.666666666666668
50.0   60.0   16.666666666666668
100.0   60.0   16.666666666666668
50.0   60.0   0.0
50.0   30.0   16.666666666666668
100.0   60.0   16.666666666666668
100.0   30.0   16.666666666666668
100.0   30.0   0.0
50.0   30.0   16.666666666666668
100.0   60.0   16.666666666666668
100.0   30.0   0.0
50.0   60.0   0.0
50.0   30.0   16.666666666666668
100.0   30.0   16.666666666666668
50.0   60.0   16.666666666666668
50.0   30.0   33.333333333333336
100.0   30.0   16.666666666666668
100.0   60.0   16.666666666666668
50.0   60.0   16.666666666666668
100.0   60.0   33.333333333333336
50.0   30.0   33.333333333333336
50.0   60.0   33.333333333333336
100.0   60.0   33.333333333333336
50.0   60.0   16.666666666666668
50.0   30.0   33.333333333333336
100.0   60.0   33.333333333333336
100.0   30.0   33.333333333333336
100.0   30.0   16.666666666666668
50.0   30.0   33.333333333333336
100.0   60.0   33.333333333333336
100.0   30.0   16.666666666666668
50.0   60.0   16.666666666666668
50.0   30.0   33.333333333333336
100.0   30.0   33.333333333333336
50.0   60.0   33.333333333333336
50.0   30.0   50.0
100.0   30.0   33.333333333333336
100.0   60.0   33.333333333333336
50.0   60.0   33.333333333333336
100.0   60.0   50.0
50.0   30.0   50.0
50.0   60.0   50.0
100.0   60.0   50.0
50.0   60.0   33.333333333333336
50.0   30.0   50.0
100.0   60.0   50.0
100.0   30.0   50.0
100.0   30.0   33.333333333333336
50.0   30.0   50.0
100.0   60.0   50.0
100.0   30.0   33.333333333333336
50.0   60.0   33.333333333333336
50.0   60.0   0.0
100.0   60.0   0.0
50.0   90.0   0.0
50.0   60.0   16.666666666666668
100.0   60.0   0.0
100.0   90.0   0.0
50.0   90.0   0.0
100.0   90.0   16.666666666666668
50.0   60.0   16.666666666666668
50.0   90.0   16.666666666666668
100.0   90.0   16.666666666666668
50.0   90.0   0.0
50.0   60.0   16.666666666666668
100.0   90.0   16.666666666666668
100.0   60.0   16.666666666666668
100.0   60.0   0.0
50.0   60.0   16.666666666666668
100.0   90.0   16.666666666666668
100.0   60.0   0.0
50.0   90.0   0.0
50.0   60.0   16.666666666666668
100.0   60.0   16.666666666666668
50.0   90.0   16.666666666666668
50.0   60.0   33.333333333333336
100.0   60.0   16.666666666666668
100.0   90.0   16.666666666666668
50.0   90.0   16.666666666666668
100.0   90.0   33.333333333333336
50.0   60.0   33.333333333333336
50.0   90.0   33.333333333333336
100.0   90.0   33.333333333333336
50.0   90.0   16.666666666666668
50.0   60.0   33.333333333333336
100.0   90.0   33.333333333333336
100.0   60.0   33.333333333333336
100.0   60.0   16.666666666666668
50.0   60.0   33.333333333333336
100.0   90.0   33.333333333333336
100.0   60.0   16.666666666666668
50.0   90.0   16.666666666666668
50.0   60.0   33.333333333333336
100.0   60.0   33.333333333333336
50.0   90.0   33.333333333333336
50.0   60.0   50.0
100.0   60.0   33.333333333333336
100.0   90.0   33.333333333333336
50.0   90.0   33.333333333333336
100.0   90.0   50.0
50.0   60.0   50.0
50.0   90.0   50.0
100.0   90.0   50.0
50.0   90.0   33.333333333333336
50.0   60.0   50.0
100.0   90.0   50.0
100.0   60.0   50.0
100.0   60.0   33.333333333333336
50.0   60.0   50.0
100.0   90.0   50.0
100.0   60.0   33.333333333333336
50.0   90.0   33.333333333333336
50.0   90.0   0.0
100.0   90.0   0.0
50.0   120.0   0.0
50.0   90.0   16.666666666666668
100.0   90.0   0.0
100.0   120.0   0.0
50.0   120.0   0.0
100.0   120.0   16.666666666666668
50.0   90.0   16.666666666666668
50.0   120.0   16.666666666666668
100.0   120.0   16.666666666666668
50.0   120.0   0.0
50.0   90.0   16.666666666666668
100.0   120.0   16.666666666666668
100.0   90.0   16.666666666666668
100.0   90.0   0.0
50.0   90.0   16.666666666666668
100.0   120.0   16.666666666666668
100.0   90.0   0.0
50.0   120.0   0.0
50.0   90.0   16.666666666666668
100.0   90.0   16.666666666666668
50.0   120.0   16.666666666666668
50.0   90.0   33.333333333333336
100.0   90.0   16.666666666666668
100.0   120.0   16.666666666666668
50.0   120.0   16.666666666666668
100.0   120.0   33.333333333333336
50.0   90.0   33.333333333333336
50.0   120.0   33.333333333333336
100.0   120.0   33.333333333333336
50.0   120.0   16.666666666666668
50.0   90.0   33.333333333333336
100.0   120.0   33.333333333333336
100.0   90.0   33.333333333333336
100.0   90.0   16.666666666666668
50.0   90.0   33.333333333333336
100.0   120.0   33.333333333333336
100.0   90.0   16.666666666666668
50.0   120.0   16.666666666666668
50.0   90.0   33.333333333333336
100.0   90.0   33.333333333333336
50.0   120.0   33.333333333333336
50.0   90.0   50.0
100.0   90.0   33.333333333333336
100.0   120.0   33.333333333333336
50.0   120.0   33.333333333333336
100.0   120.0   50.0
50.0   90.0   50.0
50.0   120.0   50.0
100.0   120.0   50.0
50.0   120.0   33.333333333333336
50.0   90.0   50.0
100.0   120.0   50.0
100.0   90.0   50.0
100.0   90.0   33.333333333333336
50.0   90.0   50.0
100.0   120.0   50.0
100.0   90.0   33.333333333333336
50.0   120.0   33.333333333333336
50.0   120.0   0.0
100.0   120.0   0.0
50.0   150.0   0.0
50.0   120.0   16.666666666666668
100.0   120.0   0.0
100.0   150.0   0.0
50.0   150.0   0.0
100.0   150.0   16.666666666666668
50.0   120.0   16.666666666666668
50.0   150.0   16.666666666666668
100.0   150.0   16.666666666666668
50.0   150.0   0.0
50.0   120.0   16.666666666666668
100.0   150.0   16.666666666666668
100.0   120.0   16.666666666666668
100.0   120.0   0.0
50.0   120.0   16.666666666666668
100.0   150.0   16.666666666666668
100.0   120.0   0.0
50.0   150.0   0.0
50.0   120.0   16.666666666666668
100.0   120.0   16.666666666666668
50.0   150.0   16.666666666666668
50.0   120.0   33.333333333333336
100.0   120.0   16.666666666666668
100.0   150.0   16.666666666666668
50.0   150.0   16.666666666666668
100.0   150.0   33.333333333333336
50.0   120.0   33.333333333333336
50.0   150.0   33.333333333333336
100.0   150.0   33.333333333333336
50.0   150.0   16.666666666666668
50.0   120.0   33.333333333333336
100.0   150.0   33.333333333333336
100.0   120.0   33.333333333333336
100.0   120.0   16.666666666666668
50.0   120.0   33.333333333333336
100.0   150.0   33.333333333333336
100.0   120.0   16.666666666666668
50.0   150.0   16.666666666666668
50.0   120.0   33.333333333333336
100.0   120.0   33.333333333333336
50.0   150.0   33.333333333333336
50.0   120.0   50.0
100.0   120.0   33.333333333333336
100.0   150.0   33.333333333333336
50.0   150.0   33.333333333333336
100.0   150.0   50.0
50.0   120.0   50.0
50.0   150.0   50.0
100.0   150.0   50.0
50.0   150.0   33.333333333333336
50.0   120.0   50.0
100.0   150.0   50.0
100.0   120.0   50.0
100.0   120.0   33.333333333333336
50.0   120.0   50.0
100.0   150.0   50.0
100.0   120.0   33.333333333333336
50.0   150.0   33.333333333333336
100.0   0.0   0.0
150.0   0.0   0.0
100.0   30.0   0.0
100.0   0.0   16.666666666666668
150.0   0.0   0.0
150.0   30.0   0.0
100.0   30.0   0.0
150.0   30.0   16.666666666666668
100.0   0.0   16.666666666666668
100.0   30.0   16.666666666666668
150.0   30.0   16.666666666666668
100.0   30.0   0.0
100.0   0.0   16.666666666666668
150.0   30.0   16.666666666666668
150.0   0.0   16.666666666666668
150.0   0.0   0.0
100.0   0.0   16.666666666666668
150.0   30.0   16.666666666666668
150.0   0.0   0.0
100.0   30.0   0.0
100.0   0.0   16.666666666666668
150.0   0.0   16.666666666666668
100.0   30.0   16.666666666666668
100.0   0.0   33.333333333333336
150.0   0.0   16.666666666666668
150.0   30.0   16.666666666666668
100.0   30.0   16.666666666666668
150.0   30.0   33.333333333333336
100.0   0.0   33.333333333333336
100.0   30.0   33.333333333333336
150.0   30.0   33.333333333333336
100.0   30.0   16.666666666666668
100.0   0.0   33.333333333333336
150.0   30.0   33.333333333333336
150.0   0.0   33.333333333333336
150.0   0.0   16.666666666666668
100.0   0.0   33.333333333333336
150.0   30.0   33.333333333333336
150.0   0.0   16.666666666666668
100.0   30.0   16.666666666666668
100.0   0.0   33.333333333333336
150.0   0.0   33.333333333333336
100.0   30.0   33.333333333333336
100.0   0.0   50.0
150.0   0.0   33.333333333333336
150.0   30.0   33.333333333333336
100.0   30.0   33.333333333333336
150.0   30.0   50.0
100.0   0.0   50.0
100.0   30.0   50.0
150.0   30.0   50.0
100.0   30.0   33.333333333333336
100.0   0.0   50.0
150.0   30.0   50.0
150.0   0.0   50.0
150.0   0.0   33.333333333333336
100.0   0.0   50.0
150.0   30.0   50.0
150.0   0.0   33.333333333333336
100.0   30.0   33.333333333333336
100.0   30.0   0.0
150.0   30.0   0.0
100.0   60.0   0.0
100.0   30.0   16.666666666666668
150.0   30.0   0.0
150.0   60.0   0.0
100.0   60.0   0.0
150.0   60.0   16.666666666666668
100.0   30.0   16.666666666666668
100.0   60.0   16.666666666666668
150.0   60.0   16.666666666666668
100.0   60.0   0.0
100.0   30.0   16.666666666666668
150.0   60.0   16.666666666666668
150.0   30.0   16.666666666666668
150.0   30.0   0.0
100.0   30.0   16.666666666666668
150.0   60.0   16.666666666666668
150.0   30.0   0.0
100.0   60.0   0.0
100.0   30.0   16.666666666666668
150.0   30.0   16.666666666666668
100.0   60.0   16.666666666666668
100.0   30.0   33.333333333333336
150.0   30.0   16.666666666666668
150.0   60.0   16.666666666666668
100.0   60.0   16.666666666666668
150.0   60.0   33.333333333333336
100.0   30.0   33.333333333333336
100.0   60.0   33.333333333333336
150.0   60.0   33.333333333333336
100.0   60.0   16.666666666666668
100.0   30.0   33.333333333333336
150.0   60.0   33.333333333333336
150.0   30.0   33.333333333333336
150.0   30.0   16.666666666666668
100.0   30.0   33.333333333333336
150.0   60.0   33.333333333333336
150.0   30.0   16.666666666666668
100.0   60.0   16.666666666666668
100.0   30.0   33.333333333333336
150.0   30.0   33.333333333333336
100.0   60.0   33.333333333333336
100.0   30.0   50.0
150.0   30.0   33.333333333333336
150.0   60.0   33.333333333333336
100.0   60.0   33.333333333333336
150.0   60.0   50.0
100.0   30.0   50.0
100.0   60.0   50.0
150.0   60.0   50.0
100.0   60.0   33.333333333333336
100.0   30.0   50.0
150.0   60.0   50.0
150.0   30.0   50.0
150.0   30.0   33.333333333333336
100.0   30.0   50.0
150.0   60.0   50.0
150.0   30.0   33.333333333333336
100.0   60.0   33.333333333333336
100.0   60.0   0.0
150.0   60.0   0.0
100.0   90.0   0.0
100.0   60.0   16.666666666666668
150.0   60.0   0.0
150.0   90.0   0.0
100.0   90.0   0.0
150.0   90.0   16.666666666666668
100.0   60.0   16.666666666666668
100.0   90.0   16.666666666666668
150.0   90.0   16.666666666666668
100.0   90.0   0.0
100.0   60.0   16.666666666666668
150.0   90.0   16.666666666666668
150.0   60.0   16.666666666666668
150.0   60.0   0.0
100.0   60.0   16.666666666666668
150.0   90.0   16.666666666666668
150.0   60.0   0.0
100.0   90.0   0.0
100.0   60.0   16.666666666666668
150.0   60.0   16.666666666666668
100.0   90.0   16.666666666666668
100.0   60.0   33.333333333333336
150.0   60.0   16.666666666666668
150.0   90.0   16.666666666666668
100.0   90.0   16.666666666666668
150.0   90.0   33.333333333333336
100.0   60.0   33.333333333333336
100.0   90.0   33.333333333333336
150.0   90.0   33.333333333333336
100.0   90.0   16.666666666666668
100.0   60.0   33.333333333333336
150.0   90.0   33.333333333333336
150.0   60.0   33.333333333333336
150.0   60.0   16.666666666666668
100.0   60.0   33.333333333333336
150.0   90.0   33.333333333333336
150.0   60.0   16.666666666666668
100.0   90.0   16.666666666666668
100.0   60.0   33.333333333333336
150.0   60.0   33.333333333333336
100.0   90.0   33.333333333333336
100.0   60.0   50.0
150.0   60.0   33.333333333333336
150.0   90.0   33.333333333333336
100.0   90.0   33.333333333333336
150.0   90.0   50.0
100.0   60.0   50.0
100.0   90.0   50.0
150.0   90.0   50.0
100.0   90.0   33.333333333333336
100.0   60.0   50.0
150.0   90.0   50.0
150.0   60.0   50.0
150.0   60.0   33.333333333333336
100.0   60.0   50.0
150.0   90.0   50.0
150.0   60.0   33.333333333333336
100.0   90.0   33.333333333333336
100.0   90.0   0.0
150.0   90.0   0.0
100.0   120.0   0.0
100.0   90.0   16.666666666666668
150.0   90.0   0.0
150.0   120.0   0.0
100.0   120.0   0.0
150.0   120.0   16.666666666666668
100.0   90.0   16.666666666666668
100.0   120.0   16.666666666666668
150.0   120.0   16.666666666666668
100.0   120.0   0.0
100.0   90.0   16.666666666666668
150.0   120.0   16.666666666666668
150.0   90.0   16.666666666666668
150.0   90.0   0.0
100.0   90.0   16.666666666666668
150.0   120.0   16.666666666666668
150.0   90.0   0.0
100.0   120.0   0.0
100.0   90.0   16.666666666666668
150.0   90.0   16.666666666666668
100.0   120.0   16.666666666666668
100.0   90.0   33.333333333333336
150.0   90.0   16.666666666666668
150.0   120.0   16.666666666666668
100.0   120.0   16.666666666666668
150.0   120.0   33.333333333333336
100.0   90.0   33.333333333333336
100.0   120.0   33.333333333333336
150.0   120.0   33.333333333333336
100.0   120.0   16.666666666666668
100.0   90.0   33.333333333333336
150.0   120.0   33.333333333333336
150.0   90.0   33.333333333333336
150.0   90.0   16.666666666666668
100.0   90.0   33.333333333333336
150.0   120.0   33.333333333333336
150.0   90.0   16.666666666666668
100.0   120.0   16.666666666666668
100.0   90.0   33.333333333333336
150.0   90.0   33.333333333333336
100.0   120.0   33.333333333333336
100.0   90.0   50.0
150.0   90.0   33.333333333333336
150.0   120.0   33.333333333333336
100.0   120.0   33.333333333333336
150.0   120.0   50.0
100.0   90.0   50.0
100.0   120.0   50.0
150.0   120.0   50.0
100.0   120.0   33.333333333333336
100.0   90.0   50.0
150.0   120.0   50.0
150.0   90.0   50.0
150.0   90.0   33.333333333333336
100.0   90.0   50.0
150.0   120.0   50.0
150.0   90.0   33.333333333333336
100.0   120.0   33.333333333333336
100.0   120.0   0.0
150.0   120.0   0.0
100.0   150.0   0.0
100.0   120.0   16.666666666666668
150.0   120.0   0.0
150.0   150.0   0.0
100.0   150.0   0.0
150.0   150.0   16.666666666666668
100.0   120.0   16.666666666666668
100.0   150.0   16.666666666666668
150.0   150.0   16.666666666666668
100.0   150.0   0.0
100.0   120.0   16.666666666666668
150.0   150.0   16.666666666666668
150.0   120.0   16.666666666666668
150.0   120.0   0.0
100.0   120.0   16.666666666666668
150.0   150.0   16.666666666666668
150.0   120.0   0.0
100.0   150.0   0.0
100.0   120.0   16.666666666666668
150.0   120.0   16.666666666666668
100.0   150.0   16.666666666666668
100.0   120.0   33.333333333333336
150.0   120.0   16.666666666666668
150.0   150.0   16.666666666666668
100.0   150.0   16.666666666666668
150.0   150.0   33.333333333333336
100.0   120.0   33.333333333333336
100.0   150.0   33.333333333333336
150.0   150.0   33.333333333333336
100.0   150.0   16.666666666666668
100.0   120.0   33.333333333333336
150.0   150.0   33.333333333333336
150.0   120.0   33.333333333333336
150.0   120.0   16.666666666666668
100.0   120.0   33.333333333333336
150.0   150.0   33.333333333333336
150.0   120.0   16.666666666666668
100.0   150.0   16.666666666666668
100.0   120.0   33.333333333333336
150.0   120.0   33.333333333333336
100.0   150.0   33.333333333333336
100.0   120.0   50.0
150.0   120.0   33.333333333333336
150.0   150.0   33.333333333333336
100.0   150.0   33.333333333333336
150.0   150.0   50.0
100.0   120.0   50.0
100.0   150.0   50.0
150.0   150.0   50.0
100.0   150.0   33.333333333333336
100.0   120.0   50.0
150.0   150.0   50.0
150.0   120.0   50.0
150.0   120.0   33.333333333333336
100.0   120.0   50.0
150.0   150.0   50.0
150.0   120.0   33.333333333333336
100.0   150.0   33.333333333333336
150.0   0.0   0.0
200.0   0.0   0.0
150.0   30.0   0.0
150.0   0.0   16.666666666666668
200.0   0.0   0.0
200.0   30.0   0.0
150.0   30.0   0.0
200.0   30.0   16.666666666666668
150.0   0.0   16.666666666666668
150.0   30.0   16.666666666666668
200.0   30.0   16.666666666666668
150.0   30.0   0.0
150.0   0.0   16.666666666666668
200.0   30.0   16.666666666666668
200.0   0.0   16.666666666666668
200.0   0.0   0.0
150.0   0.0   16.666666666666668
200.0   30.0   16.666666666666668
200.0   0.0   0.0
150.0   30.0   0.0
150.0   0.0   16.666666666666668
200.0   0.0   16.666666666666668
150.0   30.0   16.666666666666668
150.0   0.0   33.333333333333336
200.0   0.0   16.666666666666668
200.0   30.0   16.666666666666668
150.0   30.0   16.666666666666668
200.0   30.0   33.333333333333336
150.0   0.0   33.333333333333336
150.0   30.0   33.333333333333336
200.0   30.0   33.333333333333336
150.0   30.0   16.666666666666668
150.0   0.0   33.333333333333336
200.0   30.0   33.333333333333336
200.0   0.0   33.333333333333336
200.0   0.0   16.666666666666668
150.0   0.0   33.333333333333336
200.0   30.0   33.333333333333336
200.0   0.0   16.666666666666668
150.0   30.0   16.666666666666668
150.0   0.0   33.333333333333336
200.0   0.0   33.333333333333336
150.0   30.0   33.333333333333336
150.0   0.0   50.0
200.0   0.0   33.333333333333336
200.0   30.0   33.333333333333336
150.0   30.0   33.333333333333336
200.0   30.0   50.0
150.0   0.0   50.0
150.0   30.0   50.0
200.0   30.0   50.0
150.0   30.0   33.333333333333336
150.0   0.0   50.0
200.0   30.0   50.0
200.0   0.0   50.0
200.0   0.0   33.333333333333336
150.0   0.0   50.0
200.0   30.0   50.0
200.0   0.0   33.333333333333336
150.0   30.0   33.333333333333336
150.0   30.0   0.0
200.0   30.0   0.0
150.0   60.0   0.0
150.0   30.0   16.666666666666668
200.0   30.0   0.0
200.0   60.0   0.0
150.0   60.0   0.0
200.0   60.0   16.666666666666668
150.0   30.0   16.666666666666668
150.0   60.0   16.666666666666668
200.0   60.0   16.666666666666668
150.0   60.0   0.0
150.0   30.0   16.666666666666668
200.0   60.0   16.666666666666668
200.0   30.0   16.666666666666668
200.0   30.0   0.0
150.0   30.0   16.666666666666668
200.0   60.0   16.666666666666668
200.0   30.0   0.0
150.0   60.0   0.0
150.0   30.0   16.666666666666668
200.0   30.0   16.666666666666668
150.0   60.0   16.666666666666668
150.0   30.0   33.333333333333336
200.0   30.0   16.666666666666668
200.0   60.0   16.666666666666668
150.0   60.0   16.666666666666668
200.0   60.0   33.333333333333336
150.0   30.0   33.333333333333336
150.0   60.0   33.333333333333336
200.0   60.0   33.333333333333336
150.0   60.0   16.666666666666668
150.0   30.0   33.333333333333336
200.0   60.0   33.333333333333336
200.0   30.0   33.333333333333336
200.0   30.0   16.666666666666668
150.0   30.0   33.333333333333336
200.0   60.0   33.333333333333336
200.0   30.0   16.666666666666668
150.0   60.0   16.666666666666668
150.0   30.0   33.333333333333336
200.0   30.0   33.333333333333336
150.0   60.0   33.333333333333336
150.0   30.0   50.0
200.0   30.0   33.333333333333336
200.0   60.0   33.333333333333336
150.0   60.0   33.333333333333336
200.0   60.0   50.0
150.0   30.0   50.0
150.0   60.0   50.0
200.0   60.0   50.0
150.0   60.0   33.333333333333336
150.0   30.0   50.0
200.0   60.0   50.0
200.0   30.0   50.0
200.0   30.0   33.333333333333336
150.0   30.0   50.0
200.0   60.0   50.0
200.0   30.0   33.333333333333336
150.0   60.0   33.333333333333336
150.0   60.0   0.0
200.0   60.0   0.0
150.0   90.0   0.0
150.0   60.0   16.666666666666668
200.0   60.0   0.0
200.0   90.0   0.0
150.0   90.0   0.0
200.0   90.0   16.666666666666668
150.0   60.0   16.666666666666668
150.0   90.0   16.666666666666668
200.0   90.0   16.666666666666668
150.0   90.0   0.0
150.0   60.0   16.666666666666668
200.0   90.0   16.666666666666668
200.0   60.0   16.666666666666668
200.0   60.0   0.0
150.0   60.0   16.666666666666668
200.0   90.0   16.666666666666668
200.0   60.0   0.0
150.0   90.0   0.0
150.0   60.0   16.666666666666668
200.0   60.0   16.666666666666668
150.0   90.0   16.666666666666668
150.0   60.0   33.333333333333336
200.0   60.0   16.666666666666668
200.0   90.0   16.666666666666668
150.0   90.0   16.666666666666668
200.0   90.0   33.333333333333336
150.0   60.0   33.333333333333336
150.0   90.0   33.333333333333336
200.0   90.0   33.333333333333336
150.0   90.0   16.666666666666668
150.0   60.0   33.333333333333336
200.0   90.0   33.333333333333336
200.0   60.0   33.333333333333336
200.0   60.0   16.666666666666668
150.0   60.0   33.333333333333336
200.0   90.0   33.333333333333336
200.0   60.0   16.666666666666668
150.0   90.0   16.666666666666668
150.0   60.0   33.333333333333336
200.0   60.0   33.333333333333336
150.0   90.0   33.333333333333336
150.0   60.0   50.0
200.0   60.0   33.333333333333336
200.0   90.0   33.333333333333336
150.0   90.0   33.333333333333336
200.0   90.0   50.0
150.0   60.0   50.0
150.0   90.0   50.0
200.0   90.0   50.0
150.0   90.0   33.333333333333336
150.0   60.0   50.0
200.0   90.0   50.0
200.0   60.0   50.0
200.0   60.0   33.333333333333336
150.0   60.0   50.0
200.0   90.0   50.0
200.0   60.0   33.333333333333336
150.0   90.0   33.333333333333336
150.0   90.0   0.0
200.0   90.0   0.0
150.0   120.0   0.0
150.0   90.0   16.666666666666668
200.0   90.0   0.0
200.0   120.0   0.0
150.0   120.0   0.0
200.0   120.0   16.666666666666668
150.0   90.0   16.666666666666668
150.0   120.0   16.666666666666668
200.0   120.0   16.666666666666668
150.0   120.0   0.0
150.0   90.0   16.666666666666668
200.0   120.0   16.666666666666668
200.0   90.0   16.666666666666668
200.0   90.0   0.0
150.0   90.0   16.666666666666668
200.0   120.0   16.666666666666668
200.0   90.0   0.0
150.0   120.0   0.0
150.0   90.0   16.666666666666668
200.0   90.0   16.666666666666668
150.0   120.0   16.666666666666668
150.0   90.0   33.333333333333336
200.0   90.0   16.666666666666668
200.0   120.0   16.666666666666668
150.0   120.0   16.666666666666668
200.0   120.0   33.333333333333336
150.0   90.0   33.333333333333336
150.0   120.0   33.333333333333336
200.0   120.0   33.333333333333336
150.0   120.0   16.666666666666668
150.0   90.0   33.333333333333336
200.0   120.0   33.333333333333336
200.0   90.0   33.333333333333336
200.0   90.0   16.666666666666668
150.0   90.0   33.333333333333336
200.0   120.0   33.333333333333336
200.0   90.0   16.666666666666668
150.0   120.0   16.666666666666668
150.0   90.0   33.333333333333336
200.0   90.0   33.333333333333336
150.0   120.0   33.333333333333336
150.0   90.0   50.0
200.0   90.0   33.333333333333336
200.0   120.0   33.333333333333336
150.0   120.0   33.333333333333336
200.0   120.0   50.0
150.0   90.0   50.0
150.0   120.0   50.0
200.0   120.0   50.0
150.0   120.0   33.333333333333336
150.0   90.0   50.0
200.0   120.0   50.0
200.0   90.0   50.0
200.0   90.0   33.333333333333336
150.0   90.0   50.0
200.0   120.0   50.0
200.0   90.0   33.333333333333336
150.0   120.0   33.333333333333336
150.0   120.0   0.0
200.0   120.0   0.0
150.0   150.0   0.0
150.0   120.0   16.666666666666668
200.0   120.0   0.0
200.0   150.0   0.0
150.0   150.0   0.0
200.0   150.0   16.666666666666668
150.0   120.0   16.666666666666668
150.0   150.0   16.666666666666668
200.0   150.0   16.666666666666668
150.0   150.0   0.0
150.0   120.0   16.666666666666668
200.0   150.0   16.666666666666668
200.0   120.0   16.666666666666668
200.0   120.0   0.0
150.0   120.0   16.666666666666668
200.0   150.0   16.666666666666668
200.0   120.0   0.0
150.0   150.0   0.0
150.0   120.0   16.666666666666668
200.0   120.0   16.666666666666668
150.0   150.0   16.666666666666668
150.0   120.0   33.333333333333336
200.0   120.0   16.666666666666668
200.0   150.0   16.666666666666668
150.0   150.0   16.666666666666668
200.0   150.0   33.333333333333336
150.0   120.0   33.333333333333336
150.0   150.0   33.333333333333336
200.0   150.0   33.333333333333336
150.0   150.0   16.666666666666668
150.0   120.0   33.333333333333336
200.0   150.0   33.333333333333336
200.0   120.0   33.333333333333336
200.0   120.0   16.666666666666668
150.0   120.0   33.333333333333336
200.0   150.0   33.333333333333336
200.0   120.0   16.666666666666668
150.0   150.0   16.666666666666668
150.0   120.0   33.333333333333336
200.0   120.0   33.333333333333336
150.0   150.0   33.333333333333336
150.0   120.0   50.0
200.0   120.0   33.333333333333336
200.0   150.0   33.333333333333336
150.0   150.0   33.333333333333336
200.0   150.0   50.0
150.0   120.0   50.0
150.0   150.0   50.0
200.0   150.0   50.0
150.0   150.0   33.333333333333336
150.0   120.0   50.0
200.0   150.0   50.0
200.0   120.0   50.0
200.0   120.0   33.333333333333336
150.0   120.0   50.0
200.0   150.0   50.0
200.0   120.0   33.333333333333336
150.0   150.0   33.333333333333336
200.0   0.0   0.0
250.0   0.0   0.0
200.0   30.0   0.0
200.0   0.0   16.666666666666668
250.0   0.0   0.0
250.0   30.0   0.0
200.0   30.0   0.0
250.0   30.0   16.666666666666668
200.0   0.0   16.666666666666668
200.0   30.0   16.666666666666668
250.0   30.0   16.666666666666668
200.0   30.0   0.0
200.0   0.0   16.666666666666668
250.0   30.0   16.666666666666668
250.0   0.0   16.666666666666668
250.0   0.0   0.0
200.0   0.0   16.666666666666668
250.0   30.0   16.666666666666668
250.0   0.0   0.0
200.0   30.0   0.0
200.0   0.0   16.666666666666668
250.0   0.0   16.666666666666668
200.0   30.0   16.666666666666668
200.0   0.0   33.333333333333336
250.0   0.0   16.666666666666668
250.0   30.0   16.666666666666668
200.0   30.0   16.666666666666668
250.0   30.0   33.333333333333336
200.0   0.0   33.333333333333336
200.0   30.0   33.333333333333336
250.0   30.0   33.333333333333336
200.0   30.0   16.666666666666668
200.0   0.0   33.333333333333336
250.0   30.0   33.333333333333336
250.0   0.0   33.333333333333336
250.0   0.0   16.666666666666668
200.0   0.0   33.333333333333336
250.0   30.0   33.333333333333336
250.0   0.0   16.666666666666668
200.0   30.0   16.666666666666668
200.0   0.0   33.333333333333336
250.0   0.0   33.333333333333336
200.0   30.0   33.333333333333336
200.0   0.0   50.0
250.0   0.0   33.333333333333336
250.0   30.0   33.333333333333336
200.0   30.0   33.333333333333336
250.0   30.0   50.0
200.0   0.0   50.0
200.0   30.0   50.0
250.0   30.0   50.0
200.0   30.0   33.333333333333336
200.0   0.0   50.0
250.0   30.0   50.0
250.0   0.0   50.0
250.0   0.0   33.333333333333336
200.0   0.0   50.0
250.0   30.0   50.0
250.0   0.0   33.333333333333336
200.0   30.0   33.333333333333336
200.0   30.0   0.0
250.0   30.0   0.0
200.0   60.0   0.0
200.0   30.0   16.666666666666668
250.0   30.0   0.0
250.0   60.0   0.0
200.0   60.0   0.0
250.0   60.0   16.666666666666668
200.0   30.0   16.666666666666668
200.0   60.0   16.666666666666668
250.0   60.0   16.666666666666668
200.0   60.0   0.0
200.0   30.0   16.666666666666668
250.0   60.0   16.666666666666668
250.0   30.0   16.666666666666668
250.0   30.0   0.0
200.0   30.0   16.666666666666668
250.0   60.0   16.666666666666668
250.0   30.0   0.0
200.0   60.0   0.0
200.0   30.0   16.666666666666668
250.0   30.0   16.666666666666668
200.0   60.0   16.666666666666668
200.0   30.0   33.333333333333336
250.0   30.0   16.666666666666668
250.0   60.0   16.666666666666668
200.0   60.0   16.666666666666668
250.0   60.0   33.333333333333336
200.0   30.0   33.333333333333336
200.0   60.0   33.333333333333336
250.0   60.0   33.333333333333336
200.0   60.0   16.666666666666668
200.0   30.0   33.333333333333336
250.0   60.0   33.333333333333336
250.0   30.0   33.333333333333336
250.0   30.0   16.666666666666668
200.0   30.0   33.333333333333336
250.0   60.0   33.333333333333336
250.0   30.0   16.666666666666668
200.0   60.0   16.666666666666668
200.0   30.0   33.333333333333336
250.0   30.0   33.333333333333336
200.0   60.0   33.333333333333336
200.0   30.0   50.0
250.0   30.0   33.333333333333336
250.0   60.0   33.333333333333336
200.0   60.0   33.333333333333336
250.0   60.0   50.0
200.0   30.0   50.0
200.0   60.0   50.0
250.0   60.0   50.0
200.0   60.0   33.333333333333336
200.0   30.0   50.0
250.0   60.0   50.0
250.0   30.0   50.0
250.0   30.0   33.333333333333336
200.0   30.0   50.0
250.0   60.0   50.0
250.0   30.0   33.333333333333336
200.0   60.0   33.333333333333336
200.0   60.0   0.0
250.0   60.0   0.0
200.0   90.0   0.0
200.0   60.0   16.666666666666668
250.0   60.0   0.0
250.0   90.0   0.0
200.0   90.0   0.0
250.0   90.0   16.666666666666668
200.0   60.0   16.666666666666668
200.0   90.0   16.666666666666668
250.0   90.0   16.666666666666668
200.0   90.0   0.0
200.0   60.0   16.666666666666668
250.0   90.0   16.666666666666668
250.0   60.0   16.666666666666668
250.0   60.0   0.0
200.0   60.0   16.666666666666668
250.0   90.0   16.666666666666668
250.0   60.0   0.0
200.0   90.0   0.0
200.0   60.0   16.666666666666668
250.0   60.0   16.666666666666668
200.0   90.0   16.666666666666668
200.0   60.0   33.333333333333336
250.0   60.0   16.666666666666668
250.0   90.0   16.666666666666668
200.0   90.0   16.666666666666668
250.0   90.0   33.333333333333336
200.0   60.0   33.333333333333336
200.0   90.0   33.333333333333336
250.0   90.0   33.333333333333336
200.0   90.0   16.666666666666668
200.0   60.0   33.333333333333336
250.0   90.0   33.333333333333336
250.0   60.0   33.333333333333336
250.0   60.0   16.666666666666668
200.0   60.0   33.333333333333336
250.0   90.0   33.333333333333336
250.0   60.0   16.666666666666668
200.0   90.0   16.666666666666668
200.0   60.0   33.333333333333336
250.0   60.0   33.333333333333336
200.0   90.0   33.333333333333336
200.0   60.0   50.0
250.0   60.0   33.333333333333336
250.0   90.0   33.333333333333336
200.0   90.0   33.333333333333336
250.0   90.0   50.0
200.0   60.0   50.0
200.0   90.0   50.0
250.0   90.0   50.0
200.0   90.0   33.333333333333336
200.0   60.0   50.0
250.0   90.0   50.0
250.0   60.0   50.0
250.0   60.0   33.333333333333336
200.0   60.0   50.0
250.0   90.0   50.0
250.0   60.0   33.333333333333336
200.0   90.0   33.333333333333336
200.0   90.0   0.0
250.0   90.0   0.0
200.0   120.0   0.0
200.0   90.0   16.666666666666668
250.0   90.0   0.0
250.0   120.0   0.0
200.0   120.0   0.0
250.0   120.0   16.666666666666668
200.0   90.0   16.666666666666668
200.0   120.0   16.666666666666668
250.0   120.0   16.666666666666668
200.0   120.0   0.0
200.0   90.0   16.666666666666668
250.0   120.0   16.666666666666668
250.0   90.0   16.666666666666668
250.0   90.0   0.0
200.0   90.0   16.666666666666668
250.0   120.0   16.666666666666668
250.0   90.0   0.0
200.0   120.0   0.0
200.0   90.0   16.666666666666668
250.0   90.0   16.666666666666668
200.0   120.0   16.666666666666668
200.0   90.0   33.333333333333336
250.0   90.0   16.666666666666668
250.0   120.0   16.666666666666668
200.0   120.0   16.666666666666668
250.0   120.0   33.333333333333336
200.0   90.0   33.333333333333336
200.0   120.0   33.333333333333336
250.0   120.0   33.333333333333336
200.0   120.0   16.666666666666668
200.0   90.0   33.333333333333336
250.0   120.0   33.333333333333336
250.0   90.0   33.333333333333336
250.0   90.0   16.666666666666668
200.0   90.0   33.333333333333336
250.0   120.0   33.333333333333336
250.0   90.0   16.666666666666668
200.0   120.0   16.666666666666668
200.0   90.0   33.333333333333336
250.0   90.0   33.333333333333336
200.0   120.0   33.333333333333336
200.0   90.0   50.0
250.0   90.0   33.333333333333336
250.0   120.0   33.333333333333336
200.0   120.0   33.333333333333336
250.0   120.0   50.0
200.0   90.0   50.0
200.0   120.0   50.0
250.0   120.0   50.0
200.0   120.0   33.333333333333336
200.0   90.0   50.0
250.0   120.0   50.0
250.0   90.0   50.0
250.0   90.0   33.333333333333336
200.0   90.0   50.0
250.0   120.0   50.0
250.0   90.0   33.333333333333336
200.0   120.0   33.333333333333336
200.0   120.0   0.0
250.0   120.0   0.0
200.0   150.0   0.0
200.0   120.0   16.666666666666668
250.0   120.0   0.0
250.0   150.0   0.0
200.0   150.0   0.0
250.0   150.0   16.666666666666668
200.0   120.0   16.666666666666668
200.0   150.0   16.666666666666668
250.0   150.0   16.666666666666668
200.0   150.0   0.0
200.0   120.0   16.666666666666668
250.0   150.0   16.666666666666668
250.0   120.0   16.666666666666668
250.0   120.0   0.0
200.0   120.0   16.666666666666668
250.0   150.0   16.666666666666668
250.0   120.0   0.0
200.0   150.0   0.0
200.0   120.0   16.666666666666668
250.0   120.0   16.666666666666668
200.0   150.0   16.666666666666668
200.0   120.0   33.333333333333336
250.0   120.0   16.666666666666668
250.0   150.0   16.666666666666668
200.0   150.0   16.666666666666668
250.0   150.0   33.333333333333336
200.0   120.0   33.333333333333336
200.0   150.0   33.333333333333336
250.0   150.0   33.333333333333336
200.0   150.0   16.666666666666668
200.0   120.0   33.333333333333336
250.0   150.0   33.333333333333336
250.0   120.0   33.333333333333336
250.0   120.0   16.666666666666668
200.0   120.0   33.333333333333336
250.0   150.0   33.333333333333336
250.0   120.0   16.666666666666668
200.0   150.0   16.666666666666668
200.0   120.0   33.333333333333336
250.0   120.0   33.333333333333336
200.0   150.0   33.333333333333336
200.0   120.0   50.0
250.0   120.0   33.333333333333336
250.0   150.0   33.333333333333336
200.0   150.0   33.333333333333336
250.0   150.0   50.0
200.0   120.0   50.0
200.0   150.0   50.0
250.0   150.0   50.0
200.0   150.0   33.333333333333336
200.0   120.0   50.0
250.0   150.0   50.0
250.0   120.0   50.0
250.0   120.0   33.333333333333336
200.0   120.0   50.0
250.0   150.0   50.0
250.0   120.0   33.333333333333336
200.0   150.0   33.333333333333336
250.0   0.0   0.0
300.0   0.0   0.0
250.0   30.0   0.0
250.0   0.0   16.666666666666668
300.0   0.0   0.0
300.0   30.0   0.0
250.0   30.0   0.0
300.0   30.0   16.666666666666668
250.0   0.0   16.666666666666668
250.0   30.0   16.666666666666668
300.0   30.0   16.666666666666668
250.0   30.0   0.0
250.0   0.0   16.666666666666668
300.0   30.0   16.666666666666668
300.0   0.0   16.666666666666668
300.0   0.0   0.0
250.0   0.0   16.666666666666668
300.0   30.0   16.666666666666668
300.0   0.0   0.0
250.0   30.0   0.0
250.0   0.0   16.666666666666668
300.0   0.0   16.666666666666668
250.0   30.0   16.666666666666668
250.0   0.0   33.333333333333336
300.0   0.0   16.666666666666668
300.0   30.0   16.666666666666668
250.0   30.0   16.666666666666668
300.0   30.0   33.333333333333336
250.0   0.0   33.333333333333336
250.0   30.0   33.333333333333336
300.0   30.0   33.333333333333336
250.0   30.0   16.666666666666668
250.0   0.0   33.333333333333336
300.0   30.0   33.333333333333336
300.0   0.0   33.333333333333336
300.0   0.0   16.666666666666668
250.0   0.0   33.333333333333336
300.0   30.0   33.333333333333336
300.0   0.0   16.666666666666668
250.0   30.0   16.666666666666668
250.0   0.0   33.333333333333336
300.0   0.0   33.333333333333336
250.0   30.0   33.333333333333336
250.0   0.0   50.0
300.0   0.0   33.333333333333336
300.0   30.0   33.333333333333336
250.0   30.0   33.333333333333336
300.0   30.0   50.0
250.0   0.0   50.0
250.0   30.0   50.0
300.0   30.0   50.0
250.0   30.0   33.333333333333336
250.0   0.0   50.0
300.0   30.0   50.0
300.0   0.0   50.0
300.0   0.0   33.333333333333336
250.0   0.0   50.0
300.0   30.0   50.0
300.0   0.0   33.333333333333336
250.0   30.0   33.333333333333336
250.0   30.0   0.0
300.0   30.0   0.0
250.0   60.0   0.0
250.0   30.0   16.666666666666668
300.0   30.0   0.0
300.0   60.0   0.0
250.0   60.0   0.0
300.0   60.0   16.666666666666668
250.0   30.0   16.666666666666668
250.0   60.0   16.666666666666668
300.0   60.0   16.666666666666668
250.0   60.0   0.0
250.0   30.0   16.666666666666668
300.0   60.0   16.666666666666668
300.0   30.0   16.666666666666668
300.0   30.0   0.0
250.0   30.0   16.666666666666668
300.0   60.0   16.666666666666668
300.0   30.0   0.0
250.0   60.0   0.0
250.0   30.0   16.666666666666668
300.0   30.0   16.666666666666668
250.0   60.0   16.666666666666668
250.0   30.0   33.333333333333336
300.0   30.0   16.666666666666668
300.0   60.0   16.666666666666668
250.0   60.0   16.666666666666668
300.0   60.0   33.333333333333336
250.0   30.0   33.333333333333336
250.0   60.0   33.333333333333336
300.0   60.0   33.333333333333336
250.0   60.0   16.666666666666668
250.0   30.0   33.333333333333336
300.0   60.0   33.333333333333336
300.0   30.0   33.333333333333336
300.0   30.0   16.666666666666668
250.0   30.0   33.333333333333336
300.0   60.0   33.333333333333336
300.0   30.0   16.666666666666668
250.0   60.0   16.666666666666668
250.0   30.0   33.333333333333336
300.0   30.0   33.333333333333336
250.0   60.0   33.333333333333336
250.0   30.0   50.0
300.0   30.0   33.333333333333336
300.0   60.0   33.333333333333336
250.0   60.0   33.333333333333336
300.0   60.0   50.0
250.0   30.0   50.0
250.0   60.0   50.0
300.0   60.0   50.0
250.0   60.0   33.333333333333336
250.0   30.0   50.0
300.0   60.0   50.0
300.0   30.0   50.0
300.0   30.0   33.333333333333336
250.0   30.0   50.0
300.0   60.0   50.0
300.0   30.0   33.333333333333336
250.0   60.0   33.333333333333336
250.0   60.0   0.0
300.0   60.0   0.0
250.0   90.0   0.0
250.0   60.0   16.666666666666668
300.0   60.0   0.0
300.0   90.0   0.0
250.0   90.0   0.0
300.0   90.0   16.666666666666668
250.0   60.0   16.666666666666668
250.0   90.0   16.666666666666668
300.0   90.0   16.666666666666668
250.0   90.0   0.0
250.0   60.0   16.666666666666668
300.0   90.0   16.666666666666668
300.0   60.0   16.666666666666668
300.0   60.0   0.0
250.0   60.0   16.666666666666668
300.0   90.0   16.666666666666668
300.0   60.0   0.0
250.0   90.0   0.0
250.0   60.0   16.666666666666668
300.0   60.0   16.666666666666668
250.0   90.0   16.666666666666668
250.0   60.0   33.333333333333336
300.0   60.0   16.666666666666668
300.0   90.0   16.666666666666668
250.0   90.0   16.666666666666668
300.0   90.0   33.333333333333336
250.0   60.0   33.333333333333336
250.0   90.0   33.333333333333336
300.0   90.0   33.333333333333336
250.0   90.0   16.666666666666668
250.0   60.0   33.333333333333336
300.0   90.0   33.333333333333336
300.0   60.0   33.333333333333336
300.0   60.0   16.666666666666668
250.0   60.0   33.333333333333336
300.0   90.0   33.333333333333336
300.0   60.0   16.666666666666668
250.0   90.0   16.666666666666668
250.0   60.0   33.333333333333336
300.0   60.0   33.333333333333336
250.0   90.0   33.333333333333336
250.0   60.0   50.0
300.0   60.0   33.333333333333336
300.0   90.0   33.333333333333336
250.0   90.0   33.333333333333336
300.0   90.0   50.0
250.0   60.0   50.0
250.0   90.0   50.0
300.0   90.0   50.0
250.0   90.0   33.333333333333336
250.0   60.0   50.0
300.0   90.0   50.0
300.0   60.0   50.0
300.0   60.0   33.333333333333336
250.0   60.0   50.0
300.0   90.0   50.0
300.0   60.0   33.333333333333336
250.0   90.0   33.333333333333336
250.0   90.0   0.0
300.0   90.0   0.0
250.0   120.0   0.0
250.0   90.0   16.666666666666668
300.0   90.0   0.0
300.0   120.0   0.0
250.0   120.0   0.0
300.0   120.0   16.666666666666668
250.0   90.0   16.666666666666668
250.0   120.0   16.666666666666668
300.0   120.0   16.666666666666668
250.0   120.0   0.0
250.0   90.0   16.666666666666668
300.0   120.0   16.666666666666668
300.0   90.0   16.666666666666668
300.0   90.0   0.0
250.0   90.0   16.666666666666668
300.0   120.0   16.666666666666668
300.0   90.0   0.0
250.0   120.0   0.0
250.0   90.0   16.666666666666668
300.0   90.0   16.666666666666668
250.0   120.0   16.666666666666668
250.0   90.0   33.333333333333336
300.0   90.0   16.666666666666668
300.0   120.0   16.666666666666668
250.0   120.0   16.666666666666668
300.0   120.0   33.333333333333336
250.0   90.0   33.333333333333336
250.0   120.0   33.333333333333336
300.0   120.0   33.333333333333336
250.0   120.0   16.666666666666668
250.0   90.0   33.333333333333336
300.0   120.0   33.333333333333336
300.0   90.0   33.333333333333336
300.0   90.0   16.666666666666668
250.0   90.0   33.333333333333336
300.0   120.0   33.333333333333336
300.0   90.0   16.666666666666668
250.0   120.0   16.666666666666668
250.0   90.0   33.333333333333336
300.0   90.0   33.333333333333336
250.0   120.0   33.333333333333336
250.0   90.0   50.0
300.0   90.0   33.333333333333336
300.0   120.0   33.333333333333336
250.0   120.0   33.333333333333336
300.0   120.0   50.0
250.0   90.0   50.0
250.0   120.0   50.0
300.0   120.0   50.0
250.0   120.0   33.333333333333336
250.0   90.0   50.0
300.0   120.0   50.0
300.0   90.0   50.0
300.0   90.0   33.333333333333336
250.0   90.0   50.0
300.0   120.0   50.0
300.0   90.0   33.333333333333336
250.0   120.0   33.333333333333336
250.0   120.0   0.0
300.0   120.0   0.0
250.0   150.0   0.0
250.0   120.0   16.666666666666668
300.0   120.0   0.0
300.0   150.0   0.0
250.0   150.0   0.0
300.0   150.0   16.666666666666668
250.0   120.0   16.666666666666668
250.0   150.0   16.666666666666668
300.0   150.0   16.666666666666668
250.0   150.0   0.0
250.0   120.0   16.666666666666668
300.0   150.0   16.666666666666668
300.0   120.0   16.666666666666668
300.0   120.0   0.0
250.0   120.0   16.666666666666668
300.0   150.0   16.666666666666668
300.0   120.0   0.0
250.0   150.0   0.0
250.0   120.0   16.666666666666668
300.0   120.0   16.666666666666668
250.0   150.0   16.666666666666668
250.0   120.0   33.333333333333336
300.0   120.0   16.666666666666668
300.0   150.0   16.666666666666668
250.0   150.0   16.666666666666668
300.0   150.0   33.333333333333336
250.0   120.0   33.333333333333336
250.0   150.0   33.333333333333336
300.0   150.0   33.333333333333336
250.0   150.0   16.666666666666668
250.0   120.0   33.333333333333336
300.0   150.0   33.333333333333336
300.0   120.0   33.333333333333336
300.0   120.0   16.666666666666668
250.0   120.0   33.333333333333336
300.0   150.0   33.333333333333336
300.0   120.0   16.666666666666668
250.0   150.0   16.666666666666668
250.0   120.0   33.333333333333336
300.0   120.0   33.333333333333336
250.0   150.0   33.333333333333336
250.0   120.0   50.0
300.0   120.0   33.333333333333336
300.0   150.0   33.333333333333336
250.0   150.0   33.333333333333336
300.0   150.0   50.0
250.0   120.0   50.0
250.0   150.0   50.0
300.0   150.0   50.0
250.0   150.0   33.333333333333336
250.0   120.0   50.0
300.0   150.0   50.0
300.0   120.0   50.0
300.0   120.0   33.333333333333336
250.0   120.0   50.0
300.0   150.0   50.0
300.0   120.0   33.333333333333336
250.0   150.0   33.333333333333336
300.0   0.0   0.0
350.0   0.0   0.0
300.0   30.0   0.0
300.0   0.0   16.666666666666668
350.0   0.0   0.0
350.0   30.0   0.0
300.0   30.0   0.0
350.0   30.0   16.666666666666668
300.0   0.0   16.666666666666668
300.0   30.0   16.666666666666668
350.0   30.0   16.666666666666668
300.0   30.0   0.0
300.0   0.0   16.666666666666668
350.0   30.0   16.666666666666668
350.0   0.0   16.666666666666668
350.0   0.0   0.0
300.0   0.0   16.666666666666668
350.0   30.0   16.666666666666668
350.0   0.0   0.0
300.0   30.0   0.0
300.0   0.0   16.666666666666668
350.0   0.0   16.666666666666668
300.0   30.0   16.666666666666668
300.0   0.0   33.333333333333336
350.0   0.0   16.666666666666668
350.0   30.0   16.666666666666668
300.0   30.0   16.666666666666668
350.0   30.0   33.333333333333336
300.0   0.0   33.333333333333336
300.0   30.0   33.333333333333336
350.0   30.0   33.333333333333336
300.0   30.0   16.666666666666668
300.0   0.0   33.333333333333336
350.0   30.0   33.333333333333336
350.0   0.0   33.333333333333336
350.0   0.0   16.666666666666668
300.0   0.0   33.333333333333336
350.0   30.0   33.333333333333336
350.0   0.0   16.666666666666668
300.0   30.0   16.666666666666668
300.0   0.0   33.333333333333336
350.0   0.0   33.333333333333336
300.0   30.0   33.333333333333336
300.0   0.0   50.0
350.0   0.0   33.333333333333336
350.0   30.0   33.333333333333336
300.0   30.0   33.333333333333336
350.0   30.0   50.0
300.0   0.0   50.0
300.0   30.0   50.0
350.0   30.0   50.0
300.0   30.0   33.333333333333336
300.0   0.0   50.0
350.0   30.0   50.0
350.0   0.0   50.0
350.0   0.0   33.333333333333336
300.0   0.0   50.0
350.0   30.0   50.0
350.0   0.0   33.333333333333336
300.0   30.0   33.333333333333336
300.0   30.0   0.0
350.0   30.0   0.0
300.0   60.0   0.0
300.0   30.0   16.666666666666668
350.0   30.0   0.0
350.0   60.0   0.0
300.0   60.0   0.0
350.0   60.0   16.666666666666668
300.0   30.0   16.666666666666668
300.0   60.0   16.666666666666668
350.0   60.0   16.666666666666668
300.0   60.0   0.0
300.0   30.0   16.666666666666668
350.0   60.0   16.666666666666668
350.0   30.0   16.666666666666668
350.0   30.0   0.0
300.0   30.0   16.666666666666668
350.0   60.0   16.666666666666668
350.0   30.0   0.0
300.0   60.0   0.0
300.0   30.0   16.666666666666668
350.0   30.0   16.666666666666668
300.0   60.0   16.666666666666668
300.0   30.0   33.333333333333336
350.0   30.0   16.666666666666668
350.0   60.0   16.666666666666668
300.0   60.0   16.666666666666668
350.0   60.0   33.333333333333336
300.0   30.0   33.333333333333336
300.0   60.0   33.333333333333336
350.0   60.0   33.333333333333336
300.0   60.0   16.666666666666668
300.0   30.0   33.333333333333336
350.0   60.0   33.333333333333336
350.0   30.0   33.333333333333336
350.0   30.0   16.666666666666668
300.0   30.0   33.333333333333336
350.0   60.0   33.333333333333336
350.0   30.0   16.666666666666668
300.0   60.0   16.666666666666668
300.0   30.0   33.333333333333336
350.0   30.0   33.333333333333336
300.0   60.0   33.333333333333336
300.0   30.0   50.0
350.0   30.0   33.333333333333336
350.0   60.0   33.333333333333336
300.0   60.0   33.333333333333336
350.0   60.0   50.0
300.0   30.0   50.0
300.0   60.0   50.0
350.0   60.0   50.0
300.0   60.0   33.333333333333336
300.0   30.0   50.0
350.0   60.0   50.0
350.0   30.0   50.0
350.0   30.0   33.333333333333336
300.0   30.0   50.0
350.0   60.0   50.0
350.0   30.0   33.333333333333336
300.0   60.0   33.333333333333336
300.0   60.0   0.0
350.0   60.0   0.0
300.0   90.0   0.0
300.0   60.0   16.666666666666668
350.0   60.0   0.0
350.0   90.0   0.0
300.0   90.0   0.0
350.0   90.0   16.666666666666668
300.0   60.0   16.666666666666668
300.0   90.0   16.666666666666668
350.0   90.0   16.666666666666668
300.0   90.0   0.0
300.0   60.0   16.666666666666668
350.0   90.0   16.666666666666668
350.0   60.0   16.666666666666668
350.0   60.0   0.0
300.0   60.0   16.666666666666668
350.0   90.0   16.666666666666668
350.0   60.0   0.0
300.0   90.0   0.0
300.0   60.0   16.666666666666668
350.0   60.0   16.666666666666668
300.0   90.0   16.666666666666668
300.0   60.0   33.333333333333336
350.0   60.0   16.666666666666668
350.0   90.0   16.666666666666668
300.0   90.0   16.666666666666668
350.0   90.0   33.333333333333336
300.0   60.0   33.333333333333336
300.0   90.0   33.333333333333336
350.0   90.0   33.333333333333336
300.0   90.0   16.666666666666668
300.0   60.0   33.333333333333336
350.0   90.0   33.333333333333336
350.0   60.0   33.333333333333336
350.0   60.0   16.666666666666668
300.0   60.0   33.333333333333336
350.0   90.0   33.333333333333336
350.0   60.0   16.666666666666668
300.0   90.0   16.666666666666668
300.0   60.0   33.333333333333336
350.0   60.0   33.333333333333336
300.0   90.0   33.333333333333336
300.0   60.0   50.0
350.0   60.0   33.333333333333336
350.0   90.0   33.333333333333336
300.0   90.0   33.333333333333336
350.0   90.0   50.0
300.0   60.0   50.0
300.0   90.0   50.0
350.0   90.0   50.0
300.0   90.0   33.333333333333336
300.0   60.0   50.0
350.0   90.0   50.0
350.0   60.0   50.0
350.0   60.0   33.333333333333336
300.0   60.0   50.0
350.0   90.0   50.0
350.0   60.0   33.333333333333336
300.0   90.0   33.333333333333336
300.0   90.0   0.0
350.0   90.0   0.0
300.0   120.0   0.0
300.0   90.0   16.666666666666668
350.0   90.0   0.0
350.0   120.0   0.0
300.0   120.0   0.0
350.0   120.0   16.666666666666668
300.0   90.0   16.666666666666668
300.0   120.0   16.666666666666668
350.0   120.0   16.666666666666668
300.0   120.0   0.0
300.0   90.0   16.666666666666668
350.0   120.0   16.666666666666668
350.0   90.0   16.666666666666668
350.0   90.0   0.0
300.0   90.0   16.666666666666668
350.0   120.0   16.666666666666668
350.0   90.0   0.0
300.0   120.0   0.0
300.0   90.0   16.666666666666668
350.0   90.0   16.666666666666668
300.0   120.0   16.666666666666668
300.0   90.0   33.333333333333336
350.0   90.0   16.666666666666668
350.0   120.0   16.666666666666668
300.0   120.0   16.666666666666668
350.0   120.0   33.333333333333336
300.0   90.0   33.333333333333336
300.0   120.0   33.333333333333336
350.0   120.0   33.333333333333336
300.0   120.0   16.666666666666668
300.0   90.0   33.333333333333336
350.0   120.0   33.333333333333336
350.0   90.0   33.333333333333336
350.0   90.0   16.666666666666668
300.0   90.0   33.333333333333336
350.0   120.0   33.333333333333336
350.0   90.0   16.666666666666668
300.0   120.0   16.666666666666668
300.0   90.0   33.333333333333336
350.0   90.0   33.333333333333336
300.0   120.0   33.333333333333336
300.0   90.0   50.0
350.0   90.0   33.333333333333336
350.0   120.0   33.333333333333336
300.0   120.0   33.333333333333336
350.0   120.0   50.0
300.0   90.0   50.0
300.0   120.0   50.0
350.0   120.0   50.0
300.0   120.0   33.333333333333336
300.0   90.0   50.0
350.0   120.0   50.0
350.0   90.0   50.0
350.0   90.0   33.333333333333336
300.0   90.0   50.0
350.0   120.0   50.0
350.0   90.0   33.333333333333336
300.0   120.0   33.333333333333336
300.0   120.0   0.0
350.0   120.0   0.0
300.0   150.0   0.0
300.0   120.0   16.666666666666668
350.0   120.0   0.0
350.0   150.0   0.0
300.0   150.0   0.0
350.0   150.0   16.666666666666668
300.0   120.0   16.666666666666668
300.0   150.0   16.666666666666668
350.0   150.0   16.666666666666668
300.0   150.0   0.0
300.0   120.0   16.666666666666668
350.0   150.0   16.666666666666668
350.0   120.0   16.666666666666668
350.0   120.0   0.0
300.0   120.0   16.666666666666668
350.0   150.0   16.666666666666668
350.0   120.0   0.0
300.0   150.0   0.0
300.0   120.0   16.666666666666668
350.0   120.0   16.666666666666668
300.0   150.0   16.666666666666668
300.0   120.0   33.333333333333336
350.0   120.0   16.666666666666668
350.0   150.0   16.666666666666668
300.0   150.0   16.666666666666668
350.0   150.0   33.333333333333336
300.0   120.0   33.333333333333336
300.0   150.0   33.333333333333336
350.0   150.0   33.333333333333336
300.0   150.0   16.666666666666668
300.0   120.0   33.333333333333336
350.0   150.0   33.333333333333336
350.0   120.0   33.333333333333336
350.0   120.0   16.666666666666668
300.0   120.0   33.333333333333336
350.0   150.0   33.333333333333336
350.0   120.0   16.666666666666668
300.0   150.0   16.666666666666668
300.0   120.0   33.333333333333336
350.0   120.0   33.333333333333336
300.0   150.0   33.333333333333336
300.0   120.0   50.0
350.0   120.0   33.333333333333336
350.0   150.0   33.333333333333336
300.0   150.0   33.333333333333336
350.0   150.0   50.0
300.0   120.0   50.0
300.0   150.0   50.0
350.0   150.0   50.0
300.0   150.0   33.333333333333336
300.0   120.0   50.0
350.0   150.0   50.0
350.0   120.0   50.0
350.0   120.0   33.333333333333336
300.0   120.0   50.0
350.0   150.0   50.0
350.0   120.0   33.333333333333336
300.0   150.0   33.333333333333336
350.0   0.0   0.0
400.0   0.0   0.0
350.0   30.0   0.0
350.0   0.0   16.666666666666668
400.0   0.0   0.0
400.0   30.0   0.0
350.0   30.0   0.0
400.0   30.0   16.666666666666668
350.0   0.0   16.666666666666668
350.0   30.0   16.666666666666668
400.0   30.0   16.666666666666668
350.0   30.0   0.0
350.0   0.0   16.666666666666668
400.0   30.0   16.666666666666668
400.0   0.0   16.666666666666668
400.0   0.0   0.0
350.0   0.0   16.666666666666668
400.0   30.0   16.666666666666668
400.0   0.0   0.0
350.0   30.0   0.0
350.0   0.0   16.666666666666668
400.0   0.0   16.666666666666668
350.0   30.0   16.666666666666668
350.0   0.0   33.333333333333336
400.0   0.0   16.666666666666668
400.0   30.0   16.666666666666668
350.0   30.0   16.666666666666668
400.0   30.0   33.333333333333336
350.0   0.0   33.333333333333336
350.0   30.0   33.333333333333336
400.0   30.0   33.333333333333336
350.0   30.0   16.666666666666668
350.0   0.0   33.333333333333336
400.0   30.0   33.333333333333336
400.0   0.0   33.333333333333336
400.0   0.0   16.666666666666668
350.0   0.0   33.333333333333336
400.0   30.0   33.333333333333336
400.0   0.0   16.666666666666668
350.0   30.0   16.666666666666668
350.0   0.0   33.333333333333336
400.0   0.0   33.333333333333336
350.0   30.0   33.333333333333336
350.0   0.0   50.0
400.0   0.0   33.333333333333336
400.0   30.0   33.333333333333336
350.0   30.0   33.333333333333336
400.0   30.0   50.0
350.0   0.0   50.0
350.0   30.0   50.0
400.0   30.0   50.0
350.0   30.0   33.333333333333336
350.0   0.0   50.0
400.0   30.0   50.0
400.0   0.0   50.0
400.0   0.0   33.333333333333336
350.0   0.0   50.0
400.0   30.0   50.0
400.0   0.0   33.333333333333336
350.0   30.0   33.333333333333336
350.0   30.0   0.0
400.0   30.0   0.0
350.0   60.0   0.0
350.0   30.0   16.666666666666668
400.0   30.0   0.0
400.0   60.0   0.0
350.0   60.0   0.0
400.0   60.0   16.666666666666668
350.0   30.0   16.666666666666668
350.0   60.0   16.666666666666668
400.0   60.0   16.666666666666668
350.0   60.0   0.0
350.0   30.0   16.666666666666668
400.0   60.0   16.666666666666668
400.0   30.0   16.666666666666668
400.0   30.0   0.0
350.0   30.0   16.666666666666668
400.0   60.0   16.666666666666668
400.0   30.0   0.0
350.0   60.0   0.0
350.0   30.0   16.666666666666668
400.0   30.0   16.666666666666668
350.0   60.0   16.666666666666668
350.0   30.0   33.333333333333336
400.0   30.0   16.666666666666668
400.0   60.0   16.666666666666668
350.0   60.0   16.666666666666668
400.0   60.0   33.333333333333336
350.0   30.0   33.333333333333336
350.0   60.0   33.333333333333336
400.0   60.0   33.333333333333336
350.0   60.0   16.666666666666668
350.0   30.0   33.333333333333336
400.0   60.0   33.333333333333336
400.0   30.0   33.333333333333336
400.0   30.0   16.666666666666668
350.0   30.0   33.333333333333336
400.0   60.0   33.333333333333336
400.0   30.0   16.666666666666668
350.0   60.0   16.666666666666668
350.0   30.0   33.333333333333336
400.0   30.0   33.333333333333336
350.0   60.0   33.333333333333336
350.0   30.0   50.0
400.0   30.0   33.333333333333336
400.0   60.0   33.333333333333336
350.0   60.0   33.333333333333336
400.0   60.0   50.0
350.0   30.0   50.0
350.0   60.0   50.0
400.0   60.0   50.0
350.0   60.0   33.333333333333336
350.0   30.0   50.0
400.0   60.0   50.0
400.0   30.0   50.0
400.0   30.0   33.333333333333336
350.0   30.0   50.0
400.0   60.0   50.0
400.0   30.0   33.333333333333336
350.0   60.0   33.333333333333336
350.0   60.0   0.0
400.0   60.0   0.0
350.0   90.0   0.0
350.0   60.0   16.666666666666668
400.0   60.0   0.0
400.0   90.0   0.0
350.0   90.0   0.0
400.0   90.0   16.666666666666668
350.0   60.0   16.666666666666668
350.0   90.0   16.666666666666668
400.0   90.0   16.666666666666668
350.0   90.0   0.0
350.0   60.0   16.666666666666668
400.0   90.0   16.666666666666668
400.0   60.0   16.666666666666668
400.0   60.0   0.0
350.0   60.0   16.666666666666668
400.0   90.0   16.666666666666668
400.0   60.0   0.0
350.0   90.0   0.0
350.0   60.0   16.666666666666668
400.0   60.0   16.666666666666668
350.0   90.0   16.666666666666668
350.0   60.0   33.333333333333336
400.0   60.0   16.666666666666668
400.0   90.0   16.666666666666668
350.0   90.0   16.666666666666668
400.0   90.0   33.333333333333336
350.0   60.0   33.333333333333336
350.0   90.0   33.333333333333336
400.0   90.0   33.333333333333336
350.0   90.0   16.666666666666668
350.0   60.0   33.333333333333336
400.0   90.0   33.333333333333336
400.0   60.0   33.333333333333336
400.0   60.0   16.666666666666668
350.0   60.0   33.333333333333336
400.0   90.0   33.333333333333336
400.0   60.0   16.666666666666668
350.0   90.0   16.666666666666668
350.0   60.0   33.333333333333336
400.0   60.0   33.333333333333336
350.0   90.0   33.333333333333336
350.0   60.0   50.0
400.0   60.0   33.333333333333336
400.0   90.0   33.333333333333336
350.0   90.0   33.333333333333336
400.0   90.0   50.0
350.0   60.0   50.0
350.0   90.0   50.0
400.0   90.0   50.0
350.0   90.0   33.333333333333336
350.0   60.0   50.0
400.0   90.0   50.0
400.0   60.0   50.0
400.0   60.0   33.333333333333336
350.0   60.0   50.0
400.0   90.0   50.0
400.0   60.0   33.333333333333336
350.0   90.0   33.333333333333336
350.0   90.0   0.0
400.0   90.0   0.0
350.0   120.0   0.0
350.0   90.0   16.666666666666668
400.0   90.0   0.0
400.0   120.0   0.0
350.0   120.0   0.0
400.0   120.0   16.666666666666668
350.0   90.0   16.666666666666668
350.0   120.0   16.666666666666668
400.0   120.0   16.666666666666668
350.0   120.0   0.0
350.0   90.0   16.666666666666668
400.0   120.0   16.666666666666668
400.0   90.0   16.666666666666668
400.0   90.0   0.0
350.0   90.0   16.666666666666668
400.0   120.0   16.666666666666668
400.0   90.0   0.0
350.0   120.0   0.0
350.0   90.0   16.666666666666668
400.0   90.0   16.666666666666668
350.0   120.0   16.666666666666668
350.0   90.0   33.333333333333336
400.0   90.0   16.666666666666668
400.0   120.0   16.666666666666668
350.0   120.0   16.666666666666668
400.0   120.0   33.333333333333336
350.0   90.0   33.333333333333336
350.0   120.0   33.333333333333336
400.0   120.0   33.333333333333336
350.0   120.0   16.666666666666668
350.0   90.0   33.333333333333336
400.0   120.0   33.333333333333336
400.0   90.0   33.333333333333336
400.0   90.0   16.666666666666668
350.0   90.0   33.333333333333336
400.0   120.0   33.333333333333336
400.0   90.0   16.666666666666668
350.0   120.0   16.666666666666668
350.0   90.0   33.333333333333336
400.0   90.0   33.333333333333336
350.0   120.0   33.333333333333336
350.0   90.0   50.0
400.0   90.0   33.333333333333336
400.0   120.0   33.333333333333336
350.0   120.0   33.333333333333336
400.0   120.0   50.0
350.0   90.0   50.0
350.0   120.0   50.0
400.0   120.0   50.0
350.0   120.0   33.333333333333336
350.0   90.0   50.0
400.0   120.0   50.0
400.0   90.0   50.0
400.0   90.0   33.333333333333336
350.0   90.0   50.0
400.0   120.0   50.0
400.0   90.0   33.333333333333336
350.0   120.0   33.333333333333336
350.0   120.0   0.0
400.0   120.0   0.0
350.0   150.0   0.0
350.0   120.0   16.666666666666668
400.0   120.0   0.0
400.0   150.0   0.0
350.0   150.0   0.0
400.0   150.0   16.666666666666668
350.0   120.0   16.666666666666668
350.0   150.0   16.666666666666668
400.0   150.0   16.666666666666668
350.0   150.0   0.0
350.0   120.0   16.666666666666668
400.0   150.0   16.666666666666668
400.0   120.0   16.666666666666668
400.0   120.0   0.0
350.0   120.0   16.666666666666668
400.0   150.0   16.666666666666668
400.0   120.0   0.0
350.0   150.0   0.0
350.0   120.0   16.666666666666668
400.0   120.0   16.666666666666668
350.0   150.0   16.666666666666668
350.0   120.0   33.333333333333336
400.0   120.0   16.666666666666668
400.0   150.0   16.666666666666668
350.0   150.0   16.666666666666668
400.0   150.0   33.333333333333336
350.0   120.0   33.333333333333336
350.0   150.0   33.333333333333336
400.0   150.0   33.333333333333336
350.0   150.0   16.666666666666668
350.0   120.0   33.333333333333336
400.0   150.0   33.333333333333336
400.0   120.0   33.333333333333336
400.0   120.0   16.666666666666668
350.0   120.0   33.333333333333336
400.0   150.0   33.333333333333336
400.0   120.0   16.666666666666668
350.0   150.0   16.666666666666668
350.0   120.0   33.333333333333336
400.0   120.0   33.333333333333336
350.0   150.0   33.333333333333336
350.0   120.0   50.0
400.0   120.0   33.333333333333336
400.0   150.0   33.333333333333336
350.0   150.0   33.333333333333336
400.0   150.0   50.0
350.0   120.0   50.0
350.0   150.0   50.0
400.0   150.0   50.0
350.0   150.0   33.333333333333336
350.0   120.0   50.0
400.0   150.0   50.0
400.0   120.0   50.0
400.0   120.0   33.333333333333336
350.0   120.0   50.0
400.0   150.0   50.0
400.0   120.0   33.333333333333336
350.0   150.0   33.333333333333336
400.0   0.0   0.0
450.0   0.0   0.0
400.0   30.0   0.0
400.0   0.0   16.666666666666668
450.0   0.0   0.0
450.0   30.0   0.0
400.0   30.0   0.0
450.0   30.0   16.666666666666668
400.0   0.0   16.666666666666668
400.0   30.0   16.666666666666668
450.0   30.0   16.666666666666668
400.0   30.0   0.0
400.0   0.0   16.666666666666668
450.0   30.0   16.666666666666668
450.0   0.0   16.666666666666668
450.0   0.0   0.0
400.0   0.0   16.666666666666668
450.0   30.0   16.666666666666668
450.0   0.0   0.0
400.0   30.0   0.0
400.0   0.0   16.666666666666668
450.0   0.0   16.666666666666668
400.0   30.0   16.666666666666668
400.0   0.0   33.333333333333336
450.0   0.0   16.666666666666668
450.0   30.0   16.666666666666668
400.0   30.0   16.666666666666668
450.0   30.0   33.333333333333336
400.0   0.0   33.333333333333336
400.0   30.0   33.333333333333336
450.0   30.0   33.333333333333336
400.0   30.0   16.666666666666668
400.0   0.0   33.333333333333336
450.0   30.0   33.333333333333336
450.0   0.0   33.333333333333336
450.0   0.0   16.666666666666668
400.0   0.0   33.333333333333336
450.0   30.0   33.333333333333336
450.0   0.0   16.666666666666668
400.0   30.0   16.666666666666668
400.0   0.0   33.333333333333336
450.0   0.0   33.333333333333336
400.0   30.0   33.333333333333336
400.0   0.0   50.0
450.0   0.0   33.333333333333336
450.0   30.0   33.333333333333336
400.0   30.0   33.333333333333336
450.0   30.0   50.0
400.0   0.0   50.0
400.0   30.0   50.0
450.0   30.0   50.0
400.0   30.0   33.333333333333336
400.0   0.0   50.0
450.0   30.0   50.0
450.0   0.0   50.0
450.0   0.0   33.333333333333336
400.0   0.0   50.0
450.0   30.0   50.0
450.0   0.0   33.333333333333336
400.0   30.0   33.333333333333336
400.0   30.0   0.0
450.0   30.0   0.0
400.0   60.0   0.0
400.0   30.0   16.666666666666668
450.0   30.0   0.0
450.0   60.0   0.0
400.0   60.0   0.0
450.0   60.0   16.666666666666668
400.0   30.0   16.666666666666668
400.0   60.0   16.666666666666668
450.0   60.0   16.666666666666668
400.0   60.0   0.0
400.0   30.0   16.666666666666668
450.0   60.0   16.666666666666668
450.0   30.0   16.666666666666668
450.0   30.0   0.0
400.0   30.0   16.666666666666668
450.0   60.0   16.666666666666668
450.0   30.0   0.0
400.0   60.0   0.0
400.0   30.0   16.666666666666668
450.0   30.0   16.666666666666668
400.0   60.0   16.666666666666668
400.0   30.0   33.333333333333336
450.0   30.0   16.666666666666668
450.0   60.0   16.666666666666668
400.0   60.0   16.666666666666668
450.0   60.0   33.333333333333336
400.0   30.0   33.333333333333336
400.0   60.0   33.333333333333336
450.0   60.0   33.333333333333336
400.0   60.0   16.666666666666668
400.0   30.0   33.333333333333336
450.0   60.0   33.333333333333336
450.0   30.0   33.333333333333336
450.0   30.0   16.666666666666668
400.0   30.0   33.333333333333336
450.0   60.0   33.333333333333336
450.0   30.0   16.666666666666668
400.0   60.0   16.666666666666668
400.0   30.0   33.333333333333336
450.0   30.0   33.333333333333336
400.0   60.0   33.333333333333336
400.0   30.0   50.0
450.0   30.0   33.333333333333336
450.0   60.0   33.333333333333336
400.0   60.0   33.333333333333336
450.0   60.0   50.0
400.0   30.0   50.0
400.0   60.0   50.0
450.0   60.0   50.0
400.0   60.0   33.333333333333336
400.0   30.0   50.0
450.0   60.0   50.0
450.0   30.0   50.0
450.0   30.0   33.333333333333336
400.0   30.0   50.0
450.0   60.0   50.0
450.0   30.0   33.333333333333336
400.0   60.0   33.333333333333336
400.0   60.0   0.0
450.0   60.0   0.0
400.0   90.0   0.0
400.0   60.0   16.666666666666668
450.0   60.0   0.0
450.0   90.0   0.0
400.0   90.0   0.0
450.0   90.0   16.666666666666668
400.0   60.0   16.666666666666668
400.0   90.0   16.666666666666668
450.0   90.0   16.666666666666668
400.0   90.0   0.0
400.0   60.0   16.666666666666668
450.0   90.0   16.666666666666668
450.0   60.0   16.666666666666668
450.0   60.0   0.0
400.0   60.0   16.666666666666668
450.0   90.0   16.666666666666668
450.0   60.0   0.0
400.0   90.0   0.0
400.0   60.0   16.666666666666668
450.0   60.0   16.666666666666668
400.0   90.0   16.666666666666668
400.0   60.0   33.333333333333336
450.0   60.0   16.666666666666668
450.0   90.0   16.666666666666668
400.0   90.0   16.666666666666668
450.0   90.0   33.333333333333336
400.0   60.0   33.333333333333336
400.0   90.0   33.333333333333336
450.0   90.0   33.333333333333336
400.0   90.0   16.666666666666668
400.0   60.0   33.333333333333336
450.0   90.0   33.333333333333336
450.0   60.0   33.333333333333336
450.0   60.0   16.666666666666668
400.0   60.0   33.333333333333336
450.0   90.0   33.333333333333336
450.0   60.0   16.666666666666668
400.0   90.0   16.666666666666668
400.0   60.0   33.333333333333336
450.0   60.0   33.333333333333336
400.0   90.0   33.333333333333336
400.0   60.0   50.0
450.0   60.0   33.333333333333336
450.0   90.0   33.333333333333336
400.0   90.0   33.333333333333336
450.0   90.0   50.0
400.0   60.0   50.0
400.0   90.0   50.0
450.0   90.0   50.0
400.0   90.0   33.333333333333336
400.0   60.0   50.0
450.0   90.0   50.0
450.0   60.0   50.0
450.0   60.0   33.333333333333336
400.0   60.0   50.0
450.0   90.0   50.0
450.0   60.0   33.333333333333336
400.0   90.0   33.333333333333336
400.0   90.0   0.0
450.0   90.0   0.0
400.0   120.0   0.0
400.0   90.0   16.666666666666668
450.0   90.0   0.0
450.0   120.0   0.0
400.0   120.0   0.0
450.0   120.0   16.666666666666668
400.0   90.0   16.666666666666668
400.0   120.0   16.666666666666668
450.0   120.0   16.666666666666668
400.0   120.0   0.0
400.0   90.0   16.666666666666668
450.0   120.0   16.666666666666668
450.0   90.0   16.666666666666668
450.0   90.0   0.0
400.0   90.0   16.666666666666668
450.0   120.0   16.666666666666668
450.0   90.0   0.0
400.0   120.0   0.0
400.0   90.0   16.666666666666668
450.0   90.0   16.666666666666668
400.0   120.0   16.666666666666668
400.0   90.0   33.333333333333336
450.0   90.0   16.666666666666668
450.0   120.0   16.666666666666668
400.0   120.0   16.666666666666668
450.0   120.0   33.333333333333336
400.0   90.0   33.333333333333336
400.0   120.0   33.333333333333336
450.0   120.0   33.333333333333336
400.0   120.0   16.666666666666668
400.0   90.0   33.333333333333336
450.0   120.0   33.333333333333336
450.0   90.0   33.333333333333336
450.0   90.0   16.666666666666668
400.0   90.0   33.333333333333336
450.0   120.0   33.333333333333336
450.0   90.0   16.666666666666668
400.0   120.0   16.666666666666668
400.0   90.0   33.333333333333336
450.0   90.0   33.333333333333336
400.0   120.0   33.333333333333336
400.0   90.0   50.0
450.0   90.0   33.333333333333336
450.0   120.0   33.333333333333336
400.0   120.0   33.333333333333336
450.0   120.0   50.0
400.0   90.0   50.0
400.0   120.0   50.0
450.0   120.0   50.0
400.0   120.0   33.333333333333336
400.0   90.0   50.0
450.0   120.0   50.0
450.0   90.0   50.0
450.0   90.0   33.333333333333336
400.0   90.0   50.0
450.0   120.0   50.0
450.0   90.0   33.333333333333336
400.0   120.0   33.333333333333336
400.0   120.0   0.0
450.0   120.0   0.0
400.0   150.0   0.0
400.0   120.0   16.666666666666668
450.0   120.0   0.0
450.0   150.0   0.0
400.0   150.0   0.0
450.0   150.0   16.666666666666668
400.0   120.0   16.666666666666668
400.0   150.0   16.666666666666668
450.0   150.0   16.666666666666668
400.0   150.0   0.0
400.0   120.0   16.666666666666668
450.0   150.0   16.666666666666668
450.0   120.0   16.666666666666668
450.0   120.0   0.0
400.0   120.0   16.666666666666668
450.0   150.0   16.666666666666668
450.0   120.0   0.0
400.0   150.0   0.0
400.0   120.0   16.666666666666668
450.0   120.0   16.666666666666668
400.0   150.0   16.666666666666668
400.0   120.0   33.333333333333336
450.0   120.0   16.666666666666668
450.0   150.0   16.666666666666668
400.0   150.0   16.666666666666668
450.0   150.0   33.333333333333336
400.0   120.0   33.333333333333336
400.0   150.0   33.333333333333336
450.0   150.0   33.333333333333336
400.0   150.0   16.666666666666668
400.0   120.0   33.333333333333336
450.0   150.0   33.333333333333336
450.0   120.0   33.333333333333336
450.0   120.0   16.666666666666668
400.0   120.0   33.333333333333336
450.0   150.0   33.333333333333336
450.0   120.0   16.666666666666668
400.0   150.0   16.666666666666668
400.0   120.0   33.333333333333336
450.0   120.0   33.333333333333336
400.0   150.0   33.333333333333336
400.0   120.0   50.0
450.0   120.0   33.333333333333336
450.0   150.0   33.333333333333336
400.0   150.0   33.333333333333336
450.0   150.0   50.0
400.0   120.0   50.0
400.0   150.0   50.0
450.0   150.0   50.0
400.0   150.0   33.333333333333336
400.0   120.0   50.0
450.0   150.0   50.0
450.0   120.0   50.0
450.0   120.0   33.333333333333336
400.0   120.0   50.0
450.0   150.0   50.0
450.0   120.0   33.333333333333336
400.0   150.0   33.333333333333336
450.0   0.0   0.0
500.0   0.0   0.0
450.0   30.0   0.0
450.0   0.0   16.666666666666668
500.0   0.0   0.0
500.0   30.0   0.0
450.0   30.0   0.0
500.0   30.0   16.666666666666668
450.0   0.0   16.666666666666668
450.0   30.0   16.666666666666668
500.0   30.0   16.666666666666668
450.0   30.0   0.0
450.0   0.0   16.666666666666668
500.0   30.0   16.666666666666668
500.0   0.0   16.666666666666668
500.0   0.0   0.0
450.0   0.0   16.666666666666668
500.0   30.0   16.666666666666668
500.0   0.0   0.0
450.0   30.0   0.0
450.0   0.0   16.666666666666668
500.0   0.0   16.666666666666668
450.0   30.0   16.666666666666668
450.0   0.0   33.333333333333336
500.0   0.0   16.666666666666668
500.0   30.0   16.666666666666668
450.0   30.0   16.666666666666668
500.0   30.0   33.333333333333336
450.0   0.0   33.333333333333336
450.0   30.0   33.333333333333336
500.0   30.0   33.333333333333336
450.0   30.0   16.666666666666668
450.0   0.0   33.333333333333336
500.0   30.0   33.333333333333336
500.0   0.0   33.333333333333336
500.0   0.0   16.666666666666668
450.0   0.0   33.333333333333336
500.0   30.0   33.333333333333336
500.0   0.0   16.666666666666668
450.0   30.0   16.666666666666668
450.0   0.0   33.333333333333336
500.0   0.0   33.333333333333336
450.0   30.0   33.333333333333336
450.0   0.0   50.0
500.0   0.0   33.333333333333336
500.0   30.0   33.333333333333336
450.0   30.0   33.333333333333336
500.0   30.0   50.0
450.0   0.0   50.0
450.0   30.0   50.0
500.0   30.0   50.0
450.0   30.0   33.333333333333336
450.0   0.0   50.0
500.0   30.0   50.0
500.0   0.0   50.0
500.0   0.0   33.333333333333336
450.0   0.0   50.0
500.0   30.0   50.0
500.0   0.0   33.333333333333336
450.0   30.0   33.333333333333336
450.0   30.0   0.0
500.0   30.0   0.0
450.0   60.0   0.0
450.0   30.0   16.666666666666668
500.0   30.0   0.0
500.0   60.0   0.0
450.0   60.0   0.0
500.0   60.0   16.666666666666668
450.0   30.0   16.666666666666668
450.0   60.0   16.666666666666668
500.0   60.0   16.666666666666668
450.0   60.0   0.0
450.0   30.0   16.666666666666668
500.0   60.0   16.666666666666668
500.0   30.0   16.666666666666668
500.0   30.0   0.0
450.0   30.0   16.666666666666668
500.0   60.0   16.666666666666668
500.0   30.0   0.0
450.0   60.0   0.0
450.0   30.0   16.666666666666668
500.0   30.0   16.666666666666668
450.0   60.0   16.666666666666668
450.0   30.0   33.333333333333336
500.0   30.0   16.666666666666668
500.0   60.0   16.666666666666668
450.0   60.0   16.666666666666668
500.0   60.0   33.333333333333336
450.0   30.0   33.333333333333336
450.0   60.0   33.333333333333336
500.0   60.0   33.333333333333336
450.0   60.0   16.666666666666668
450.0   30.0   33.333333333333336
500.0   60.0   33.333333333333336
500.0   30.0   33.333333333333336
500.0   30.0   16.666666666666668
450.0   30.0   33.333333333333336
500.0   60.0   33.333333333333336
500.0   30.0   16.666666666666668
450.0   60.0   16.666666666666668
450.0   30.0   33.333333333333336
500.0   30.0   33.333333333333336
450.0   60.0   33.333333333333336
450.0   30.0   50.0
500.0   30.0   33.333333333333336
500.0   60.0   33.333333333333336
450.0   60.0   33.333333333333336
500.0   60.0   50.0
450.0   30.0   50.0
450.0   60.0   50.0
500.0   60.0   50.0
450.0   60.0   33.333333333333336
450.0   30.0   50.0
500.0   60.0   50.0
500.0   30.0   50.0
500.0   30.0   33.333333333333336
450.0   30.0   50.0
500.0   60.0   50.0
500.0   30.0   33.333333333333336
450.0   60.0   33.333333333333336
450.0   60.0   0.0
500.0   60.0   0.0
450.0   90.0   0.0
450.0   60.0   16.666666666666668
500.0   60.0   0.0
500.0   90.0   0.0
450.0   90.0   0.0
500.0   90.0   16.666666666666668
450.0   60.0   16.666666666666668
450.0   90.0   16.666666666666668
500.0   90.0   16.666666666666668
450.0   90.0   0.0
450.0   60.0   16.666666666666668
500.0   90.0   16.666666666666668
500.0   60.0   16.666666666666668
500.0   60.0   0.0
450.0   60.0   16.666666666666668
500.0   90.0   16.666666666666668
500.0   60.0   0.0
450.0   90.0   0.0
450.0   60.0   16.666666666666668
500.0   60.0   16.666666666666668
450.0   90.0   16.666666666666668
450.0   60.0   33.333333333333336
500.0   60.0   16.666666666666668
500.0   90.0   16.666666666666668
450.0   90.0   16.666666666666668
500.0   90.0   33.333333333333336
450.0   60.0   33.333333333333336
450.0   90.0   33.333333333333336
500.0   90.0   33.333333333333336
450.0   90.0   16.666666666666668
450.0   60.0   33.333333333333336
500.0   90.0   33.333333333333336
500.0   60.0   33.333333333333336
500.0   60.0   16.666666666666668
450.0   60.0   33.333333333333336
500.0   90.0   33.333333333333336
500.0   60.0   16.666666666666668
450.0   90.0   16.666666666666668
450.0   60.0   33.333333333333336
500.0   60.0   33.333333333333336
450.0   90.0   33.333333333333336
450.0   60.0   50.0
500.0   60.0   33.333333333333336
500.0   90.0   33.333333333333336
450.0   90.0   33.333333333333336
500.0   90.0   50.0
450.0   60.0   50.0
450.0   90.0   50.0
500.0   90.0   50.0
450.0   90.0   33.333333333333336
450.0   60.0   50.0
500.0   90.0   50.0
500.0   60.0   50.0
500.0   60.0   33.333333333333336
450.0   60.0   50.0
500.0   90.0   50.0
500.0   60.0   33.333333333333336
450.0   90.0   33.333333333333336
450.0   90.0   0.0
500.0   90.0   0.0
450.0   120.0   0.0
450.0   90.0   16.666666666666668
500.0   90.0   0.0
500.0   120.0   0.0
450.0   120.0   0.0
500.0   120.0   16.666666666666668
450.0   90.0   16.666666666666668
450.0   120.0   16.666666666666668
500.0   120.0   16.666666666666668
450.0   120.0   0.0
450.0   90.0   16.666666666666668
500.0   120.0   16.666666666666668
500.0   90.0   16.666666666666668
500.0   90.0   0.0
450.0   90.0   16.666666666666668
500.0   120.0   16.666666666666668
500.0   90.0   0.0
450.0   120.0   0.0
450.0   90.0   16.666666666666668
500.0   90.0   16.666666666666668
450.0   120.0   16.666666666666668
450.0   90.0   33.333333333333336
500.0   90.0   16.666666666666668
500.0   120.0   16.666666666666668
450.0   120.0   16.666666666666668
500.0   120.0   33.333333333333336
450.0   90.0   33.333333333333336
450.0   120.0   33.333333333333336
500.0   120.0   33.333333333333336
450.0   120.0   16.666666666666668
450.0   90.0   33.333333333333336
500.0   120.0   33.333333333333336
500.0   90.0   33.333333333333336
500.0   90.0   16.666666666666668
450.0   90.0   33.333333333333336
500.0   120.0   33.333333333333336
500.0   90.0   16.666666666666668
450.0   120.0   16.666666666666668
450.0   90.0   33.333333333333336
500.0   90.0   33.333333333333336
450.0   120.0   33.333333333333336
450.0   90.0   50.0
500.0   90.0   33.333333333333336
500.0   120.0   33.333333333333336
450.0   120.0   33.333333333333336
500.0   120.0   50.0
450.0   90.0   50.0
450.0   120.0   50.0
500.0   120.0   50.0
450.0   120.0   33.333333333333336
450.0   90.0   50.0
500.0   120.0   50.0
500.0   90.0   50.0
500.0   90.0   33.333333333333336
450.0   90.0   50.0
500.0   120.0   50.0
500.0   90.0   33.333333333333336
450.0   120.0   33.333333333333336
450.0   120.0   0.0
500.0   120.0   0.0
450.0   150.0   0.0
450.0   120.0   16.666666666666668
500.0   120.0   0.0
500.0   150.0   0.0
450.0   150.0   0.0
500.0   150.0   16.666666666666668
450.0   120.0   16.666666666666668
450.0   150.0   16.666666666666668
500.0   150.0   16.666666666666668
450.0   150.0   0.0
450.0   120.0   16.666666666666668
500.0   150.0   16.666666666666668
500.0   120.0   16.666666666666668
500.0   120.0   0.0
450.0   120.0   16.666666666666668
500.0   150.0   16.666666666666668
500.0   120.0   0.0
450.0   150.0   0.0
450.0   120.0   16.666666666666668
500.0   120.0   16.666666666666668
450.0   150.0   16.666666666666668
450.0   120.0   33.333333333333336
500.0   120.0   16.666666666666668
500.0   150.0   16.666666666666668
450.0   150.0   16.666666666666668
500.0   150.0   33.333333333333336
450.0   120.0   33.333333333333336
450.0   150.0   33.333333333333336
500.0   150.0   33.333333333333336
450.0   150.0   16.666666666666668
450.0   120.0   33.333333333333336
500.0   150.0   33.333333333333336
500.0   120.0   33.333333333333336
500.0   120.0   16.666666666666668
450.0   120.0   33.333333333333336
500.0   150.0   33.333333333333336
500.0   120.0   16.666666666666668
450.0   150.0   16.666666666666668
450.0   120.0   33.333333333333336
500.0   120.0   33.333333333333336
450.0   150.0   33.333333333333336
450.0   120.0   50.0
500.0   120.0   33.333333333333336
500.0   150.0   33.333333333333336
450.0   150.0   33.333333333333336
500.0   150.0   50.0
450.0   120.0   50.0
450.0   150.0   50.0
500.0   150.0   50.0
450.0   150.0   33.333333333333336
450.0   120.0   50.0
500.0   150.0   50.0
500.0   120.0   50.0
500.0   120.0   33.333333333333336
450.0   120.0   50.0
500.0   150.0   50.0
500.0   120.0   33.333333333333336
450.0   150.0   33.333333333333336
             </DataArray>   
          </Points>  
          <Cells>  
             <DataArray type="Int32" Name="connectivity" format="ascii">   
0   1   2   3
4   5   6   7
8   9   10   11
12   13   14   15
16   17   18   19
20   21   22   23
24   25   26   27
28   29   30   31
32   33   34   35
36   37   38   39
40   41   42   43
44   45   46   47
48   49   50   51
52   53   54   55
56   57   58   59
60   61   62   63
64   65   66   67
68   69   70   71
72   73   74   75
76   77   78   79
80   81   82   83
84   85   86   87
88   89   90   91
92   93   94   95
96   97   98   99
100   101   102   103
104   105   106   107
108   109   110   111
112   113   114   115
116   117   118   119
120   121   122   123
124   125   126   127
128   129   130   131
132   133   134   135
136   137   138   139
140   141   142   143
144   145   146   147
148   149   150   151
152   153   154   155
156   157   158   159
160   161   162   163
164   165   166   167
168   169   170   171
172   173   174   175
176   177   178   179
180   181   182   183
184   185   186   187
188   189   190   191
192   193   194   195
196   197   198   199
200   201   202   203
204   205   206   207
208   209   210   211
212   213   214   215
216   217   218   219
220   221   222   223
224   225   226   227
228   229   230   231
232   233   234   235
236   237   238   239
240   241   242   243
244   245   246   247
248   249   250   251
252   253   254   255
256   257   258   259
260   261   262   263
264   265   266   267
268   269   270   271
272   273   274   275
276   277   278   279
280   281   282   283
284   285   286   287
288   289   290   291
292   293   294   295
296   297   298   299
300   301   302   303
304   305   306   307
308   309   310   311
312   313   314   315
316   317   318   319
320   321   322   323
324   325   326   327
328   329   330   331
332   333   334   335
336   337   338   339
340   341   342   343
344   345   346   347
348   349   350   351
352   353   354   355
356   357   358   359
360   361   362   363
364   365   366   367
368   369   370   371
372   373   374   375
376   377   378   379
380   381   382   383
384   385   386   387
388   389   390   391
392   393   394   395
396   397   398   399
400   401   402   403
404   405   406   407
408   409   410   411
412   413   414   415
416   417   418   419
420   421   422   423
424   425   426   427
428   429   430   431
432   433   434   435
436   437   438   439
440   441   442   443
444   445   446   447
448   449   450   451
452   453   454   455
456   457   458   459
460   461   462   463
464   465   466   467
468   469   470   471
472   473   474   475
476   477   478   479
480   481   482   483
484   485   486   487
488   489   490   491
492   493   494   495
496   497   498   499
500   501   502   503
504   505   506   507
508   509   510   511
512   513   514   515
516   517   518   519
520   521   522   523
524   525   526   527
528   529   530   531
532   533   534   535
536   537   538   539
540   541   542   543
544   545   546   547
548   549   550   551
552   553   554   555
556   557   558   559
560   561   562   563
564   565   566   567
568   569   570   571
572   573   574   575
576   577   578   579
580   581   582   583
584   585   586   587
588   589   590   591
592   593   594   595
596   597   598   599
600   601   602   603
604   605   606   607
608   609   610   611
612   613   614   615
616   617   618   619
620   621   622   623
624   625   626   627
628   629   630   631
632   633   634   635
636   637   638   639
640   641   642   643
644   645   646   647
648   649   650   651
652   653   654   655
656   657   658   659
660   661   662   663
664   665   666   667
668   669   670   671
672   673   674   675
676   677   678   679
680   681   682   683
684   685   686   687
688   689   690   691
692   693   694   695
696   697   698   699
700   701   702   703
704   705   706   707
708   709   710   711
712   713   714   715
716   717   718   719
720   721   722   723
724   725   726   727
728   729   730   731
732   733   734   735
736   737   738   739
740   741   742   743
744   745   746   747
748   749   750   751
752   753   754   755
756   757   758   759
760   761   762   763
764   765   766   767
768   769   770   771
772   773   774   775
776   777   778   779
780   781   782   783
784   785   786   787
788   789   790   791
792   793   794   795
796   797   798   799
800   801   802   803
804   805   806   807
808   809   810   811
812   813   814   815
816   817   818   819
820   821   822   823
824   825   826   827
828   829   830   831
832   833   834   835
836   837   838   839
840   841   842   843
844   845   846   847
848   849   850   851
852   853   854   855
856   857   858   859
860   861   862   863
864   865   866   867
868   869   870   871
872   873   874   875
876   877   878   879
880   881   882   883
884   885   886   887
888   889   890   891
892   893   894   895
896   897   898   899
900   901   902   903
904   905   906   907
908   909   910   911
912   913   914   915
916   917   918   919
920   921   922   923
924   925   926   927
928   929   930   931
932   933   934   935
936   937   938   939
940   941   942   943
944   945   946   947
948   949   950   951
952   953   954   955
956   957   958   959
960   961   962   963
964   965   966   967
968   969   970   971
972   973   974   975
976   977   978   979
980   981   982   983
984   985   986   987
988   989   990   991
992   993   994   995
996   997   998   999
1000   1001   1002   1003
1004   1005   1006   1007
1008   1009   1010   1011
1012   1013   1014   1015
1016   1017   1018   1019
1020   1021   1022   1023
1024   1025   1026   1027
1028   1029   1030   1031
1032   1033   1034   1035
1036   1037   1038   1039
1040   1041   1042   1043
1044   1045   1046   1047
1048   1049   1050   1051
1052   1053   1054   1055
1056   1057   1058   1059
1060   1061   1062   1063
1064   1065   1066   1067
1068   1069   1070   1071
1072   1073   1074   1075
1076   1077   1078   1079
1080   1081   1082   1083
1084   1085   1086   1087
1088   1089   1090   1091
1092   1093   1094   1095
1096   1097   1098   1099
1100   1101   1102   1103
1104   1105   1106   1107
1108   1109   1110   1111
1112   1113   1114   1115
1116   1117   1118   1119
1120   1121   1122   1123
1124   1125   1126   1127
1128   1129   1130   1131
1132   1133   1134   1135
1136   1137   1138   1139
1140   1141   1142   1143
1144   1145   1146   1147
1148   1149   1150   1151
1152   1153   1154   1155
1156   1157   1158   1159
1160   1161   1162   1163
1164   1165   1166   1167
1168   1169   1170   1171
1172   1173   1174   1175
1176   1177   1178   1179
1180   1181   1182   1183
1184   1185   1186   1187
1188   1189   1190   1191
1192   1193   1194   1195
1196   1197   1198   1199
1200   1201   1202   1203
1204   1205   1206   1207
1208   1209   1210   1211
1212   1213   1214   1215
1216   1217   1218   1219
1220   1221   1222   1223
1224   1225   1226   1227
1228   1229   1230   1231
1232   1233   1234   1235
1236   1237   1238   1239
1240   1241   1242   1243
1244   1245   1246   1247
1248   1249   1250   1251
1252   1253   1254   1255
1256   1257   1258   1259
1260   1261   1262   1263
1264   1265   1266   1267
1268   1269   1270   1271
1272   1273   1274   1275
1276   1277   1278   1279
1280   1281   1282   1283
1284   1285   1286   1287
1288   1289   1290   1291
1292   1293   1294   1295
1296   1297   1298   1299
1300   1301   1302   1303
1304   1305   1306   1307
1308   1309   1310   1311
1312   1313   1314   1315
1316   1317   1318   1319
1320   1321   1322   1323
1324   1325   1326   1327
1328   1329   1330   1331
1332   1333   1334   1335
1336   1337   1338   1339
1340   1341   1342   1343
1344   1345   1346   1347
1348   1349   1350   1351
1352   1353   1354   1355
1356   1357   1358   1359
1360   1361   1362   1363
1364   1365   1366   1367
1368   1369   1370   1371
1372   1373   1374   1375
1376   1377   1378   1379
1380   1381   1382   1383
1384   1385   1386   1387
1388   1389   1390   1391
1392   1393   1394   1395
1396   1397   1398   1399
1400   1401   1402   1403
1404   1405   1406   1407
1408   1409   1410   1411
1412   1413   1414   1415
1416   1417   1418   1419
1420   1421   1422   1423
1424   1425   1426   1427
1428   1429   1430   1431
1432   1433   1434   1435
1436   1437   1438   1439
1440   1441   1442   1443
1444   1445   1446   1447
1448   1449   1450   1451
1452   1453   1454   1455
1456   1457   1458   1459
1460   1461   1462   1463
1464   1465   1466   1467
1468   1469   1470   1471
1472   1473   1474   1475
1476   1477   1478   1479
1480   1481   1482   1483
1484   1485   1486   1487
1488   1489   1490   1491
1492   1493   1494   1495
1496   1497   1498   1499
1500   1501   1502   1503
1504   1505   1506   1507
1508   1509   1510   1511
1512   1513   1514   1515
1516   1517   1518   1519
1520   1521   1522   1523
1524   1525   1526   1527
1528   1529   1530   1531
1532   1533   1534   1535
1536   1537   1538   1539
1540   1541   1542   1543
1544   1545   1546   1547
1548   1549   1550   1551
1552   1553   1554   1555
1556   1557   1558   1559
1560   1561   1562   1563
1564   1565   1566   1567
1568   1569   1570   1571
1572   1573   1574   1575
1576   1577   1578   1579
1580   1581   1582   1583
1584   1585   1586   1587
1588   1589   1590   1591
1592   1593   1594   1595
1596   1597   1598   1599
1600   1601   1602   1603
1604   1605   1606   1607
1608   1609   1610   1611
1612   1613   1614   1615
1616   1617   1618   1619
1620   1621   1622   1623
1624   1625   1626   1627
1628   1629   1630   1631
1632   1633   1634   1635
1636   1637   1638   1639
1640   1641   1642   1643
1644   1645   1646   1647
1648   1649   1650   1651
1652   1653   1654   1655
1656   1657   1658   1659
1660   1661   1662   1663
1664   1665   1666   1667
1668   1669   1670   1671
1672   1673   1674   1675
1676   1677   1678   1679
1680   1681   1682   1683
1684   1685   1686   1687
1688   1689   1690   1691
1692   1693   1694   1695
1696   1697   1698   1699
1700   1701   1702   1703
1704   1705   1706   1707
1708   1709   1710   1711
1712   1713   1714   1715
1716   1717   1718   1719
1720   1721   1722   1723
1724   1725   1726   1727
1728   1729   1730   1731
1732   1733   1734   1735
1736   1737   1738   1739
1740   1741   1742   1743
1744   1745   1746   1747
1748   1749   1750   1751
1752   1753   1754   1755
1756   1757   1758   1759
1760   1761   1762   1763
1764   1765   1766   1767
1768   1769   1770   1771
1772   1773   1774   1775
1776   1777   1778   1779
1780   1781   1782   1783
1784   1785   1786   1787
1788   1789   1790   1791
1792   1793   1794   1795
1796   1797   1798   1799
1800   1801   1802   1803
1804   1805   1806   1807
1808   1809   1810   1811
1812   1813   1814   1815
1816   1817   1818   1819
1820   1821   1822   1823
1824   1825   1826   1827
1828   1829   1830   1831
1832   1833   1834   1835
1836   1837   1838   1839
1840   1841   1842   1843
1844   1845   1846   1847
1848   1849   1850   1851
1852   1853   1854   1855
1856   1857   1858   1859
1860   1861   1862   1863
1864   1865   1866   1867
1868   1869   1870   1871
1872   1873   1874   1875
1876   1877   1878   1879
1880   1881   1882   1883
1884   1885   1886   1887
1888   1889   1890   1891
1892   1893   1894   1895
1896   1897   1898   1899
1900   1901   1902   1903
1904   1905   1906   1907
1908   1909   1910   1911
1912   1913   1914   1915
1916   1917   1918   1919
1920   1921   1922   1923
1924   1925   1926   1927
1928   1929   1930   1931
1932   1933   1934   1935
1936   1937   1938   1939
1940   1941   1942   1943
1944   1945   1946   1947
1948   1949   1950   1951
1952   1953   1954   1955
1956   1957   1958   1959
1960   1961   1962   1963
1964   1965   1966   1967
1968   1969   1970   1971
1972   1973   1974   1975
1976   1977   1978   1979
1980   1981   1982   1983
1984   1985   1986   1987
1988   1989   1990   1991
1992   1993   1994   1995
1996   1997   1998   1999
2000   2001   2002   2003
2004   2005   2006   2007
2008   2009   2010   2011
2012   2013   2014   2015
2016   2017   2018   2019
2020   2021   2022   2023
2024   2025   2026   2027
2028   2029   2030   2031
2032   2033   2034   2035
2036   2037   2038   2039
2040   2041   2042   2043
2044   2045   2046   2047
2048   2049   2050   2051
2052   2053   2054   2055
2056   2057   2058   2059
2060   2061   2062   2063
2064   2065   2066   2067
2068   2069   2070   2071
2072   2073   2074   2075
2076   2077   2078   2079
2080   2081   2082   2083
2084   2085   2086   2087
2088   2089   2090   2091
2092   2093   2094   2095
2096   2097   2098   2099
2100   2101   2102   2103
2104   2105   2106   2107
2108   2109   2110   2111
2112   2113   2114   2115
2116   2117   2118   2119
2120   2121   2122   2123
2124   2125   2126   2127
2128   2129   2130   2131
2132   2133   2134   2135
2136   2137   2138   2139
2140   2141   2142   2143
2144   2145   2146   2147
2148   2149   2150   2151
2152   2153   2154   2155
2156   2157   2158   2159
2160   2161   2162   2163
2164   2165   2166   2167
2168   2169   2170   2171
2172   2173   2174   2175
2176   2177   2178   2179
2180   2181   2182   2183
2184   2185   2186   2187
2188   2189   2190   2191
2192   2193   2194   2195
2196   2197   2198   2199
2200   2201   2202   2203
2204   2205   2206   2207
2208   2209   2210   2211
2212   2213   2214   2215
2216   2217   2218   2219
2220   2221   2222   2223
2224   2225   2226   2227
2228   2229   2230   2231
2232   2233   2234   2235
2236   2237   2238   2239
2240   2241   2242   2243
2244   2245   2246   2247
2248   2249   2250   2251
2252   2253   2254   2255
2256   2257   2258   2259
2260   2261   2262   2263
2264   2265   2266   2267
2268   2269   2270   2271
2272   2273   2274   2275
2276   2277   2278   2279
2280   2281   2282   2283
2284   2285   2286   2287
2288   2289   2290   2291
2292   2293   2294   2295
2296   2297   2298   2299
2300   2301   2302   2303
2304   2305   2306   2307
2308   2309   2310   2311
2312   2313   2314   2315
2316   2317   2318   2319
2320   2321   2322   2323
2324   2325   2326   2327
2328   2329   2330   2331
2332   2333   2334   2335
2336   2337   2338   2339
2340   2341   2342   2343
2344   2345   2346   2347
2348   2349   2350   2351
2352   2353   2354   2355
2356   2357   2358   2359
2360   2361   2362   2363
2364   2365   2366   2367
2368   2369   2370   2371
2372   2373   2374   2375
2376   2377   2378   2379
2380   2381   2382   2383
2384   2385   2386   2387
2388   2389   2390   2391
2392   2393   2394   2395
2396   2397   2398   2399
2400   2401   2402   2403
2404   2405   2406   2407
2408   2409   2410   2411
2412   2413   2414   2415
2416   2417   2418   2419
2420   2421   2422   2423
2424   2425   2426   2427
2428   2429   2430   2431
2432   2433   2434   2435
2436   2437   2438   2439
2440   2441   2442   2443
2444   2445   2446   2447
2448   2449   2450   2451
2452   2453   2454   2455
2456   2457   2458   2459
2460   2461   2462   2463
2464   2465   2466   2467
2468   2469   2470   2471
2472   2473   2474   2475
2476   2477   2478   2479
2480   2481   2482   2483
2484   2485   2486   2487
2488   2489   2490   2491
2492   2493   2494   2495
2496   2497   2498   2499
2500   2501   2502   2503
2504   2505   2506   2507
2508   2509   2510   2511
2512   2513   2514   2515
2516   2517   2518   2519
2520   2521   2522   2523
2524   2525   2526   2527
2528   2529   2530   2531
2532   2533   2534   2535
2536   2537   2538   2539
2540   2541   2542   2543
2544   2545   2546   2547
2548   2549   2550   2551
2552   2553   2554   2555
2556   2557   2558   2559
2560   2561   2562   2563
2564   2565   2566   2567
2568   2569   2570   2571
2572   2573   2574   2575
2576   2577   2578   2579
2580   2581   2582   2583
2584   2585   2586   2587
2588   2589   2590   2591
2592   2593   2594   2595
2596   2597   2598   2599
2600   2601   2602   2603
2604   2605   2606   2607
2608   2609   2610   2611
2612   2613   2614   2615
2616   2617   2618   2619
2620   2621   2622   2623
2624   2625   2626   2627
2628   2629   2630   2631
2632   2633   2634   2635
2636   2637   2638   2639
2640   2641   2642   2643
2644   2645   2646   2647
2648   2649   2650   2651
2652   2653   2654   2655
2656   2657   2658   2659
2660   2661   2662   2663
2664   2665   2666   2667
2668   2669   2670   2671
2672   2673   2674   2675
2676   2677   2678   2679
2680   2681   2682   2683
2684   2685   2686   2687
2688   2689   2690   2691
2692   2693   2694   2695
2696   2697   2698   2699
2700   2701   2702   2703
2704   2705   2706   2707
2708   2709   2710   2711
2712   2713   2714   2715
2716   2717   2718   2719
2720   2721   2722   2723
2724   2725   2726   2727
2728   2729   2730   2731
2732   2733   2734   2735
2736   2737   2738   2739
2740   2741   2742   2743
2744   2745   2746   2747
2748   2749   2750   2751
2752   2753   2754   2755
2756   2757   2758   2759
2760   2761   2762   2763
2764   2765   2766   2767
2768   2769   2770   2771
2772   2773   2774   2775
2776   2777   2778   2779
2780   2781   2782   2783
2784   2785   2786   2787
2788   2789   2790   2791
2792   2793   2794   2795
2796   2797   2798   2799
2800   2801   2802   2803
2804   2805   2806   2807
2808   2809   2810   2811
2812   2813   2814   2815
2816   2817   2818   2819
2820   2821   2822   2823
2824   2825   2826   2827
2828   2829   2830   2831
2832   2833   2834   2835
2836   2837   2838   2839
2840   2841   2842   2843
2844   2845   2846   2847
2848   2849   2850   2851
2852   2853   2854   2855
2856   2857   2858   2859
2860   2861   2862   2863
2864   2865   2866   2867
2868   2869   2870   2871
2872   2873   2874   2875
2876   2877   2878   2879
2880   2881   2882   2883
2884   2885   2886   2887
2888   2889   2890   2891
2892   2893   2894   2895
2896   2897   2898   2899
2900   2901   2902   2903
2904   2905   2906   2907
2908   2909   2910   2911
2912   2913   2914   2915
2916   2917   2918   2919
2920   2921   2922   2923
2924   2925   2926   2927
2928   2929   2930   2931
2932   2933   2934   2935
2936   2937   2938   2939
2940   2941   2942   2943
2944   2945   2946   2947
2948   2949   2950   2951
2952   2953   2954   2955
2956   2957   2958   2959
2960   2961   2962   2963
2964   2965   2966   2967
2968   2969   2970   2971
2972   2973   2974   2975
2976   2977   2978   2979
2980   2981   2982   2983
2984   2985   2986   2987
2988   2989   2990   2991
2992   2993   2994   2995
2996   2997   2998   2999
3000   3001   3002   3003
3004   3005   3006   3007
3008   3009   3010   3011
3012   3013   3014   3015
3016   3017   3018   3019
3020   3021   3022   3023
3024   3025   3026   3027
3028   3029   3030   3031
3032   3033   3034   3035
3036   3037   3038   3039
3040   3041   3042   3043
3044   3045   3046   3047
3048   3049   3050   3051
3052   3053   3054   3055
3056   3057   3058   3059
3060   3061   3062   3063
3064   3065   3066   3067
3068   3069   3070   3071
3072   3073   3074   3075
3076   3077   3078   3079
3080   3081   3082   3083
3084   3085   3086   3087
3088   3089   3090   3091
3092   3093   3094   3095
3096   3097   3098   3099
3100   3101   3102   3103
3104   3105   3106   3107
3108   3109   3110   3111
3112   3113   3114   3115
3116   3117   3118   3119
3120   3121   3122   3123
3124   3125   3126   3127
3128   3129   3130   3131
3132   3133   3134   3135
3136   3137   3138   3139
3140   3141   3142   3143
3144   3145   3146   3147
3148   3149   3150   3151
3152   3153   3154   3155
3156   3157   3158   3159
3160   3161   3162   3163
3164   3165   3166   3167
3168   3169   3170   3171
3172   3173   3174   3175
3176   3177   3178   3179
3180   3181   3182   3183
3184   3185   3186   3187
3188   3189   3190   3191
3192   3193   3194   3195
3196   3197   3198   3199
3200   3201   3202   3203
3204   3205   3206   3207
3208   3209   3210   3211
3212   3213   3214   3215
3216   3217   3218   3219
3220   3221   3222   3223
3224   3225   3226   3227
3228   3229   3230   3231
3232   3233   3234   3235
3236   3237   3238   3239
3240   3241   3242   3243
3244   3245   3246   3247
3248   3249   3250   3251
3252   3253   3254   3255
3256   3257   3258   3259
3260   3261   3262   3263
3264   3265   3266   3267
3268   3269   3270   3271
3272   3273   3274   3275
3276   3277   3278   3279
3280   3281   3282   3283
3284   3285   3286   3287
3288   3289   3290   3291
3292   3293   3294   3295
3296   3297   3298   3299
3300   3301   3302   3303
3304   3305   3306   3307
3308   3309   3310   3311
3312   3313   3314   3315
3316   3317   3318   3319
3320   3321   3322   3323
3324   3325   3326   3327
3328   3329   3330   3331
3332   3333   3334   3335
3336   3337   3338   3339
3340   3341   3342   3343
3344   3345   3346   3347
3348   3349   3350   3351
3352   3353   3354   3355
3356   3357   3358   3359
3360   3361   3362   3363
3364   3365   3366   3367
3368   3369   3370   3371
3372   3373   3374   3375
3376   3377   3378   3379
3380   3381   3382   3383
3384   3385   3386   3387
3388   3389   3390   3391
3392   3393   3394   3395
3396   3397   3398   3399
3400   3401   3402   3403
3404   3405   3406   3407
3408   3409   3410   3411
3412   3413   3414   3415
3416   3417   3418   3419
3420   3421   3422   3423
3424   3425   3426   3427
3428   3429   3430   3431
3432   3433   3434   3435
3436   3437   3438   3439
3440   3441   3442   3443
3444   3445   3446   3447
3448   3449   3450   3451
3452   3453   3454   3455
3456   3457   3458   3459
3460   3461   3462   3463
3464   3465   3466   3467
3468   3469   3470   3471
3472   3473   3474   3475
3476   3477   3478   3479
3480   3481   3482   3483
3484   3485   3486   3487
3488   3489   3490   3491
3492   3493   3494   3495
3496   3497   3498   3499
3500   3501   3502   3503
3504   3505   3506   3507
3508   3509   3510   3511
3512   3513   3514   3515
3516   3517   3518   3519
3520   3521   3522   3523
3524   3525   3526   3527
3528   3529   3530   3531
3532   3533   3534   3535
3536   3537   3538   3539
3540   3541   3542   3543
3544   3545   3546   3547
3548   3549   3550   3551
3552   3553   3554   3555
3556   3557   3558   3559
3560   3561   3562   3563
3564   3565   3566   3567
3568   3569   3570   3571
3572   3573   3574   3575
3576   3577   3578   3579
3580   3581   3582   3583
3584   3585   3586   3587
3588   3589   3590   3591
3592   3593   3594   3595
3596   3597   3598   3599
3600   3601   3602   3603
3604   3605   3606   3607
3608   3609   3610   3611
3612   3613   3614   3615
3616   3617   3618   3619
3620   3621   3622   3623
3624   3625   3626   3627
3628   3629   3630   3631
3632   3633   3634   3635
3636   3637   3638   3639
3640   3641   3642   3643
3644   3645   3646   3647
3648   3649   3650   3651
3652   3653   3654   3655
3656   3657   3658   3659
3660   3661   3662   3663
3664   3665   3666   3667
3668   3669   3670   3671
3672   3673   3674   3675
3676   3677   3678   3679
3680   3681   3682   3683
3684   3685   3686   3687
3688   3689   3690   3691
3692   3693   3694   3695
3696   3697   3698   3699
3700   3701   3702   3703
3704   3705   3706   3707
3708   3709   3710   3711
3712   3713   3714   3715
3716   3717   3718   3719
3720   3721   3722   3723
3724   3725   3726   3727
3728   3729   3730   3731
3732   3733   3734   3735
3736   3737   3738   3739
3740   3741   3742   3743
3744   3745   3746   3747
3748   3749   3750   3751
3752   3753   3754   3755
3756   3757   3758   3759
3760   3761   3762   3763
3764   3765   3766   3767
3768   3769   3770   3771
3772   3773   3774   3775
3776   3777   3778   3779
3780   3781   3782   3783
3784   3785   3786   3787
3788   3789   3790   3791
3792   3793   3794   3795
3796   3797   3798   3799
3800   3801   3802   3803
3804   3805   3806   3807
3808   3809   3810   3811
3812   3813   3814   3815
3816   3817   3818   3819
3820   3821   3822   3823
3824   3825   3826   3827
3828   3829   3830   3831
3832   3833   3834   3835
3836   3837   3838   3839
3840   3841   3842   3843
3844   3845   3846   3847
3848   3849   3850   3851
3852   3853   3854   3855
3856   3857   3858   3859
3860   3861   3862   3863
3864   3865   3866   3867
3868   3869   3870   3871
3872   3873   3874   3875
3876   3877   3878   3879
3880   3881   3882   3883
3884   3885   3886   3887
3888   3889   3890   3891
3892   3893   3894   3895
3896   3897   3898   3899
3900   3901   3902   3903
3904   3905   3906   3907
3908   3909   3910   3911
3912   3913   3914   3915
3916   3917   3918   3919
3920   3921   3922   3923
3924   3925   3926   3927
3928   3929   3930   3931
3932   3933   3934   3935
3936   3937   3938   3939
3940   3941   3942   3943
3944   3945   3946   3947
3948   3949   3950   3951
3952   3953   3954   3955
3956   3957   3958   3959
3960   3961   3962   3963
3964   3965   3966   3967
3968   3969   3970   3971
3972   3973   3974   3975
3976   3977   3978   3979
3980   3981   3982   3983
3984   3985   3986   3987
3988   3989   3990   3991
3992   3993   3994   3995
3996   3997   3998   3999
4000   4001   4002   4003
4004   4005   4006   4007
4008   4009   4010   4011
4012   4013   4014   4015
4016   4017   4018   4019
4020   4021   4022   4023
4024   4025   4026   4027
4028   4029   4030   4031
4032   4033   4034   4035
4036   4037   4038   4039
4040   4041   4042   4043
4044   4045   4046   4047
4048   4049   4050   4051
4052   4053   4054   4055
4056   4057   4058   4059
4060   4061   4062   4063
4064   4065   4066   4067
4068   4069   4070   4071
4072   4073   4074   4075
4076   4077   4078   4079
4080   4081   4082   4083
4084   4085   4086   4087
4088   4089   4090   4091
4092   4093   4094   4095
4096   4097   4098   4099
4100   4101   4102   4103
4104   4105   4106   4107
4108   4109   4110   4111
4112   4113   4114   4115
4116   4117   4118   4119
4120   4121   4122   4123
4124   4125   4126   4127
4128   4129   4130   4131
4132   4133   4134   4135
4136   4137   4138   4139
4140   4141   4142   4143
4144   4145   4146   4147
4148   4149   4150   4151
4152   4153   4154   4155
4156   4157   4158   4159
4160   4161   4162   4163
4164   4165   4166   4167
4168   4169   4170   4171
4172   4173   4174   4175
4176   4177   4178   4179
4180   4181   4182   4183
4184   4185   4186   4187
4188   4189   4190   4191
4192   4193   4194   4195
4196   4197   4198   4199
4200   4201   4202   4203
4204   4205   4206   4207
4208   4209   4210   4211
4212   4213   4214   4215
4216   4217   4218   4219
4220   4221   4222   4223
4224   4225   4226   4227
4228   4229   4230   4231
4232   4233   4234   4235
4236   4237   4238   4239
4240   4241   4242   4243
4244   4245   4246   4247
4248   4249   4250   4251
4252   4253   4254   4255
4256   4257   4258   4259
4260   4261   4262   4263
4264   4265   4266   4267
4268   4269   4270   4271
4272   4273   4274   4275
4276   4277   4278   4279
4280   4281   4282   4283
4284   4285   4286   4287
4288   4289   4290   4291
4292   4293   4294   4295
4296   4297   4298   4299
4300   4301   4302   4303
4304   4305   4306   4307
4308   4309   4310   4311
4312   4313   4314   4315
4316   4317   4318   4319
4320   4321   4322   4323
4324   4325   4326   4327
4328   4329   4330   4331
4332   4333   4334   4335
4336   4337   4338   4339
4340   4341   4342   4343
4344   4345   4346   4347
4348   4349   4350   4351
4352   4353   4354   4355
4356   4357   4358   4359
4360   4361   4362   4363
4364   4365   4366   4367
4368   4369   4370   4371
4372   4373   4374   4375
4376   4377   4378   4379
4380   4381   4382   4383
4384   4385   4386   4387
4388   4389   4390   4391
4392   4393   4394   4395
4396   4397   4398   4399
4400   4401   4402   4403
4404   4405   4406   4407
4408   4409   4410   4411
4412   4413   4414   4415
4416   4417   4418   4419
4420   4421   4422   4423
4424   4425   4426   4427
4428   4429   4430   4431
4432   4433   4434   4435
4436   4437   4438   4439
4440   4441   4442   4443
4444   4445   4446   4447
4448   4449   4450   4451
4452   4453   4454   4455
4456   4457   4458   4459
4460   4461   4462   4463
4464   4465   4466   4467
4468   4469   4470   4471
4472   4473   4474   4475
4476   4477   4478   4479
4480   4481   4482   4483
4484   4485   4486   4487
4488   4489   4490   4491
4492   4493   4494   4495
4496   4497   4498   4499
4500   4501   4502   4503
4504   4505   4506   4507
4508   4509   4510   4511
4512   4513   4514   4515
4516   4517   4518   4519
4520   4521   4522   4523
4524   4525   4526   4527
4528   4529   4530   4531
4532   4533   4534   4535
4536   4537   4538   4539
4540   4541   4542   4543
4544   4545   4546   4547
4548   4549   4550   4551
4552   4553   4554   4555
4556   4557   4558   4559
4560   4561   4562   4563
4564   4565   4566   4567
4568   4569   4570   4571
4572   4573   4574   4575
4576   4577   4578   4579
4580   4581   4582   4583
4584   4585   4586   4587
4588   4589   4590   4591
4592   4593   4594   4595
4596   4597   4598   4599
4600   4601   4602   4603
4604   4605   4606   4607
4608   4609   4610   4611
4612   4613   4614   4615
4616   4617   4618   4619
4620   4621   4622   4623
4624   4625   4626   4627
4628   4629   4630   4631
4632   4633   4634   4635
4636   4637   4638   4639
4640   4641   4642   4643
4644   4645   4646   4647
4648   4649   4650   4651
4652   4653   4654   4655
4656   4657   4658   4659
4660   4661   4662   4663
4664   4665   4666   4667
4668   4669   4670   4671
4672   4673   4674   4675
4676   4677   4678   4679
4680   4681   4682   4683
4684   4685   4686   4687
4688   4689   4690   4691
4692   4693   4694   4695
4696   4697   4698   4699
4700   4701   4702   4703
4704   4705   4706   4707
4708   4709   4710   4711
4712   4713   4714   4715
4716   4717   4718   4719
4720   4721   4722   4723
4724   4725   4726   4727
4728   4729   4730   4731
4732   4733   4734   4735
4736   4737   4738   4739
4740   4741   4742   4743
4744   4745   4746   4747
4748   4749   4750   4751
4752   4753   4754   4755
4756   4757   4758   4759
4760   4761   4762   4763
4764   4765   4766   4767
4768   4769   4770   4771
4772   4773   4774   4775
4776   4777   4778   4779
4780   4781   4782   4783
4784   4785   4786   4787
4788   4789   4790   4791
4792   4793   4794   4795
4796   4797   4798   4799
4800   4801   4802   4803
4804   4805   4806   4807
4808   4809   4810   4811
4812   4813   4814   4815
4816   4817   4818   4819
4820   4821   4822   4823
4824   4825   4826   4827
4828   4829   4830   4831
4832   4833   4834   4835
4836   4837   4838   4839
4840   4841   4842   4843
4844   4845   4846   4847
4848   4849   4850   4851
4852   4853   4854   4855
4856   4857   4858   4859
4860   4861   4862   4863
4864   4865   4866   4867
4868   4869   4870   4871
4872   4873   4874   4875
4876   4877   4878   4879
4880   4881   4882   4883
4884   4885   4886   4887
4888   4889   4890   4891
4892   4893   4894   4895
4896   4897   4898   4899
4900   4901   4902   4903
4904   4905   4906   4907
4908   4909   4910   4911
4912   4913   4914   4915
4916   4917   4918   4919
4920   4921   4922   4923
4924   4925   4926   4927
4928   4929   4930   4931
4932   4933   4934   4935
4936   4937   4938   4939
4940   4941   4942   4943
4944   4945   4946   4947
4948   4949   4950   4951
4952   4953   4954   4955
4956   4957   4958   4959
4960   4961   4962   4963
4964   4965   4966   4967
4968   4969   4970   4971
4972   4973   4974   4975
4976   4977   4978   4979
4980   4981   4982   4983
4984   4985   4986   4987
4988   4989   4990   4991
4992   4993   4994   4995
4996   4997   4998   4999
5000   5001   5002   5003
5004   5005   5006   5007
5008   5009   5010   5011
5012   5013   5014   5015
5016   5017   5018   5019
5020   5021   5022   5023
5024   5025   5026   5027
5028   5029   5030   5031
5032   5033   5034   5035
5036   5037   5038   5039
5040   5041   5042   5043
5044   5045   5046   5047
5048   5049   5050   5051
5052   5053   5054   5055
5056   5057   5058   5059
5060   5061   5062   5063
5064   5065   5066   5067
5068   5069   5070   5071
5072   5073   5074   5075
5076   5077   5078   5079
5080   5081   5082   5083
5084   5085   5086   5087
5088   5089   5090   5091
5092   5093   5094   5095
5096   5097   5098   5099
5100   5101   5102   5103
5104   5105   5106   5107
5108   5109   5110   5111
5112   5113   5114   5115
5116   5117   5118   5119
5120   5121   5122   5123
5124   5125   5126   5127
5128   5129   5130   5131
5132   5133   5134   5135
5136   5137   5138   5139
5140   5141   5142   5143
5144   5145   5146   5147
5148   5149   5150   5151
5152   5153   5154   5155
5156   5157   5158   5159
5160   5161   5162   5163
5164   5165   5166   5167
5168   5169   5170   5171
5172   5173   5174   5175
5176   5177   5178   5179
5180   5181   5182   5183
5184   5185   5186   5187
5188   5189   5190   5191
5192   5193   5194   5195
5196   5197   5198   5199
5200   5201   5202   5203
5204   5205   5206   5207
5208   5209   5210   5211
5212   5213   5214   5215
5216   5217   5218   5219
5220   5221   5222   5223
5224   5225   5226   5227
5228   5229   5230   5231
5232   5233   5234   5235
5236   5237   5238   5239
5240   5241   5242   5243
5244   5245   5246   5247
5248   5249   5250   5251
5252   5253   5254   5255
5256   5257   5258   5259
5260   5261   5262   5263
5264   5265   5266   5267
5268   5269   5270   5271
5272   5273   5274   5275
5276   5277   5278   5279
5280   5281   5282   5283
5284   5285   5286   5287
5288   5289   5290   5291
5292   5293   5294   5295
5296   5297   5298   5299
5300   5301   5302   5303
5304   5305   5306   5307
5308   5309   5310   5311
5312   5313   5314   5315
5316   5317   5318   5319
5320   5321   5322   5323
5324   5325   5326   5327
5328   5329   5330   5331
5332   5333   5334   5335
5336   5337   5338   5339
5340   5341   5342   5343
5344   5345   5346   5347
5348   5349   5350   5351
5352   5353   5354   5355
5356   5357   5358   5359
5360   5361   5362   5363
5364   5365   5366   5367
5368   5369   5370   5371
5372   5373   5374   5375
5376   5377   5378   5379
5380   5381   5382   5383
5384   5385   5386   5387
5388   5389   5390   5391
5392   5393   5394   5395
5396   5397   5398   5399
5400   5401   5402   5403
5404   5405   5406   5407
5408   5409   5410   5411
5412   5413   5414   5415
5416   5417   5418   5419
5420   5421   5422   5423
5424   5425   5426   5427
5428   5429   5430   5431
5432   5433   5434   5435
5436   5437   5438   5439
5440   5441   5442   5443
5444   5445   5446   5447
5448   5449   5450   5451
5452   5453   5454   5455
5456   5457   5458   5459
5460   5461   5462   5463
5464   5465   5466   5467
5468   5469   5470   5471
5472   5473   5474   5475
5476   5477   5478   5479
5480   5481   5482   5483
5484   5485   5486   5487
5488   5489   5490   5491
5492   5493   5494   5495
5496   5497   5498   5499
5500   5501   5502   5503
5504   5505   5506   5507
5508   5509   5510   5511
5512   5513   5514   5515
5516   5517   5518   5519
5520   5521   5522   5523
5524   5525   5526   5527
5528   5529   5530   5531
5532   5533   5534   5535
5536   5537   5538   5539
5540   5541   5542   5543
5544   5545   5546   5547
5548   5549   5550   5551
5552   5553   5554   5555
5556   5557   5558   5559
5560   5561   5562   5563
5564   5565   5566   5567
5568   5569   5570   5571
5572   5573   5574   5575
5576   5577   5578   5579
5580   5581   5582   5583
5584   5585   5586   5587
5588   5589   5590   5591
5592   5593   5594   5595
5596   5597   5598   5599
5600   5601   5602   5603
5604   5605   5606   5607
5608   5609   5610   5611
5612   5613   5614   5615
5616   5617   5618   5619
5620   5621   5622   5623
5624   5625   5626   5627
5628   5629   5630   5631
5632   5633   5634   5635
5636   5637   5638   5639
5640   5641   5642   5643
5644   5645   5646   5647
5648   5649   5650   5651
5652   5653   5654   5655
5656   5657   5658   5659
5660   5661   5662   5663
5664   5665   5666   5667
5668   5669   5670   5671
5672   5673   5674   5675
5676   5677   5678   5679
5680   5681   5682   5683
5684   5685   5686   5687
5688   5689   5690   5691
5692   5693   5694   5695
5696   5697   5698   5699
5700   5701   5702   5703
5704   5705   5706   5707
5708   5709   5710   5711
5712   5713   5714   5715
5716   5717   5718   5719
5720   5721   5722   5723
5724   5725   5726   5727
5728   5729   5730   5731
5732   5733   5734   5735
5736   5737   5738   5739
5740   5741   5742   5743
5744   5745   5746   5747
5748   5749   5750   5751
5752   5753   5754   5755
5756   5757   5758   5759
5760   5761   5762   5763
5764   5765   5766   5767
5768   5769   5770   5771
5772   5773   5774   5775
5776   5777   5778   5779
5780   5781   5782   5783
5784   5785   5786   5787
5788   5789   5790   5791
5792   5793   5794   5795
5796   5797   5798   5799
5800   5801   5802   5803
5804   5805   5806   5807
5808   5809   5810   5811
5812   5813   5814   5815
5816   5817   5818   5819
5820   5821   5822   5823
5824   5825   5826   5827
5828   5829   5830   5831
5832   5833   5834   5835
5836   5837   5838   5839
5840   5841   5842   5843
5844   5845   5846   5847
5848   5849   5850   5851
5852   5853   5854   5855
5856   5857   5858   5859
5860   5861   5862   5863
5864   5865   5866   5867
5868   5869   5870   5871
5872   5873   5874   5875
5876   5877   5878   5879
5880   5881   5882   5883
5884   5885   5886   5887
5888   5889   5890   5891
5892   5893   5894   5895
5896   5897   5898   5899
5900   5901   5902   5903
5904   5905   5906   5907
5908   5909   5910   5911
5912   5913   5914   5915
5916   5917   5918   5919
5920   5921   5922   5923
5924   5925   5926   5927
5928   5929   5930   5931
5932   5933   5934   5935
5936   5937   5938   5939
5940   5941   5942   5943
5944   5945   5946   5947
5948   5949   5950   5951
5952   5953   5954   5955
5956   5957   5958   5959
5960   5961   5962   5963
5964   5965   5966   5967
5968   5969   5970   5971
5972   5973   5974   5975
5976   5977   5978   5979
5980   5981   5982   5983
5984   5985   5986   5987
5988   5989   5990   5991
5992   5993   5994   5995
5996   5997   5998   5999
              </DataArray>   
              <DataArray type="Int32" Name="offsets" format="ascii">   
4
8
12
16
20
24
28
32
36
40
44
48
52
56
60
64
68
72
76
80
84
88
92
96
100
104
108
112
116
120
124
128
132
136
140
144
148
152
156
160
164
168
172
176
180
184
188
192
196
200
204
208
212
216
220
224
228
232
236
240
244
248
252
256
260
264
268
272
276
280
284
288
292
296
300
304
308
312
316
320
324
328
332
336
340
344
348
352
356
360
364
368
372
376
380
384
388
392
396
400
404
408
412
416
420
424
428
432
436
440
444
448
452
456
460
464
468
472
476
480
484
488
492
496
500
504
508
512
516
520
524
528
532
536
540
544
548
552
556
560
564
568
572
576
580
584
588
592
596
600
604
608
612
616
620
624
628
632
636
640
644
648
652
656
660
664
668
672
676
680
684
688
692
696
700
704
708
712
716
720
724
728
732
736
740
744
748
752
756
760
764
768
772
776
780
784
788
792
796
800
804
808
812
816
820
824
828
832
836
840
844
848
852
856
860
864
868
872
876
880
884
888
892
896
900
904
908
912
916
920
924
928
932
936
940
944
948
952
956
960
964
968
972
976
980
984
988
992
996
1000
1004
1008
1012
1016
1020
1024
1028
1032
1036
1040
1044
1048
1052
1056
1060
1064
1068
1072
1076
1080
1084
1088
1092
1096
1100
1104
1108
1112
1116
1120
1124
1128
1132
1136
1140
1144
1148
1152
1156
1160
1164
1168
1172
1176
1180
1184
1188
1192
1196
1200
1204
1208
1212
1216
1220
1224
1228
1232
1236
1240
1244
1248
1252
1256
1260
1264
1268
1272
1276
1280
1284
1288
1292
1296
1300
1304
1308
1312
1316
1320
1324
1328
1332
1336
1340
1344
1348
1352
1356
1360
1364
1368
1372
1376
1380
1384
1388
1392
1396
1400
1404
1408
1412
1416
1420
1424
1428
1432
1436
1440
1444
1448
1452
1456
1460
1464
1468
1472
1476
1480
1484
1488
1492
1496
1500
1504
1508
1512
1516
1520
1524
1528
1532
1536
1540
1544
1548
1552
1556
1560
1564
1568
1572
1576
1580
1584
1588
1592
1596
1600
1604
1608
1612
1616
1620
1624
1628
1632
1636
1640
1644
1648
1652
1656
1660
1664
1668
1672
1676
1680
1684
1688
1692
1696
1700
1704
1708
1712
1716
1720
1724
1728
1732
1736
1740
1744
1748
1752
1756
1760
1764
1768
1772
1776
1780
1784
1788
1792
1796
1800
1804
1808
1812
1816
1820
1824
1828
1832
1836
1840
1844
1848
1852
1856
1860
1864
1868
1872
1876
1880
1884
1888
1892
1896
1900
1904
1908
1912
1916
1920
1924
1928
1932
1936
1940
1944
1948
1952
1956
1960
1964
1968
1972
1976
1980
1984
1988
1992
1996
2000
2004
2008
2012
2016
2020
2024
2028
2032
2036
2040
2044
2048
2052
2056
2060
2064
2068
2072
2076
2080
2084
2088
2092
2096
2100
2104
2108
2112
2116
2120
2124
2128
2132
2136
2140
2144
2148
2152
2156
2160
2164
2168
2172
2176
2180
2184
2188
2192
2196
2200
2204
2208
2212
2216
2220
2224
2228
2232
2236
2240
2244
2248
2252
2256
2260
2264
2268
2272
2276
2280
2284
2288
2292
2296
2300
2304
2308
2312
2316
2320
2324
2328
2332
2336
2340
2344
2348
2352
2356
2360
2364
2368
2372
2376
2380
2384
2388
2392
2396
2400
2404
2408
2412
2416
2420
2424
2428
2432
2436
2440
2444
2448
2452
2456
2460
2464
2468
2472
2476
2480
2484
2488
2492
2496
2500
2504
2508
2512
2516
2520
2524
2528
2532
2536
2540
2544
2548
2552
2556
2560
2564
2568
2572
2576
2580
2584
2588
2592
2596
2600
2604
2608
2612
2616
2620
2624
2628
2632
2636
2640
2644
2648
2652
2656
2660
2664
2668
2672
2676
2680
2684
2688
2692
2696
2700
2704
2708
2712
2716
2720
2724
2728
2732
2736
2740
2744
2748
2752
2756
2760
2764
2768
2772
2776
2780
2784
2788
2792
2796
2800
2804
2808
2812
2816
2820
2824
2828
2832
2836
2840
2844
2848
2852
2856
2860
2864
2868
2872
2876
2880
2884
2888
2892
2896
2900
2904
2908
2912
2916
2920
2924
2928
2932
2936
2940
2944
2948
2952
2956
2960
2964
2968
2972
2976
2980
2984
2988
2992
2996
3000
3004
3008
3012
3016
3020
3024
3028
3032
3036
3040
3044
3048
3052
3056
3060
3064
3068
3072
3076
3080
3084
3088
3092
3096
3100
3104
3108
3112
3116
3120
3124
3128
3132
3136
3140
3144
3148
3152
3156
3160
3164
3168
3172
3176
3180
3184
3188
3192
3196
3200
3204
3208
3212
3216
3220
3224
3228
3232
3236
3240
3244
3248
3252
3256
3260
3264
3268
3272
3276
3280
3284
3288
3292
3296
3300
3304
3308
3312
3316
3320
3324
3328
3332
3336
3340
3344
3348
3352
3356
3360
3364
3368
3372
3376
3380
3384
3388
3392
3396
3400
3404
3408
3412
3416
3420
3424
3428
3432
3436
3440
3444
3448
3452
3456
3460
3464
3468
3472
3476
3480
3484
3488
3492
3496
3500
3504
3508
3512
3516
3520
3524
3528
3532
3536
3540
3544
3548
3552
3556
3560
3564
3568
3572
3576
3580
3584
3588
3592
3596
3600
3604
3608
3612
3616
3620
3624
3628
3632
3636
3640
3644
3648
3652
3656
3660
3664
3668
3672
3676
3680
3684
3688
3692
3696
3700
3704
3708
3712
3716
3720
3724
3728
3732
3736
3740
3744
3748
3752
3756
3760
3764
3768
3772
3776
3780
3784
3788
3792
3796
3800
3804
3808
3812
3816
3820
3824
3828
3832
3836
3840
3844
3848
3852
3856
3860
3864
3868
3872
3876
3880
3884
3888
3892
3896
3900
3904
3908
3912
3916
3920
3924
3928
3932
3936
3940
3944
3948
3952
3956
3960
3964
3968
3972
3976
3980
3984
3988
3992
3996
4000
4004
4008
4012
4016
4020
4024
4028
4032
4036
4040
4044
4048
4052
4056
4060
4064
4068
4072
4076
4080
4084
4088
4092
4096
4100
4104
4108
4112
4116
4120
4124
4128
4132
4136
4140
4144
4148
4152
4156
4160
4164
4168
4172
4176
4180
4184
4188
4192
4196
4200
4204
4208
4212
4216
4220
4224
4228
4232
4236
4240
4244
4248
4252
4256
4260
4264
4268
4272
4276
4280
4284
4288
4292
4296
4300
4304
4308
4312
4316
4320
4324
4328
4332
4336
4340
4344
4348
4352
4356
4360
4364
4368
4372
4376
4380
4384
4388
4392
4396
4400
4404
4408
4412
4416
4420
4424
4428
4432
4436
4440
4444
4448
4452
4456
4460
4464
4468
4472
4476
4480
4484
4488
4492
4496
4500
4504
4508
4512
4516
4520
4524
4528
4532
4536
4540
4544
4548
4552
4556
4560
4564
4568
4572
4576
4580
4584
4588
4592
4596
4600
4604
4608
4612
4616
4620
4624
4628
4632
4636
4640
4644
4648
4652
4656
4660
4664
4668
4672
4676
4680
4684
4688
4692
4696
4700
4704
4708
4712
4716
4720
4724
4728
4732
4736
4740
4744
4748
4752
4756
4760
4764
4768
4772
4776
4780
4784
4788
4792
4796
4800
4804
4808
4812
4816
4820
4824
4828
4832
4836
4840
4844
4848
4852
4856
4860
4864
4868
4872
4876
4880
4884
4888
4892
4896
4900
4904
4908
4912
4916
4920
4924
4928
4932
4936
4940
4944
4948
4952
4956
4960
4964
4968
4972
4976
4980
4984
4988
4992
4996
5000
5004
5008
5012
5016
5020
5024
5028
5032
5036
5040
5044
5048
5052
5056
5060
5064
5068
5072
5076
5080
5084
5088
5092
5096
5100
5104
5108
5112
5116
5120
5124
5128
5132
5136
5140
5144
5148
5152
5156
5160
5164
5168
5172
5176
5180
5184
5188
5192
5196
5200
5204
5208
5212
5216
5220
5224
5228
5232
5236
5240
5244
5248
5252
5256
5260
5264
5268
5272
5276
5280
5284
5288
5292
5296
5300
5304
5308
5312
5316
5320
5324
5328
5332
5336
5340
5344
5348
5352
5356
5360
5364
5368
5372
5376
5380
5384
5388
5392
5396
5400
5404
5408
5412
5416
5420
5424
5428
5432
5436
5440
5444
5448
5452
5456
5460
5464
5468
5472
5476
5480
5484
5488
5492
5496
5500
5504
5508
5512
5516
5520
5524
5528
5532
5536
5540
5544
5548
5552
5556
5560
5564
5568
5572
5576
5580
5584
5588
5592
5596
5600
5604
5608
5612
5616
5620
5624
5628
5632
5636
5640
5644
5648
5652
5656
5660
5664
5668
5672
5676
5680
5684
5688
5692
5696
5700
5704
5708
5712
5716
5720
5724
5728
5732
5736
5740
5744
5748
5752
5756
5760
5764
5768
5772
5776
5780
5784
5788
5792
5796
5800
5804
5808
5812
5816
5820
5824
5828
5832
5836
5840
5844
5848
5852
5856
5860
5864
5868
5872
5876
5880
5884
5888
5892
5896
5900
5904
5908
5912
5916
5920
5924
5928
5932
5936
5940
5944
5948
5952
5956
5960
5964
5968
5972
5976
5980
5984
5988
5992
5996
6000
              </DataArray>   
              <DataArray type="UInt8" Name="types" format="ascii">   
10
10
10
10
10
10
10
10
10
10
10
10
10
10
10
10
10
10
10
10
10
10
10
10
10
10
10
10
10
10
10
10
10
10
10
10
10
10
10
10
10
10
10
10
10
10
10
10
10
10
10
10
10
10
10
10
10
10
10
10
10
10
10
10
10
10
10
10
10
10
10
10
10
10
10
10
10
10
10
10
10
10
10
10
10
10
10
10
10
10
10
10
10
10
10
10
10
10
10
10
10
10
10
10
10
10
10
10
10
10
10
10
10
10
10
10
10
10
10
10
10
10
10
10
10
10
10
10
10
10
10
10
10
10
10
10
10
10
10
10
10
10
10
10
10
10
10
10
10
10
10
10
10
10
10
10
10
10
10
10
10
10
10
10
10
10
10
10
10
10
10
10
10
10
10
10
10
10
10
10
10
10
10
10
10
10
10
10
10
10
10
10
10
10
10
10
10
10
10
10
10
10
10
10
10
10
10
10
10
10
10
10
10
10
10
10
10
10
10
10
10
10
10
10
10
10
10
10
10
10
10
10
10
10
10
10
10
10
10
10
10
10
10
10
10
10
10
10
10
10
10
10
10
10
10
10
10
10
10
10
10
10
10
10
10
10
10
10
10
10
10
10
10
10
10
10
10
10
10
10
10
10
10
10
10
10
10
10
10
10
10
10
10
10
10
10
10
10
10
10
10
10
10
10
10
10
10
10
10
10
10
10
10
10
10
10
10
10
10
10
10
10
10
10
10
10
10
10
10
10
10
10
10
10
10
10
10
10
10
10
10
10
10
10
10
10
10
10
10
10
10
10
10
10
10
10
10
10
10
10
10
10
10
10
10
10
10
10
10
10
10
10
10
10
10
10
10
10
10
10
10
10
10
10
10
10
10
10
10
10
10
10
10
10
10
10
10
10
10
10
10
10
10
10
10
10
10
10
10
10
10
10
10
10
10
10
10
10
10
10
10
10
10
10
10
10
10
10
10
10
10
10
10
10
10
10
10
10
10
10
10
10
10
10
10
10
10
10
10
10
10
10
10
10
10
10
10
10
10
10
10
10
10
10
10
10
10
10
10
10
10
10
10
10
10
10
10
10
10
10
10
10
10
10
10
10
10
10
10
10
10
10
10
10
10
10
10
10
10
10
10
10
10
10
10
10
10
10
10
10
10
10
10
10
10
10
10
10
10
10
10
10
10
10
10
10
10
10
10
10
10
10
10
10
10
10
10
10
10
10
10
10
10
10
10
10
10
10
10
10
10
10
10
10
10
10
10
10
10
10
10
10
10
10
10
10
10
10
10
10
10
10
10
10
10
10
10
10
10
10
10
10
10
10
10
10
10
10
10
10
10
10
10
10
10
10
10
10
10
10
10
10
10
10
10
10
10
10
10
10
10
10
10
10
10
10
10
10
10
10
10
10
10
10
10
10
10
10
10
10
10
10
10
10
10
10
10
10
10
10
10
10
10
10
10
10
10
10
10
10
10
10
10
10
10
10
10
10
10
10
10
10
10
10
10
10
10
10
10
10
10
10
10
10
10
10
10
10
10
10
10
10
10
10
10
10
10
10
10
10
10
10
10
10
10
10
10
10
10
10
10
10
10
10
10
10
10
10
10
10
10
10
10
10
10
10
10
10
10
10
10
10
10
10
10
10
10
10
10
10
10
10
10
10
10
10
10
10
10
10
10
10
10
10
10
10
10
10
10
10
10
10
10
10
10
10
10
10
10
10
10
10
10
10
10
10
10
10
10
10
10
10
10
10
10
10
10
10
10
10
10
10
10
10
10
10
10
10
10
10
10
10
10
10
10
10
10
10
10
10
10
10
10
10
10
10
10
10
10
10
10
10
10
10
10
10
10
10
10
10
10
10
10
10
10
10
10
10
10
10
10
10
10
10
10
10
10
10
10
10
10
10
10
10
10
10
10
10
10
10
10
10
10
10
10
10
10
10
10
10
10
10
10
10
10
10
10
10
10
10
10
10
10
10
10
10
10
10
10
10
10
10
10
10
10
10
10
10
10
10
10
10
10
10
10
10
10
10
10
10
10
10
10
10
10
10
10
10
10
10
10
10
10
10
10
10
10
10
10
10
10
10
10
10
10
10
10
10
10
10
10
10
10
10
10
10
10
10
10
10
10
10
10
10
10
10
10
10
10
10
10
10
10
10
10
10
10
10
10
10
10
10
10
10
10
10
10
10
10
10
10
10
10
10
10
10
10
10
10
10
10
10
10
10
10
10
10
10
10
10
10
10
10
10
10
10
10
10
10
10
10
10
10
10
10
10
10
10
10
10
10
10
10
10
10
10
10
10
10
10
10
10
10
10
10
10
10
10
10
10
10
10
10
10
10
10
10
10
10
10
10
10
10
10
10
10
10
10
10
10
10
10
10
10
10
10
10
10
10
10
10
10
10
10
10
10
10
10
10
10
10
10
10
10
10
10
10
10
10
10
10
10
10
10
10
10
10
10
10
10
10
10
10
10
10
10
10
10
10
10
10
10
10
10
10
10
10
10
10
10
10
10
10
10
10
10
10
10
10
10
10
10
10
10
10
10
10
10
10
10
10
10
10
10
10
10
10
10
10
10
10
10
10
10
10
10
10
10
10
10
10
10
10
10
10
10
10
10
10
10
10
10
10
10
10
10
10
10
10
10
10
10
10
10
10
10
10
10
10
10
10
10
10
10
10
10
10
10
10
10
10
10
10
10
10
10
10
10
10
10
10
10
10
10
10
10
10
10
10
10
10
10
10
10
10
10
10
10
10
10
10
10
10
10
10
10
10
10
10
10
10
10
10
10
10
10
10
10
10
10
10
10
10
10
10
10
10
10
10
10
10
10
10
10
10
10
10
10
10
10
10
10
10
10
10
10
10
10
10
10
10
10
10
10
10
10
10
10
10
10
10
10
10
10
10
10
10
10
10
10
10
10
10
10
10
10
10
10
10
10
10
10
10
10
10
10
10
10
10
10
10
10
10
10
10
10
10
10
10
10
10
10
10
10
10
10
10
10
10
10
10
10
10
10
10
10
10
10
10
10
10
10
10
10
10
10
10
10
10
10
10
10
10
10
10
10
10
10
10
10
10
10
10
10
10
10
10
10
10
10
10
10
10
10
10
10
10
10
10
10
10
10
10
10
10
10
10
10
10
10
10
10
10
10
10
10
10
10
10
10
10
10
10
10
10
10
10
10
10
10
10
10
10
10
10
10
10
10
10
10
10
10
10
10
10
10
10
10
10
10
10
10
10
10
10
10
10
10
10
10
10
10
10
10
10
10
10
10
10
10
10
10
10
10
10
10
10
10
10
10
10
10
10
10
10
10
10
10
10
10
10
10
10
10
10
10
10
10
10
10
10
10
10
10
10
10
10
10
10
10
10
10
10
10
10
10
10
10
10
10
              </DataArray>   
          </Cells>  
          <PointData>  
             <DataArray type="Float64" NumberOfComponents="3" Name="Strains" format="ascii">   
-0.00012566627725337952   0.0   -8.23887298536607e-05
-0.00012566627725337952   0.0   -8.23887298536607e-05
-0.00012566627725337952   0.0   -8.23887298536607e-05
-0.00012566627725337952   0.0   -8.23887298536607e-05
-7.997242082077932e-05   1.3932860892949838e-05   2.1274140697760137e-06
-7.997242082077932e-05   1.3932860892949838e-05   2.1274140697760137e-06
-7.997242082077932e-05   1.3932860892949838e-05   2.1274140697760137e-06
-7.997242082077932e-05   1.3932860892949838e-05   2.1274140697760137e-06
-7.839695842424515e-05   0.0   -7.774734525313976e-05
-7.839695842424515e-05   0.0   -7.774734525313976e-05
-7.839695842424515e-05   0.0   -7.774734525313976e-05
-7.839695842424515e-05   0.0   -7.774734525313976e-05
-0.0001315232909270103   1.671468108232368e-05   7.677336020749895e-07
-0.0001315232909270103   1.671468108232368e-05   7.677336020749895e-07
-0.0001315232909270103   1.671468108232368e-05   7.677336020749895e-07
-0.0001315232909270103   1.671468108232368e-05   7.677336020749895e-07
-0.00010203161783881216   3.867820500434125e-06   -4.0676938529121486e-05
-0.00010203161783881216   3.867820500434125e-06   -4.0676938529121486e-05
-0.00010203161783881216   3.867820500434125e-06   -4.0676938529121486e-05
-0.00010203161783881216   3.867820500434125e-06   -4.0676938529121486e-05
-0.00013152329092701054   0.0   -8.777615390253397e-05
-0.00013152329092701054   0.0   -8.777615390253397e-05
-0.00013152329092701054   0.0   -8.777615390253397e-05
-0.00013152329092701054   0.0   -8.777615390253397e-05
-7.839695842424515e-05   1.6714681082323707e-05   1.0796542251469187e-05
-7.839695842424515e-05   1.6714681082323707e-05   1.0796542251469187e-05
-7.839695842424515e-05   1.6714681082323707e-05   1.0796542251469187e-05
-7.839695842424515e-05   1.6714681082323707e-05   1.0796542251469187e-05
-7.8624683812932e-05   0.0   -7.965211219230365e-05
-7.8624683812932e-05   0.0   -7.965211219230365e-05
-7.8624683812932e-05   0.0   -7.965211219230365e-05
-7.8624683812932e-05   0.0   -7.965211219230365e-05
-0.0001356396589035724   1.7905773259718598e-05   4.629382336266216e-06
-0.0001356396589035724   1.7905773259718598e-05   4.629382336266216e-06
-0.0001356396589035724   1.7905773259718598e-05   4.629382336266216e-06
-0.0001356396589035724   1.7905773259718598e-05   4.629382336266216e-06
-0.00010507398736997109   6.770034758525246e-06   -3.963196045235327e-05
-0.00010507398736997109   6.770034758525246e-06   -3.963196045235327e-05
-0.00010507398736997109   6.770034758525246e-06   -3.963196045235327e-05
-0.00010507398736997109   6.770034758525246e-06   -3.963196045235327e-05
-0.00013563965890357263   0.0   -9.039557614813482e-05
-0.00013563965890357263   0.0   -9.039557614813482e-05
-0.00013563965890357263   0.0   -9.039557614813482e-05
-0.00013563965890357263   0.0   -9.039557614813482e-05
-7.8624683812932e-05   1.7905773259718598e-05   1.5372846292097342e-05
-7.8624683812932e-05   1.7905773259718598e-05   1.5372846292097342e-05
-7.8624683812932e-05   1.7905773259718598e-05   1.5372846292097342e-05
-7.8624683812932e-05   1.7905773259718598e-05   1.5372846292097342e-05
-7.859083316390852e-05   0.0   -8.014051551688484e-05
-7.859083316390852e-05   0.0   -8.014051551688484e-05
-7.859083316390852e-05   0.0   -8.014051551688484e-05
-7.859083316390852e-05   0.0   -8.014051551688484e-05
-0.00014450086792641026   2.039369799918553e-05   1.7473323621107126e-05
-0.00014450086792641026   2.039369799918553e-05   1.7473323621107126e-05
-0.00014450086792641026   2.039369799918553e-05   1.7473323621107126e-05
-0.00014450086792641026   2.039369799918553e-05   1.7473323621107126e-05
-0.00010711524603374038   8.545883859374979e-06   -3.772735771612296e-05
-0.00010711524603374038   8.545883859374979e-06   -3.772735771612296e-05
-0.00010711524603374038   8.545883859374979e-06   -3.772735771612296e-05
-0.00010711524603374038   8.545883859374979e-06   -3.772735771612296e-05
-7.997242082077945e-05   0.0   -7.402901331789078e-05
-7.997242082077945e-05   0.0   -7.402901331789078e-05
-7.997242082077945e-05   0.0   -7.402901331789078e-05
-7.997242082077945e-05   0.0   -7.402901331789078e-05
-3.641220336714138e-05   5.112234174994813e-06   1.638689609836202e-06
-3.641220336714138e-05   5.112234174994813e-06   1.638689609836202e-06
-3.641220336714138e-05   5.112234174994813e-06   1.638689609836202e-06
-3.641220336714138e-05   5.112234174994813e-06   1.638689609836202e-06
-3.5027205958291046e-05   0.0   -7.33826651389925e-05
-3.5027205958291046e-05   0.0   -7.33826651389925e-05
-3.5027205958291046e-05   0.0   -7.33826651389925e-05
-3.5027205958291046e-05   0.0   -7.33826651389925e-05
-7.839695842424515e-05   7.274466856912055e-06   -5.464424476549586e-06
-7.839695842424515e-05   7.274466856912055e-06   -5.464424476549586e-06
-7.839695842424515e-05   7.274466856912055e-06   -5.464424476549586e-06
-7.839695842424515e-05   7.274466856912055e-06   -5.464424476549586e-06
-5.7499813389535155e-05   5.38623482415233e-07   -3.62514935097012e-05
-5.7499813389535155e-05   5.38623482415233e-07   -3.62514935097012e-05
-5.7499813389535155e-05   5.38623482415233e-07   -3.62514935097012e-05
-5.7499813389535155e-05   5.38623482415233e-07   -3.62514935097012e-05
-7.839695842424508e-05   0.0   -7.774734525313969e-05
-7.839695842424508e-05   0.0   -7.774734525313969e-05
-7.839695842424508e-05   0.0   -7.774734525313969e-05
-7.839695842424508e-05   0.0   -7.774734525313969e-05
-3.5027205958291046e-05   7.274466856912055e-06   -1.0997443624023343e-06
-3.5027205958291046e-05   7.274466856912055e-06   -1.0997443624023343e-06
-3.5027205958291046e-05   7.274466856912055e-06   -1.0997443624023343e-06
-3.5027205958291046e-05   7.274466856912055e-06   -1.0997443624023343e-06
-3.425205980279884e-05   0.0   -7.43051870893679e-05
-3.425205980279884e-05   0.0   -7.43051870893679e-05
-3.425205980279884e-05   0.0   -7.43051870893679e-05
-3.425205980279884e-05   0.0   -7.43051870893679e-05
-7.8624683812932e-05   8.91154183822626e-06   -5.697738842081737e-06
-7.8624683812932e-05   8.91154183822626e-06   -5.697738842081737e-06
-7.8624683812932e-05   8.91154183822626e-06   -5.697738842081737e-06
-7.8624683812932e-05   8.91154183822626e-06   -5.697738842081737e-06
-5.632450911352188e-05   2.868465136476536e-06   -3.923885065338177e-05
-5.632450911352188e-05   2.868465136476536e-06   -3.923885065338177e-05
-5.632450911352188e-05   2.868465136476536e-06   -3.923885065338177e-05
-5.632450911352188e-05   2.868465136476536e-06   -3.923885065338177e-05
-7.8624683812932e-05   0.0   -7.965211219230365e-05
-7.8624683812932e-05   0.0   -7.965211219230365e-05
-7.8624683812932e-05   0.0   -7.965211219230365e-05
-7.8624683812932e-05   0.0   -7.965211219230365e-05
-3.425205980279884e-05   8.91154183822626e-06   -3.508137391459735e-07
-3.425205980279884e-05   8.91154183822626e-06   -3.508137391459735e-07
-3.425205980279884e-05   8.91154183822626e-06   -3.508137391459735e-07
-3.425205980279884e-05   8.91154183822626e-06   -3.508137391459735e-07
-3.3547324096918515e-05   0.0   -7.391968799240835e-05
-3.3547324096918515e-05   0.0   -7.391968799240835e-05
-3.3547324096918515e-05   0.0   -7.391968799240835e-05
-3.3547324096918515e-05   0.0   -7.391968799240835e-05
-7.859083316390831e-05   1.0368045874127352e-05   -5.068000405234819e-06
-7.859083316390831e-05   1.0368045874127352e-05   -5.068000405234819e-06
-7.859083316390831e-05   1.0368045874127352e-05   -5.068000405234819e-06
-7.859083316390831e-05   1.0368045874127352e-05   -5.068000405234819e-06
-5.6086003954925246e-05   4.777020166579383e-06   -3.922143366234476e-05
-5.6086003954925246e-05   4.777020166579383e-06   -3.922143366234476e-05
-5.6086003954925246e-05   4.777020166579383e-06   -3.922143366234476e-05
-5.6086003954925246e-05   4.777020166579383e-06   -3.922143366234476e-05
-3.641220336714144e-05   0.0   -7.09616728128939e-05
-3.641220336714144e-05   0.0   -7.09616728128939e-05
-3.641220336714144e-05   0.0   -7.09616728128939e-05
-3.641220336714144e-05   0.0   -7.09616728128939e-05
4.749687099944023e-06   -6.532899665076281e-07   -2.7504960143226267e-06
4.749687099944023e-06   -6.532899665076281e-07   -2.7504960143226267e-06
4.749687099944023e-06   -6.532899665076281e-07   -2.7504960143226267e-06
4.749687099944023e-06   -6.532899665076281e-07   -2.7504960143226267e-06
5.630654315926407e-06   0.0   -7.26093074004086e-05
5.630654315926407e-06   0.0   -7.26093074004086e-05
5.630654315926407e-06   0.0   -7.26093074004086e-05
5.630654315926407e-06   0.0   -7.26093074004086e-05
-3.5027205958291046e-05   1.2889295643060954e-06   -5.6195646819633946e-06
-3.5027205958291046e-05   1.2889295643060954e-06   -5.6195646819633946e-06
-3.5027205958291046e-05   1.2889295643060954e-06   -5.6195646819633946e-06
-3.5027205958291046e-05   1.2889295643060954e-06   -5.6195646819633946e-06
-1.5390774525607482e-05   -1.3730288229291324e-06   -3.6749775370761395e-05
-1.5390774525607482e-05   -1.3730288229291324e-06   -3.6749775370761395e-05
-1.5390774525607482e-05   -1.3730288229291324e-06   -3.6749775370761395e-05
-1.5390774525607482e-05   -1.3730288229291324e-06   -3.6749775370761395e-05
-3.5027205958291046e-05   0.0   -7.33826651389925e-05
-3.5027205958291046e-05   0.0   -7.33826651389925e-05
-3.5027205958291046e-05   0.0   -7.33826651389925e-05
-3.5027205958291046e-05   0.0   -7.33826651389925e-05
5.6306543159264174e-06   1.2889295643060819e-06   -4.846206943379732e-06
5.6306543159264174e-06   1.2889295643060819e-06   -4.846206943379732e-06
5.6306543159264174e-06   1.2889295643060819e-06   -4.846206943379732e-06
5.6306543159264174e-06   1.2889295643060819e-06   -4.846206943379732e-06
6.325092892861838e-06   0.0   -7.250593813483292e-05
6.325092892861838e-06   0.0   -7.250593813483292e-05
6.325092892861838e-06   0.0   -7.250593813483292e-05
6.325092892861838e-06   0.0   -7.250593813483292e-05
-3.425205980279878e-05   2.9987482575580742e-06   -6.676599263266744e-06
-3.425205980279878e-05   2.9987482575580742e-06   -6.676599263266744e-06
-3.425205980279878e-05   2.9987482575580742e-06   -6.676599263266744e-06
-3.425205980279878e-05   2.9987482575580742e-06   -6.676599263266744e-06
-1.4351056532714598e-05   7.306058367995456e-07   -3.848405259428534e-05
-1.4351056532714598e-05   7.306058367995456e-07   -3.848405259428534e-05
-1.4351056532714598e-05   7.306058367995456e-07   -3.848405259428534e-05
-1.4351056532714598e-05   7.306058367995456e-07   -3.848405259428534e-05
-3.425205980279884e-05   0.0   -7.43051870893679e-05
-3.425205980279884e-05   0.0   -7.43051870893679e-05
-3.425205980279884e-05   0.0   -7.43051870893679e-05
-3.425205980279884e-05   0.0   -7.43051870893679e-05
6.325092892861849e-06   2.9987482575581013e-06   -4.8773503087319e-06
6.325092892861849e-06   2.9987482575581013e-06   -4.8773503087319e-06
6.325092892861849e-06   2.9987482575581013e-06   -4.8773503087319e-06
6.325092892861849e-06   2.9987482575581013e-06   -4.8773503087319e-06
7.261664879808729e-06   0.0   -7.093195895802096e-05
7.261664879808729e-06   0.0   -7.093195895802096e-05
7.261664879808729e-06   0.0   -7.093195895802096e-05
7.261664879808729e-06   0.0   -7.093195895802096e-05
-3.354732409691849e-05   4.979548390645551e-06   -5.904706364529588e-06
-3.354732409691849e-05   4.979548390645551e-06   -5.904706364529588e-06
-3.354732409691849e-05   4.979548390645551e-06   -5.904706364529588e-06
-3.354732409691849e-05   4.979548390645551e-06   -5.904706364529588e-06
-1.3495197461495025e-05   2.8110234427890146e-06   -3.802380245485475e-05
-1.3495197461495025e-05   2.8110234427890146e-06   -3.802380245485475e-05
-1.3495197461495025e-05   2.8110234427890146e-06   -3.802380245485475e-05
-1.3495197461495025e-05   2.8110234427890146e-06   -3.802380245485475e-05
4.749687099944031e-06   0.0   -7.135364679279847e-05
4.749687099944031e-06   0.0   -7.135364679279847e-05
4.749687099944031e-06   0.0   -7.135364679279847e-05
4.749687099944031e-06   0.0   -7.135364679279847e-05
4.94246539697687e-05   -5.7969721387493795e-06   -3.7355195967360975e-07
4.94246539697687e-05   -5.7969721387493795e-06   -3.7355195967360975e-07
4.94246539697687e-05   -5.7969721387493795e-06   -3.7355195967360975e-07
4.94246539697687e-05   -5.7969721387493795e-06   -3.7355195967360975e-07
4.950345281438352e-05   0.0   -7.523251895698676e-05
4.950345281438352e-05   0.0   -7.523251895698676e-05
4.950345281438352e-05   0.0   -7.523251895698676e-05
4.950345281438352e-05   0.0   -7.523251895698676e-05
5.630654315926427e-06   -4.372019260963177e-06   5.120234303529519e-07
5.630654315926427e-06   -4.372019260963177e-06   5.120234303529519e-07
5.630654315926427e-06   -4.372019260963177e-06   5.120234303529519e-07
5.630654315926427e-06   -4.372019260963177e-06   5.120234303529519e-07
2.7126569957163775e-05   -3.2323934701569137e-06   -3.599827811285968e-05
2.7126569957163775e-05   -3.2323934701569137e-06   -3.599827811285968e-05
2.7126569957163775e-05   -3.2323934701569137e-06   -3.599827811285968e-05
2.7126569957163775e-05   -3.2323934701569137e-06   -3.599827811285968e-05
5.630654315926427e-06   0.0   -7.260930740040886e-05
5.630654315926427e-06   0.0   -7.260930740040886e-05
5.630654315926427e-06   0.0   -7.260930740040886e-05
5.630654315926427e-06   0.0   -7.260930740040886e-05
4.950345281438352e-05   -4.372019260963177e-06   -2.1111881262249462e-06
4.950345281438352e-05   -4.372019260963177e-06   -2.1111881262249462e-06
4.950345281438352e-05   -4.372019260963177e-06   -2.1111881262249462e-06
4.950345281438352e-05   -4.372019260963177e-06   -2.1111881262249462e-06
4.928360612748504e-05   0.0   -7.415816189459546e-05
4.928360612748504e-05   0.0   -7.415816189459546e-05
4.928360612748504e-05   0.0   -7.415816189459546e-05
4.928360612748504e-05   0.0   -7.415816189459546e-05
6.325092892861849e-06   -2.7537062662706923e-06   -9.084160771277472e-07
6.325092892861849e-06   -2.7537062662706923e-06   -9.084160771277472e-07
6.325092892861849e-06   -2.7537062662706923e-06   -9.084160771277472e-07
6.325092892861849e-06   -2.7537062662706923e-06   -9.084160771277472e-07
2.745713022170573e-05   -1.2907120784888347e-06   -3.7006274804536634e-05
2.745713022170573e-05   -1.2907120784888347e-06   -3.7006274804536634e-05
2.745713022170573e-05   -1.2907120784888347e-06   -3.7006274804536634e-05
2.745713022170573e-05   -1.2907120784888347e-06   -3.7006274804536634e-05
6.325092892861844e-06   0.0   -7.250593813483299e-05
6.325092892861844e-06   0.0   -7.250593813483299e-05
6.325092892861844e-06   0.0   -7.250593813483299e-05
6.325092892861844e-06   0.0   -7.250593813483299e-05
4.928360612748504e-05   -2.7537062662706923e-06   -2.5606398368901653e-06
4.928360612748504e-05   -2.7537062662706923e-06   -2.5606398368901653e-06
4.928360612748504e-05   -2.7537062662706923e-06   -2.5606398368901653e-06
4.928360612748504e-05   -2.7537062662706923e-06   -2.5606398368901653e-06
5.0230557136316253e-05   0.0   -7.127910561240155e-05
5.0230557136316253e-05   0.0   -7.127910561240155e-05
5.0230557136316253e-05   0.0   -7.127910561240155e-05
5.0230557136316253e-05   0.0   -7.127910561240155e-05
7.261664879808742e-06   -5.785777573007894e-07   6.828614694914313e-07
7.261664879808742e-06   -5.785777573007894e-07   6.828614694914313e-07
7.261664879808742e-06   -5.785777573007894e-07   6.828614694914313e-07
7.261664879808742e-06   -5.785777573007894e-07   6.828614694914313e-07
2.8277825014589032e-05   1.0223604353595827e-06   -3.530463500407191e-05
2.8277825014589032e-05   1.0223604353595827e-06   -3.530463500407191e-05
2.8277825014589032e-05   1.0223604353595827e-06   -3.530463500407191e-05
2.8277825014589032e-05   1.0223604353595827e-06   -3.530463500407191e-05
4.94246539697687e-05   0.0   -7.48318300760481e-05
4.94246539697687e-05   0.0   -7.48318300760481e-05
4.94246539697687e-05   0.0   -7.48318300760481e-05
4.94246539697687e-05   0.0   -7.48318300760481e-05
0.00011153517017766095   -1.4689184772363393e-05   1.987218607368821e-05
0.00011153517017766095   -1.4689184772363393e-05   1.987218607368821e-05
0.00011153517017766095   -1.4689184772363393e-05   1.987218607368821e-05
0.00011153517017766095   -1.4689184772363393e-05   1.987218607368821e-05
0.00010473772147074882   0.0   -8.273429378856471e-05
0.00010473772147074882   0.0   -8.273429378856471e-05
0.00010473772147074882   0.0   -8.273429378856471e-05
0.00010473772147074882   0.0   -8.273429378856471e-05
4.950345281438352e-05   -1.2502958052629915e-05   1.682459547028872e-05
4.950345281438352e-05   -1.2502958052629915e-05   1.682459547028872e-05
4.950345281438352e-05   -1.2502958052629915e-05   1.682459547028872e-05
4.950345281438352e-05   -1.2502958052629915e-05   1.682459547028872e-05
7.708118772025876e-05   -6.5853864270971814e-06   -3.2688839014822946e-05
7.708118772025876e-05   -6.5853864270971814e-06   -3.2688839014822946e-05
7.708118772025876e-05   -6.5853864270971814e-06   -3.2688839014822946e-05
7.708118772025876e-05   -6.5853864270971814e-06   -3.2688839014822946e-05
4.950345281438348e-05   0.0   -7.523251895698669e-05
4.950345281438348e-05   0.0   -7.523251895698669e-05
4.950345281438348e-05   0.0   -7.523251895698669e-05
4.950345281438348e-05   0.0   -7.523251895698669e-05
0.00010473772147074846   -1.2502958052629888e-05   9.322820638710716e-06
0.00010473772147074846   -1.2502958052629888e-05   9.322820638710716e-06
0.00010473772147074846   -1.2502958052629888e-05   9.322820638710716e-06
0.00010473772147074846   -1.2502958052629888e-05   9.322820638710716e-06
0.00010159960908630205   0.0   -8.101411670468168e-05
0.00010159960908630205   0.0   -8.101411670468168e-05
0.00010159960908630205   0.0   -8.101411670468168e-05
0.00010159960908630205   0.0   -8.101411670468168e-05
4.928360612748504e-05   -1.1426591350143693e-05   1.3035176370099555e-05
4.928360612748504e-05   -1.1426591350143693e-05   1.3035176370099555e-05
4.928360612748504e-05   -1.1426591350143693e-05   1.3035176370099555e-05
4.928360612748504e-05   -1.1426591350143693e-05   1.3035176370099555e-05
7.555153095034274e-05   -4.817998123079093e-06   -3.470985427090203e-05
7.555153095034274e-05   -4.817998123079093e-06   -3.470985427090203e-05
7.555153095034274e-05   -4.817998123079093e-06   -3.470985427090203e-05
7.555153095034274e-05   -4.817998123079093e-06   -3.470985427090203e-05
4.928360612748504e-05   0.0   -7.415816189459546e-05
4.928360612748504e-05   0.0   -7.415816189459546e-05
4.928360612748504e-05   0.0   -7.415816189459546e-05
4.928360612748504e-05   0.0   -7.415816189459546e-05
0.0001015996090863017   -1.142659135014364e-05   6.179221560013293e-06
0.0001015996090863017   -1.142659135014364e-05   6.179221560013293e-06
0.0001015996090863017   -1.142659135014364e-05   6.179221560013293e-06
0.0001015996090863017   -1.142659135014364e-05   6.179221560013293e-06
9.693331556675873e-05   0.0   -7.661110353883795e-05
9.693331556675873e-05   0.0   -7.661110353883795e-05
9.693331556675873e-05   0.0   -7.661110353883795e-05
9.693331556675873e-05   0.0   -7.661110353883795e-05
5.0230557136316253e-05   -8.88666321072757e-06   6.55882510500285e-06
5.0230557136316253e-05   -8.88666321072757e-06   6.55882510500285e-06
5.0230557136316253e-05   -8.88666321072757e-06   6.55882510500285e-06
5.0230557136316253e-05   -8.88666321072757e-06   6.55882510500285e-06
7.310846084712197e-05   -2.0441180368688494e-06   -3.567654151732185e-05
7.310846084712197e-05   -2.0441180368688494e-06   -3.567654151732185e-05
7.310846084712197e-05   -2.0441180368688494e-06   -3.567654151732185e-05
7.310846084712197e-05   -2.0441180368688494e-06   -3.567654151732185e-05
-0.00010909722178394917   1.3932860892949838e-05   -7.152449729581737e-05
-0.00010909722178394917   1.3932860892949838e-05   -7.152449729581737e-05
-0.00010909722178394917   1.3932860892949838e-05   -7.152449729581737e-05
-0.00010909722178394917   1.3932860892949838e-05   -7.152449729581737e-05
-6.987013748204386e-05   1.2533449570725655e-05   -6.985670252642926e-06
-6.987013748204386e-05   1.2533449570725655e-05   -6.985670252642926e-06
-6.987013748204386e-05   1.2533449570725655e-05   -6.985670252642926e-06
-6.987013748204386e-05   1.2533449570725655e-05   -6.985670252642926e-06
-7.163193917631321e-05   1.6714681082323626e-05   -6.006364445157995e-05
-7.163193917631321e-05   1.6714681082323626e-05   -6.006364445157995e-05
-7.163193917631321e-05   1.6714681082323626e-05   -6.006364445157995e-05
-7.163193917631321e-05   1.6714681082323626e-05   -6.006364445157995e-05
-0.0001102862516382922   1.5039470044827933e-05   5.365336274215952e-06
-0.0001102862516382922   1.5039470044827933e-05   5.365336274215952e-06
-0.0001102862516382922   1.5039470044827933e-05   5.365336274215952e-06
-0.0001102862516382922   1.5039470044827933e-05   5.365336274215952e-06
-8.66483424450487e-05   1.4551598260382765e-05   -3.373845597718999e-05
-8.66483424450487e-05   1.4551598260382765e-05   -3.373845597718999e-05
-8.66483424450487e-05   1.4551598260382765e-05   -3.373845597718999e-05
-8.66483424450487e-05   1.4551598260382765e-05   -3.373845597718999e-05
-0.0001102862516382922   1.6714681082323626e-05   -5.905851782908254e-05
-0.0001102862516382922   1.6714681082323626e-05   -5.905851782908254e-05
-0.0001102862516382922   1.6714681082323626e-05   -5.905851782908254e-05
-0.0001102862516382922   1.6714681082323626e-05   -5.905851782908254e-05
-7.163193917631345e-05   1.5039470044827933e-05   4.360209651718558e-06
-7.163193917631345e-05   1.5039470044827933e-05   4.360209651718558e-06
-7.163193917631345e-05   1.5039470044827933e-05   4.360209651718558e-06
-7.163193917631345e-05   1.5039470044827933e-05   4.360209651718558e-06
-7.200509476833738e-05   1.790577325971857e-05   -5.3996700053568015e-05
-7.200509476833738e-05   1.790577325971857e-05   -5.3996700053568015e-05
-7.200509476833738e-05   1.790577325971857e-05   -5.3996700053568015e-05
-7.200509476833738e-05   1.790577325971857e-05   -5.3996700053568015e-05
-0.00011106934913519449   1.617036973591417e-05   1.2151632672142716e-05
-0.00011106934913519449   1.617036973591417e-05   1.2151632672142716e-05
-0.00011106934913519449   1.617036973591417e-05   1.2151632672142716e-05
-0.00011106934913519449   1.617036973591417e-05   1.2151632672142716e-05
-8.920135190937733e-05   1.6127516167456653e-05   -2.426931722981099e-05
-8.920135190937733e-05   1.6127516167456653e-05   -2.426931722981099e-05
-8.920135190937733e-05   1.6127516167456653e-05   -2.426931722981099e-05
-8.920135190937733e-05   1.6127516167456653e-05   -2.426931722981099e-05
-0.0001110693491351943   1.790577325971857e-05   -5.295545793928539e-05
-0.0001110693491351943   1.790577325971857e-05   -5.295545793928539e-05
-0.0001110693491351943   1.790577325971857e-05   -5.295545793928539e-05
-0.0001110693491351943   1.790577325971857e-05   -5.295545793928539e-05
-7.200509476833752e-05   1.617036973591417e-05   1.1110390557860108e-05
-7.200509476833752e-05   1.617036973591417e-05   1.1110390557860108e-05
-7.200509476833752e-05   1.617036973591417e-05   1.1110390557860108e-05
-7.200509476833752e-05   1.617036973591417e-05   1.1110390557860108e-05
-7.160055847508602e-05   2.0393697999185502e-05   -3.988514808382843e-05
-7.160055847508602e-05   2.0393697999185502e-05   -3.988514808382843e-05
-7.160055847508602e-05   2.0393697999185502e-05   -3.988514808382843e-05
-7.160055847508602e-05   2.0393697999185502e-05   -3.988514808382843e-05
-0.00010799953986924903   1.7067740274780716e-05   2.277539554108583e-05
-0.00010799953986924903   1.7067740274780716e-05   2.277539554108583e-05
-0.00010799953986924903   1.7067740274780716e-05   2.277539554108583e-05
-0.00010799953986924903   1.7067740274780716e-05   2.277539554108583e-05
-8.688742396920963e-05   1.7687410964747647e-05   -1.278326670629327e-05
-8.688742396920963e-05   1.7687410964747647e-05   -1.278326670629327e-05
-8.688742396920963e-05   1.7687410964747647e-05   -1.278326670629327e-05
-8.688742396920963e-05   1.7687410964747647e-05   -1.278326670629327e-05
-6.987013748204386e-05   5.112234174994799e-06   -7.592020905408863e-05
-6.987013748204386e-05   5.112234174994799e-06   -7.592020905408863e-05
-6.987013748204386e-05   5.112234174994799e-06   -7.592020905408863e-05
-6.987013748204386e-05   5.112234174994799e-06   -7.592020905408863e-05
-3.3098183929776805e-05   5.831885783778553e-06   -1.4201828835039848e-05
-3.3098183929776805e-05   5.831885783778553e-06   -1.4201828835039848e-05
-3.3098183929776805e-05   5.831885783778553e-06   -1.4201828835039848e-05
-3.3098183929776805e-05   5.831885783778553e-06   -1.4201828835039848e-05
-3.389305255940715e-05   7.274466856912082e-06   -7.580744101415965e-05
-3.389305255940715e-05   7.274466856912082e-06   -7.580744101415965e-05
-3.389305255940715e-05   7.274466856912082e-06   -7.580744101415965e-05
-3.389305255940715e-05   7.274466856912082e-06   -7.580744101415965e-05
-7.163193917631321e-05   8.136417132643806e-06   -1.3426466818088447e-05
-7.163193917631321e-05   8.136417132643806e-06   -1.3426466818088447e-05
-7.163193917631321e-05   8.136417132643806e-06   -1.3426466818088447e-05
-7.163193917631321e-05   8.136417132643806e-06   -1.3426466818088447e-05
-5.197682751456755e-05   6.551858587677421e-06   -4.5234251127351804e-05
-5.197682751456755e-05   6.551858587677421e-06   -4.5234251127351804e-05
-5.197682751456755e-05   6.551858587677421e-06   -4.5234251127351804e-05
-5.197682751456755e-05   6.551858587677421e-06   -4.5234251127351804e-05
-7.163193917631314e-05   7.274466856912082e-06   -7.632461117959859e-05
-7.163193917631314e-05   7.274466856912082e-06   -7.632461117959859e-05
-7.163193917631314e-05   7.274466856912082e-06   -7.632461117959859e-05
-7.163193917631314e-05   7.274466856912082e-06   -7.632461117959859e-05
-3.3893052559407214e-05   8.13641713264386e-06   -1.2909296652649393e-05
-3.3893052559407214e-05   8.13641713264386e-06   -1.2909296652649393e-05
-3.3893052559407214e-05   8.13641713264386e-06   -1.2909296652649393e-05
-3.3893052559407214e-05   8.13641713264386e-06   -1.2909296652649393e-05
-3.414632625228388e-05   8.911541838226207e-06   -7.438810427028565e-05
-3.414632625228388e-05   8.911541838226207e-06   -7.438810427028565e-05
-3.414632625228388e-05   8.911541838226207e-06   -7.438810427028565e-05
-3.414632625228388e-05   8.911541838226207e-06   -7.438810427028565e-05
-7.200509476833738e-05   1.0043510033995234e-05   -1.1969337660991256e-05
-7.200509476833738e-05   1.0043510033995234e-05   -1.1969337660991256e-05
-7.200509476833738e-05   1.0043510033995234e-05   -1.1969337660991256e-05
-7.200509476833738e-05   1.0043510033995234e-05   -1.1969337660991256e-05
-5.2387696942209075e-05   8.313882960637032e-06   -4.362722446052332e-05
-5.2387696942209075e-05   8.313882960637032e-06   -4.362722446052332e-05
-5.2387696942209075e-05   8.313882960637032e-06   -4.362722446052332e-05
-5.2387696942209075e-05   8.313882960637032e-06   -4.362722446052332e-05
-7.200509476833738e-05   8.911541838226207e-06   -7.506728518774708e-05
-7.200509476833738e-05   8.911541838226207e-06   -7.506728518774708e-05
-7.200509476833738e-05   8.911541838226207e-06   -7.506728518774708e-05
-7.200509476833738e-05   8.911541838226207e-06   -7.506728518774708e-05
-3.414632625228399e-05   1.0043510033995288e-05   -1.1290156743529935e-05
-3.414632625228399e-05   1.0043510033995288e-05   -1.1290156743529935e-05
-3.414632625228399e-05   1.0043510033995288e-05   -1.1290156743529935e-05
-3.414632625228399e-05   1.0043510033995288e-05   -1.1290156743529935e-05
-3.406781199597789e-05   1.0368045874127352e-05   -7.362646507508505e-05
-3.406781199597789e-05   1.0368045874127352e-05   -7.362646507508505e-05
-3.406781199597789e-05   1.0368045874127352e-05   -7.362646507508505e-05
-3.406781199597789e-05   1.0368045874127352e-05   -7.362646507508505e-05
-7.160055847508595e-05   1.2095088931788256e-05   -1.21081134445015e-05
-7.160055847508595e-05   1.2095088931788256e-05   -1.21081134445015e-05
-7.160055847508595e-05   1.2095088931788256e-05   -1.21081134445015e-05
-7.160055847508595e-05   1.2095088931788256e-05   -1.21081134445015e-05
-5.2701010853729295e-05   9.908692482205029e-06   -4.229552161034628e-05
-5.2701010853729295e-05   9.908692482205029e-06   -4.229552161034628e-05
-5.2701010853729295e-05   9.908692482205029e-06   -4.229552161034628e-05
-5.2701010853729295e-05   9.908692482205029e-06   -4.229552161034628e-05
-3.3098183929776744e-05   -6.532899665076281e-07   -7.948562973307262e-05
-3.3098183929776744e-05   -6.532899665076281e-07   -7.948562973307262e-05
-3.3098183929776744e-05   -6.532899665076281e-07   -7.948562973307262e-05
-3.3098183929776744e-05   -6.532899665076281e-07   -7.948562973307262e-05
3.210617948258597e-06   -1.7268159866346694e-07   -1.8682594915640522e-05
3.210617948258597e-06   -1.7268159866346694e-07   -1.8682594915640522e-05
3.210617948258597e-06   -1.7268159866346694e-07   -1.8682594915640522e-05
3.210617948258597e-06   -1.7268159866346694e-07   -1.8682594915640522e-05
3.0566645665064354e-06   1.2889295643060819e-06   -7.993037206618526e-05
3.0566645665064354e-06   1.2889295643060819e-06   -7.993037206618526e-05
3.0566645665064354e-06   1.2889295643060819e-06   -7.993037206618526e-05
3.0566645665064354e-06   1.2889295643060819e-06   -7.993037206618526e-05
-3.389305255940715e-05   1.950411676865415e-06   -1.8744399457197906e-05
-3.389305255940715e-05   1.950411676865415e-06   -1.8744399457197906e-05
-3.389305255940715e-05   1.950411676865415e-06   -1.8744399457197906e-05
-3.389305255940715e-05   1.950411676865415e-06   -1.8744399457197906e-05
-1.5272774778069157e-05   6.472431225109428e-07   -4.899629462681543e-05
-1.5272774778069157e-05   6.472431225109428e-07   -4.899629462681543e-05
-1.5272774778069157e-05   6.472431225109428e-07   -4.899629462681543e-05
-1.5272774778069157e-05   6.472431225109428e-07   -4.899629462681543e-05
-3.389305255940715e-05   1.2889295643060683e-06   -8.032726133372073e-05
-3.389305255940715e-05   1.2889295643060683e-06   -8.032726133372073e-05
-3.389305255940715e-05   1.2889295643060683e-06   -8.032726133372073e-05
-3.389305255940715e-05   1.2889295643060683e-06   -8.032726133372073e-05
3.0566645665064354e-06   1.950411676865415e-06   -1.8347510189662374e-05
3.0566645665064354e-06   1.950411676865415e-06   -1.8347510189662374e-05
3.0566645665064354e-06   1.950411676865415e-06   -1.8347510189662374e-05
3.0566645665064354e-06   1.950411676865415e-06   -1.8347510189662374e-05
2.8483639980742973e-06   2.9987482575581013e-06   -8.009832271451192e-05
2.8483639980742973e-06   2.9987482575581013e-06   -8.009832271451192e-05
2.8483639980742973e-06   2.9987482575581013e-06   -8.009832271451192e-05
2.8483639980742973e-06   2.9987482575581013e-06   -8.009832271451192e-05
-3.414632625228388e-05   4.0246933907156e-06   -1.905607271047622e-05
-3.414632625228388e-05   4.0246933907156e-06   -1.905607271047622e-05
-3.414632625228388e-05   4.0246933907156e-06   -1.905607271047622e-05
-3.414632625228388e-05   4.0246933907156e-06   -1.905607271047622e-05
-1.5562698069944817e-05   2.446714952712806e-06   -4.908199928490613e-05
-1.5562698069944817e-05   2.446714952712806e-06   -4.908199928490613e-05
-1.5562698069944817e-05   2.446714952712806e-06   -4.908199928490613e-05
-1.5562698069944817e-05   2.446714952712806e-06   -4.908199928490613e-05
-3.414632625228388e-05   2.9987482575581013e-06   -8.071388979440645e-05
-3.414632625228388e-05   2.9987482575581013e-06   -8.071388979440645e-05
-3.414632625228388e-05   2.9987482575581013e-06   -8.071388979440645e-05
-3.414632625228388e-05   2.9987482575581013e-06   -8.071388979440645e-05
2.8483639980743015e-06   4.0246933907156e-06   -1.8440505630581722e-05
2.8483639980743015e-06   4.0246933907156e-06   -1.8440505630581722e-05
2.8483639980743015e-06   4.0246933907156e-06   -1.8440505630581722e-05
2.8483639980743015e-06   4.0246933907156e-06   -1.8440505630581722e-05
2.4340581649730744e-06   4.979548390645537e-06   -7.996009385377015e-05
2.4340581649730744e-06   4.979548390645537e-06   -7.996009385377015e-05
2.4340581649730744e-06   4.979548390645537e-06   -7.996009385377015e-05
2.4340581649730744e-06   4.979548390645537e-06   -7.996009385377015e-05
-3.4067811995977934e-05   6.1860562324557965e-06   -1.984754829060468e-05
-3.4067811995977934e-05   6.1860562324557965e-06   -1.984754829060468e-05
-3.4067811995977934e-05   6.1860562324557965e-06   -1.984754829060468e-05
-3.4067811995977934e-05   6.1860562324557965e-06   -1.984754829060468e-05
-1.5740215903122103e-05   4.295316773150705e-06   -4.92590981031146e-05
-1.5740215903122103e-05   4.295316773150705e-06   -4.92590981031146e-05
-1.5740215903122103e-05   4.295316773150705e-06   -4.92590981031146e-05
-1.5740215903122103e-05   4.295316773150705e-06   -4.92590981031146e-05
3.210617948258597e-06   -5.796972138749366e-06   -7.334213737446748e-05
3.210617948258597e-06   -5.796972138749366e-06   -7.334213737446748e-05
3.210617948258597e-06   -5.796972138749366e-06   -7.334213737446748e-05
3.210617948258597e-06   -5.796972138749366e-06   -7.334213737446748e-05
4.06275898356242e-05   -5.960198253493866e-06   -1.10784532310381e-05
4.06275898356242e-05   -5.960198253493866e-06   -1.10784532310381e-05
4.06275898356242e-05   -5.960198253493866e-06   -1.10784532310381e-05
4.06275898356242e-05   -5.960198253493866e-06   -1.10784532310381e-05
4.095509941151343e-05   -4.3720192609631635e-06   -7.436803134483228e-05
4.095509941151343e-05   -4.3720192609631635e-06   -7.436803134483228e-05
4.095509941151343e-05   -4.3720192609631635e-06   -7.436803134483228e-05
4.095509941151343e-05   -4.3720192609631635e-06   -7.436803134483228e-05
3.0566645665064354e-06   -4.031835348263153e-06   -1.1408083617440537e-05
3.0566645665064354e-06   -4.031835348263153e-06   -1.1408083617440537e-05
3.0566645665064354e-06   -4.031835348263153e-06   -1.1408083617440537e-05
3.0566645665064354e-06   -4.031835348263153e-06   -1.1408083617440537e-05
2.1681774494202263e-05   -4.825284603816665e-06   -4.197386394360159e-05
2.1681774494202263e-05   -4.825284603816665e-06   -4.197386394360159e-05
2.1681774494202263e-05   -4.825284603816665e-06   -4.197386394360159e-05
2.1681774494202263e-05   -4.825284603816665e-06   -4.197386394360159e-05
3.0566645665064303e-06   -4.37201926096315e-06   -7.457214169245247e-05
3.0566645665064303e-06   -4.37201926096315e-06   -7.457214169245247e-05
3.0566645665064303e-06   -4.37201926096315e-06   -7.457214169245247e-05
3.0566645665064303e-06   -4.37201926096315e-06   -7.457214169245247e-05
4.09550994115135e-05   -4.031835348263153e-06   -1.1203973269820471e-05
4.09550994115135e-05   -4.031835348263153e-06   -1.1203973269820471e-05
4.09550994115135e-05   -4.031835348263153e-06   -1.1203973269820471e-05
4.09550994115135e-05   -4.031835348263153e-06   -1.1203973269820471e-05
4.0746854601697906e-05   -2.7537062662706788e-06   -7.57626558372129e-05
4.0746854601697906e-05   -2.7537062662706788e-06   -7.57626558372129e-05
4.0746854601697906e-05   -2.7537062662706788e-06   -7.57626558372129e-05
4.0746854601697906e-05   -2.7537062662706788e-06   -7.57626558372129e-05
2.8483639980742973e-06   -2.142485190112758e-06   -1.296523747686839e-05
2.8483639980742973e-06   -2.142485190112758e-06   -1.296523747686839e-05
2.8483639980742973e-06   -2.142485190112758e-06   -1.296523747686839e-05
2.8483639980742973e-06   -2.142485190112758e-06   -1.296523747686839e-05
2.144461695218525e-05   -3.2851172400368586e-06   -4.327341317043209e-05
2.144461695218525e-05   -3.2851172400368586e-06   -4.327341317043209e-05
2.144461695218525e-05   -3.2851172400368586e-06   -4.327341317043209e-05
2.144461695218525e-05   -3.2851172400368586e-06   -4.327341317043209e-05
2.848363998074294e-06   -2.7537062662706923e-06   -7.612938848290766e-05
2.848363998074294e-06   -2.7537062662706923e-06   -7.612938848290766e-05
2.848363998074294e-06   -2.7537062662706923e-06   -7.612938848290766e-05
2.848363998074294e-06   -2.7537062662706923e-06   -7.612938848290766e-05
4.074685460169805e-05   -2.142485190112812e-06   -1.2598504831173667e-05
4.074685460169805e-05   -2.142485190112812e-06   -1.2598504831173667e-05
4.074685460169805e-05   -2.142485190112812e-06   -1.2598504831173667e-05
4.074685460169805e-05   -2.142485190112812e-06   -1.2598504831173667e-05
3.955092298349567e-05   -5.785777573007894e-07   -7.589614615662491e-05
3.955092298349567e-05   -5.785777573007894e-07   -7.589614615662491e-05
3.955092298349567e-05   -5.785777573007894e-07   -7.589614615662491e-05
3.955092298349567e-05   -5.785777573007894e-07   -7.589614615662491e-05
2.4340581649730744e-06   1.949370718848419e-07   -1.4498813689932076e-05
2.4340581649730744e-06   1.949370718848419e-07   -1.4498813689932076e-05
2.4340581649730744e-06   1.949370718848419e-07   -1.4498813689932076e-05
2.4340581649730744e-06   1.949370718848419e-07   -1.4498813689932076e-05
2.120483300172718e-05   -1.4861887147228094e-06   -4.47747629458909e-05
2.120483300172718e-05   -1.4861887147228094e-06   -4.47747629458909e-05
2.120483300172718e-05   -1.4861887147228094e-06   -4.47747629458909e-05
2.120483300172718e-05   -1.4861887147228094e-06   -4.47747629458909e-05
4.06275898356242e-05   -1.4689184772363393e-05   -4.438082414653432e-05
4.06275898356242e-05   -1.4689184772363393e-05   -4.438082414653432e-05
4.06275898356242e-05   -1.4689184772363393e-05   -4.438082414653432e-05
4.06275898356242e-05   -1.4689184772363393e-05   -4.438082414653432e-05
7.756557170714723e-05   -1.108149492519406e-05   1.934709288097219e-05
7.756557170714723e-05   -1.108149492519406e-05   1.934709288097219e-05
7.756557170714723e-05   -1.108149492519406e-05   1.934709288097219e-05
7.756557170714723e-05   -1.108149492519406e-05   1.934709288097219e-05
8.050133181254442e-05   -1.2502958052629888e-05   -5.3964442226321846e-05
8.050133181254442e-05   -1.2502958052629888e-05   -5.3964442226321846e-05
8.050133181254442e-05   -1.2502958052629888e-05   -5.3964442226321846e-05
8.050133181254442e-05   -1.2502958052629888e-05   -5.3964442226321846e-05
4.095509941151357e-05   -1.0056615515968204e-05   1.0478139586732652e-05
4.095509941151357e-05   -1.0056615515968204e-05   1.0478139586732652e-05
4.095509941151357e-05   -1.0056615515968204e-05   1.0478139586732652e-05
4.095509941151357e-05   -1.0056615515968204e-05   1.0478139586732652e-05
5.7126337048320685e-05   -1.2032075990753874e-05   -1.528864685640784e-05
5.7126337048320685e-05   -1.2032075990753874e-05   -1.528864685640784e-05
5.7126337048320685e-05   -1.2032075990753874e-05   -1.528864685640784e-05
5.7126337048320685e-05   -1.2032075990753874e-05   -1.528864685640784e-05
4.095509941151347e-05   -1.2502958052629888e-05   -5.5432247748318667e-05
4.095509941151347e-05   -1.2502958052629888e-05   -5.5432247748318667e-05
4.095509941151347e-05   -1.2502958052629888e-05   -5.5432247748318667e-05
4.095509941151347e-05   -1.2502958052629888e-05   -5.5432247748318667e-05
8.050133181254442e-05   -1.0056615515968204e-05   1.1945945108729743e-05
8.050133181254442e-05   -1.0056615515968204e-05   1.1945945108729743e-05
8.050133181254442e-05   -1.0056615515968204e-05   1.1945945108729743e-05
8.050133181254442e-05   -1.0056615515968204e-05   1.1945945108729743e-05
8.018955808054602e-05   -1.1426591350143693e-05   -5.869243293222711e-05
8.018955808054602e-05   -1.1426591350143693e-05   -5.869243293222711e-05
8.018955808054602e-05   -1.1426591350143693e-05   -5.869243293222711e-05
8.018955808054602e-05   -1.1426591350143693e-05   -5.869243293222711e-05
4.074685460169805e-05   -8.969246853483077e-06   5.570999501189729e-06
4.074685460169805e-05   -8.969246853483077e-06   5.570999501189729e-06
4.074685460169805e-05   -8.969246853483077e-06   5.570999501189729e-06
4.074685460169805e-05   -8.969246853483077e-06   5.570999501189729e-06
5.911319589725558e-05   -1.0628448885826453e-05   -2.404404810533344e-05
5.911319589725558e-05   -1.0628448885826453e-05   -2.404404810533344e-05
5.911319589725558e-05   -1.0628448885826453e-05   -2.404404810533344e-05
5.911319589725558e-05   -1.0628448885826453e-05   -2.404404810533344e-05
4.0746854601697974e-05   -1.1426591350143666e-05   -6.01668396302234e-05
4.0746854601697974e-05   -1.1426591350143666e-05   -6.01668396302234e-05
4.0746854601697974e-05   -1.1426591350143666e-05   -6.01668396302234e-05
4.0746854601697974e-05   -1.1426591350143666e-05   -6.01668396302234e-05
8.018955808054602e-05   -8.969246853483077e-06   7.045406199186061e-06
8.018955808054602e-05   -8.969246853483077e-06   7.045406199186061e-06
8.018955808054602e-05   -8.969246853483077e-06   7.045406199186061e-06
8.018955808054602e-05   -8.969246853483077e-06   7.045406199186061e-06
7.969248951604605e-05   -8.886663210727557e-06   -6.83184094203239e-05
7.969248951604605e-05   -8.886663210727557e-06   -6.83184094203239e-05
7.969248951604605e-05   -8.886663210727557e-06   -6.83184094203239e-05
7.969248951604605e-05   -8.886663210727557e-06   -6.83184094203239e-05
3.955092298349581e-05   -6.628952466711897e-06   -2.7704249791496113e-06
3.955092298349581e-05   -6.628952466711897e-06   -2.7704249791496113e-06
3.955092298349581e-05   -6.628952466711897e-06   -2.7704249791496113e-06
3.955092298349581e-05   -6.628952466711897e-06   -2.7704249791496113e-06
5.741304979468487e-05   -9.153429149443763e-06   -3.102595032149219e-05
5.741304979468487e-05   -9.153429149443763e-06   -3.102595032149219e-05
5.741304979468487e-05   -9.153429149443763e-06   -3.102595032149219e-05
5.741304979468487e-05   -9.153429149443763e-06   -3.102595032149219e-05
-8.695835534423691e-05   1.25334495707256e-05   -5.998247298663899e-05
-8.695835534423691e-05   1.25334495707256e-05   -5.998247298663899e-05
-8.695835534423691e-05   1.25334495707256e-05   -5.998247298663899e-05
-8.695835534423691e-05   1.25334495707256e-05   -5.998247298663899e-05
-5.699646035832464e-05   9.581361589025691e-06   -1.1817234132471859e-05
-5.699646035832464e-05   9.581361589025691e-06   -1.1817234132471859e-05
-5.699646035832464e-05   9.581361589025691e-06   -1.1817234132471859e-05
-5.699646035832464e-05   9.581361589025691e-06   -1.1817234132471859e-05
-5.7274560390506955e-05   1.5039470044827933e-05   -4.9801246938561646e-05
-5.7274560390506955e-05   1.5039470044827933e-05   -4.9801246938561646e-05
-5.7274560390506955e-05   1.5039470044827933e-05   -4.9801246938561646e-05
-5.7274560390506955e-05   1.5039470044827933e-05   -4.9801246938561646e-05
-8.56481920412435e-05   1.158824218265098e-05   -4.4112413669441814e-07
-8.56481920412435e-05   1.158824218265098e-05   -4.4112413669441814e-07
-8.56481920412435e-05   1.158824218265098e-05   -4.4112413669441814e-07
-8.56481920412435e-05   1.158824218265098e-05   -4.4112413669441814e-07
-6.868660575225256e-05   1.2743447861398314e-05   -2.940355802559481e-05
-6.868660575225256e-05   1.2743447861398314e-05   -2.940355802559481e-05
-6.868660575225256e-05   1.2743447861398314e-05   -2.940355802559481e-05
-6.868660575225256e-05   1.2743447861398314e-05   -2.940355802559481e-05
-8.56481920412435e-05   1.5039470044827933e-05   -4.773051022125539e-05
-8.56481920412435e-05   1.5039470044827933e-05   -4.773051022125539e-05
-8.56481920412435e-05   1.5039470044827933e-05   -4.773051022125539e-05
-8.56481920412435e-05   1.5039470044827933e-05   -4.773051022125539e-05
-5.7274560390506955e-05   1.1588242182650871e-05   -2.5118608540005143e-06
-5.7274560390506955e-05   1.1588242182650871e-05   -2.5118608540005143e-06
-5.7274560390506955e-05   1.1588242182650871e-05   -2.5118608540005143e-06
-5.7274560390506955e-05   1.1588242182650871e-05   -2.5118608540005143e-06
-5.721926017091352e-05   1.617036973591417e-05   -4.260383965416065e-05
-5.721926017091352e-05   1.617036973591417e-05   -4.260383965416065e-05
-5.721926017091352e-05   1.617036973591417e-05   -4.260383965416065e-05
-5.721926017091352e-05   1.617036973591417e-05   -4.260383965416065e-05
-8.436971053684571e-05   1.2469558473273247e-05   4.8673977133106144e-06
-8.436971053684571e-05   1.2469558473273247e-05   4.8673977133106144e-06
-8.436971053684571e-05   1.2469558473273247e-05   4.8673977133106144e-06
-8.436971053684571e-05   1.2469558473273247e-05   4.8673977133106144e-06
-6.928443385970193e-05   1.39068891230155e-05   -2.113712847177354e-05
-6.928443385970193e-05   1.39068891230155e-05   -2.113712847177354e-05
-6.928443385970193e-05   1.39068891230155e-05   -2.113712847177354e-05
-6.928443385970193e-05   1.39068891230155e-05   -2.113712847177354e-05
-8.436971053684571e-05   1.617036973591417e-05   -4.0383352896576066e-05
-8.436971053684571e-05   1.617036973591417e-05   -4.0383352896576066e-05
-8.436971053684571e-05   1.617036973591417e-05   -4.0383352896576066e-05
-8.436971053684571e-05   1.617036973591417e-05   -4.0383352896576066e-05
-5.721926017091363e-05   1.2469558473273356e-05   2.6469109557265163e-06
-5.721926017091363e-05   1.2469558473273356e-05   2.6469109557265163e-06
-5.721926017091363e-05   1.2469558473273356e-05   2.6469109557265163e-06
-5.721926017091363e-05   1.2469558473273356e-05   2.6469109557265163e-06
-5.727958485360896e-05   1.7067740274780716e-05   -3.252163017485195e-05
-5.727958485360896e-05   1.7067740274780716e-05   -3.252163017485195e-05
-5.727958485360896e-05   1.7067740274780716e-05   -3.252163017485195e-05
-5.727958485360896e-05   1.7067740274780716e-05   -3.252163017485195e-05
-8.269826528781659e-05   1.3335653644817261e-05   1.2082089193471684e-05
-8.269826528781659e-05   1.3335653644817261e-05   1.2082089193471684e-05
-8.269826528781659e-05   1.3335653644817261e-05   1.2082089193471684e-05
-8.269826528781659e-05   1.3335653644817261e-05   1.2082089193471684e-05
-6.770975434564369e-05   1.451800908016331e-05   -1.3608175638023137e-05
-6.770975434564369e-05   1.451800908016331e-05   -1.3608175638023137e-05
-6.770975434564369e-05   1.451800908016331e-05   -1.3608175638023137e-05
-6.770975434564369e-05   1.451800908016331e-05   -1.3608175638023137e-05
-5.699646035832464e-05   5.831885783778607e-06   -6.940167532332606e-05
-5.699646035832464e-05   5.831885783778607e-06   -6.940167532332606e-05
-5.699646035832464e-05   5.831885783778607e-06   -6.940167532332606e-05
-5.699646035832464e-05   5.831885783778607e-06   -6.940167532332606e-05
-2.8995364739191204e-05   4.775848544350176e-06   -2.336680496842729e-05
-2.8995364739191204e-05   4.775848544350176e-06   -2.336680496842729e-05
-2.8995364739191204e-05   4.775848544350176e-06   -2.336680496842729e-05
-2.8995364739191204e-05   4.775848544350176e-06   -2.336680496842729e-05
-2.9349718210768086e-05   8.136417132643806e-06   -6.842023284351706e-05
-2.9349718210768086e-05   8.136417132643806e-06   -6.842023284351706e-05
-2.9349718210768086e-05   8.136417132643806e-06   -6.842023284351706e-05
-2.9349718210768086e-05   8.136417132643806e-06   -6.842023284351706e-05
-5.7274560390506874e-05   6.749234740729688e-06   -2.1046519775470428e-05
-5.7274560390506874e-05   6.749234740729688e-06   -2.1046519775470428e-05
-5.7274560390506874e-05   6.749234740729688e-06   -2.1046519775470428e-05
-5.7274560390506874e-05   6.749234740729688e-06   -2.1046519775470428e-05
-4.278485524606884e-05   6.723592306725622e-06   -4.518064288913155e-05
-4.278485524606884e-05   6.723592306725622e-06   -4.518064288913155e-05
-4.278485524606884e-05   6.723592306725622e-06   -4.518064288913155e-05
-4.278485524606884e-05   6.723592306725622e-06   -4.518064288913155e-05
-5.727456039050693e-05   8.136417132643806e-06   -6.758792340836838e-05
-5.727456039050693e-05   8.136417132643806e-06   -6.758792340836838e-05
-5.727456039050693e-05   8.136417132643806e-06   -6.758792340836838e-05
-5.727456039050693e-05   8.136417132643806e-06   -6.758792340836838e-05
-2.9349718210768127e-05   6.749234740729797e-06   -2.1878829210618812e-05
-2.9349718210768127e-05   6.749234740729797e-06   -2.1878829210618812e-05
-2.9349718210768127e-05   6.749234740729797e-06   -2.1878829210618812e-05
-2.9349718210768127e-05   6.749234740729797e-06   -2.1878829210618812e-05
-2.9580262323447413e-05   1.0043510033995234e-05   -6.660853858531113e-05
-2.9580262323447413e-05   1.0043510033995234e-05   -6.660853858531113e-05
-2.9580262323447413e-05   1.0043510033995234e-05   -6.660853858531113e-05
-2.9580262323447413e-05   1.0043510033995234e-05   -6.660853858531113e-05
-5.721926017091352e-05   8.501892180163358e-06   -1.9618571460568808e-05
-5.721926017091352e-05   8.501892180163358e-06   -1.9618571460568808e-05
-5.721926017091352e-05   8.501892180163358e-06   -1.9618571460568808e-05
-5.721926017091352e-05   8.501892180163358e-06   -1.9618571460568808e-05
-4.286603463531391e-05   8.34673782013648e-06   -4.344752140388454e-05
-4.286603463531391e-05   8.34673782013648e-06   -4.344752140388454e-05
-4.286603463531391e-05   8.34673782013648e-06   -4.344752140388454e-05
-4.286603463531391e-05   8.34673782013648e-06   -4.344752140388454e-05
-5.721926017091352e-05   1.0043510033995288e-05   -6.568356787301207e-05
-5.721926017091352e-05   1.0043510033995288e-05   -6.568356787301207e-05
-5.721926017091352e-05   1.0043510033995288e-05   -6.568356787301207e-05
-5.721926017091352e-05   1.0043510033995288e-05   -6.568356787301207e-05
-2.958026232344752e-05   8.501892180163358e-06   -2.054354217286762e-05
-2.958026232344752e-05   8.501892180163358e-06   -2.054354217286762e-05
-2.958026232344752e-05   8.501892180163358e-06   -2.054354217286762e-05
-2.958026232344752e-05   8.501892180163358e-06   -2.054354217286762e-05
-2.9877773756834916e-05   1.209508893178831e-05   -6.644718598287707e-05
-2.9877773756834916e-05   1.209508893178831e-05   -6.644718598287707e-05
-2.9877773756834916e-05   1.209508893178831e-05   -6.644718598287707e-05
-2.9877773756834916e-05   1.209508893178831e-05   -6.644718598287707e-05
-5.727958485360891e-05   1.0365719836653961e-05   -1.9739879364506514e-05
-5.727958485360891e-05   1.0365719836653961e-05   -1.9739879364506514e-05
-5.727958485360891e-05   1.0365719836653961e-05   -1.9739879364506514e-05
-5.727958485360891e-05   1.0365719836653961e-05   -1.9739879364506514e-05
-4.337608545391847e-05   9.953974641461008e-06   -4.266533124687425e-05
-4.337608545391847e-05   9.953974641461008e-06   -4.266533124687425e-05
-4.337608545391847e-05   9.953974641461008e-06   -4.266533124687425e-05
-4.337608545391847e-05   9.953974641461008e-06   -4.266533124687425e-05
-2.899536473919115e-05   -1.7268159866346694e-07   -7.48044287682902e-05
-2.899536473919115e-05   -1.7268159866346694e-07   -7.48044287682902e-05
-2.899536473919115e-05   -1.7268159866346694e-07   -7.48044287682902e-05
-2.899536473919115e-05   -1.7268159866346694e-07   -7.48044287682902e-05
-1.3098513289879627e-06   2.5393065077852685e-07   -2.840593906828633e-05
-1.3098513289879627e-06   2.5393065077852685e-07   -2.840593906828633e-05
-1.3098513289879627e-06   2.5393065077852685e-07   -2.840593906828633e-05
-1.3098513289879627e-06   2.5393065077852685e-07   -2.840593906828633e-05
-1.5944487310359898e-06   1.950411676865415e-06   -7.41080080805039e-05
-1.5944487310359898e-06   1.950411676865415e-06   -7.41080080805039e-05
-1.5944487310359898e-06   1.950411676865415e-06   -7.41080080805039e-05
-1.5944487310359898e-06   1.950411676865415e-06   -7.41080080805039e-05
-2.9349718210768086e-05   2.195957622801235e-06   -2.7996553181845404e-05
-2.9349718210768086e-05   2.195957622801235e-06   -2.7996553181845404e-05
-2.9349718210768086e-05   2.195957622801235e-06   -2.7996553181845404e-05
-2.9349718210768086e-05   2.195957622801235e-06   -2.7996553181845404e-05
-1.5226464207608452e-05   1.2790974802973521e-06   -5.0985193768275826e-05
-1.5226464207608452e-05   1.2790974802973521e-06   -5.0985193768275826e-05
-1.5226464207608452e-05   1.2790974802973521e-06   -5.0985193768275826e-05
-1.5226464207608452e-05   1.2790974802973521e-06   -5.0985193768275826e-05
-2.9349718210768086e-05   1.950411676865415e-06   -7.425533564806551e-05
-2.9349718210768086e-05   1.950411676865415e-06   -7.425533564806551e-05
-2.9349718210768086e-05   1.950411676865415e-06   -7.425533564806551e-05
-2.9349718210768086e-05   1.950411676865415e-06   -7.425533564806551e-05
-1.5944487310359932e-06   2.195957622801235e-06   -2.7849225614283695e-05
-1.5944487310359932e-06   2.195957622801235e-06   -2.7849225614283695e-05
-1.5944487310359932e-06   2.195957622801235e-06   -2.7849225614283695e-05
-1.5944487310359932e-06   2.195957622801235e-06   -2.7849225614283695e-05
-1.8008542978679357e-06   4.0246933907156e-06   -7.430998222697152e-05
-1.8008542978679357e-06   4.0246933907156e-06   -7.430998222697152e-05
-1.8008542978679357e-06   4.0246933907156e-06   -7.430998222697152e-05
-1.8008542978679357e-06   4.0246933907156e-06   -7.430998222697152e-05
-2.9580262323447467e-05   4.132147266192087e-06   -2.8075441176291888e-05
-2.9580262323447467e-05   4.132147266192087e-06   -2.8075441176291888e-05
-2.9580262323447467e-05   4.132147266192087e-06   -2.8075441176291888e-05
-2.9580262323447467e-05   4.132147266192087e-06   -2.8075441176291888e-05
-1.5593153481374113e-05   2.991644904302743e-06   -5.070298782928001e-05
-1.5593153481374113e-05   2.991644904302743e-06   -5.070298782928001e-05
-1.5593153481374113e-05   2.991644904302743e-06   -5.070298782928001e-05
-1.5593153481374113e-05   2.991644904302743e-06   -5.070298782928001e-05
-2.9580262323447467e-05   4.0246933907156e-06   -7.437445455225761e-05
-2.9580262323447467e-05   4.0246933907156e-06   -7.437445455225761e-05
-2.9580262323447467e-05   4.0246933907156e-06   -7.437445455225761e-05
-2.9580262323447467e-05   4.0246933907156e-06   -7.437445455225761e-05
-1.8008542978679383e-06   4.132147266192195e-06   -2.8010968851005605e-05
-1.8008542978679383e-06   4.132147266192195e-06   -2.8010968851005605e-05
-1.8008542978679383e-06   4.132147266192195e-06   -2.8010968851005605e-05
-1.8008542978679383e-06   4.132147266192195e-06   -2.8010968851005605e-05
-2.123914645268777e-06   6.1860562324557965e-06   -7.526644006310617e-05
-2.123914645268777e-06   6.1860562324557965e-06   -7.526644006310617e-05
-2.123914645268777e-06   6.1860562324557965e-06   -7.526644006310617e-05
-2.123914645268777e-06   6.1860562324557965e-06   -7.526644006310617e-05
-2.9877773756834902e-05   6.113400566573157e-06   -2.8966414810966697e-05
-2.9877773756834902e-05   6.113400566573157e-06   -2.8966414810966697e-05
-2.9877773756834902e-05   6.113400566573157e-06   -2.8966414810966697e-05
-2.9877773756834902e-05   6.113400566573157e-06   -2.8966414810966697e-05
-1.598258038852841e-05   4.724531064129525e-06   -5.129174872334432e-05
-1.598258038852841e-05   4.724531064129525e-06   -5.129174872334432e-05
-1.598258038852841e-05   4.724531064129525e-06   -5.129174872334432e-05
-1.598258038852841e-05   4.724531064129525e-06   -5.129174872334432e-05
-1.3098513289879644e-06   -5.960198253493921e-06   -6.6846384065176e-05
-1.3098513289879644e-06   -5.960198253493921e-06   -6.6846384065176e-05
-1.3098513289879644e-06   -5.960198253493921e-06   -6.6846384065176e-05
-1.3098513289879644e-06   -5.960198253493921e-06   -6.6846384065176e-05
2.6239534405975083e-05   -3.999352865783441e-06   -1.975423394094466e-05
2.6239534405975083e-05   -3.999352865783441e-06   -1.975423394094466e-05
2.6239534405975083e-05   -3.999352865783441e-06   -1.975423394094466e-05
2.6239534405975083e-05   -3.999352865783441e-06   -1.975423394094466e-05
2.6217229226945134e-05   -4.031835348263153e-06   -6.608142721673958e-05
2.6217229226945134e-05   -4.031835348263153e-06   -6.608142721673958e-05
2.6217229226945134e-05   -4.031835348263153e-06   -6.608142721673958e-05
2.6217229226945134e-05   -4.031835348263153e-06   -6.608142721673958e-05
-1.5944487310359932e-06   -2.2199115290251394e-06   -2.0815784911647034e-05
-1.5944487310359932e-06   -2.2199115290251394e-06   -2.0815784911647034e-05
-1.5944487310359932e-06   -2.2199115290251394e-06   -2.0815784911647034e-05
-1.5944487310359932e-06   -2.2199115290251394e-06   -2.0815784911647034e-05
1.2293336242115506e-05   -3.913128574783986e-06   -4.2946162972777626e-05
1.2293336242115506e-05   -3.913128574783986e-06   -4.2946162972777626e-05
1.2293336242115506e-05   -3.913128574783986e-06   -4.2946162972777626e-05
1.2293336242115506e-05   -3.913128574783986e-06   -4.2946162972777626e-05
-1.5944487310359932e-06   -4.031835348263153e-06   -6.716858150828216e-05
-1.5944487310359932e-06   -4.031835348263153e-06   -6.716858150828216e-05
-1.5944487310359932e-06   -4.031835348263153e-06   -6.716858150828216e-05
-1.5944487310359932e-06   -4.031835348263153e-06   -6.716858150828216e-05
2.6217229226945134e-05   -2.219911529025248e-06   -1.972863062010415e-05
2.6217229226945134e-05   -2.219911529025248e-06   -1.972863062010415e-05
2.6217229226945134e-05   -2.219911529025248e-06   -1.972863062010415e-05
2.6217229226945134e-05   -2.219911529025248e-06   -1.972863062010415e-05
2.6338045644051084e-05   -2.142485190112758e-06   -6.78317089495604e-05
2.6338045644051084e-05   -2.142485190112758e-06   -6.78317089495604e-05
2.6338045644051084e-05   -2.142485190112758e-06   -6.78317089495604e-05
2.6338045644051084e-05   -2.142485190112758e-06   -6.78317089495604e-05
-1.8008542978679425e-06   -4.708099839494063e-07   -2.1936547503393582e-05
-1.8008542978679425e-06   -4.708099839494063e-07   -2.1936547503393582e-05
-1.8008542978679425e-06   -4.708099839494063e-07   -2.1936547503393582e-05
-1.8008542978679425e-06   -4.708099839494063e-07   -2.1936547503393582e-05
1.1914683703898873e-05   -2.3700032685619815e-06   -4.365626153557036e-05
1.1914683703898873e-05   -2.3700032685619815e-06   -4.365626153557036e-05
1.1914683703898873e-05   -2.3700032685619815e-06   -4.365626153557036e-05
1.1914683703898873e-05   -2.3700032685619815e-06   -4.365626153557036e-05
-1.8008542978679366e-06   -2.142485190112812e-06   -6.883471407325811e-05
-1.8008542978679366e-06   -2.142485190112812e-06   -6.883471407325811e-05
-1.8008542978679366e-06   -2.142485190112812e-06   -6.883471407325811e-05
-1.8008542978679366e-06   -2.142485190112812e-06   -6.883471407325811e-05
2.6338045644051084e-05   -4.708099839494063e-07   -2.0933542379695245e-05
2.6338045644051084e-05   -4.708099839494063e-07   -2.0933542379695245e-05
2.6338045644051084e-05   -4.708099839494063e-07   -2.0933542379695245e-05
2.6338045644051084e-05   -4.708099839494063e-07   -2.0933542379695245e-05
2.6133359526435223e-05   1.949370718848419e-07   -6.981364073872101e-05
2.6133359526435223e-05   1.949370718848419e-07   -6.981364073872101e-05
2.6133359526435223e-05   1.949370718848419e-07   -6.981364073872101e-05
2.6133359526435223e-05   1.949370718848419e-07   -6.981364073872101e-05
-2.1239146452687786e-06   1.574886119883154e-06   -2.35461532146801e-05
-2.1239146452687786e-06   1.574886119883154e-06   -2.35461532146801e-05
-2.1239146452687786e-06   1.574886119883154e-06   -2.35461532146801e-05
-2.1239146452687786e-06   1.574886119883154e-06   -2.35461532146801e-05
1.1780629232675254e-05   -7.183702203092997e-07   -4.534443920713768e-05
1.1780629232675254e-05   -7.183702203092997e-07   -4.534443920713768e-05
1.1780629232675254e-05   -7.183702203092997e-07   -4.534443920713768e-05
1.1780629232675254e-05   -7.183702203092997e-07   -4.534443920713768e-05
2.6239534405975043e-05   -1.1081494925194006e-05   -3.7408944628840866e-05
2.6239534405975043e-05   -1.1081494925194006e-05   -3.7408944628840866e-05
2.6239534405975043e-05   -1.1081494925194006e-05   -3.7408944628840866e-05
2.6239534405975043e-05   -1.1081494925194006e-05   -3.7408944628840866e-05
5.204998846413962e-05   -7.257726285489637e-06   7.902739985256074e-06
5.204998846413962e-05   -7.257726285489637e-06   7.902739985256074e-06
5.204998846413962e-05   -7.257726285489637e-06   7.902739985256074e-06
5.204998846413962e-05   -7.257726285489637e-06   7.902739985256074e-06
5.379748315347235e-05   -1.005661551596815e-05   -4.210535554709992e-05
5.379748315347235e-05   -1.005661551596815e-05   -4.210535554709992e-05
5.379748315347235e-05   -1.005661551596815e-05   -4.210535554709992e-05
5.379748315347235e-05   -1.005661551596815e-05   -4.210535554709992e-05
2.6217229226945093e-05   -6.233350827490993e-06   1.567775517359322e-06
2.6217229226945093e-05   -6.233350827490993e-06   1.567775517359322e-06
2.6217229226945093e-05   -6.233350827490993e-06   1.567775517359322e-06
2.6217229226945093e-05   -6.233350827490993e-06   1.567775517359322e-06
3.788451026871395e-05   -8.554957344103324e-06   -1.6484728975621498e-05
3.788451026871395e-05   -8.554957344103324e-06   -1.6484728975621498e-05
3.788451026871395e-05   -8.554957344103324e-06   -1.6484728975621498e-05
3.788451026871395e-05   -8.554957344103324e-06   -1.6484728975621498e-05
2.6217229226945053e-05   -1.005661551596815e-05   -4.439931436018611e-05
2.6217229226945053e-05   -1.005661551596815e-05   -4.439931436018611e-05
2.6217229226945053e-05   -1.005661551596815e-05   -4.439931436018611e-05
2.6217229226945053e-05   -1.005661551596815e-05   -4.439931436018611e-05
5.379748315347235e-05   -6.233350827490884e-06   3.861734330445812e-06
5.379748315347235e-05   -6.233350827490884e-06   3.861734330445812e-06
5.379748315347235e-05   -6.233350827490884e-06   3.861734330445812e-06
5.379748315347235e-05   -6.233350827490884e-06   3.861734330445812e-06
5.513926125833249e-05   -8.969246853483077e-06   -4.7492829529764295e-05
5.513926125833249e-05   -8.969246853483077e-06   -4.7492829529764295e-05
5.513926125833249e-05   -8.969246853483077e-06   -4.7492829529764295e-05
5.513926125833249e-05   -8.969246853483077e-06   -4.7492829529764295e-05
2.633804564405099e-05   -5.3536217077621365e-06   -1.6601785933946923e-06
2.633804564405099e-05   -5.3536217077621365e-06   -1.6601785933946923e-06
2.633804564405099e-05   -5.3536217077621365e-06   -1.6601785933946923e-06
2.633804564405099e-05   -5.3536217077621365e-06   -1.6601785933946923e-06
3.916734793277312e-05   -7.893923520858014e-06   -2.1518167986740288e-05
3.916734793277312e-05   -7.893923520858014e-06   -2.1518167986740288e-05
3.916734793277312e-05   -7.893923520858014e-06   -2.1518167986740288e-05
3.916734793277312e-05   -7.893923520858014e-06   -2.1518167986740288e-05
2.633804564405103e-05   -8.969246853483077e-06   -4.9662204617196816e-05
2.633804564405103e-05   -8.969246853483077e-06   -4.9662204617196816e-05
2.633804564405103e-05   -8.969246853483077e-06   -4.9662204617196816e-05
2.633804564405103e-05   -8.969246853483077e-06   -4.9662204617196816e-05
5.513926125833241e-05   -5.3536217077621365e-06   5.091964940382625e-07
5.513926125833241e-05   -5.3536217077621365e-06   5.091964940382625e-07
5.513926125833241e-05   -5.3536217077621365e-06   5.091964940382625e-07
5.513926125833241e-05   -5.3536217077621365e-06   5.091964940382625e-07
5.656794323754237e-05   -6.628952466711897e-06   -5.665605328155065e-05
5.656794323754237e-05   -6.628952466711897e-06   -5.665605328155065e-05
5.656794323754237e-05   -6.628952466711897e-06   -5.665605328155065e-05
5.656794323754237e-05   -6.628952466711897e-06   -5.665605328155065e-05
2.6133359526435128e-05   -3.473439726880056e-06   -7.825054740271358e-06
2.6133359526435128e-05   -3.473439726880056e-06   -7.825054740271358e-06
2.6133359526435128e-05   -3.473439726880056e-06   -7.825054740271358e-06
2.6133359526435128e-05   -3.473439726880056e-06   -7.825054740271358e-06
3.899580370346065e-05   -6.801777054458611e-06   -2.7265459305433182e-05
3.899580370346065e-05   -6.801777054458611e-06   -2.7265459305433182e-05
3.899580370346065e-05   -6.801777054458611e-06   -2.7265459305433182e-05
3.899580370346065e-05   -6.801777054458611e-06   -2.7265459305433182e-05
-6.253237589006584e-05   9.581361589025691e-06   -4.754661189744735e-05
-6.253237589006584e-05   9.581361589025691e-06   -4.754661189744735e-05
-6.253237589006584e-05   9.581361589025691e-06   -4.754661189744735e-05
-6.253237589006584e-05   9.581361589025691e-06   -4.754661189744735e-05
-4.256182901101968e-05   6.09913757354595e-06   -1.6351701508324906e-05
-4.256182901101968e-05   6.09913757354595e-06   -1.6351701508324906e-05
-4.256182901101968e-05   6.09913757354595e-06   -1.6351701508324906e-05
-4.256182901101968e-05   6.09913757354595e-06   -1.6351701508324906e-05
-4.240722225141367e-05   1.158824218265098e-05   -4.0392015885421656e-05
-4.240722225141367e-05   1.158824218265098e-05   -4.0392015885421656e-05
-4.240722225141367e-05   1.158824218265098e-05   -4.0392015885421656e-05
-4.240722225141367e-05   1.158824218265098e-05   -4.0392015885421656e-05
-6.066593085102197e-05   7.761225777417387e-06   -7.66462504293451e-06
-6.066593085102197e-05   7.761225777417387e-06   -7.66462504293451e-06
-6.066593085102197e-05   7.761225777417387e-06   -7.66462504293451e-06
-6.066593085102197e-05   7.761225777417387e-06   -7.66462504293451e-06
-4.9834078623208134e-05   9.225519541604908e-06   -2.6596288347803412e-05
-4.9834078623208134e-05   9.225519541604908e-06   -2.6596288347803412e-05
-4.9834078623208134e-05   9.225519541604908e-06   -2.6596288347803412e-05
-4.9834078623208134e-05   9.225519541604908e-06   -2.6596288347803412e-05
-6.066593085102197e-05   1.158824218265098e-05   -3.809580604228173e-05
-6.066593085102197e-05   1.158824218265098e-05   -3.809580604228173e-05
-6.066593085102197e-05   1.158824218265098e-05   -3.809580604228173e-05
-6.066593085102197e-05   1.158824218265098e-05   -3.809580604228173e-05
-4.240722225141373e-05   7.761225777417604e-06   -9.960834886074655e-06
-4.240722225141373e-05   7.761225777417604e-06   -9.960834886074655e-06
-4.240722225141373e-05   7.761225777417604e-06   -9.960834886074655e-06
-4.240722225141373e-05   7.761225777417604e-06   -9.960834886074655e-06
-4.208583223170307e-05   1.2469558473273247e-05   -3.5221390539752874e-05
-4.208583223170307e-05   1.2469558473273247e-05   -3.5221390539752874e-05
-4.208583223170307e-05   1.2469558473273247e-05   -3.5221390539752874e-05
-4.208583223170307e-05   1.2469558473273247e-05   -3.5221390539752874e-05
-5.92700398986555e-05   8.535112021692973e-06   -4.22037655721714e-06
-5.92700398986555e-05   8.535112021692973e-06   -4.22037655721714e-06
-5.92700398986555e-05   8.535112021692973e-06   -4.22037655721714e-06
-5.92700398986555e-05   8.535112021692973e-06   -4.22037655721714e-06
-4.9838179937388224e-05   1.0152853235696323e-05   -2.091078788773158e-05
-4.9838179937388224e-05   1.0152853235696323e-05   -2.091078788773158e-05
-4.9838179937388224e-05   1.0152853235696323e-05   -2.091078788773158e-05
-4.9838179937388224e-05   1.0152853235696323e-05   -2.091078788773158e-05
-5.92700398986555e-05   1.2469558473273247e-05   -3.2860722668804525e-05
-5.92700398986555e-05   1.2469558473273247e-05   -3.2860722668804525e-05
-5.92700398986555e-05   1.2469558473273247e-05   -3.2860722668804525e-05
-5.92700398986555e-05   1.2469558473273247e-05   -3.2860722668804525e-05
-4.208583223170315e-05   8.535112021692973e-06   -6.581044428165326e-06
-4.208583223170315e-05   8.535112021692973e-06   -6.581044428165326e-06
-4.208583223170315e-05   8.535112021692973e-06   -6.581044428165326e-06
-4.208583223170315e-05   8.535112021692973e-06   -6.581044428165326e-06
-4.19567392538628e-05   1.3335653644817261e-05   -2.8061950173702754e-05
-4.19567392538628e-05   1.3335653644817261e-05   -2.8061950173702754e-05
-4.19567392538628e-05   1.3335653644817261e-05   -2.8061950173702754e-05
-4.19567392538628e-05   1.3335653644817261e-05   -2.8061950173702754e-05
-5.744285009317169e-05   9.50745617563217e-06   4.515303998991853e-08
-5.744285009317169e-05   9.50745617563217e-06   4.515303998991853e-08
-5.744285009317169e-05   9.50745617563217e-06   4.515303998991853e-08
-5.744285009317169e-05   9.50745617563217e-06   4.515303998991853e-08
-4.8364381192537835e-05   1.0654337627959793e-05   -1.5773757332463085e-05
-4.8364381192537835e-05   1.0654337627959793e-05   -1.5773757332463085e-05
-4.8364381192537835e-05   1.0654337627959793e-05   -1.5773757332463085e-05
-4.8364381192537835e-05   1.0654337627959793e-05   -1.5773757332463085e-05
-4.2561829011019596e-05   4.7758485443502845e-06   -6.055189479903353e-05
-4.2561829011019596e-05   4.7758485443502845e-06   -6.055189479903353e-05
-4.2561829011019596e-05   4.7758485443502845e-06   -6.055189479903353e-05
-4.2561829011019596e-05   4.7758485443502845e-06   -6.055189479903353e-05
-2.446543121213805e-05   3.150634795015105e-06   -3.136636005049876e-05
-2.446543121213805e-05   3.150634795015105e-06   -3.136636005049876e-05
-2.446543121213805e-05   3.150634795015105e-06   -3.136636005049876e-05
-2.446543121213805e-05   3.150634795015105e-06   -3.136636005049876e-05
-2.447715863418504e-05   6.749234740729688e-06   -6.003322229084754e-05
-2.447715863418504e-05   6.749234740729688e-06   -6.003322229084754e-05
-2.447715863418504e-05   6.749234740729688e-06   -6.003322229084754e-05
-2.447715863418504e-05   6.749234740729688e-06   -6.003322229084754e-05
-4.240722225141367e-05   4.904988934136857e-06   -2.9043235444843878e-05
-4.240722225141367e-05   4.904988934136857e-06   -2.9043235444843878e-05
-4.240722225141367e-05   4.904988934136857e-06   -2.9043235444843878e-05
-4.240722225141367e-05   4.904988934136857e-06   -2.9043235444843878e-05
-3.3169386503822125e-05   5.222248402750014e-06   -4.4629984038664595e-05
-3.3169386503822125e-05   5.222248402750014e-06   -4.4629984038664595e-05
-3.3169386503822125e-05   5.222248402750014e-06   -4.4629984038664595e-05
-3.3169386503822125e-05   5.222248402750014e-06   -4.4629984038664595e-05
-4.240722225141362e-05   6.749234740729688e-06   -5.892667480689141e-05
-4.240722225141362e-05   6.749234740729688e-06   -5.892667480689141e-05
-4.240722225141362e-05   6.749234740729688e-06   -5.892667480689141e-05
-4.240722225141362e-05   6.749234740729688e-06   -5.892667480689141e-05
-2.447715863418504e-05   4.90498893413664e-06   -3.0149782928799794e-05
-2.447715863418504e-05   4.90498893413664e-06   -3.0149782928799794e-05
-2.447715863418504e-05   4.90498893413664e-06   -3.0149782928799794e-05
-2.447715863418504e-05   4.90498893413664e-06   -3.0149782928799794e-05
-2.4458803052560853e-05   8.501892180163358e-06   -5.868752206612284e-05
-2.4458803052560853e-05   8.501892180163358e-06   -5.868752206612284e-05
-2.4458803052560853e-05   8.501892180163358e-06   -5.868752206612284e-05
-2.4458803052560853e-05   8.501892180163358e-06   -5.868752206612284e-05
-4.208583223170307e-05   6.5008103300380916e-06   -2.8108490990810613e-05
-4.208583223170307e-05   6.5008103300380916e-06   -2.8108490990810613e-05
-4.208583223170307e-05   6.5008103300380916e-06   -2.8108490990810613e-05
-4.208583223170307e-05   6.5008103300380916e-06   -2.8108490990810613e-05
-3.301455809646037e-05   6.662483645734842e-06   -4.3324285205632895e-05
-3.301455809646037e-05   6.662483645734842e-06   -4.3324285205632895e-05
-3.301455809646037e-05   6.662483645734842e-06   -4.3324285205632895e-05
-3.301455809646037e-05   6.662483645734842e-06   -4.3324285205632895e-05
-4.208583223170307e-05   8.501892180163358e-06   -5.7486872956047656e-05
-4.208583223170307e-05   8.501892180163358e-06   -5.7486872956047656e-05
-4.208583223170307e-05   8.501892180163358e-06   -5.7486872956047656e-05
-4.208583223170307e-05   8.501892180163358e-06   -5.7486872956047656e-05
-2.4458803052560893e-05   6.5008103300380916e-06   -2.9309140100885713e-05
-2.4458803052560893e-05   6.5008103300380916e-06   -2.9309140100885713e-05
-2.4458803052560893e-05   6.5008103300380916e-06   -2.9309140100885713e-05
-2.4458803052560893e-05   6.5008103300380916e-06   -2.9309140100885713e-05
-2.447798823971035e-05   1.0365719836653961e-05   -5.892389069766981e-05
-2.447798823971035e-05   1.0365719836653961e-05   -5.892389069766981e-05
-2.447798823971035e-05   1.0365719836653961e-05   -5.892389069766981e-05
-2.447798823971035e-05   1.0365719836653961e-05   -5.892389069766981e-05
-4.1956739253862826e-05   8.233679930042892e-06   -2.8513415063448648e-05
-4.1956739253862826e-05   8.233679930042892e-06   -2.8513415063448648e-05
-4.1956739253862826e-05   8.233679930042892e-06   -2.8513415063448648e-05
-4.1956739253862826e-05   8.233679930042892e-06   -2.8513415063448648e-05
-3.322807210109695e-05   8.086740849807639e-06   -4.2973030203250786e-05
-3.322807210109695e-05   8.086740849807639e-06   -4.2973030203250786e-05
-3.322807210109695e-05   8.086740849807639e-06   -4.2973030203250786e-05
-3.322807210109695e-05   8.086740849807639e-06   -4.2973030203250786e-05
-2.446543121213801e-05   2.5393065077841843e-07   -6.682212449815898e-05
-2.446543121213801e-05   2.5393065077841843e-07   -6.682212449815898e-05
-2.446543121213801e-05   2.5393065077841843e-07   -6.682212449815898e-05
-2.446543121213801e-05   2.5393065077841843e-07   -6.682212449815898e-05
-6.622908912412659e-06   5.407846057339447e-07   -3.691247495897688e-05
-6.622908912412659e-06   5.407846057339447e-07   -3.691247495897688e-05
-6.622908912412659e-06   5.407846057339447e-07   -3.691247495897688e-05
-6.622908912412659e-06   5.407846057339447e-07   -3.691247495897688e-05
-6.635217936954316e-06   2.195957622801235e-06   -6.608605429565123e-05
-6.635217936954316e-06   2.195957622801235e-06   -6.608605429565123e-05
-6.635217936954316e-06   2.195957622801235e-06   -6.608605429565123e-05
-6.635217936954316e-06   2.195957622801235e-06   -6.608605429565123e-05
-2.4477158634184987e-05   2.3041109001725735e-06   -3.6414378433356206e-05
-2.4477158634184987e-05   2.3041109001725735e-06   -3.6414378433356206e-05
-2.4477158634184987e-05   2.3041109001725735e-06   -3.6414378433356206e-05
-2.4477158634184987e-05   2.3041109001725735e-06   -3.6414378433356206e-05
-1.5447004012276588e-05   1.5513344103531678e-06   -5.10129702426452e-05
-1.5447004012276588e-05   1.5513344103531678e-06   -5.10129702426452e-05
-1.5447004012276588e-05   1.5513344103531678e-06   -5.10129702426452e-05
-1.5447004012276588e-05   1.5513344103531678e-06   -5.10129702426452e-05
-2.4477158634184987e-05   2.195957622801235e-06   -6.615094626207397e-05
-2.4477158634184987e-05   2.195957622801235e-06   -6.615094626207397e-05
-2.4477158634184987e-05   2.195957622801235e-06   -6.615094626207397e-05
-2.4477158634184987e-05   2.195957622801235e-06   -6.615094626207397e-05
-6.635217936954316e-06   2.3041109001725735e-06   -3.6349486466933495e-05
-6.635217936954316e-06   2.3041109001725735e-06   -3.6349486466933495e-05
-6.635217936954316e-06   2.3041109001725735e-06   -3.6349486466933495e-05
-6.635217936954316e-06   2.3041109001725735e-06   -3.6349486466933495e-05
-6.6115386753979724e-06   4.132147266192195e-06   -6.625487001453889e-05
-6.6115386753979724e-06   4.132147266192195e-06   -6.625487001453889e-05
-6.6115386753979724e-06   4.132147266192195e-06   -6.625487001453889e-05
-6.6115386753979724e-06   4.132147266192195e-06   -6.625487001453889e-05
-2.4458803052560853e-05   4.073065691204917e-06   -3.6473980440942003e-05
-2.4458803052560853e-05   4.073065691204917e-06   -3.6473980440942003e-05
-2.4458803052560853e-05   4.073065691204917e-06   -3.6473980440942003e-05
-2.4458803052560853e-05   4.073065691204917e-06   -3.6473980440942003e-05
-1.555014660892387e-05   3.0935547455878103e-06   -5.0734034612966755e-05
-1.555014660892387e-05   3.0935547455878103e-06   -5.0734034612966755e-05
-1.555014660892387e-05   3.0935547455878103e-06   -5.0734034612966755e-05
-1.555014660892387e-05   3.0935547455878103e-06   -5.0734034612966755e-05
-2.4458803052560853e-05   4.132147266192195e-06   -6.621942106954675e-05
-2.4458803052560853e-05   4.132147266192195e-06   -6.621942106954675e-05
-2.4458803052560853e-05   4.132147266192195e-06   -6.621942106954675e-05
-2.4458803052560853e-05   4.132147266192195e-06   -6.621942106954675e-05
-6.6115386753979834e-06   4.073065691205134e-06   -3.650942938593414e-05
-6.6115386753979834e-06   4.073065691205134e-06   -3.650942938593414e-05
-6.6115386753979834e-06   4.073065691205134e-06   -3.650942938593414e-05
-6.6115386753979834e-06   4.073065691205134e-06   -3.650942938593414e-05
-6.621817368393434e-06   6.113400566573157e-06   -6.725707550159622e-05
-6.621817368393434e-06   6.113400566573157e-06   -6.725707550159622e-05
-6.621817368393434e-06   6.113400566573157e-06   -6.725707550159622e-05
-6.621817368393434e-06   6.113400566573157e-06   -6.725707550159622e-05
-2.4477988239710323e-05   5.872949208995341e-06   -3.7352519901521076e-05
-2.4477988239710323e-05   5.872949208995341e-06   -3.7352519901521076e-05
-2.4477988239710323e-05   5.872949208995341e-06   -3.7352519901521076e-05
-2.4477988239710323e-05   5.872949208995341e-06   -3.7352519901521076e-05
-1.5683576571654128e-05   4.6560240040554885e-06   -5.127971755865091e-05
-1.5683576571654128e-05   4.6560240040554885e-06   -5.127971755865091e-05
-1.5683576571654128e-05   4.6560240040554885e-06   -5.127971755865091e-05
-1.5683576571654128e-05   4.6560240040554885e-06   -5.127971755865091e-05
-6.622908912412648e-06   -3.9993528657833325e-06   -5.917481423047037e-05
-6.622908912412648e-06   -3.9993528657833325e-06   -5.917481423047037e-05
-6.622908912412648e-06   -3.9993528657833325e-06   -5.917481423047037e-05
-6.622908912412648e-06   -3.9993528657833325e-06   -5.917481423047037e-05
1.0963625162492639e-05   -1.8465020008046496e-06   -2.8572213586641033e-05
1.0963625162492639e-05   -1.8465020008046496e-06   -2.8572213586641033e-05
1.0963625162492639e-05   -1.8465020008046496e-06   -2.8572213586641033e-05
1.0963625162492639e-05   -1.8465020008046496e-06   -2.8572213586641033e-05
1.1107350224176483e-05   -2.219911529025248e-06   -5.783237503658275e-05
1.1107350224176483e-05   -2.219911529025248e-06   -5.783237503658275e-05
1.1107350224176483e-05   -2.219911529025248e-06   -5.783237503658275e-05
1.1107350224176483e-05   -2.219911529025248e-06   -5.783237503658275e-05
-6.635217936954316e-06   -1.86180601639439e-07   -2.9481666657796354e-05
-6.635217936954316e-06   -1.86180601639439e-07   -2.9481666657796354e-05
-6.635217936954316e-06   -1.86180601639439e-07   -2.9481666657796354e-05
-6.635217936954316e-06   -1.86180601639439e-07   -2.9481666657796354e-05
2.2130140605279057e-06   -1.9098034376259163e-06   -4.319454628534153e-05
2.2130140605279057e-06   -1.9098034376259163e-06   -4.319454628534153e-05
2.2130140605279057e-06   -1.9098034376259163e-06   -4.319454628534153e-05
2.2130140605279057e-06   -1.9098034376259163e-06   -4.319454628534153e-05
-6.635217936954316e-06   -2.2199115290251394e-06   -5.905261359301443e-05
-6.635217936954316e-06   -2.2199115290251394e-06   -5.905261359301443e-05
-6.635217936954316e-06   -2.2199115290251394e-06   -5.905261359301443e-05
-6.635217936954316e-06   -2.2199115290251394e-06   -5.905261359301443e-05
1.110735022417651e-05   -1.86180601639439e-07   -2.8261428101364816e-05
1.110735022417651e-05   -1.86180601639439e-07   -2.8261428101364816e-05
1.110735022417651e-05   -1.86180601639439e-07   -2.8261428101364816e-05
1.110735022417651e-05   -1.86180601639439e-07   -2.8261428101364816e-05
1.1445173224726768e-05   -4.7080998394951473e-07   -5.905098984231098e-05
1.1445173224726768e-05   -4.7080998394951473e-07   -5.905098984231098e-05
1.1445173224726768e-05   -4.7080998394951473e-07   -5.905098984231098e-05
1.1445173224726768e-05   -4.7080998394951473e-07   -5.905098984231098e-05
-6.6115386753979834e-06   1.4116213904098208e-06   -3.0085928833385437e-05
-6.6115386753979834e-06   1.4116213904098208e-06   -3.0085928833385437e-05
-6.6115386753979834e-06   1.4116213904098208e-06   -3.0085928833385437e-05
-6.6115386753979834e-06   1.4116213904098208e-06   -3.0085928833385437e-05
2.1114738832465284e-06   -5.28719406902179e-07   -4.346007861940582e-05
2.1114738832465284e-06   -5.28719406902179e-07   -4.346007861940582e-05
2.1114738832465284e-06   -5.28719406902179e-07   -4.346007861940582e-05
2.1114738832465284e-06   -5.28719406902179e-07   -4.346007861940582e-05
-6.6115386753979775e-06   -4.7080998394951473e-07   -6.018044866692643e-05
-6.6115386753979775e-06   -4.7080998394951473e-07   -6.018044866692643e-05
-6.6115386753979775e-06   -4.7080998394951473e-07   -6.018044866692643e-05
-6.6115386753979775e-06   -4.7080998394951473e-07   -6.018044866692643e-05
1.1445173224726822e-05   1.4116213904098208e-06   -2.8956470008769763e-05
1.1445173224726822e-05   1.4116213904098208e-06   -2.8956470008769763e-05
1.1445173224726822e-05   1.4116213904098208e-06   -2.8956470008769763e-05
1.1445173224726822e-05   1.4116213904098208e-06   -2.8956470008769763e-05
1.1610277488292983e-05   1.574886119883154e-06   -6.079205101007046e-05
1.1610277488292983e-05   1.574886119883154e-06   -6.079205101007046e-05
1.1610277488292983e-05   1.574886119883154e-06   -6.079205101007046e-05
1.1610277488292983e-05   1.574886119883154e-06   -6.079205101007046e-05
-6.621817368393423e-06   3.2435019460652203e-06   -3.1406395744635586e-05
-6.621817368393423e-06   3.2435019460652203e-06   -3.1406395744635586e-05
-6.621817368393423e-06   3.2435019460652203e-06   -3.1406395744635586e-05
-6.621817368393423e-06   3.2435019460652203e-06   -3.1406395744635586e-05
2.1729331397316044e-06   9.491368562242501e-07   -4.4687694204272627e-05
2.1729331397316044e-06   9.491368562242501e-07   -4.4687694204272627e-05
2.1729331397316044e-06   9.491368562242501e-07   -4.4687694204272627e-05
2.1729331397316044e-06   9.491368562242501e-07   -4.4687694204272627e-05
1.0963625162492611e-05   -7.2577262854897455e-06   -3.2520390969104876e-05
1.0963625162492611e-05   -7.2577262854897455e-06   -3.2520390969104876e-05
1.0963625162492611e-05   -7.2577262854897455e-06   -3.2520390969104876e-05
1.0963625162492611e-05   -7.2577262854897455e-06   -3.2520390969104876e-05
2.6596544133119653e-05   -3.3962524506592467e-06   -4.148641717161439e-06
2.6596544133119653e-05   -3.3962524506592467e-06   -4.148641717161439e-06
2.6596544133119653e-05   -3.3962524506592467e-06   -4.148641717161439e-06
2.6596544133119653e-05   -3.3962524506592467e-06   -4.148641717161439e-06
2.8448516191582624e-05   -6.233350827490993e-06   -3.41593988523669e-05
2.8448516191582624e-05   -6.233350827490993e-06   -3.41593988523669e-05
2.8448516191582624e-05   -6.233350827490993e-06   -3.41593988523669e-05
2.8448516191582624e-05   -6.233350827490993e-06   -3.41593988523669e-05
1.1107350224176497e-05   -2.2724007495702418e-06   -7.634025620109077e-06
1.1107350224176497e-05   -2.2724007495702418e-06   -7.634025620109077e-06
1.1107350224176497e-05   -2.2724007495702418e-06   -7.634025620109077e-06
1.1107350224176497e-05   -2.2724007495702418e-06   -7.634025620109077e-06
1.845697210020923e-05   -4.641660190240907e-06   -1.8461839749094532e-05
1.845697210020923e-05   -4.641660190240907e-06   -1.8461839749094532e-05
1.845697210020923e-05   -4.641660190240907e-06   -1.8461839749094532e-05
1.845697210020923e-05   -4.641660190240907e-06   -1.8461839749094532e-05
1.1107350224176497e-05   -6.233350827490993e-06   -3.6535968899119005e-05
1.1107350224176497e-05   -6.233350827490993e-06   -3.6535968899119005e-05
1.1107350224176497e-05   -6.233350827490993e-06   -3.6535968899119005e-05
1.1107350224176497e-05   -6.233350827490993e-06   -3.6535968899119005e-05
2.8448516191582543e-05   -2.2724007495702418e-06   -5.257455573356648e-06
2.8448516191582543e-05   -2.2724007495702418e-06   -5.257455573356648e-06
2.8448516191582543e-05   -2.2724007495702418e-06   -5.257455573356648e-06
2.8448516191582543e-05   -2.2724007495702418e-06   -5.257455573356648e-06
2.9873451374497407e-05   -5.353621707762028e-06   -3.746298567727376e-05
2.9873451374497407e-05   -5.353621707762028e-06   -3.746298567727376e-05
2.9873451374497407e-05   -5.353621707762028e-06   -3.746298567727376e-05
2.9873451374497407e-05   -5.353621707762028e-06   -3.746298567727376e-05
1.1445173224726822e-05   -1.4958877432010107e-06   -9.06382913972608e-06
1.1445173224726822e-05   -1.4958877432010107e-06   -9.06382913972608e-06
1.1445173224726822e-05   -1.4958877432010107e-06   -9.06382913972608e-06
1.1445173224726822e-05   -1.4958877432010107e-06   -9.06382913972608e-06
1.958998433334829e-05   -4.064843399453812e-06   -2.1097140927010165e-05
1.958998433334829e-05   -4.064843399453812e-06   -2.1097140927010165e-05
1.958998433334829e-05   -4.064843399453812e-06   -2.1097140927010165e-05
1.958998433334829e-05   -4.064843399453812e-06   -2.1097140927010165e-05
1.1445173224726782e-05   -5.353621707762028e-06   -3.977762605601021e-05
1.1445173224726782e-05   -5.353621707762028e-06   -3.977762605601021e-05
1.1445173224726782e-05   -5.353621707762028e-06   -3.977762605601021e-05
1.1445173224726782e-05   -5.353621707762028e-06   -3.977762605601021e-05
2.98734513744973e-05   -1.4958877432010107e-06   -6.749188760989274e-06
2.98734513744973e-05   -1.4958877432010107e-06   -6.749188760989274e-06
2.98734513744973e-05   -1.4958877432010107e-06   -6.749188760989274e-06
2.98734513744973e-05   -1.4958877432010107e-06   -6.749188760989274e-06
3.1766324489525765e-05   -3.4734397268799478e-06   -4.3795756031475715e-05
3.1766324489525765e-05   -3.4734397268799478e-06   -4.3795756031475715e-05
3.1766324489525765e-05   -3.4734397268799478e-06   -4.3795756031475715e-05
3.1766324489525765e-05   -3.4734397268799478e-06   -4.3795756031475715e-05
1.1610277488292996e-05   3.1836828095262865e-08   -1.2305510295739555e-05
1.1610277488292996e-05   3.1836828095262865e-08   -1.2305510295739555e-05
1.1610277488292996e-05   3.1836828095262865e-08   -1.2305510295739555e-05
1.1610277488292996e-05   3.1836828095262865e-08   -1.2305510295739555e-05
1.996524216820311e-05   -3.2050093387555115e-06   -2.428834372881258e-05
1.996524216820311e-05   -3.2050093387555115e-06   -2.428834372881258e-05
1.996524216820311e-05   -3.2050093387555115e-06   -2.428834372881258e-05
1.996524216820311e-05   -3.2050093387555115e-06   -2.428834372881258e-05
-3.7888165455580416e-05   6.09913757354595e-06   -3.548384397914872e-05
-3.7888165455580416e-05   6.09913757354595e-06   -3.548384397914872e-05
-3.7888165455580416e-05   6.09913757354595e-06   -3.548384397914872e-05
-3.7888165455580416e-05   6.09913757354595e-06   -3.548384397914872e-05
-2.7956843999930045e-05   2.4881619807824457e-06   -2.1098226908722708e-05
-2.7956843999930045e-05   2.4881619807824457e-06   -2.1098226908722708e-05
-2.7956843999930045e-05   2.4881619807824457e-06   -2.1098226908722708e-05
-2.7956843999930045e-05   2.4881619807824457e-06   -2.1098226908722708e-05
-2.754460335455724e-05   7.761225777417387e-06   -3.130304130706009e-05
-2.754460335455724e-05   7.761225777417387e-06   -3.130304130706009e-05
-2.754460335455724e-05   7.761225777417387e-06   -3.130304130706009e-05
-2.754460335455724e-05   7.761225777417387e-06   -3.130304130706009e-05
-3.583177349626845e-05   3.871870305117162e-06   -1.515747778749394e-05
-3.583177349626845e-05   3.871870305117162e-06   -1.515747778749394e-05
-3.583177349626845e-05   3.871870305117162e-06   -1.515747778749394e-05
-3.583177349626845e-05   3.871870305117162e-06   -1.515747778749394e-05
-3.093658309725626e-05   5.47029138051958e-06   -2.4275181097757376e-05
-3.093658309725626e-05   5.47029138051958e-06   -2.4275181097757376e-05
-3.093658309725626e-05   5.47029138051958e-06   -2.4275181097757376e-05
-3.093658309725626e-05   5.47029138051958e-06   -2.4275181097757376e-05
-3.583177349626845e-05   7.761225777417387e-06   -2.896942802367965e-05
-3.583177349626845e-05   7.761225777417387e-06   -2.896942802367965e-05
-3.583177349626845e-05   7.761225777417387e-06   -2.896942802367965e-05
-3.583177349626845e-05   7.761225777417387e-06   -2.896942802367965e-05
-2.7544603354557294e-05   3.871870305116945e-06   -1.749109107087438e-05
-2.7544603354557294e-05   3.871870305116945e-06   -1.749109107087438e-05
-2.7544603354557294e-05   3.871870305116945e-06   -1.749109107087438e-05
-2.7544603354557294e-05   3.871870305116945e-06   -1.749109107087438e-05
-2.6956562400059863e-05   8.535112021692973e-06   -2.79523625539165e-05
-2.6956562400059863e-05   8.535112021692973e-06   -2.79523625539165e-05
-2.6956562400059863e-05   8.535112021692973e-06   -2.79523625539165e-05
-2.6956562400059863e-05   8.535112021692973e-06   -2.79523625539165e-05
-3.419052309338379e-05   4.5704114077205725e-06   -1.3516941029993062e-05
-3.419052309338379e-05   4.5704114077205725e-06   -1.3516941029993062e-05
-3.419052309338379e-05   4.5704114077205725e-06   -1.3516941029993062e-05
-3.419052309338379e-05   4.5704114077205725e-06   -1.3516941029993062e-05
-3.0393716810517767e-05   6.216692519784217e-06   -2.0832720168674945e-05
-3.0393716810517767e-05   6.216692519784217e-06   -2.0832720168674945e-05
-3.0393716810517767e-05   6.216692519784217e-06   -2.0832720168674945e-05
-3.0393716810517767e-05   6.216692519784217e-06   -2.0832720168674945e-05
-3.4190523093383736e-05   8.535112021692973e-06   -2.5573542185533104e-05
-3.4190523093383736e-05   8.535112021692973e-06   -2.5573542185533104e-05
-3.4190523093383736e-05   8.535112021692973e-06   -2.5573542185533104e-05
-3.4190523093383736e-05   8.535112021692973e-06   -2.5573542185533104e-05
-2.6956562400059917e-05   4.5704114077205725e-06   -1.589576139837662e-05
-2.6956562400059917e-05   4.5704114077205725e-06   -1.589576139837662e-05
-2.6956562400059917e-05   4.5704114077205725e-06   -1.589576139837662e-05
-2.6956562400059917e-05   4.5704114077205725e-06   -1.589576139837662e-05
-2.655509344987782e-05   9.50745617563217e-06   -2.3652643646915588e-05
-2.655509344987782e-05   9.50745617563217e-06   -2.3652643646915588e-05
-2.655509344987782e-05   9.50745617563217e-06   -2.3652643646915588e-05
-2.655509344987782e-05   9.50745617563217e-06   -2.3652643646915588e-05
-3.210039682800396e-05   5.676648080339642e-06   -1.2111986492862855e-05
-3.210039682800396e-05   5.676648080339642e-06   -1.2111986492862855e-05
-3.210039682800396e-05   5.676648080339642e-06   -1.2111986492862855e-05
-3.210039682800396e-05   5.676648080339642e-06   -1.2111986492862855e-05
-2.897284830173129e-05   6.733255186677865e-06   -1.7958531633787767e-05
-2.897284830173129e-05   6.733255186677865e-06   -1.7958531633787767e-05
-2.897284830173129e-05   6.733255186677865e-06   -1.7958531633787767e-05
-2.897284830173129e-05   6.733255186677865e-06   -1.7958531633787767e-05
-2.7956843999930045e-05   3.150634795015105e-06   -5.168995962737946e-05
-2.7956843999930045e-05   3.150634795015105e-06   -5.168995962737946e-05
-2.7956843999930045e-05   3.150634795015105e-06   -5.168995962737946e-05
-2.7956843999930045e-05   3.150634795015105e-06   -5.168995962737946e-05
-1.9889804579750682e-05   1.4253781903759283e-06   -3.928004788986421e-05
-1.9889804579750682e-05   1.4253781903759283e-06   -3.928004788986421e-05
-1.9889804579750682e-05   1.4253781903759283e-06   -3.928004788986421e-05
-1.9889804579750682e-05   1.4253781903759283e-06   -3.928004788986421e-05
-1.961916612588005e-05   4.90498893413664e-06   -5.152141569102946e-05
-1.961916612588005e-05   4.90498893413664e-06   -5.152141569102946e-05
-1.961916612588005e-05   4.90498893413664e-06   -5.152141569102946e-05
-1.961916612588005e-05   4.90498893413664e-06   -5.152141569102946e-05
-2.7544603354557348e-05   3.011699225469438e-06   -3.71763798180334e-05
-2.7544603354557348e-05   3.011699225469438e-06   -3.71763798180334e-05
-2.7544603354557348e-05   3.011699225469438e-06   -3.71763798180334e-05
-2.7544603354557348e-05   3.011699225469438e-06   -3.71763798180334e-05
-2.3521064834951312e-05   3.4267645116618263e-06   -4.413131652242664e-05
-2.3521064834951312e-05   3.4267645116618263e-06   -4.413131652242664e-05
-2.3521064834951312e-05   3.4267645116618263e-06   -4.413131652242664e-05
-2.3521064834951312e-05   3.4267645116618263e-06   -4.413131652242664e-05
-2.754460335455724e-05   4.90498893413664e-06   -5.038544186582877e-05
-2.754460335455724e-05   4.90498893413664e-06   -5.038544186582877e-05
-2.754460335455724e-05   4.90498893413664e-06   -5.038544186582877e-05
-2.754460335455724e-05   4.90498893413664e-06   -5.038544186582877e-05
-1.961916612588005e-05   3.011699225469438e-06   -3.831235364323393e-05
-1.961916612588005e-05   3.011699225469438e-06   -3.831235364323393e-05
-1.961916612588005e-05   3.011699225469438e-06   -3.831235364323393e-05
-1.961916612588005e-05   3.011699225469438e-06   -3.831235364323393e-05
-1.932036885987271e-05   6.500810330037875e-06   -5.068854943800346e-05
-1.932036885987271e-05   6.500810330037875e-06   -5.068854943800346e-05
-1.932036885987271e-05   6.500810330037875e-06   -5.068854943800346e-05
-1.932036885987271e-05   6.500810330037875e-06   -5.068854943800346e-05
-2.695656240005997e-05   4.486243127635589e-06   -3.675281988291642e-05
-2.695656240005997e-05   4.486243127635589e-06   -3.675281988291642e-05
-2.695656240005997e-05   4.486243127635589e-06   -3.675281988291642e-05
-2.695656240005997e-05   4.486243127635589e-06   -3.675281988291642e-05
-2.3165548770731357e-05   4.708817387265481e-06   -4.3204720487574795e-05
-2.3165548770731357e-05   4.708817387265481e-06   -4.3204720487574795e-05
-2.3165548770731357e-05   4.708817387265481e-06   -4.3204720487574795e-05
-2.3165548770731357e-05   4.708817387265481e-06   -4.3204720487574795e-05
-2.6956562400059863e-05   6.500810330037875e-06   -4.947980911656168e-05
-2.6956562400059863e-05   6.500810330037875e-06   -4.947980911656168e-05
-2.6956562400059863e-05   6.500810330037875e-06   -4.947980911656168e-05
-2.6956562400059863e-05   6.500810330037875e-06   -4.947980911656168e-05
-1.9320368859872684e-05   4.486243127635589e-06   -3.796156020435766e-05
-1.9320368859872684e-05   4.486243127635589e-06   -3.796156020435766e-05
-1.9320368859872684e-05   4.486243127635589e-06   -3.796156020435766e-05
-1.9320368859872684e-05   4.486243127635589e-06   -3.796156020435766e-05
-1.905436350472385e-05   8.233679930042676e-06   -5.117995743606006e-05
-1.905436350472385e-05   8.233679930042676e-06   -5.117995743606006e-05
-1.905436350472385e-05   8.233679930042676e-06   -5.117995743606006e-05
-1.905436350472385e-05   8.233679930042676e-06   -5.117995743606006e-05
-2.6555093449877874e-05   6.1242396513477414e-06   -3.7413076693586136e-05
-2.6555093449877874e-05   6.1242396513477414e-06   -3.7413076693586136e-05
-2.6555093449877874e-05   6.1242396513477414e-06   -3.7413076693586136e-05
-2.6555093449877874e-05   6.1242396513477414e-06   -3.7413076693586136e-05
-2.302576390027701e-05   6.00684638569441e-06   -4.322485665019627e-05
-2.302576390027701e-05   6.00684638569441e-06   -4.322485665019627e-05
-2.302576390027701e-05   6.00684638569441e-06   -4.322485665019627e-05
-2.302576390027701e-05   6.00684638569441e-06   -4.322485665019627e-05
-1.9889804579750628e-05   5.407846057337278e-07   -5.84433408716145e-05
-1.9889804579750628e-05   5.407846057337278e-07   -5.84433408716145e-05
-1.9889804579750628e-05   5.407846057337278e-07   -5.84433408716145e-05
-1.9889804579750628e-05   5.407846057337278e-07   -5.84433408716145e-05
-1.2030802005648126e-05   8.148465261280814e-07   -4.5180566095874087e-05
-1.2030802005648126e-05   8.148465261280814e-07   -4.5180566095874087e-05
-1.2030802005648126e-05   8.148465261280814e-07   -4.5180566095874087e-05
-1.2030802005648126e-05   8.148465261280814e-07   -4.5180566095874087e-05
-1.1766874258968946e-05   2.3041109001725735e-06   -5.7710478641891084e-05
-1.1766874258968946e-05   2.3041109001725735e-06   -5.7710478641891084e-05
-1.1766874258968946e-05   2.3041109001725735e-06   -5.7710478641891084e-05
-1.1766874258968946e-05   2.3041109001725735e-06   -5.7710478641891084e-05
-1.961916612588005e-05   2.4299984896644037e-06   -4.469885808406699e-05
-1.961916612588005e-05   2.4299984896644037e-06   -4.469885808406699e-05
-1.961916612588005e-05   2.4299984896644037e-06   -4.469885808406699e-05
-1.961916612588005e-05   2.4299984896644037e-06   -4.469885808406699e-05
-1.5725309658337583e-05   1.7469724971044993e-06   -5.077880326776981e-05
-1.5725309658337583e-05   1.7469724971044993e-06   -5.077880326776981e-05
-1.5725309658337583e-05   1.7469724971044993e-06   -5.077880326776981e-05
-1.5725309658337583e-05   1.7469724971044993e-06   -5.077880326776981e-05
-1.9619166125880023e-05   2.3041109001725735e-06   -5.77860111955859e-05
-1.9619166125880023e-05   2.3041109001725735e-06   -5.77860111955859e-05
-1.9619166125880023e-05   2.3041109001725735e-06   -5.77860111955859e-05
-1.9619166125880023e-05   2.3041109001725735e-06   -5.77860111955859e-05
-1.1766874258968946e-05   2.4299984896644037e-06   -4.4623325530372335e-05
-1.1766874258968946e-05   2.4299984896644037e-06   -4.4623325530372335e-05
-1.1766874258968946e-05   2.4299984896644037e-06   -4.4623325530372335e-05
-1.1766874258968946e-05   2.4299984896644037e-06   -4.4623325530372335e-05
-1.1470237855417323e-05   4.073065691205134e-06   -5.786163426511773e-05
-1.1470237855417323e-05   4.073065691205134e-06   -5.786163426511773e-05
-1.1470237855417323e-05   4.073065691205134e-06   -5.786163426511773e-05
-1.1470237855417323e-05   4.073065691205134e-06   -5.786163426511773e-05
-1.9320368859872684e-05   4.059324879441108e-06   -4.4769838103966955e-05
-1.9320368859872684e-05   4.059324879441108e-06   -4.4769838103966955e-05
-1.9320368859872684e-05   4.059324879441108e-06   -4.4769838103966955e-05
-1.9320368859872684e-05   4.059324879441108e-06   -4.4769838103966955e-05
-1.554783810481497e-05   3.1342804993187735e-06   -5.050236273432306e-05
-1.554783810481497e-05   3.1342804993187735e-06   -5.050236273432306e-05
-1.554783810481497e-05   3.1342804993187735e-06   -5.050236273432306e-05
-1.554783810481497e-05   3.1342804993187735e-06   -5.050236273432306e-05
-1.932036885987263e-05   4.073065691205134e-06   -5.785338977805929e-05
-1.932036885987263e-05   4.073065691205134e-06   -5.785338977805929e-05
-1.932036885987263e-05   4.073065691205134e-06   -5.785338977805929e-05
-1.932036885987263e-05   4.073065691205134e-06   -5.785338977805929e-05
-1.1470237855417344e-05   4.059324879441108e-06   -4.4778082591025365e-05
-1.1470237855417344e-05   4.059324879441108e-06   -4.4778082591025365e-05
-1.1470237855417344e-05   4.059324879441108e-06   -4.4778082591025365e-05
-1.1470237855417344e-05   4.059324879441108e-06   -4.4778082591025365e-05
-1.1203645585540356e-05   5.872949208995341e-06   -5.88356809769579e-05
-1.1203645585540356e-05   5.872949208995341e-06   -5.88356809769579e-05
-1.1203645585540356e-05   5.872949208995341e-06   -5.88356809769579e-05
-1.1203645585540356e-05   5.872949208995341e-06   -5.88356809769579e-05
-1.9054363504723878e-05   5.713211464341986e-06   -4.565530846485969e-05
-1.9054363504723878e-05   5.713211464341986e-06   -4.565530846485969e-05
-1.9054363504723878e-05   5.713211464341986e-06   -4.565530846485969e-05
-1.9054363504723878e-05   5.713211464341986e-06   -4.565530846485969e-05
-1.5400820336806485e-05   4.540023434628946e-06   -5.104063426022781e-05
-1.5400820336806485e-05   4.540023434628946e-06   -5.104063426022781e-05
-1.5400820336806485e-05   4.540023434628946e-06   -5.104063426022781e-05
-1.5400820336806485e-05   4.540023434628946e-06   -5.104063426022781e-05
-1.2030802005648086e-05   -1.8465020008044328e-06   -5.123035286602935e-05
-1.2030802005648086e-05   -1.8465020008044328e-06   -5.123035286602935e-05
-1.2030802005648086e-05   -1.8465020008044328e-06   -5.123035286602935e-05
-1.2030802005648086e-05   -1.8465020008044328e-06   -5.123035286602935e-05
-4.405374650843114e-06   3.445960788496863e-07   -3.720664842689532e-05
-4.405374650843114e-06   3.445960788496863e-07   -3.720664842689532e-05
-4.405374650843114e-06   3.445960788496863e-07   -3.720664842689532e-05
-4.405374650843114e-06   3.445960788496863e-07   -3.720664842689532e-05
-4.011752279903572e-06   -1.86180601639439e-07   -4.95857224987403e-05
-4.011752279903572e-06   -1.86180601639439e-07   -4.95857224987403e-05
-4.011752279903572e-06   -1.86180601639439e-07   -4.95857224987403e-05
-4.011752279903572e-06   -1.86180601639439e-07   -4.95857224987403e-05
-1.1766874258968924e-05   1.9087132883833374e-06   -3.7917455534311115e-05
-1.1766874258968924e-05   1.9087132883833374e-06   -3.7917455534311115e-05
-1.1766874258968924e-05   1.9087132883833374e-06   -3.7917455534311115e-05
-1.1766874258968924e-05   1.9087132883833374e-06   -3.7917455534311115e-05
-7.972466695017082e-06   2.1859942774373267e-07   -4.322739982451472e-05
-7.972466695017082e-06   2.1859942774373267e-07   -4.322739982451472e-05
-7.972466695017082e-06   2.1859942774373267e-07   -4.322739982451472e-05
-7.972466695017082e-06   2.1859942774373267e-07   -4.322739982451472e-05
-1.1766874258968905e-05   -1.8618060163922215e-07   -5.0842658832753814e-05
-1.1766874258968905e-05   -1.8618060163922215e-07   -5.0842658832753814e-05
-1.1766874258968905e-05   -1.8618060163922215e-07   -5.0842658832753814e-05
-1.1766874258968905e-05   -1.8618060163922215e-07   -5.0842658832753814e-05
-4.011752279903572e-06   1.9087132883833374e-06   -3.666051920029798e-05
-4.011752279903572e-06   1.9087132883833374e-06   -3.666051920029798e-05
-4.011752279903572e-06   1.9087132883833374e-06   -3.666051920029798e-05
-4.011752279903572e-06   1.9087132883833374e-06   -3.666051920029798e-05
-3.4285070503366493e-06   1.4116213904098208e-06   -5.02552592215505e-05
-3.4285070503366493e-06   1.4116213904098208e-06   -5.02552592215505e-05
-3.4285070503366493e-06   1.4116213904098208e-06   -5.02552592215505e-05
-3.4285070503366493e-06   1.4116213904098208e-06   -5.02552592215505e-05
-1.1470237855417323e-05   3.383078875440282e-06   -3.8035249037434186e-05
-1.1470237855417323e-05   3.383078875440282e-06   -3.8035249037434186e-05
-1.1470237855417323e-05   3.383078875440282e-06   -3.8035249037434186e-05
-1.1470237855417323e-05   3.383078875440282e-06   -3.8035249037434186e-05
-7.734122545795515e-06   1.4811975457842096e-06   -4.312097908901045e-05
-7.734122545795515e-06   1.4811975457842096e-06   -4.312097908901045e-05
-7.734122545795515e-06   1.4811975457842096e-06   -4.312097908901045e-05
-7.734122545795515e-06   1.4811975457842096e-06   -4.312097908901045e-05
-1.1470237855417293e-05   1.4116213904098208e-06   -5.143813371256858e-05
-1.1470237855417293e-05   1.4116213904098208e-06   -5.143813371256858e-05
-1.1470237855417293e-05   1.4116213904098208e-06   -5.143813371256858e-05
-1.1470237855417293e-05   1.4116213904098208e-06   -5.143813371256858e-05
-3.4285070503366764e-06   3.383078875440499e-06   -3.685237454641589e-05
-3.4285070503366764e-06   3.383078875440499e-06   -3.685237454641589e-05
-3.4285070503366764e-06   3.383078875440499e-06   -3.685237454641589e-05
-3.4285070503366764e-06   3.383078875440499e-06   -3.685237454641589e-05
-3.0210872565567676e-06   3.2435019460652203e-06   -5.16609495315411e-05
-3.0210872565567676e-06   3.2435019460652203e-06   -5.16609495315411e-05
-3.0210872565567676e-06   3.2435019460652203e-06   -5.16609495315411e-05
-3.0210872565567676e-06   3.2435019460652203e-06   -5.16609495315411e-05
-1.1203645585540356e-05   5.050729402706136e-06   -3.910768879055283e-05
-1.1203645585540356e-05   5.050729402706136e-06   -3.910768879055283e-05
-1.1203645585540356e-05   5.050729402706136e-06   -3.910768879055283e-05
-1.1203645585540356e-05   5.050729402706136e-06   -3.910768879055283e-05
-7.484407344422121e-06   2.805061786968592e-06   -4.3959018622974e-05
-7.484407344422121e-06   2.805061786968592e-06   -4.3959018622974e-05
-7.484407344422121e-06   2.805061786968592e-06   -4.3959018622974e-05
-7.484407344422121e-06   2.805061786968592e-06   -4.3959018622974e-05
-4.405374650843114e-06   -3.3962524506594635e-06   -2.780900644965554e-05
-4.405374650843114e-06   -3.3962524506594635e-06   -2.780900644965554e-05
-4.405374650843114e-06   -3.3962524506594635e-06   -2.780900644965554e-05
-4.405374650843114e-06   -3.3962524506594635e-06   -2.780900644965554e-05
1.2499421414081707e-06   4.7370660129198404e-07   -1.606150303139946e-05
1.2499421414081707e-06   4.7370660129198404e-07   -1.606150303139946e-05
1.2499421414081707e-06   4.7370660129198404e-07   -1.606150303139946e-05
1.2499421414081707e-06   4.7370660129198404e-07   -1.606150303139946e-05
3.3192941934013565e-06   -2.2724007495702418e-06   -2.6569217134307492e-05
3.3192941934013565e-06   -2.2724007495702418e-06   -2.6569217134307492e-05
3.3192941934013565e-06   -2.2724007495702418e-06   -2.6569217134307492e-05
3.3192941934013565e-06   -2.2724007495702418e-06   -2.6569217134307492e-05
-4.011752279903572e-06   1.7094373890580439e-06   -1.6739909228642643e-05
-4.011752279903572e-06   1.7094373890580439e-06   -1.6739909228642643e-05
-4.011752279903572e-06   1.7094373890580439e-06   -1.6739909228642643e-05
-4.011752279903572e-06   1.7094373890580439e-06   -1.6739909228642643e-05
-9.380153071597249e-07   -7.040158416622092e-07   -2.041473224478408e-05
-9.380153071597249e-07   -7.040158416622092e-07   -2.041473224478408e-05
-9.380153071597249e-07   -7.040158416622092e-07   -2.041473224478408e-05
-9.380153071597249e-07   -7.040158416622092e-07   -2.041473224478408e-05
-4.011752279903572e-06   -2.2724007495702418e-06   -2.8958320017484235e-05
-4.011752279903572e-06   -2.2724007495702418e-06   -2.8958320017484235e-05
-4.011752279903572e-06   -2.2724007495702418e-06   -2.8958320017484235e-05
-4.011752279903572e-06   -2.2724007495702418e-06   -2.8958320017484235e-05
3.3192941934013565e-06   1.7094373890580439e-06   -1.4350806345465655e-05
3.3192941934013565e-06   1.7094373890580439e-06   -1.4350806345465655e-05
3.3192941934013565e-06   1.7094373890580439e-06   -1.4350806345465655e-05
3.3192941934013565e-06   1.7094373890580439e-06   -1.4350806345465655e-05
4.953071742048803e-06   -1.4958877432012276e-06   -2.802227046951538e-05
4.953071742048803e-06   -1.4958877432012276e-06   -2.802227046951538e-05
4.953071742048803e-06   -1.4958877432012276e-06   -2.802227046951538e-05
4.953071742048803e-06   -1.4958877432012276e-06   -2.802227046951538e-05
-3.4285070503366493e-06   2.40469206178452e-06   -1.639332036519736e-05
-3.4285070503366493e-06   2.40469206178452e-06   -1.639332036519736e-05
-3.4285070503366493e-06   2.40469206178452e-06   -1.639332036519736e-05
-3.4285070503366493e-06   2.40469206178452e-06   -1.639332036519736e-05
1.1379935626620072e-07   -1.1282413750501354e-07   -2.0786654656628455e-05
1.1379935626620072e-07   -1.1282413750501354e-07   -2.0786654656628455e-05
1.1379935626620072e-07   -1.1282413750501354e-07   -2.0786654656628455e-05
1.1379935626620072e-07   -1.1282413750501354e-07   -2.0786654656628455e-05
-3.4285070503366493e-06   -1.4958877432012276e-06   -3.03626183525066e-05
-3.4285070503366493e-06   -1.4958877432012276e-06   -3.03626183525066e-05
-3.4285070503366493e-06   -1.4958877432012276e-06   -3.03626183525066e-05
-3.4285070503366493e-06   -1.4958877432012276e-06   -3.03626183525066e-05
4.953071742048803e-06   2.4046920617843033e-06   -1.4052972482206166e-05
4.953071742048803e-06   2.4046920617843033e-06   -1.4052972482206166e-05
4.953071742048803e-06   2.4046920617843033e-06   -1.4052972482206166e-05
4.953071742048803e-06   2.4046920617843033e-06   -1.4052972482206166e-05
7.013489632084872e-06   3.1836828095262865e-08   -3.13969624805969e-05
7.013489632084872e-06   3.1836828095262865e-08   -3.13969624805969e-05
7.013489632084872e-06   3.1836828095262865e-08   -3.13969624805969e-05
7.013489632084872e-06   3.1836828095262865e-08   -3.13969624805969e-05
-3.0210872565567676e-06   3.6389553243576338e-06   -1.683693876395115e-05
-3.0210872565567676e-06   3.6389553243576338e-06   -1.683693876395115e-05
-3.0210872565567676e-06   3.6389553243576338e-06   -1.683693876395115e-05
-3.0210872565567676e-06   3.6389553243576338e-06   -1.683693876395115e-05
1.0158690276820261e-06   5.633051667940439e-07   -2.1719809143144753e-05
1.0158690276820261e-06   5.633051667940439e-07   -2.1719809143144753e-05
1.0158690276820261e-06   5.633051667940439e-07   -2.1719809143144753e-05
1.0158690276820261e-06   5.633051667940439e-07   -2.1719809143144753e-05
-1.3235010356457938e-05   2.4881619807824457e-06   -2.3679142363890507e-05
-1.3235010356457938e-05   2.4881619807824457e-06   -2.3679142363890507e-05
-1.3235010356457938e-05   2.4881619807824457e-06   -2.3679142363890507e-05
-1.3235010356457938e-05   2.4881619807824457e-06   -2.3679142363890507e-05
-1.3378684223411415e-05   -1.1520200140736556e-06   -2.610270800572676e-05
-1.3378684223411415e-05   -1.1520200140736556e-06   -2.610270800572676e-05
-1.3378684223411415e-05   -1.1520200140736556e-06   -2.610270800572676e-05
-1.3378684223411415e-05   -1.1520200140736556e-06   -2.610270800572676e-05
-1.270657599258617e-05   3.871870305117162e-06   -2.2247437749636865e-05
-1.270657599258617e-05   3.871870305117162e-06   -2.2247437749636865e-05
-1.270657599258617e-05   3.871870305117162e-06   -2.2247437749636865e-05
-1.270657599258617e-05   3.871870305117162e-06   -2.2247437749636865e-05
-1.0928923116104933e-05   -3.19813756206877e-08   -2.2867881535329308e-05
-1.0928923116104933e-05   -3.19813756206877e-08   -2.2867881535329308e-05
-1.0928923116104933e-05   -3.19813756206877e-08   -2.2867881535329308e-05
-1.0928923116104933e-05   -3.19813756206877e-08   -2.2867881535329308e-05
-1.2013067523678985e-05   1.7127542913742203e-06   -2.210781558957054e-05
-1.2013067523678985e-05   1.7127542913742203e-06   -2.210781558957054e-05
-1.2013067523678985e-05   1.7127542913742203e-06   -2.210781558957054e-05
-1.2013067523678985e-05   1.7127542913742203e-06   -2.210781558957054e-05
-1.0928923116104933e-05   3.871870305117162e-06   -1.990512674119433e-05
-1.0928923116104933e-05   3.871870305117162e-06   -1.990512674119433e-05
-1.0928923116104933e-05   3.871870305117162e-06   -1.990512674119433e-05
-1.0928923116104933e-05   3.871870305117162e-06   -1.990512674119433e-05
-1.270657599258617e-05   -3.19813756206877e-08   -2.5210192543772495e-05
-1.270657599258617e-05   -3.19813756206877e-08   -2.5210192543772495e-05
-1.270657599258617e-05   -3.19813756206877e-08   -2.5210192543772495e-05
-1.270657599258617e-05   -3.19813756206877e-08   -2.5210192543772495e-05
-1.1859163114815081e-05   4.570411407720356e-06   -2.064609935529334e-05
-1.1859163114815081e-05   4.570411407720356e-06   -2.064609935529334e-05
-1.1859163114815081e-05   4.570411407720356e-06   -2.064609935529334e-05
-1.1859163114815081e-05   4.570411407720356e-06   -2.064609935529334e-05
-9.020752569109777e-06   6.009429889637305e-07   -2.2995102546881623e-05
-9.020752569109777e-06   6.009429889637305e-07   -2.2995102546881623e-05
-9.020752569109777e-06   6.009429889637305e-07   -2.2995102546881623e-05
-9.020752569109777e-06   6.009429889637305e-07   -2.2995102546881623e-05
-1.0920196702007232e-05   2.2874236406331128e-06   -2.0841250716388256e-05
-1.0920196702007232e-05   2.2874236406331128e-06   -2.0841250716388256e-05
-1.0920196702007232e-05   2.2874236406331128e-06   -2.0841250716388256e-05
-1.0920196702007232e-05   2.2874236406331128e-06   -2.0841250716388256e-05
-9.020752569109723e-06   4.570411407720356e-06   -1.826441830403956e-05
-9.020752569109723e-06   4.570411407720356e-06   -1.826441830403956e-05
-9.020752569109723e-06   4.570411407720356e-06   -1.826441830403956e-05
-9.020752569109723e-06   4.570411407720356e-06   -1.826441830403956e-05
-1.1859163114815081e-05   6.009429889637305e-07   -2.5376783598135566e-05
-1.1859163114815081e-05   6.009429889637305e-07   -2.5376783598135566e-05
-1.1859163114815081e-05   6.009429889637305e-07   -2.5376783598135566e-05
-1.1859163114815081e-05   6.009429889637305e-07   -2.5376783598135566e-05
-1.1197254063292168e-05   5.676648080339859e-06   -1.915578816062821e-05
-1.1197254063292168e-05   5.676648080339859e-06   -1.915578816062821e-05
-1.1197254063292168e-05   5.676648080339859e-06   -1.915578816062821e-05
-1.1197254063292168e-05   5.676648080339859e-06   -1.915578816062821e-05
-6.664776350538465e-06   1.8635002491259288e-06   -2.44220289831559e-05
-6.664776350538465e-06   1.8635002491259288e-06   -2.44220289831559e-05
-6.664776350538465e-06   1.8635002491259288e-06   -2.44220289831559e-05
-6.664776350538465e-06   1.8635002491259288e-06   -2.44220289831559e-05
-9.553372003900322e-06   2.8373012182594283e-06   -2.019198347569999e-05
-9.553372003900322e-06   2.8373012182594283e-06   -2.019198347569999e-05
-9.553372003900322e-06   2.8373012182594283e-06   -2.019198347569999e-05
-9.553372003900322e-06   2.8373012182594283e-06   -2.019198347569999e-05
-1.3378684223411415e-05   1.4253781903759283e-06   -4.300991857916195e-05
-1.3378684223411415e-05   1.4253781903759283e-06   -4.300991857916195e-05
-1.3378684223411415e-05   1.4253781903759283e-06   -4.300991857916195e-05
-1.3378684223411415e-05   1.4253781903759283e-06   -4.300991857916195e-05
-1.538846472919696e-05   -2.517332439210332e-07   -4.736581961604924e-05
-1.538846472919696e-05   -2.517332439210332e-07   -4.736581961604924e-05
-1.538846472919696e-05   -2.517332439210332e-07   -4.736581961604924e-05
-1.538846472919696e-05   -2.517332439210332e-07   -4.736581961604924e-05
-1.4844667752777872e-05   3.011699225469438e-06   -4.3043123619945865e-05
-1.4844667752777872e-05   3.011699225469438e-06   -4.3043123619945865e-05
-1.4844667752777872e-05   3.011699225469438e-06   -4.3043123619945865e-05
-1.4844667752777872e-05   3.011699225469438e-06   -4.3043123619945865e-05
-1.270657599258617e-05   1.161037353553801e-06   -4.549621276378208e-05
-1.270657599258617e-05   1.161037353553801e-06   -4.549621276378208e-05
-1.270657599258617e-05   1.161037353553801e-06   -4.549621276378208e-05
-1.270657599258617e-05   1.161037353553801e-06   -4.549621276378208e-05
-1.3915536855891995e-05   1.6460369178170065e-06   -4.377227773016463e-05
-1.3915536855891995e-05   1.6460369178170065e-06   -4.377227773016463e-05
-1.3915536855891995e-05   1.6460369178170065e-06   -4.377227773016463e-05
-1.3915536855891995e-05   1.6460369178170065e-06   -4.377227773016463e-05
-1.2706575992586116e-05   3.011699225469221e-06   -4.193272649679583e-05
-1.2706575992586116e-05   3.011699225469221e-06   -4.193272649679583e-05
-1.2706575992586116e-05   3.011699225469221e-06   -4.193272649679583e-05
-1.2706575992586116e-05   3.011699225469221e-06   -4.193272649679583e-05
-1.4844667752777872e-05   1.161037353553801e-06   -4.660660988693168e-05
-1.4844667752777872e-05   1.161037353553801e-06   -4.660660988693168e-05
-1.4844667752777872e-05   1.161037353553801e-06   -4.660660988693168e-05
-1.4844667752777872e-05   1.161037353553801e-06   -4.660660988693168e-05
-1.427916020199581e-05   4.4862431276358056e-06   -4.2682435547685424e-05
-1.427916020199581e-05   4.4862431276358056e-06   -4.2682435547685424e-05
-1.427916020199581e-05   4.4862431276358056e-06   -4.2682435547685424e-05
-1.427916020199581e-05   4.4862431276358056e-06   -4.2682435547685424e-05
-1.1859163114815135e-05   2.520780281215721e-06   -4.553648631846737e-05
-1.1859163114815135e-05   2.520780281215721e-06   -4.553648631846737e-05
-1.1859163114815135e-05   2.520780281215721e-06   -4.553648631846737e-05
-1.1859163114815135e-05   2.520780281215721e-06   -4.553648631846737e-05
-1.3370552605052296e-05   2.7844483779259667e-06   -4.317570469276514e-05
-1.3370552605052296e-05   2.7844483779259667e-06   -4.317570469276514e-05
-1.3370552605052296e-05   2.7844483779259667e-06   -4.317570469276514e-05
-1.3370552605052296e-05   2.7844483779259667e-06   -4.317570469276514e-05
-1.1859163114815081e-05   4.486243127635589e-06   -4.150315783983303e-05
-1.1859163114815081e-05   4.486243127635589e-06   -4.150315783983303e-05
-1.1859163114815081e-05   4.486243127635589e-06   -4.150315783983303e-05
-1.1859163114815081e-05   4.486243127635589e-06   -4.150315783983303e-05
-1.4279160201995756e-05   2.520780281215721e-06   -4.6715764026319224e-05
-1.4279160201995756e-05   2.520780281215721e-06   -4.6715764026319224e-05
-1.4279160201995756e-05   2.520780281215721e-06   -4.6715764026319224e-05
-1.4279160201995756e-05   2.520780281215721e-06   -4.6715764026319224e-05
-1.3746293371414374e-05   6.1242396513477414e-06   -4.338913249403681e-05
-1.3746293371414374e-05   6.1242396513477414e-06   -4.338913249403681e-05
-1.3746293371414374e-05   6.1242396513477414e-06   -4.338913249403681e-05
-1.3746293371414374e-05   6.1242396513477414e-06   -4.338913249403681e-05
-1.1197254063292222e-05   4.073008001579705e-06   -4.640679235104597e-05
-1.1197254063292222e-05   4.073008001579705e-06   -4.640679235104597e-05
-1.1197254063292222e-05   4.073008001579705e-06   -4.640679235104597e-05
-1.1197254063292222e-05   4.073008001579705e-06   -4.640679235104597e-05
-1.2890760988516498e-05   3.978131248215605e-06   -4.352735475698753e-05
-1.2890760988516498e-05   3.978131248215605e-06   -4.352735475698753e-05
-1.2890760988516498e-05   3.978131248215605e-06   -4.352735475698753e-05
-1.2890760988516498e-05   3.978131248215605e-06   -4.352735475698753e-05
-1.5388464729196907e-05   8.148465261278645e-07   -5.0081140797986114e-05
-1.5388464729196907e-05   8.148465261278645e-07   -5.0081140797986114e-05
-1.5388464729196907e-05   8.148465261278645e-07   -5.0081140797986114e-05
-1.5388464729196907e-05   8.148465261278645e-07   -5.0081140797986114e-05
-1.7508384339841422e-05   1.168561500005088e-06   -5.340211116473424e-05
-1.7508384339841422e-05   1.168561500005088e-06   -5.340211116473424e-05
-1.7508384339841422e-05   1.168561500005088e-06   -5.340211116473424e-05
-1.7508384339841422e-05   1.168561500005088e-06   -5.340211116473424e-05
-1.6973785661660836e-05   2.4299984896644037e-06   -4.9310701716004206e-05
-1.6973785661660836e-05   2.4299984896644037e-06   -4.9310701716004206e-05
-1.6973785661660836e-05   2.4299984896644037e-06   -4.9310701716004206e-05
-1.6973785661660836e-05   2.4299984896644037e-06   -4.9310701716004206e-05
-1.4844667752777872e-05   2.628209064289063e-06   -5.297815790891708e-05
-1.4844667752777872e-05   2.628209064289063e-06   -5.297815790891708e-05
-1.4844667752777872e-05   2.628209064289063e-06   -5.297815790891708e-05
-1.4844667752777872e-05   2.628209064289063e-06   -5.297815790891708e-05
-1.608145078800237e-05   1.987581722251051e-06   -5.053247644498752e-05
-1.608145078800237e-05   1.987581722251051e-06   -5.053247644498752e-05
-1.608145078800237e-05   1.987581722251051e-06   -5.053247644498752e-05
-1.608145078800237e-05   1.987581722251051e-06   -5.053247644498752e-05
-1.4844667752777845e-05   2.4299984896646205e-06   -4.942962806077887e-05
-1.4844667752777845e-05   2.4299984896646205e-06   -4.942962806077887e-05
-1.4844667752777845e-05   2.4299984896646205e-06   -4.942962806077887e-05
-1.4844667752777845e-05   2.4299984896646205e-06   -4.942962806077887e-05
-1.6973785661660867e-05   2.628209064289063e-06   -5.285923156414269e-05
-1.6973785661660867e-05   2.628209064289063e-06   -5.285923156414269e-05
-1.6973785661660867e-05   2.628209064289063e-06   -5.285923156414269e-05
-1.6973785661660867e-05   2.628209064289063e-06   -5.285923156414269e-05
-1.6411771431710757e-05   4.059324879441108e-06   -4.945428779043362e-05
-1.6411771431710757e-05   4.059324879441108e-06   -4.945428779043362e-05
-1.6411771431710757e-05   4.059324879441108e-06   -4.945428779043362e-05
-1.6411771431710757e-05   4.059324879441108e-06   -4.945428779043362e-05
-1.427916020199581e-05   4.120034307542736e-06   -5.3045065496819276e-05
-1.427916020199581e-05   4.120034307542736e-06   -5.3045065496819276e-05
-1.427916020199581e-05   4.120034307542736e-06   -5.3045065496819276e-05
-1.427916020199581e-05   4.120034307542736e-06   -5.3045065496819276e-05
-1.5632436137638495e-05   3.2358245359348416e-06   -5.025907974111736e-05
-1.5632436137638495e-05   3.2358245359348416e-06   -5.025907974111736e-05
-1.5632436137638495e-05   3.2358245359348416e-06   -5.025907974111736e-05
-1.5632436137638495e-05   3.2358245359348416e-06   -5.025907974111736e-05
-1.4279160201995756e-05   4.059324879441325e-06   -4.9490713447294206e-05
-1.4279160201995756e-05   4.059324879441325e-06   -4.9490713447294206e-05
-1.4279160201995756e-05   4.059324879441325e-06   -4.9490713447294206e-05
-1.4279160201995756e-05   4.059324879441325e-06   -4.9490713447294206e-05
-1.6411771431710757e-05   4.120034307542736e-06   -5.3008639839958256e-05
-1.6411771431710757e-05   4.120034307542736e-06   -5.3008639839958256e-05
-1.6411771431710757e-05   4.120034307542736e-06   -5.3008639839958256e-05
-1.6411771431710757e-05   4.120034307542736e-06   -5.3008639839958256e-05
-1.5881647179489652e-05   5.713211464341769e-06   -5.041414975410314e-05
-1.5881647179489652e-05   5.713211464341769e-06   -5.041414975410314e-05
-1.5881647179489652e-05   5.713211464341769e-06   -5.041414975410314e-05
-1.5881647179489652e-05   5.713211464341769e-06   -5.041414975410314e-05
-1.3746293371414374e-05   5.632462037658773e-06   -5.3924623111552e-05
-1.3746293371414374e-05   5.632462037658773e-06   -5.3924623111552e-05
-1.3746293371414374e-05   5.632462037658773e-06   -5.3924623111552e-05
-1.3746293371414374e-05   5.632462037658773e-06   -5.3924623111552e-05
-1.5218923347478628e-05   4.501514740483815e-06   -5.0791671439806785e-05
-1.5218923347478628e-05   4.501514740483815e-06   -5.0791671439806785e-05
-1.5218923347478628e-05   4.501514740483815e-06   -5.0791671439806785e-05
-1.5218923347478628e-05   4.501514740483815e-06   -5.0791671439806785e-05
-1.750838433984136e-05   3.4459607884990313e-07   -4.3209652992473894e-05
-1.750838433984136e-05   3.4459607884990313e-07   -4.3209652992473894e-05
-1.750838433984136e-05   3.4459607884990313e-07   -4.3209652992473894e-05
-1.750838433984136e-05   3.4459607884990313e-07   -4.3209652992473894e-05
-1.9744375054019423e-05   2.5984842646426323e-06   -4.558397127129503e-05
-1.9744375054019423e-05   2.5984842646426323e-06   -4.558397127129503e-05
-1.9744375054019423e-05   2.5984842646426323e-06   -4.558397127129503e-05
-1.9744375054019423e-05   2.5984842646426323e-06   -4.558397127129503e-05
-1.909803395848091e-05   1.9087132883831206e-06   -4.13124041533828e-05
-1.909803395848091e-05   1.9087132883831206e-06   -4.13124041533828e-05
-1.909803395848091e-05   1.9087132883831206e-06   -4.13124041533828e-05
-1.909803395848091e-05   1.9087132883831206e-06   -4.13124041533828e-05
-1.6973785661660836e-05   4.06275923265113e-06   -4.614524554797658e-05
-1.6973785661660836e-05   4.06275923265113e-06   -4.614524554797658e-05
-1.6973785661660836e-05   4.06275923265113e-06   -4.614524554797658e-05
-1.6973785661660836e-05   4.06275923265113e-06   -4.614524554797658e-05
-1.8189551389272228e-05   2.3919793831670387e-06   -4.3116501425601194e-05
-1.8189551389272228e-05   2.3919793831670387e-06   -4.3116501425601194e-05
-1.8189551389272228e-05   2.3919793831670387e-06   -4.3116501425601194e-05
-1.8189551389272228e-05   2.3919793831670387e-06   -4.3116501425601194e-05
-1.6973785661660806e-05   1.9087132883831206e-06   -4.2604831719943474e-05
-1.6973785661660806e-05   1.9087132883831206e-06   -4.2604831719943474e-05
-1.6973785661660806e-05   1.9087132883831206e-06   -4.2604831719943474e-05
-1.6973785661660806e-05   1.9087132883831206e-06   -4.2604831719943474e-05
-1.909803395848091e-05   4.06275923265113e-06   -4.4852817981416064e-05
-1.909803395848091e-05   4.06275923265113e-06   -4.4852817981416064e-05
-1.909803395848091e-05   4.06275923265113e-06   -4.4852817981416064e-05
-1.909803395848091e-05   4.06275923265113e-06   -4.4852817981416064e-05
-1.826393484396729e-05   3.383078875440282e-06   -4.149293646335626e-05
-1.826393484396729e-05   3.383078875440282e-06   -4.149293646335626e-05
-1.826393484396729e-05   3.383078875440282e-06   -4.149293646335626e-05
-1.826393484396729e-05   3.383078875440282e-06   -4.149293646335626e-05
-1.641177143171073e-05   5.413941831250695e-06   -4.579839325726978e-05
-1.641177143171073e-05   5.413941831250695e-06   -4.579839325726978e-05
-1.641177143171073e-05   5.413941831250695e-06   -4.579839325726978e-05
-1.641177143171073e-05   5.413941831250695e-06   -4.579839325726978e-05
-1.761198773094913e-05   3.553385123886664e-06   -4.2681698734121364e-05
-1.761198773094913e-05   3.553385123886664e-06   -4.2681698734121364e-05
-1.761198773094913e-05   3.553385123886664e-06   -4.2681698734121364e-05
-1.761198773094913e-05   3.553385123886664e-06   -4.2681698734121364e-05
-1.6411771431710686e-05   3.383078875440282e-06   -4.2711454236842115e-05
-1.6411771431710686e-05   3.383078875440282e-06   -4.2711454236842115e-05
-1.6411771431710686e-05   3.383078875440282e-06   -4.2711454236842115e-05
-1.6411771431710686e-05   3.383078875440282e-06   -4.2711454236842115e-05
-1.8263934843967318e-05   5.413941831250695e-06   -4.457987548378366e-05
-1.8263934843967318e-05   5.413941831250695e-06   -4.457987548378366e-05
-1.8263934843967318e-05   5.413941831250695e-06   -4.457987548378366e-05
-1.8263934843967318e-05   5.413941831250695e-06   -4.457987548378366e-05
-1.7608375180883565e-05   5.050729402706353e-06   -4.264385809453941e-05
-1.7608375180883565e-05   5.050729402706353e-06   -4.264385809453941e-05
-1.7608375180883565e-05   5.050729402706353e-06   -4.264385809453941e-05
-1.7608375180883565e-05   5.050729402706353e-06   -4.264385809453941e-05
-1.5881647179489652e-05   6.9287783001480835e-06   -4.6648567435327266e-05
-1.5881647179489652e-05   6.9287783001480835e-06   -4.6648567435327266e-05
-1.5881647179489652e-05   6.9287783001480835e-06   -4.6648567435327266e-05
-1.5881647179489652e-05   6.9287783001480835e-06   -4.6648567435327266e-05
-1.7178404332780748e-05   4.7408204423358535e-06   -4.317453079848766e-05
-1.7178404332780748e-05   4.7408204423358535e-06   -4.317453079848766e-05
-1.7178404332780748e-05   4.7408204423358535e-06   -4.317453079848766e-05
-1.7178404332780748e-05   4.7408204423358535e-06   -4.317453079848766e-05
-1.9744375054019342e-05   4.7370660129198404e-07   -2.3034150116673334e-05
-1.9744375054019342e-05   4.7370660129198404e-07   -2.3034150116673334e-05
-1.9744375054019342e-05   4.7370660129198404e-07   -2.3034150116673334e-05
-1.9744375054019342e-05   4.7370660129198404e-07   -2.3034150116673334e-05
-2.3890645936428955e-05   4.364322075417742e-06   -2.7610232302880235e-05
-2.3890645936428955e-05   4.364322075417742e-06   -2.7610232302880235e-05
-2.3890645936428955e-05   4.364322075417742e-06   -2.7610232302880235e-05
-2.3890645936428955e-05   4.364322075417742e-06   -2.7610232302880235e-05
-2.1602535079866226e-05   1.7094373890580439e-06   -1.900266443430039e-05
-2.1602535079866226e-05   1.7094373890580439e-06   -1.900266443430039e-05
-2.1602535079866226e-05   1.7094373890580439e-06   -1.900266443430039e-05
-2.1602535079866226e-05   1.7094373890580439e-06   -1.900266443430039e-05
-1.909803395848087e-05   5.691320301436792e-06   -2.556596271736941e-05
-1.909803395848087e-05   5.691320301436792e-06   -2.556596271736941e-05
-1.909803395848087e-05   5.691320301436792e-06   -2.556596271736941e-05
-1.909803395848087e-05   5.691320301436792e-06   -2.556596271736941e-05
-2.0230565304854856e-05   3.2208940580181165e-06   -2.219615472736242e-05
-2.0230565304854856e-05   3.2208940580181165e-06   -2.219615472736242e-05
-2.0230565304854856e-05   3.2208940580181165e-06   -2.219615472736242e-05
-2.0230565304854856e-05   3.2208940580181165e-06   -2.219615472736242e-05
-1.909803395848083e-05   1.7094373890580439e-06   -2.139179418172727e-05
-1.909803395848083e-05   1.7094373890580439e-06   -2.139179418172727e-05
-1.909803395848083e-05   1.7094373890580439e-06   -2.139179418172727e-05
-1.909803395848083e-05   1.7094373890580439e-06   -2.139179418172727e-05
-2.1602535079866172e-05   5.691320301436792e-06   -2.3176832969942556e-05
-2.1602535079866172e-05   5.691320301436792e-06   -2.3176832969942556e-05
-2.1602535079866172e-05   5.691320301436792e-06   -2.3176832969942556e-05
-2.1602535079866172e-05   5.691320301436792e-06   -2.3176832969942556e-05
-1.974147618497127e-05   2.4046920617843033e-06   -1.8697321217399495e-05
-1.974147618497127e-05   2.4046920617843033e-06   -1.8697321217399495e-05
-1.974147618497127e-05   2.4046920617843033e-06   -1.8697321217399495e-05
-1.974147618497127e-05   2.4046920617843033e-06   -1.8697321217399495e-05
-1.826393484396729e-05   6.298960503014865e-06   -2.349645118381079e-05
-1.826393484396729e-05   6.298960503014865e-06   -2.349645118381079e-05
-1.826393484396729e-05   6.298960503014865e-06   -2.349645118381079e-05
-1.826393484396729e-05   6.298960503014865e-06   -2.349645118381079e-05
-1.9251349286992222e-05   3.83466501587687e-06   -2.0372183153153614e-05
-1.9251349286992222e-05   3.83466501587687e-06   -2.0372183153153614e-05
-1.9251349286992222e-05   3.83466501587687e-06   -2.0372183153153614e-05
-1.9251349286992222e-05   3.83466501587687e-06   -2.0372183153153614e-05
-1.826393484396725e-05   2.4046920617843033e-06   -2.1033882282137702e-05
-1.826393484396725e-05   2.4046920617843033e-06   -2.1033882282137702e-05
-1.826393484396725e-05   2.4046920617843033e-06   -2.1033882282137702e-05
-1.826393484396725e-05   2.4046920617843033e-06   -2.1033882282137702e-05
-1.974147618497127e-05   6.2989605030144315e-06   -2.1159890119072612e-05
-1.974147618497127e-05   6.2989605030144315e-06   -2.1159890119072612e-05
-1.974147618497127e-05   6.2989605030144315e-06   -2.1159890119072612e-05
-1.974147618497127e-05   6.2989605030144315e-06   -2.1159890119072612e-05
-1.7466564797063392e-05   3.6389553243576338e-06   -1.929566739259953e-05
-1.7466564797063392e-05   3.6389553243576338e-06   -1.929566739259953e-05
-1.7466564797063392e-05   3.6389553243576338e-06   -1.929566739259953e-05
-1.7466564797063392e-05   3.6389553243576338e-06   -1.929566739259953e-05
-1.7608375180883524e-05   7.241917239895427e-06   -2.1221093902221562e-05
-1.7608375180883524e-05   7.241917239895427e-06   -2.1221093902221562e-05
-1.7608375180883524e-05   7.241917239895427e-06   -2.1221093902221562e-05
-1.7608375180883524e-05   7.241917239895427e-06   -2.1221093902221562e-05
-1.781537303557936e-05   4.331789476197303e-06   -1.9130020819509868e-05
-1.781537303557936e-05   4.331789476197303e-06   -1.9130020819509868e-05
-1.781537303557936e-05   4.331789476197303e-06   -1.9130020819509868e-05
-1.781537303557936e-05   4.331789476197303e-06   -1.9130020819509868e-05
1.163778669508467e-05   -1.1520200140732219e-06   -1.202112369825441e-05
1.163778669508467e-05   -1.1520200140732219e-06   -1.202112369825441e-05
1.163778669508467e-05   -1.1520200140732219e-06   -1.202112369825441e-05
1.163778669508467e-05   -1.1520200140732219e-06   -1.202112369825441e-05
1.1877765455355982e-06   -4.860236748686388e-06   -3.1662737321603955e-05
1.1877765455355982e-06   -4.860236748686388e-06   -3.1662737321603955e-05
1.1877765455355982e-06   -4.860236748686388e-06   -3.1662737321603955e-05
1.1877765455355982e-06   -4.860236748686388e-06   -3.1662737321603955e-05
2.1096926833320015e-06   -3.198137562112138e-08   -1.327331847997184e-05
2.1096926833320015e-06   -3.198137562112138e-08   -1.327331847997184e-05
2.1096926833320015e-06   -3.198137562112138e-08   -1.327331847997184e-05
2.1096926833320015e-06   -3.198137562112138e-08   -1.327331847997184e-05
1.420673679872062e-05   -3.993225135990458e-06   -3.105831241606409e-05
1.420673679872062e-05   -3.993225135990458e-06   -3.105831241606409e-05
1.420673679872062e-05   -3.993225135990458e-06   -3.105831241606409e-05
1.420673679872062e-05   -3.993225135990458e-06   -3.105831241606409e-05
7.0144758352875245e-06   -2.0264300853870335e-06   -2.025128784070439e-05
7.0144758352875245e-06   -2.0264300853870335e-06   -2.025128784070439e-05
7.0144758352875245e-06   -2.0264300853870335e-06   -2.025128784070439e-05
7.0144758352875245e-06   -2.0264300853870335e-06   -2.025128784070439e-05
1.420673679872062e-05   -3.198137562112138e-08   -1.089657222374976e-05
1.420673679872062e-05   -3.198137562112138e-08   -1.089657222374976e-05
1.420673679872062e-05   -3.198137562112138e-08   -1.089657222374976e-05
1.420673679872062e-05   -3.198137562112138e-08   -1.089657222374976e-05
2.1096926833320015e-06   -3.993225135990458e-06   -3.343505867228617e-05
2.1096926833320015e-06   -3.993225135990458e-06   -3.343505867228617e-05
2.1096926833320015e-06   -3.993225135990458e-06   -3.343505867228617e-05
2.1096926833320015e-06   -3.993225135990458e-06   -3.343505867228617e-05
3.1961172949340885e-06   6.009429889637305e-07   -1.3372535922852313e-05
3.1961172949340885e-06   6.009429889637305e-07   -1.3372535922852313e-05
3.1961172949340885e-06   6.009429889637305e-07   -1.3372535922852313e-05
3.1961172949340885e-06   6.009429889637305e-07   -1.3372535922852313e-05
1.637936894703174e-05   -3.4159896221811793e-06   -3.29344624429949e-05
1.637936894703174e-05   -3.4159896221811793e-06   -3.29344624429949e-05
1.637936894703174e-05   -3.4159896221811793e-06   -3.29344624429949e-05
1.637936894703174e-05   -3.4159896221811793e-06   -3.29344624429949e-05
8.644894625668042e-06   -1.6217877726945606e-06   -2.112019301708139e-05
8.644894625668042e-06   -1.6217877726945606e-06   -2.112019301708139e-05
8.644894625668042e-06   -1.6217877726945606e-06   -2.112019301708139e-05
8.644894625668042e-06   -1.6217877726945606e-06   -2.112019301708139e-05
1.637936894703174e-05   6.009429889637305e-07   -1.096237635616541e-05
1.637936894703174e-05   6.009429889637305e-07   -1.096237635616541e-05
1.637936894703174e-05   6.009429889637305e-07   -1.096237635616541e-05
1.637936894703174e-05   6.009429889637305e-07   -1.096237635616541e-05
3.1961172949340343e-06   -3.4159896221811793e-06   -3.534462200968191e-05
3.1961172949340343e-06   -3.4159896221811793e-06   -3.534462200968191e-05
3.1961172949340343e-06   -3.4159896221811793e-06   -3.534462200968191e-05
3.1961172949340343e-06   -3.4159896221811793e-06   -3.534462200968191e-05
4.091381277520473e-06   1.8635002491259288e-06   -1.4646302699294986e-05
4.091381277520473e-06   1.8635002491259288e-06   -1.4646302699294986e-05
4.091381277520473e-06   1.8635002491259288e-06   -1.4646302699294986e-05
4.091381277520473e-06   1.8635002491259288e-06   -1.4646302699294986e-05
1.8989142390678855e-05   -1.960733227005223e-06   -3.718136446888027e-05
1.8989142390678855e-05   -1.960733227005223e-06   -3.718136446888027e-05
1.8989142390678855e-05   -1.960733227005223e-06   -3.718136446888027e-05
1.8989142390678855e-05   -1.960733227005223e-06   -3.718136446888027e-05
9.943972841052558e-06   -1.0282662468324467e-06   -2.266556207427455e-05
9.943972841052558e-06   -1.0282662468324467e-06   -2.266556207427455e-05
9.943972841052558e-06   -1.0282662468324467e-06   -2.266556207427455e-05
9.943972841052558e-06   -1.0282662468324467e-06   -2.266556207427455e-05
1.187776545535544e-06   -2.5173324392146687e-07   -3.450289848876652e-05
1.187776545535544e-06   -2.5173324392146687e-07   -3.450289848876652e-05
1.187776545535544e-06   -2.5173324392146687e-07   -3.450289848876652e-05
1.187776545535544e-06   -2.5173324392146687e-07   -3.450289848876652e-05
-1.1021962676885041e-05   -1.925697089982803e-06   -5.585684216710468e-05
-1.1021962676885041e-05   -1.925697089982803e-06   -5.585684216710468e-05
-1.1021962676885041e-05   -1.925697089982803e-06   -5.585684216710468e-05
-1.1021962676885041e-05   -1.925697089982803e-06   -5.585684216710468e-05
-1.0212593607319715e-05   1.161037353553801e-06   -3.4698677149619253e-05
-1.0212593607319715e-05   1.161037353553801e-06   -3.4698677149619253e-05
-1.0212593607319715e-05   1.161037353553801e-06   -3.4698677149619253e-05
-1.0212593607319715e-05   1.161037353553801e-06   -3.4698677149619253e-05
2.1096926833320015e-06   -7.378600625088452e-07   -5.409648251773438e-05
2.1096926833320015e-06   -7.378600625088452e-07   -5.409648251773438e-05
2.1096926833320015e-06   -7.378600625088452e-07   -5.409648251773438e-05
2.1096926833320015e-06   -7.378600625088452e-07   -5.409648251773438e-05
-4.380425025892487e-06   -7.5117676448435e-08   -4.36772651006631e-05
-4.380425025892487e-06   -7.5117676448435e-08   -4.36772651006631e-05
-4.380425025892487e-06   -7.5117676448435e-08   -4.36772651006631e-05
-4.380425025892487e-06   -7.5117676448435e-08   -4.36772651006631e-05
2.1096926833320557e-06   1.161037353553801e-06   -3.35593386999811e-05
2.1096926833320557e-06   1.161037353553801e-06   -3.35593386999811e-05
2.1096926833320557e-06   1.161037353553801e-06   -3.35593386999811e-05
2.1096926833320557e-06   1.161037353553801e-06   -3.35593386999811e-05
-1.0212593607319715e-05   -7.378600625092789e-07   -5.523582096737237e-05
-1.0212593607319715e-05   -7.378600625092789e-07   -5.523582096737237e-05
-1.0212593607319715e-05   -7.378600625092789e-07   -5.523582096737237e-05
-1.0212593607319715e-05   -7.378600625092789e-07   -5.523582096737237e-05
-9.398637191792393e-06   2.5207802812152874e-06   -3.475063864242633e-05
-9.398637191792393e-06   2.5207802812152874e-06   -3.475063864242633e-05
-9.398637191792393e-06   2.5207802812152874e-06   -3.475063864242633e-05
-9.398637191792393e-06   2.5207802812152874e-06   -3.475063864242633e-05
3.1961172949340885e-06   4.90113615811763e-07   -5.452349612106161e-05
3.1961172949340885e-06   4.90113615811763e-07   -5.452349612106161e-05
3.1961172949340885e-06   4.90113615811763e-07   -5.452349612106161e-05
3.1961172949340885e-06   4.90113615811763e-07   -5.452349612106161e-05
-3.663109425486015e-06   8.999287855020188e-07   -4.3337340688842e-05
-3.663109425486015e-06   8.999287855020188e-07   -4.3337340688842e-05
-3.663109425486015e-06   8.999287855020188e-07   -4.3337340688842e-05
-3.663109425486015e-06   8.999287855020188e-07   -4.3337340688842e-05
3.1961172949340885e-06   2.520780281215721e-06   -3.353223864318417e-05
3.1961172949340885e-06   2.520780281215721e-06   -3.353223864318417e-05
3.1961172949340885e-06   2.520780281215721e-06   -3.353223864318417e-05
3.1961172949340885e-06   2.520780281215721e-06   -3.353223864318417e-05
-9.398637191792393e-06   4.90113615811763e-07   -5.574189612030404e-05
-9.398637191792393e-06   4.90113615811763e-07   -5.574189612030404e-05
-9.398637191792393e-06   4.90113615811763e-07   -5.574189612030404e-05
-9.398637191792393e-06   4.90113615811763e-07   -5.574189612030404e-05
-8.620680935659457e-06   4.073008001579271e-06   -3.562062887857713e-05
-8.620680935659457e-06   4.073008001579271e-06   -3.562062887857713e-05
-8.620680935659457e-06   4.073008001579271e-06   -3.562062887857713e-05
-8.620680935659457e-06   4.073008001579271e-06   -3.562062887857713e-05
4.091381277520419e-06   1.9439221513790385e-06   -5.552994772375664e-05
4.091381277520419e-06   1.9439221513790385e-06   -5.552994772375664e-05
4.091381277520419e-06   1.9439221513790385e-06   -5.552994772375664e-05
4.091381277520419e-06   1.9439221513790385e-06   -5.552994772375664e-05
-2.8648356762351663e-06   1.9803296559921246e-06   -4.395809730359956e-05
-2.8648356762351663e-06   1.9803296559921246e-06   -4.395809730359956e-05
-2.8648356762351663e-06   1.9803296559921246e-06   -4.395809730359956e-05
-2.8648356762351663e-06   1.9803296559921246e-06   -4.395809730359956e-05
-1.1021962676885068e-05   1.168561500005088e-06   -4.175579732941482e-05
-1.1021962676885068e-05   1.168561500005088e-06   -4.175579732941482e-05
-1.1021962676885068e-05   1.168561500005088e-06   -4.175579732941482e-05
-1.1021962676885068e-05   1.168561500005088e-06   -4.175579732941482e-05
-2.312694538330284e-05   1.473257520563133e-06   -6.174795089444285e-05
-2.312694538330284e-05   1.473257520563133e-06   -6.174795089444285e-05
-2.312694538330284e-05   1.473257520563133e-06   -6.174795089444285e-05
-2.312694538330284e-05   1.473257520563133e-06   -6.174795089444285e-05
-2.231167304409873e-05   2.628209064289063e-06   -4.100947315049865e-05
-2.231167304409873e-05   2.628209064289063e-06   -4.100947315049865e-05
-2.231167304409873e-05   2.628209064289063e-06   -4.100947315049865e-05
-2.231167304409873e-05   2.628209064289063e-06   -4.100947315049865e-05
-1.0212593607319742e-05   2.7294624327990104e-06   -6.123535756623626e-05
-1.0212593607319742e-05   2.7294624327990104e-06   -6.123535756623626e-05
-1.0212593607319742e-05   2.7294624327990104e-06   -6.123535756623626e-05
-1.0212593607319742e-05   2.7294624327990104e-06   -6.123535756623626e-05
-1.6571742602184654e-05   2.256224158168115e-06   -5.035283294334953e-05
-1.6571742602184654e-05   2.256224158168115e-06   -5.035283294334953e-05
-1.6571742602184654e-05   2.256224158168115e-06   -5.035283294334953e-05
-1.6571742602184654e-05   2.256224158168115e-06   -5.035283294334953e-05
-1.0212593607319742e-05   2.628209064289063e-06   -4.107022517160449e-05
-1.0212593607319742e-05   2.628209064289063e-06   -4.107022517160449e-05
-1.0212593607319742e-05   2.628209064289063e-06   -4.107022517160449e-05
-1.0212593607319742e-05   2.628209064289063e-06   -4.107022517160449e-05
-2.231167304409873e-05   2.7294624327990104e-06   -6.117460554513053e-05
-2.231167304409873e-05   2.7294624327990104e-06   -6.117460554513053e-05
-2.231167304409873e-05   2.7294624327990104e-06   -6.117460554513053e-05
-2.231167304409873e-05   2.7294624327990104e-06   -6.117460554513053e-05
-2.148351691235433e-05   4.120034307542736e-06   -4.11161478533022e-05
-2.148351691235433e-05   4.120034307542736e-06   -4.11161478533022e-05
-2.148351691235433e-05   4.120034307542736e-06   -4.11161478533022e-05
-2.148351691235433e-05   4.120034307542736e-06   -4.11161478533022e-05
-9.39863719179242e-06   4.059688073582753e-06   -6.122140631386268e-05
-9.39863719179242e-06   4.059688073582753e-06   -6.122140631386268e-05
-9.39863719179242e-06   4.059688073582753e-06   -6.122140631386268e-05
-9.39863719179242e-06   4.059688073582753e-06   -6.122140631386268e-05
-1.585401846564719e-05   3.3524172450838385e-06   -5.003807502700612e-05
-1.585401846564719e-05   3.3524172450838385e-06   -5.003807502700612e-05
-1.585401846564719e-05   3.3524172450838385e-06   -5.003807502700612e-05
-1.585401846564719e-05   3.3524172450838385e-06   -5.003807502700612e-05
-9.39863719179242e-06   4.120034307542736e-06   -4.107994011292595e-05
-9.39863719179242e-06   4.120034307542736e-06   -4.107994011292595e-05
-9.39863719179242e-06   4.120034307542736e-06   -4.107994011292595e-05
-9.39863719179242e-06   4.120034307542736e-06   -4.107994011292595e-05
-2.148351691235429e-05   4.059688073582753e-06   -6.125761405423899e-05
-2.148351691235429e-05   4.059688073582753e-06   -6.125761405423899e-05
-2.148351691235429e-05   4.059688073582753e-06   -6.125761405423899e-05
-2.148351691235429e-05   4.059688073582753e-06   -6.125761405423899e-05
-2.0693779683415307e-05   5.632462037658773e-06   -4.203947112722947e-05
-2.0693779683415307e-05   5.632462037658773e-06   -4.203947112722947e-05
-2.0693779683415307e-05   5.632462037658773e-06   -4.203947112722947e-05
-2.0693779683415307e-05   5.632462037658773e-06   -4.203947112722947e-05
-8.620680935659484e-06   5.412877907646531e-06   -6.202955189548175e-05
-8.620680935659484e-06   5.412877907646531e-06   -6.202955189548175e-05
-8.620680935659484e-06   5.412877907646531e-06   -6.202955189548175e-05
-8.620680935659484e-06   5.412877907646531e-06   -6.202955189548175e-05
-1.5186099383519926e-05   4.4652249548918915e-06   -5.051859604406216e-05
-1.5186099383519926e-05   4.4652249548918915e-06   -5.051859604406216e-05
-1.5186099383519926e-05   4.4652249548918915e-06   -5.051859604406216e-05
-1.5186099383519926e-05   4.4652249548918915e-06   -5.051859604406216e-05
-2.3126945383302877e-05   2.598484264643066e-06   -3.510717273511651e-05
-2.3126945383302877e-05   2.598484264643066e-06   -3.510717273511651e-05
-2.3126945383302877e-05   2.598484264643066e-06   -3.510717273511651e-05
-2.3126945383302877e-05   2.598484264643066e-06   -3.510717273511651e-05
-3.50830392860352e-05   4.770849815305227e-06   -5.373057657593922e-05
-3.50830392860352e-05   4.770849815305227e-06   -5.373057657593922e-05
-3.50830392860352e-05   4.770849815305227e-06   -5.373057657593922e-05
-3.50830392860352e-05   4.770849815305227e-06   -5.373057657593922e-05
-3.415188654944908e-05   4.06275923265113e-06   -3.306613311214847e-05
-3.415188654944908e-05   4.06275923265113e-06   -3.306613311214847e-05
-3.415188654944908e-05   4.06275923265113e-06   -3.306613311214847e-05
-3.415188654944908e-05   4.06275923265113e-06   -3.306613311214847e-05
-2.231167304409873e-05   6.111682602959016e-06   -5.402917630991683e-05
-2.231167304409873e-05   6.111682602959016e-06   -5.402917630991683e-05
-2.231167304409873e-05   6.111682602959016e-06   -5.402917630991683e-05
-2.231167304409873e-05   6.111682602959016e-06   -5.402917630991683e-05
-2.8469886997808042e-05   4.560574299542625e-06   -4.283482140501829e-05
-2.8469886997808042e-05   4.560574299542625e-06   -4.283482140501829e-05
-2.8469886997808042e-05   4.560574299542625e-06   -4.283482140501829e-05
-2.8469886997808042e-05   4.560574299542625e-06   -4.283482140501829e-05
-2.2311673044098766e-05   4.06275923265113e-06   -3.4295487134332813e-05
-2.2311673044098766e-05   4.06275923265113e-06   -3.4295487134332813e-05
-2.2311673044098766e-05   4.06275923265113e-06   -3.4295487134332813e-05
-2.2311673044098766e-05   4.06275923265113e-06   -3.4295487134332813e-05
-3.4151886549449133e-05   6.111682602958583e-06   -5.2799822287732555e-05
-3.4151886549449133e-05   6.111682602958583e-06   -5.2799822287732555e-05
-3.4151886549449133e-05   6.111682602958583e-06   -5.2799822287732555e-05
-3.4151886549449133e-05   6.111682602958583e-06   -5.2799822287732555e-05
-3.3038065614748014e-05   5.413941831250695e-06   -3.2762421839652384e-05
-3.3038065614748014e-05   5.413941831250695e-06   -3.2762421839652384e-05
-3.3038065614748014e-05   5.413941831250695e-06   -3.2762421839652384e-05
-3.3038065614748014e-05   5.413941831250695e-06   -3.2762421839652384e-05
-2.148351691235433e-05   7.319740882852886e-06   -5.316348244126987e-05
-2.148351691235433e-05   7.319740882852886e-06   -5.316348244126987e-05
-2.148351691235433e-05   7.319740882852886e-06   -5.316348244126987e-05
-2.148351691235433e-05   7.319740882852886e-06   -5.316348244126987e-05
-2.753195436527672e-05   5.6189189326649736e-06   -4.2062260182953814e-05
-2.753195436527672e-05   5.6189189326649736e-06   -4.2062260182953814e-05
-2.753195436527672e-05   5.6189189326649736e-06   -4.2062260182953814e-05
-2.753195436527672e-05   5.6189189326649736e-06   -4.2062260182953814e-05
-2.1483516912354314e-05   5.413941831250695e-06   -3.390590127061357e-05
-2.1483516912354314e-05   5.413941831250695e-06   -3.390590127061357e-05
-2.1483516912354314e-05   5.413941831250695e-06   -3.390590127061357e-05
-2.1483516912354314e-05   5.413941831250695e-06   -3.390590127061357e-05
-3.3038065614748014e-05   7.31974088285332e-06   -5.202000301030864e-05
-3.3038065614748014e-05   7.31974088285332e-06   -5.202000301030864e-05
-3.3038065614748014e-05   7.31974088285332e-06   -5.202000301030864e-05
-3.3038065614748014e-05   7.31974088285332e-06   -5.202000301030864e-05
-3.210984047786291e-05   6.9287783001480835e-06   -3.3669023169596076e-05
-3.210984047786291e-05   6.9287783001480835e-06   -3.3669023169596076e-05
-3.210984047786291e-05   6.9287783001480835e-06   -3.3669023169596076e-05
-3.210984047786291e-05   6.9287783001480835e-06   -3.3669023169596076e-05
-2.0693779683415307e-05   8.672016009146199e-06   -5.3741733785741045e-05
-2.0693779683415307e-05   8.672016009146199e-06   -5.3741733785741045e-05
-2.0693779683415307e-05   8.672016009146199e-06   -5.3741733785741045e-05
-2.0693779683415307e-05   8.672016009146199e-06   -5.3741733785741045e-05
-2.6902292016160853e-05   6.662128819469142e-06   -4.218828091735891e-05
-2.6902292016160853e-05   6.662128819469142e-06   -4.218828091735891e-05
-2.6902292016160853e-05   6.662128819469142e-06   -4.218828091735891e-05
-2.6902292016160853e-05   6.662128819469142e-06   -4.218828091735891e-05
-3.50830392860352e-05   4.364322075417742e-06   -1.8164383720779744e-05
-3.50830392860352e-05   4.364322075417742e-06   -1.8164383720779744e-05
-3.50830392860352e-05   4.364322075417742e-06   -1.8164383720779744e-05
-3.50830392860352e-05   4.364322075417742e-06   -1.8164383720779744e-05
-4.8704112287441145e-05   8.201338384237512e-06   -3.85639622711648e-05
-4.8704112287441145e-05   8.201338384237512e-06   -3.85639622711648e-05
-4.8704112287441145e-05   8.201338384237512e-06   -3.85639622711648e-05
-4.8704112287441145e-05   8.201338384237512e-06   -3.85639622711648e-05
-4.615174354248138e-05   5.691320301436792e-06   -1.1438338779199038e-05
-4.615174354248138e-05   5.691320301436792e-06   -1.1438338779199038e-05
-4.615174354248138e-05   5.691320301436792e-06   -1.1438338779199038e-05
-4.615174354248138e-05   5.691320301436792e-06   -1.1438338779199038e-05
-3.415188654944908e-05   9.592885416275128e-06   -3.377903950315593e-05
-3.415188654944908e-05   9.592885416275128e-06   -3.377903950315593e-05
-3.415188654944908e-05   9.592885416275128e-06   -3.377903950315593e-05
-3.415188654944908e-05   9.592885416275128e-06   -3.377903950315593e-05
-3.935361677165821e-05   7.122373521411315e-06   -2.362718199588887e-05
-3.935361677165821e-05   7.122373521411315e-06   -2.362718199588887e-05
-3.935361677165821e-05   7.122373521411315e-06   -2.362718199588887e-05
-3.935361677165821e-05   7.122373521411315e-06   -2.362718199588887e-05
-3.4151886549449106e-05   5.691320301436792e-06   -1.377927784810217e-05
-3.4151886549449106e-05   5.691320301436792e-06   -1.377927784810217e-05
-3.4151886549449106e-05   5.691320301436792e-06   -1.377927784810217e-05
-3.4151886549449106e-05   5.691320301436792e-06   -1.377927784810217e-05
-4.615174354248122e-05   9.592885416275128e-06   -3.143810043425288e-05
-4.615174354248122e-05   9.592885416275128e-06   -3.143810043425288e-05
-4.615174354248122e-05   9.592885416275128e-06   -3.143810043425288e-05
-4.615174354248122e-05   9.592885416275128e-06   -3.143810043425288e-05
-4.404214521648415e-05   6.298960503014865e-06   -9.403581321380415e-06
-4.404214521648415e-05   6.298960503014865e-06   -9.403581321380415e-06
-4.404214521648415e-05   6.298960503014865e-06   -9.403581321380415e-06
-4.404214521648415e-05   6.298960503014865e-06   -9.403581321380415e-06
-3.303806561474795e-05   1.0091320866845947e-05   -3.0019130209239548e-05
-3.303806561474795e-05   1.0091320866845947e-05   -3.0019130209239548e-05
-3.303806561474795e-05   1.0091320866845947e-05   -3.0019130209239548e-05
-3.303806561474795e-05   1.0091320866845947e-05   -3.0019130209239548e-05
-3.8415130208042066e-05   7.747427299702354e-06   -1.9651019746796407e-05
-3.8415130208042066e-05   7.747427299702354e-06   -1.9651019746796407e-05
-3.8415130208042066e-05   7.747427299702354e-06   -1.9651019746796407e-05
-3.8415130208042066e-05   7.747427299702354e-06   -1.9651019746796407e-05
-3.3038065614748014e-05   6.2989605030144315e-06   -1.1678997539679324e-05
-3.3038065614748014e-05   6.2989605030144315e-06   -1.1678997539679324e-05
-3.3038065614748014e-05   6.2989605030144315e-06   -1.1678997539679324e-05
-3.3038065614748014e-05   6.2989605030144315e-06   -1.1678997539679324e-05
-4.40421452164841e-05   1.0091320866845947e-05   -2.77437139909408e-05
-4.40421452164841e-05   1.0091320866845947e-05   -2.77437139909408e-05
-4.40421452164841e-05   1.0091320866845947e-05   -2.77437139909408e-05
-4.40421452164841e-05   1.0091320866845947e-05   -2.77437139909408e-05
-4.154870332361891e-05   7.241917239894993e-06   -7.278555599672708e-06
-4.154870332361891e-05   7.241917239894993e-06   -7.278555599672708e-06
-4.154870332361891e-05   7.241917239894993e-06   -7.278555599672708e-06
-4.154870332361891e-05   7.241917239894993e-06   -7.278555599672708e-06
-3.210984047786291e-05   1.072495619870023e-05   -2.5099817051215284e-05
-3.210984047786291e-05   1.072495619870023e-05   -2.5099817051215284e-05
-3.210984047786291e-05   1.072495619870023e-05   -2.5099817051215284e-05
-3.210984047786291e-05   1.072495619870023e-05   -2.5099817051215284e-05
-3.64338318218353e-05   8.049827578826205e-06   -1.6288087639337238e-05
-3.64338318218353e-05   8.049827578826205e-06   -1.6288087639337238e-05
-3.64338318218353e-05   8.049827578826205e-06   -1.6288087639337238e-05
-3.64338318218353e-05   8.049827578826205e-06   -1.6288087639337238e-05
3.7033916875343236e-05   -4.860236748686821e-06   -3.3642259526702606e-07
3.7033916875343236e-05   -4.860236748686821e-06   -3.3642259526702606e-07
3.7033916875343236e-05   -4.860236748686821e-06   -3.3642259526702606e-07
3.7033916875343236e-05   -4.860236748686821e-06   -3.3642259526702606e-07
1.5793118975708574e-05   -8.774785539536218e-06   -3.808648170250113e-05
1.5793118975708574e-05   -8.774785539536218e-06   -3.808648170250113e-05
1.5793118975708574e-05   -8.774785539536218e-06   -3.808648170250113e-05
1.5793118975708574e-05   -8.774785539536218e-06   -3.808648170250113e-05
1.6917926312484265e-05   -3.993225135990892e-06   -4.2371276488557125e-06
1.6917926312484265e-05   -3.993225135990892e-06   -4.2371276488557125e-06
1.6917926312484265e-05   -3.993225135990892e-06   -4.2371276488557125e-06
1.6917926312484265e-05   -3.993225135990892e-06   -4.2371276488557125e-06
3.984510800108745e-05   -8.159718819865814e-06   -3.994920091953606e-05
3.984510800108745e-05   -8.159718819865814e-06   -3.994920091953606e-05
3.984510800108745e-05   -8.159718819865814e-06   -3.994920091953606e-05
3.984510800108745e-05   -8.159718819865814e-06   -3.994920091953606e-05
2.6293140757073085e-05   -5.7807050513271514e-06   -1.8789997107301632e-05
2.6293140757073085e-05   -5.7807050513271514e-06   -1.8789997107301632e-05
2.6293140757073085e-05   -5.7807050513271514e-06   -1.8789997107301632e-05
2.6293140757073085e-05   -5.7807050513271514e-06   -1.8789997107301632e-05
3.984510800108756e-05   -3.993225135990892e-06   -1.7372314385305856e-06
3.984510800108756e-05   -3.993225135990892e-06   -1.7372314385305856e-06
3.984510800108756e-05   -3.993225135990892e-06   -1.7372314385305856e-06
3.984510800108756e-05   -3.993225135990892e-06   -1.7372314385305856e-06
1.691792631248421e-05   -8.159718819865814e-06   -4.244909712986119e-05
1.691792631248421e-05   -8.159718819865814e-06   -4.244909712986119e-05
1.691792631248421e-05   -8.159718819865814e-06   -4.244909712986119e-05
1.691792631248421e-05   -8.159718819865814e-06   -4.244909712986119e-05
1.816365983440117e-05   -3.4159896221807456e-06   -5.94568257834046e-06
1.816365983440117e-05   -3.4159896221807456e-06   -5.94568257834046e-06
1.816365983440117e-05   -3.4159896221807456e-06   -5.94568257834046e-06
1.816365983440117e-05   -3.4159896221807456e-06   -5.94568257834046e-06
4.220792666241916e-05   -7.632254703669652e-06   -4.348970157614393e-05
4.220792666241916e-05   -7.632254703669652e-06   -4.348970157614393e-05
4.220792666241916e-05   -7.632254703669652e-06   -4.348970157614393e-05
4.220792666241916e-05   -7.632254703669652e-06   -4.348970157614393e-05
2.8404747728230482e-05   -5.545993913611599e-06   -2.1736159826531197e-05
2.8404747728230482e-05   -5.545993913611599e-06   -2.1736159826531197e-05
2.8404747728230482e-05   -5.545993913611599e-06   -2.1736159826531197e-05
2.8404747728230482e-05   -5.545993913611599e-06   -2.1736159826531197e-05
4.220792666241927e-05   -3.4159896221807456e-06   -3.415923529447029e-06
4.220792666241927e-05   -3.4159896221807456e-06   -3.415923529447029e-06
4.220792666241927e-05   -3.4159896221807456e-06   -3.415923529447029e-06
4.220792666241927e-05   -3.4159896221807456e-06   -3.415923529447029e-06
1.816365983440117e-05   -7.632254703669652e-06   -4.601946062503747e-05
1.816365983440117e-05   -7.632254703669652e-06   -4.601946062503747e-05
1.816365983440117e-05   -7.632254703669652e-06   -4.601946062503747e-05
1.816365983440117e-05   -7.632254703669652e-06   -4.601946062503747e-05
1.919437876566173e-05   -1.960733227005223e-06   -9.892702233049548e-06
1.919437876566173e-05   -1.960733227005223e-06   -9.892702233049548e-06
1.919437876566173e-05   -1.960733227005223e-06   -9.892702233049548e-06
1.919437876566173e-05   -1.960733227005223e-06   -9.892702233049548e-06
4.495124419693448e-05   -5.962926074015631e-06   -5.041949557696489e-05
4.495124419693448e-05   -5.962926074015631e-06   -5.041949557696489e-05
4.495124419693448e-05   -5.962926074015631e-06   -5.041949557696489e-05
4.495124419693448e-05   -5.962926074015631e-06   -5.041949557696489e-05
2.9552495712286585e-05   -4.8949631171689954e-06   -2.539569254332726e-05
2.9552495712286585e-05   -4.8949631171689954e-06   -2.539569254332726e-05
2.9552495712286585e-05   -4.8949631171689954e-06   -2.539569254332726e-05
2.9552495712286585e-05   -4.8949631171689954e-06   -2.539569254332726e-05
1.5793118975708628e-05   -1.925697089982803e-06   -2.5874878407640845e-05
1.5793118975708628e-05   -1.925697089982803e-06   -2.5874878407640845e-05
1.5793118975708628e-05   -1.925697089982803e-06   -2.5874878407640845e-05
1.5793118975708628e-05   -1.925697089982803e-06   -2.5874878407640845e-05
-6.701977540584953e-06   -4.115178689992338e-06   -6.468039489480231e-05
-6.701977540584953e-06   -4.115178689992338e-06   -6.468039489480231e-05
-6.701977540584953e-06   -4.115178689992338e-06   -6.468039489480231e-05
-6.701977540584953e-06   -4.115178689992338e-06   -6.468039489480231e-05
-5.654727171070846e-06   -7.378600625088452e-07   -2.6413434673188806e-05
-5.654727171070846e-06   -7.378600625088452e-07   -2.6413434673188806e-05
-5.654727171070846e-06   -7.378600625088452e-07   -2.6413434673188806e-05
-5.654727171070846e-06   -7.378600625088452e-07   -2.6413434673188806e-05
1.691792631248421e-05   -3.262665360649359e-06   -6.25196406335625e-05
1.691792631248421e-05   -3.262665360649359e-06   -6.25196406335625e-05
1.691792631248421e-05   -3.262665360649359e-06   -6.25196406335625e-05
1.691792631248421e-05   -3.262665360649359e-06   -6.25196406335625e-05
5.144905873202897e-06   -1.990880938880328e-06   -4.366101055448845e-05
5.144905873202897e-06   -1.990880938880328e-06   -4.366101055448845e-05
5.144905873202897e-06   -1.990880938880328e-06   -4.366101055448845e-05
5.144905873202897e-06   -1.990880938880328e-06   -4.366101055448845e-05
1.691792631248421e-05   -7.378600625088452e-07   -2.4898551494303978e-05
1.691792631248421e-05   -7.378600625088452e-07   -2.4898551494303978e-05
1.691792631248421e-05   -7.378600625088452e-07   -2.4898551494303978e-05
1.691792631248421e-05   -7.378600625088452e-07   -2.4898551494303978e-05
-5.654727171070846e-06   -3.262665360649359e-06   -6.403452381244668e-05
-5.654727171070846e-06   -3.262665360649359e-06   -6.403452381244668e-05
-5.654727171070846e-06   -3.262665360649359e-06   -6.403452381244668e-05
-5.654727171070846e-06   -3.262665360649359e-06   -6.403452381244668e-05
-4.654793671826651e-06   4.90113615811763e-07   -2.6750875705698358e-05
-4.654793671826651e-06   4.90113615811763e-07   -2.6750875705698358e-05
-4.654793671826651e-06   4.90113615811763e-07   -2.6750875705698358e-05
-4.654793671826651e-06   4.90113615811763e-07   -2.6750875705698358e-05
1.816365983440117e-05   -2.220418077485218e-06   -6.315531253343323e-05
1.816365983440117e-05   -2.220418077485218e-06   -6.315531253343323e-05
1.816365983440117e-05   -2.220418077485218e-06   -6.315531253343323e-05
1.816365983440117e-05   -2.220418077485218e-06   -6.315531253343323e-05
5.976695051035618e-06   -1.237278762584483e-06   -4.3433588150096716e-05
5.976695051035618e-06   -1.237278762584483e-06   -4.3433588150096716e-05
5.976695051035618e-06   -1.237278762584483e-06   -4.3433588150096716e-05
5.976695051035618e-06   -1.237278762584483e-06   -4.3433588150096716e-05
1.816365983440117e-05   4.90113615811763e-07   -2.512455668972043e-05
1.816365983440117e-05   4.90113615811763e-07   -2.512455668972043e-05
1.816365983440117e-05   4.90113615811763e-07   -2.512455668972043e-05
1.816365983440117e-05   4.90113615811763e-07   -2.512455668972043e-05
-4.654793671826651e-06   -2.220418077485218e-06   -6.478163154941159e-05
-4.654793671826651e-06   -2.220418077485218e-06   -6.478163154941159e-05
-4.654793671826651e-06   -2.220418077485218e-06   -6.478163154941159e-05
-4.654793671826651e-06   -2.220418077485218e-06   -6.478163154941159e-05
-3.7152982261825466e-06   1.9439221513790385e-06   -2.7658747933206754e-05
-3.7152982261825466e-06   1.9439221513790385e-06   -2.7658747933206754e-05
-3.7152982261825466e-06   1.9439221513790385e-06   -2.7658747933206754e-05
-3.7152982261825466e-06   1.9439221513790385e-06   -2.7658747933206754e-05
1.9194378765661785e-05   -9.094154002197569e-07   -6.412954038865462e-05
1.9194378765661785e-05   -9.094154002197569e-07   -6.412954038865462e-05
1.9194378765661785e-05   -9.094154002197569e-07   -6.412954038865462e-05
1.9194378765661785e-05   -9.094154002197569e-07   -6.412954038865462e-05
7.0129730850100646e-06   -3.08120044035555e-07   -4.418797480128017e-05
7.0129730850100646e-06   -3.08120044035555e-07   -4.418797480128017e-05
7.0129730850100646e-06   -3.08120044035555e-07   -4.418797480128017e-05
7.0129730850100646e-06   -3.08120044035555e-07   -4.418797480128017e-05
-6.701977540584953e-06   1.4732575205635666e-06   -3.3262493707319866e-05
-6.701977540584953e-06   1.4732575205635666e-06   -3.3262493707319866e-05
-6.701977540584953e-06   1.4732575205635666e-06   -3.3262493707319866e-05
-6.701977540584953e-06   1.4732575205635666e-06   -3.3262493707319866e-05
-2.880089513667911e-05   7.37399330778734e-07   -7.053553794801365e-05
-2.880089513667911e-05   7.37399330778734e-07   -7.053553794801365e-05
-2.880089513667911e-05   7.37399330778734e-07   -7.053553794801365e-05
-2.880089513667911e-05   7.37399330778734e-07   -7.053553794801365e-05
-2.767359600440222e-05   2.7294624327985767e-06   -3.303395695390264e-05
-2.767359600440222e-05   2.7294624327985767e-06   -3.303395695390264e-05
-2.767359600440222e-05   2.7294624327985767e-06   -3.303395695390264e-05
-2.767359600440222e-05   2.7294624327985767e-06   -3.303395695390264e-05
-5.654727171070846e-06   1.6944862963820702e-06   -6.911108599427134e-05
-5.654727171070846e-06   1.6944862963820702e-06   -6.911108599427134e-05
-5.654727171070846e-06   1.6944862963820702e-06   -6.911108599427134e-05
-5.654727171070846e-06   1.6944862963820702e-06   -6.911108599427134e-05
-1.708975987936693e-05   2.019510345843082e-06   -5.024771257678803e-05
-1.708975987936693e-05   2.019510345843082e-06   -5.024771257678803e-05
-1.708975987936693e-05   2.019510345843082e-06   -5.024771257678803e-05
-1.708975987936693e-05   2.019510345843082e-06   -5.024771257678803e-05
-5.654727171070846e-06   2.7294624327990104e-06   -3.2412971272052695e-05
-5.654727171070846e-06   2.7294624327990104e-06   -3.2412971272052695e-05
-5.654727171070846e-06   2.7294624327990104e-06   -3.2412971272052695e-05
-5.654727171070846e-06   2.7294624327990104e-06   -3.2412971272052695e-05
-2.767359600440222e-05   1.6944862963820702e-06   -6.973207167612172e-05
-2.767359600440222e-05   1.6944862963820702e-06   -6.973207167612172e-05
-2.767359600440222e-05   1.6944862963820702e-06   -6.973207167612172e-05
-2.767359600440222e-05   1.6944862963820702e-06   -6.973207167612172e-05
-2.6586446193805935e-05   4.059688073582753e-06   -3.2984147979481975e-05
-2.6586446193805935e-05   4.059688073582753e-06   -3.2984147979481975e-05
-2.6586446193805935e-05   4.059688073582753e-06   -3.2984147979481975e-05
-2.6586446193805935e-05   4.059688073582753e-06   -3.2984147979481975e-05
-4.654793671826651e-06   2.8034179398745557e-06   -6.878314010255618e-05
-4.654793671826651e-06   2.8034179398745557e-06   -6.878314010255618e-05
-4.654793671826651e-06   2.8034179398745557e-06   -6.878314010255618e-05
-4.654793671826651e-06   2.8034179398745557e-06   -6.878314010255618e-05
-1.611945003013999e-05   2.9154372961706643e-06   -4.9742591119144734e-05
-1.611945003013999e-05   2.9154372961706643e-06   -4.9742591119144734e-05
-1.611945003013999e-05   2.9154372961706643e-06   -4.9742591119144734e-05
-1.611945003013999e-05   2.9154372961706643e-06   -4.9742591119144734e-05
-4.654793671826651e-06   4.059688073582753e-06   -3.223038589925749e-05
-4.654793671826651e-06   4.059688073582753e-06   -3.223038589925749e-05
-4.654793671826651e-06   4.059688073582753e-06   -3.223038589925749e-05
-4.654793671826651e-06   4.059688073582753e-06   -3.223038589925749e-05
-2.6586446193805935e-05   2.8034179398745557e-06   -6.953690218278099e-05
-2.6586446193805935e-05   2.8034179398745557e-06   -6.953690218278099e-05
-2.6586446193805935e-05   2.8034179398745557e-06   -6.953690218278099e-05
-2.6586446193805935e-05   2.8034179398745557e-06   -6.953690218278099e-05
-2.558183542120009e-05   5.412877907646531e-06   -3.375888129504264e-05
-2.558183542120009e-05   5.412877907646531e-06   -3.375888129504264e-05
-2.558183542120009e-05   5.412877907646531e-06   -3.375888129504264e-05
-2.558183542120009e-05   5.412877907646531e-06   -3.375888129504264e-05
-3.7152982261825737e-06   3.949576740594138e-06   -6.93251292531741e-05
-3.7152982261825737e-06   3.949576740594138e-06   -6.93251292531741e-05
-3.7152982261825737e-06   3.949576740594138e-06   -6.93251292531741e-05
-3.7152982261825737e-06   3.949576740594138e-06   -6.93251292531741e-05
-1.525231500602638e-05   3.834760326106197e-06   -5.0027878104742064e-05
-1.525231500602638e-05   3.834760326106197e-06   -5.0027878104742064e-05
-1.525231500602638e-05   3.834760326106197e-06   -5.0027878104742064e-05
-1.525231500602638e-05   3.834760326106197e-06   -5.0027878104742064e-05
-2.880089513667917e-05   4.770849815305227e-06   -2.6990053633084042e-05
-2.880089513667917e-05   4.770849815305227e-06   -2.6990053633084042e-05
-2.880089513667917e-05   4.770849815305227e-06   -2.6990053633084042e-05
-2.880089513667917e-05   4.770849815305227e-06   -2.6990053633084042e-05
-5.048385368287376e-05   5.763378011412312e-06   -6.253280095907762e-05
-5.048385368287376e-05   5.763378011412312e-06   -6.253280095907762e-05
-5.048385368287376e-05   5.763378011412312e-06   -6.253280095907762e-05
-5.048385368287376e-05   5.763378011412312e-06   -6.253280095907762e-05
-4.9125520950582004e-05   6.111682602959016e-06   -2.5367818574115707e-05
-4.9125520950582004e-05   6.111682602959016e-06   -2.5367818574115707e-05
-4.9125520950582004e-05   6.111682602959016e-06   -2.5367818574115707e-05
-4.9125520950582004e-05   6.111682602959016e-06   -2.5367818574115707e-05
-2.767359600440227e-05   6.979531177248293e-06   -6.164173596232231e-05
-2.767359600440227e-05   6.979531177248293e-06   -6.164173596232231e-05
-2.767359600440227e-05   6.979531177248293e-06   -6.164173596232231e-05
-2.767359600440227e-05   6.979531177248293e-06   -6.164173596232231e-05
-3.8735738876371736e-05   6.1612699603311866e-06   -4.271387444555642e-05
-3.8735738876371736e-05   6.1612699603311866e-06   -4.271387444555642e-05
-3.8735738876371736e-05   6.1612699603311866e-06   -4.271387444555642e-05
-3.8735738876371736e-05   6.1612699603311866e-06   -4.271387444555642e-05
-2.767359600440227e-05   6.111682602958583e-06   -2.588852771868923e-05
-2.767359600440227e-05   6.111682602958583e-06   -2.588852771868923e-05
-2.767359600440227e-05   6.111682602958583e-06   -2.588852771868923e-05
-2.767359600440227e-05   6.111682602958583e-06   -2.588852771868923e-05
-4.912552095058209e-05   6.979531177248293e-06   -6.112102681774868e-05
-4.912552095058209e-05   6.979531177248293e-06   -6.112102681774868e-05
-4.912552095058209e-05   6.979531177248293e-06   -6.112102681774868e-05
-4.912552095058209e-05   6.979531177248293e-06   -6.112102681774868e-05
-4.7623378546628113e-05   7.319740882852886e-06   -2.4465663197991306e-05
-4.7623378546628113e-05   7.319740882852886e-06   -2.4465663197991306e-05
-4.7623378546628113e-05   7.319740882852886e-06   -2.4465663197991306e-05
-4.7623378546628113e-05   7.319740882852886e-06   -2.4465663197991306e-05
-2.6586446193805983e-05   8.026996163723078e-06   -5.995157028788363e-05
-2.6586446193805983e-05   8.026996163723078e-06   -5.995157028788363e-05
-2.6586446193805983e-05   8.026996163723078e-06   -5.995157028788363e-05
-2.6586446193805983e-05   8.026996163723078e-06   -5.995157028788363e-05
-3.736273990989018e-05   7.1076894945293e-06   -4.143949675956018e-05
-3.736273990989018e-05   7.1076894945293e-06   -4.143949675956018e-05
-3.736273990989018e-05   7.1076894945293e-06   -4.143949675956018e-05
-3.736273990989018e-05   7.1076894945293e-06   -4.143949675956018e-05
-2.6586446193805956e-05   7.319740882852886e-06   -2.4890016366513248e-05
-2.6586446193805956e-05   7.319740882852886e-06   -2.4890016366513248e-05
-2.6586446193805956e-05   7.319740882852886e-06   -2.4890016366513248e-05
-2.6586446193805956e-05   7.319740882852886e-06   -2.4890016366513248e-05
-4.7623378546628113e-05   8.026996163723078e-06   -5.9527217119361526e-05
-4.7623378546628113e-05   8.026996163723078e-06   -5.9527217119361526e-05
-4.7623378546628113e-05   8.026996163723078e-06   -5.9527217119361526e-05
-4.7623378546628113e-05   8.026996163723078e-06   -5.9527217119361526e-05
-4.6353830036454847e-05   8.672016009146199e-06   -2.5030690423416676e-05
-4.6353830036454847e-05   8.672016009146199e-06   -2.5030690423416676e-05
-4.6353830036454847e-05   8.672016009146199e-06   -2.5030690423416676e-05
-4.6353830036454847e-05   8.672016009146199e-06   -2.5030690423416676e-05
-2.5581835421200132e-05   9.186386482276307e-06   -5.995930373271904e-05
-2.5581835421200132e-05   9.186386482276307e-06   -5.995930373271904e-05
-2.5581835421200132e-05   9.186386482276307e-06   -5.995930373271904e-05
-2.5581835421200132e-05   9.186386482276307e-06   -5.995930373271904e-05
-3.6506507482209636e-05   7.979676084909817e-06   -4.102749072595043e-05
-3.6506507482209636e-05   7.979676084909817e-06   -4.102749072595043e-05
-3.6506507482209636e-05   7.979676084909817e-06   -4.102749072595043e-05
-3.6506507482209636e-05   7.979676084909817e-06   -4.102749072595043e-05
-5.048385368287376e-05   8.201338384237512e-06   -1.3530132195937452e-05
-5.048385368287376e-05   8.201338384237512e-06   -1.3530132195937452e-05
-5.048385368287376e-05   8.201338384237512e-06   -1.3530132195937452e-05
-5.048385368287376e-05   8.201338384237512e-06   -1.3530132195937452e-05
-7.331386510975934e-05   1.133655871098484e-05   -4.969901904469838e-05
-7.331386510975934e-05   1.133655871098484e-05   -4.969901904469838e-05
-7.331386510975934e-05   1.133655871098484e-05   -4.969901904469838e-05
-7.331386510975934e-05   1.133655871098484e-05   -4.969901904469838e-05
-7.020031946673619e-05   9.592885416275128e-06   -4.331373862130053e-06
-7.020031946673619e-05   9.592885416275128e-06   -4.331373862130053e-06
-7.020031946673619e-05   9.592885416275128e-06   -4.331373862130053e-06
-7.020031946673619e-05   9.592885416275128e-06   -4.331373862130053e-06
-4.9125520950582004e-05   1.2952321961958065e-05   -4.147169998312967e-05
-4.9125520950582004e-05   1.2952321961958065e-05   -4.147169998312967e-05
-4.9125520950582004e-05   1.2952321961958065e-05   -4.147169998312967e-05
-4.9125520950582004e-05   1.2952321961958065e-05   -4.147169998312967e-05
-5.8267703928017916e-05   1.0800569826243094e-05   -2.494367707264107e-05
-5.8267703928017916e-05   1.0800569826243094e-05   -2.494367707264107e-05
-5.8267703928017916e-05   1.0800569826243094e-05   -2.494367707264107e-05
-5.8267703928017916e-05   1.0800569826243094e-05   -2.494367707264107e-05
-4.9125520950582045e-05   9.592885416275562e-06   -6.347035789539164e-06
-4.9125520950582045e-05   9.592885416275562e-06   -6.347035789539164e-06
-4.9125520950582045e-05   9.592885416275562e-06   -6.347035789539164e-06
-4.9125520950582045e-05   9.592885416275562e-06   -6.347035789539164e-06
-7.020031946673608e-05   1.2952321961957631e-05   -3.945603805572003e-05
-7.020031946673608e-05   1.2952321961957631e-05   -3.945603805572003e-05
-7.020031946673608e-05   1.2952321961957631e-05   -3.945603805572003e-05
-7.020031946673608e-05   1.2952321961957631e-05   -3.945603805572003e-05
-6.763808185185962e-05   1.009132086684638e-05   -4.933965642151244e-07
-6.763808185185962e-05   1.009132086684638e-05   -4.933965642151244e-07
-6.763808185185962e-05   1.009132086684638e-05   -4.933965642151244e-07
-6.763808185185962e-05   1.009132086684638e-05   -4.933965642151244e-07
-4.7623378546628113e-05   1.3376977254692807e-05   -3.582262923897514e-05
-4.7623378546628113e-05   1.3376977254692807e-05   -3.582262923897514e-05
-4.7623378546628113e-05   1.3376977254692807e-05   -3.582262923897514e-05
-4.7623378546628113e-05   1.3376977254692807e-05   -3.582262923897514e-05
-5.7202027030648253e-05   1.1442984799962894e-05   -1.8697819626103073e-05
-5.7202027030648253e-05   1.1442984799962894e-05   -1.8697819626103073e-05
-5.7202027030648253e-05   1.1442984799962894e-05   -1.8697819626103073e-05
-5.7202027030648253e-05   1.1442984799962894e-05   -1.8697819626103073e-05
-4.7623378546628113e-05   1.009132086684638e-05   -2.464790396922807e-06
-4.7623378546628113e-05   1.009132086684638e-05   -2.464790396922807e-06
-4.7623378546628113e-05   1.009132086684638e-05   -2.464790396922807e-06
-4.7623378546628113e-05   1.009132086684638e-05   -2.464790396922807e-06
-6.763808185185937e-05   1.3376977254692807e-05   -3.38512354062675e-05
-6.763808185185937e-05   1.3376977254692807e-05   -3.38512354062675e-05
-6.763808185185937e-05   1.3376977254692807e-05   -3.38512354062675e-05
-6.763808185185937e-05   1.3376977254692807e-05   -3.38512354062675e-05
-6.487545691767307e-05   1.072495619870023e-05   4.3770755189269026e-06
-6.487545691767307e-05   1.072495619870023e-05   4.3770755189269026e-06
-6.487545691767307e-05   1.072495619870023e-05   4.3770755189269026e-06
-6.487545691767307e-05   1.072495619870023e-05   4.3770755189269026e-06
-4.6353830036454847e-05   1.374460925406126e-05   -2.830409444965361e-05
-4.6353830036454847e-05   1.374460925406126e-05   -2.830409444965361e-05
-4.6353830036454847e-05   1.374460925406126e-05   -2.830409444965361e-05
-4.6353830036454847e-05   1.374460925406126e-05   -2.830409444965361e-05
-5.460725670681229e-05   1.1548135058928998e-05   -1.3230498815312467e-05
-5.460725670681229e-05   1.1548135058928998e-05   -1.3230498815312467e-05
-5.460725670681229e-05   1.1548135058928998e-05   -1.3230498815312467e-05
-5.460725670681229e-05   1.1548135058928998e-05   -1.3230498815312467e-05
6.290354600695948e-05   -8.774785539536652e-06   1.2412609976844048e-05
6.290354600695948e-05   -8.774785539536652e-06   1.2412609976844048e-05
6.290354600695948e-05   -8.774785539536652e-06   1.2412609976844048e-05
6.290354600695948e-05   -8.774785539536652e-06   1.2412609976844048e-05
3.0327247497867845e-05   -1.3001740456483786e-05   -4.441739382181017e-05
3.0327247497867845e-05   -1.3001740456483786e-05   -4.441739382181017e-05
3.0327247497867845e-05   -1.3001740456483786e-05   -4.441739382181017e-05
3.0327247497867845e-05   -1.3001740456483786e-05   -4.441739382181017e-05
3.1574184646030406e-05   -8.159718819865814e-06   5.955111618385304e-06
3.1574184646030406e-05   -8.159718819865814e-06   5.955111618385304e-06
3.1574184646030406e-05   -8.159718819865814e-06   5.955111618385304e-06
3.1574184646030406e-05   -8.159718819865814e-06   5.955111618385304e-06
6.579317157744081e-05   -1.269705841996276e-05   -4.835412950724089e-05
6.579317157744081e-05   -1.269705841996276e-05   -4.835412950724089e-05
6.579317157744081e-05   -1.269705841996276e-05   -4.835412950724089e-05
6.579317157744081e-05   -1.269705841996276e-05   -4.835412950724089e-05
4.571289259516992e-05   -9.60968766918098e-06   -1.67394203205918e-05
4.571289259516992e-05   -9.60968766918098e-06   -1.67394203205918e-05
4.571289259516992e-05   -9.60968766918098e-06   -1.67394203205918e-05
4.571289259516992e-05   -9.60968766918098e-06   -1.67394203205918e-05
6.579317157744092e-05   -8.159718819865814e-06   8.677515378443168e-06
6.579317157744092e-05   -8.159718819865814e-06   8.677515378443168e-06
6.579317157744092e-05   -8.159718819865814e-06   8.677515378443168e-06
6.579317157744092e-05   -8.159718819865814e-06   8.677515378443168e-06
3.1574184646030324e-05   -1.269705841996276e-05   -5.1076533267299185e-05
3.1574184646030324e-05   -1.269705841996276e-05   -5.1076533267299185e-05
3.1574184646030324e-05   -1.269705841996276e-05   -5.1076533267299185e-05
3.1574184646030324e-05   -1.269705841996276e-05   -5.1076533267299185e-05
3.281447496592446e-05   -7.632254703669652e-06   2.7982918817262906e-06
3.281447496592446e-05   -7.632254703669652e-06   2.7982918817262906e-06
3.281447496592446e-05   -7.632254703669652e-06   2.7982918817262906e-06
3.281447496592446e-05   -7.632254703669652e-06   2.7982918817262906e-06
6.801198220753713e-05   -1.2256604550642605e-05   -5.3089610279444146e-05
6.801198220753713e-05   -1.2256604550642605e-05   -5.3089610279444146e-05
6.801198220753713e-05   -1.2256604550642605e-05   -5.3089610279444146e-05
6.801198220753713e-05   -1.2256604550642605e-05   -5.3089610279444146e-05
4.814564451246149e-05   -9.578176455639267e-06   -2.1586104311320086e-05
4.814564451246149e-05   -9.578176455639267e-06   -2.1586104311320086e-05
4.814564451246149e-05   -9.578176455639267e-06   -2.1586104311320086e-05
4.814564451246149e-05   -9.578176455639267e-06   -2.1586104311320086e-05
6.801198220753713e-05   -7.632254703669652e-06   5.572901789910236e-06
6.801198220753713e-05   -7.632254703669652e-06   5.572901789910236e-06
6.801198220753713e-05   -7.632254703669652e-06   5.572901789910236e-06
6.801198220753713e-05   -7.632254703669652e-06   5.572901789910236e-06
3.281447496592446e-05   -1.2256604550642605e-05   -5.58642201876282e-05
3.281447496592446e-05   -1.2256604550642605e-05   -5.58642201876282e-05
3.281447496592446e-05   -1.2256604550642605e-05   -5.58642201876282e-05
3.281447496592446e-05   -1.2256604550642605e-05   -5.58642201876282e-05
3.3657784378402e-05   -5.962926074015197e-06   -3.564386545339311e-06
3.3657784378402e-05   -5.962926074015197e-06   -3.564386545339311e-06
3.3657784378402e-05   -5.962926074015197e-06   -3.564386545339311e-06
3.3657784378402e-05   -5.962926074015197e-06   -3.564386545339311e-06
7.035793323256214e-05   -1.0537350013121484e-05   -6.198664693880947e-05
7.035793323256214e-05   -1.0537350013121484e-05   -6.198664693880947e-05
7.035793323256214e-05   -1.0537350013121484e-05   -6.198664693880947e-05
7.035793323256214e-05   -1.0537350013121484e-05   -6.198664693880947e-05
4.8829926989588365e-05   -8.842674269936984e-06   -2.7123441979764464e-05
4.8829926989588365e-05   -8.842674269936984e-06   -2.7123441979764464e-05
4.8829926989588365e-05   -8.842674269936984e-06   -2.7123441979764464e-05
4.8829926989588365e-05   -8.842674269936984e-06   -2.7123441979764464e-05
3.0327247497867926e-05   -4.115178689992338e-06   -1.5403787205619905e-05
3.0327247497867926e-05   -4.115178689992338e-06   -1.5403787205619905e-05
3.0327247497867926e-05   -4.115178689992338e-06   -1.5403787205619905e-05
3.0327247497867926e-05   -4.115178689992338e-06   -1.5403787205619905e-05
-1.811220042690449e-06   -8.440547657740088e-06   -7.15631211538662e-05
-1.811220042690449e-06   -8.440547657740088e-06   -7.15631211538662e-05
-1.811220042690449e-06   -8.440547657740088e-06   -7.15631211538662e-05
-1.811220042690449e-06   -8.440547657740088e-06   -7.15631211538662e-05
-5.30716117293689e-07   -3.2626653606489253e-06   -1.698095612527378e-05
-5.30716117293689e-07   -3.2626653606489253e-06   -1.698095612527378e-05
-5.30716117293689e-07   -3.2626653606489253e-06   -1.698095612527378e-05
-5.30716117293689e-07   -3.2626653606489253e-06   -1.698095612527378e-05
3.1574184646030406e-05   -8.038539093910713e-06   -6.762359982418999e-05
3.1574184646030406e-05   -8.038539093910713e-06   -6.762359982418999e-05
3.1574184646030406e-05   -8.038539093910713e-06   -6.762359982418999e-05
3.1574184646030406e-05   -8.038539093910713e-06   -6.762359982418999e-05
1.4935197177540387e-05   -5.105816922957706e-06   -4.165158734594507e-05
1.4935197177540387e-05   -5.105816922957706e-06   -4.165158734594507e-05
1.4935197177540387e-05   -5.105816922957706e-06   -4.165158734594507e-05
1.4935197177540387e-05   -5.105816922957706e-06   -4.165158734594507e-05
3.1574184646030324e-05   -3.2626653606489253e-06   -1.4115431885316013e-05
3.1574184646030324e-05   -3.2626653606489253e-06   -1.4115431885316013e-05
3.1574184646030324e-05   -3.2626653606489253e-06   -1.4115431885316013e-05
3.1574184646030324e-05   -3.2626653606489253e-06   -1.4115431885316013e-05
-5.30716117293689e-07   -8.038539093910713e-06   -7.048912406414694e-05
-5.30716117293689e-07   -8.038539093910713e-06   -7.048912406414694e-05
-5.30716117293689e-07   -8.038539093910713e-06   -7.048912406414694e-05
-5.30716117293689e-07   -8.038539093910713e-06   -7.048912406414694e-05
5.976358260645364e-07   -2.220418077485218e-06   -1.7378447571958847e-05
5.976358260645364e-07   -2.220418077485218e-06   -1.7378447571958847e-05
5.976358260645364e-07   -2.220418077485218e-06   -1.7378447571958847e-05
5.976358260645364e-07   -2.220418077485218e-06   -1.7378447571958847e-05
3.281447496592446e-05   -7.288563986300196e-06   -6.80322919264363e-05
3.281447496592446e-05   -7.288563986300196e-06   -6.80322919264363e-05
3.281447496592446e-05   -7.288563986300196e-06   -6.80322919264363e-05
3.281447496592446e-05   -7.288563986300196e-06   -6.80322919264363e-05
1.5808138955417927e-05   -4.689134567297838e-06   -4.124805622699238e-05
1.5808138955417927e-05   -4.689134567297838e-06   -4.124805622699238e-05
1.5808138955417927e-05   -4.689134567297838e-06   -4.124805622699238e-05
1.5808138955417927e-05   -4.689134567297838e-06   -4.124805622699238e-05
3.281447496592446e-05   -2.220418077485218e-06   -1.4337560026669686e-05
3.281447496592446e-05   -2.220418077485218e-06   -1.4337560026669686e-05
3.281447496592446e-05   -2.220418077485218e-06   -1.4337560026669686e-05
3.281447496592446e-05   -2.220418077485218e-06   -1.4337560026669686e-05
5.976358260645364e-07   -7.288563986300196e-06   -7.10731794717253e-05
5.976358260645364e-07   -7.288563986300196e-06   -7.10731794717253e-05
5.976358260645364e-07   -7.288563986300196e-06   -7.10731794717253e-05
5.976358260645364e-07   -7.288563986300196e-06   -7.10731794717253e-05
1.4014932503029294e-06   -9.094154002201905e-07   -1.8060448919473074e-05
1.4014932503029294e-06   -9.094154002201905e-07   -1.8060448919473074e-05
1.4014932503029294e-06   -9.094154002201905e-07   -1.8060448919473074e-05
1.4014932503029294e-06   -9.094154002201905e-07   -1.8060448919473074e-05
3.365778437840205e-05   -6.221637517970103e-06   -6.863360086232172e-05
3.365778437840205e-05   -6.221637517970103e-06   -6.863360086232172e-05
3.365778437840205e-05   -6.221637517970103e-06   -6.863360086232172e-05
3.365778437840205e-05   -6.221637517970103e-06   -6.863360086232172e-05
1.6851164646206193e-05   -3.9539367553357435e-06   -4.198318843291011e-05
1.6851164646206193e-05   -3.9539367553357435e-06   -4.198318843291011e-05
1.6851164646206193e-05   -3.9539367553357435e-06   -4.198318843291011e-05
1.6851164646206193e-05   -3.9539367553357435e-06   -4.198318843291011e-05
-1.811220042690449e-06   7.37399330778734e-07   -2.341263672560952e-05
-1.811220042690449e-06   7.37399330778734e-07   -2.341263672560952e-05
-1.811220042690449e-06   7.37399330778734e-07   -2.341263672560952e-05
-1.811220042690449e-06   7.37399330778734e-07   -2.341263672560952e-05
-3.347485644776874e-05   -4.4553468909612655e-06   -7.930101180045096e-05
-3.347485644776874e-05   -4.4553468909612655e-06   -7.930101180045096e-05
-3.347485644776874e-05   -4.4553468909612655e-06   -7.930101180045096e-05
-3.347485644776874e-05   -4.4553468909612655e-06   -7.930101180045096e-05
-3.193869149390099e-05   1.6944862963820702e-06   -2.5463608957445108e-05
-3.193869149390099e-05   1.6944862963820702e-06   -2.5463608957445108e-05
-3.193869149390099e-05   1.6944862963820702e-06   -2.5463608957445108e-05
-3.193869149390099e-05   1.6944862963820702e-06   -2.5463608957445108e-05
-5.30716117293689e-07   -3.982331454196152e-06   -7.4404143934777e-05
-5.30716117293689e-07   -3.982331454196152e-06   -7.4404143934777e-05
-5.30716117293689e-07   -3.982331454196152e-06   -7.4404143934777e-05
-5.30716117293689e-07   -3.982331454196152e-06   -7.4404143934777e-05
-1.6736904493787645e-05   -8.766764754714745e-07   -4.92572229611885e-05
-1.6736904493787645e-05   -8.766764754714745e-07   -4.92572229611885e-05
-1.6736904493787645e-05   -8.766764754714745e-07   -4.92572229611885e-05
-1.6736904493787645e-05   -8.766764754714745e-07   -4.92572229611885e-05
-5.30716117293689e-07   1.6944862963820702e-06   -2.2057518307098218e-05
-5.30716117293689e-07   1.6944862963820702e-06   -2.2057518307098218e-05
-5.30716117293689e-07   1.6944862963820702e-06   -2.2057518307098218e-05
-5.30716117293689e-07   1.6944862963820702e-06   -2.2057518307098218e-05
-3.193869149390099e-05   -3.982331454195718e-06   -7.78102345851241e-05
-3.193869149390099e-05   -3.982331454195718e-06   -7.78102345851241e-05
-3.193869149390099e-05   -3.982331454195718e-06   -7.78102345851241e-05
-3.193869149390099e-05   -3.982331454195718e-06   -7.78102345851241e-05
-3.052931450016612e-05   2.8034179398745557e-06   -2.5008265609626282e-05
-3.052931450016612e-05   2.8034179398745557e-06   -2.5008265609626282e-05
-3.052931450016612e-05   2.8034179398745557e-06   -2.5008265609626282e-05
-3.052931450016612e-05   2.8034179398745557e-06   -2.5008265609626282e-05
5.976358260645364e-07   -3.2437645343299376e-06   -7.325820666882114e-05
5.976358260645364e-07   -3.2437645343299376e-06   -7.325820666882114e-05
5.976358260645364e-07   -3.2437645343299376e-06   -7.325820666882114e-05
5.976358260645364e-07   -3.2437645343299376e-06   -7.325820666882114e-05
-1.548527050075546e-05   -3.3429510057358947e-07   -4.819904445104155e-05
-1.548527050075546e-05   -3.3429510057358947e-07   -4.819904445104155e-05
-1.548527050075546e-05   -3.3429510057358947e-07   -4.819904445104155e-05
-1.548527050075546e-05   -3.3429510057358947e-07   -4.819904445104155e-05
5.976358260645364e-07   2.8034179398745557e-06   -2.1379956125103542e-05
5.976358260645364e-07   2.8034179398745557e-06   -2.1379956125103542e-05
5.976358260645364e-07   2.8034179398745557e-06   -2.1379956125103542e-05
5.976358260645364e-07   2.8034179398745557e-06   -2.1379956125103542e-05
-3.0529314500166177e-05   -3.2437645343299376e-06   -7.688651615334443e-05
-3.0529314500166177e-05   -3.2437645343299376e-06   -7.688651615334443e-05
-3.0529314500166177e-05   -3.2437645343299376e-06   -7.688651615334443e-05
-3.0529314500166177e-05   -3.2437645343299376e-06   -7.688651615334443e-05
-2.9578849511809334e-05   3.9495767405945716e-06   -2.5440000157082084e-05
-2.9578849511809334e-05   3.9495767405945716e-06   -2.5440000157082084e-05
-2.9578849511809334e-05   3.9495767405945716e-06   -2.5440000157082084e-05
-2.9578849511809334e-05   3.9495767405945716e-06   -2.5440000157082084e-05
1.4014932503029294e-06   -2.543698099486888e-06   -7.317793985655392e-05
1.4014932503029294e-06   -2.543698099486888e-06   -7.317793985655392e-05
1.4014932503029294e-06   -2.543698099486888e-06   -7.317793985655392e-05
1.4014932503029294e-06   -2.543698099486888e-06   -7.317793985655392e-05
-1.4592049638904524e-05   2.7491285811828345e-07   -4.821320161577165e-05
-1.4592049638904524e-05   2.7491285811828345e-07   -4.821320161577165e-05
-1.4592049638904524e-05   2.7491285811828345e-07   -4.821320161577165e-05
-1.4592049638904524e-05   2.7491285811828345e-07   -4.821320161577165e-05
-3.347485644776869e-05   5.763378011412312e-06   -1.9121064387381476e-05
-3.347485644776869e-05   5.763378011412312e-06   -1.9121064387381476e-05
-3.347485644776869e-05   5.763378011412312e-06   -1.9121064387381476e-05
-3.347485644776869e-05   5.763378011412312e-06   -1.9121064387381476e-05
-6.557690555801864e-05   1.080996617171693e-06   -7.543390840767587e-05
-6.557690555801864e-05   1.080996617171693e-06   -7.543390840767587e-05
-6.557690555801864e-05   1.080996617171693e-06   -7.543390840767587e-05
-6.557690555801864e-05   1.080996617171693e-06   -7.543390840767587e-05
-6.339024825864968e-05   6.979531177247859e-06   -2.0385732049173818e-05
-6.339024825864968e-05   6.979531177247859e-06   -2.0385732049173818e-05
-6.339024825864968e-05   6.979531177247859e-06   -2.0385732049173818e-05
-6.339024825864968e-05   6.979531177247859e-06   -2.0385732049173818e-05
-3.1938691493900936e-05   1.9587665013678403e-06   -6.979253451822693e-05
-3.1938691493900936e-05   1.9587665013678403e-06   -6.979253451822693e-05
-3.1938691493900936e-05   1.9587665013678403e-06   -6.979253451822693e-05
-3.1938691493900936e-05   1.9587665013678403e-06   -6.979253451822693e-05
-4.80895663859429e-05   4.364826078208199e-06   -4.431804544426115e-05
-4.80895663859429e-05   4.364826078208199e-06   -4.431804544426115e-05
-4.80895663859429e-05   4.364826078208199e-06   -4.431804544426115e-05
-4.80895663859429e-05   4.364826078208199e-06   -4.431804544426115e-05
-3.1938691493900936e-05   6.979531177247859e-06   -1.737327324364559e-05
-3.1938691493900936e-05   6.979531177247859e-06   -1.737327324364559e-05
-3.1938691493900936e-05   6.979531177247859e-06   -1.737327324364559e-05
-3.1938691493900936e-05   6.979531177247859e-06   -1.737327324364559e-05
-6.339024825864979e-05   1.9587665013674066e-06   -7.280499332375538e-05
-6.339024825864979e-05   1.9587665013674066e-06   -7.280499332375538e-05
-6.339024825864979e-05   1.9587665013674066e-06   -7.280499332375538e-05
-6.339024825864979e-05   1.9587665013674066e-06   -7.280499332375538e-05
-6.127745828201028e-05   8.026996163723078e-06   -1.8578849914313404e-05
-6.127745828201028e-05   8.026996163723078e-06   -1.8578849914313404e-05
-6.127745828201028e-05   8.026996163723078e-06   -1.8578849914313404e-05
-6.127745828201028e-05   8.026996163723078e-06   -1.8578849914313404e-05
-3.0529314500166177e-05   2.767135831081499e-06   -6.666984001780246e-05
-3.0529314500166177e-05   2.767135831081499e-06   -6.666984001780246e-05
-3.0529314500166177e-05   2.767135831081499e-06   -6.666984001780246e-05
-3.0529314500166177e-05   2.767135831081499e-06   -6.666984001780246e-05
-4.6114831225651745e-05   5.128495160751454e-06   -4.211079440646161e-05
-4.6114831225651745e-05   5.128495160751454e-06   -4.211079440646161e-05
-4.6114831225651745e-05   5.128495160751454e-06   -4.211079440646161e-05
-4.6114831225651745e-05   5.128495160751454e-06   -4.211079440646161e-05
-3.052931450016611e-05   8.026996163723078e-06   -1.5422933714728543e-05
-3.052931450016611e-05   8.026996163723078e-06   -1.5422933714728543e-05
-3.052931450016611e-05   8.026996163723078e-06   -1.5422933714728543e-05
-3.052931450016611e-05   8.026996163723078e-06   -1.5422933714728543e-05
-6.127745828201038e-05   2.767135831081499e-06   -6.982575621738746e-05
-6.127745828201038e-05   2.767135831081499e-06   -6.982575621738746e-05
-6.127745828201038e-05   2.767135831081499e-06   -6.982575621738746e-05
-6.127745828201038e-05   2.767135831081499e-06   -6.982575621738746e-05
-5.9673248963287455e-05   9.186386482276307e-06   -1.863704710855529e-05
-5.9673248963287455e-05   9.186386482276307e-06   -1.863704710855529e-05
-5.9673248963287455e-05   9.186386482276307e-06   -1.863704710855529e-05
-5.9673248963287455e-05   9.186386482276307e-06   -1.863704710855529e-05
-2.957884951180939e-05   3.4516311953436234e-06   -6.535352635552629e-05
-2.957884951180939e-05   3.4516311953436234e-06   -6.535352635552629e-05
-2.957884951180939e-05   3.4516311953436234e-06   -6.535352635552629e-05
-2.957884951180939e-05   3.4516311953436234e-06   -6.535352635552629e-05
-4.500518223002227e-05   5.661320434518884e-06   -4.096878536867644e-05
-4.500518223002227e-05   5.661320434518884e-06   -4.096878536867644e-05
-4.500518223002227e-05   5.661320434518884e-06   -4.096878536867644e-05
-4.500518223002227e-05   5.661320434518884e-06   -4.096878536867644e-05
-6.557690555801864e-05   1.133655871098484e-05   -1.0977843505595355e-05
-6.557690555801864e-05   1.133655871098484e-05   -1.0977843505595355e-05
-6.557690555801864e-05   1.133655871098484e-05   -1.0977843505595355e-05
-6.557690555801864e-05   1.133655871098484e-05   -1.0977843505595355e-05
-9.91077853324188e-05   1.0692943175890767e-05   -6.724881245065255e-05
-9.91077853324188e-05   1.0692943175890767e-05   -6.724881245065255e-05
-9.91077853324188e-05   1.0692943175890767e-05   -6.724881245065255e-05
-9.91077853324188e-05   1.0692943175890767e-05   -6.724881245065255e-05
-9.480232744819924e-05   1.2952321961958065e-05   -3.7805127604535575e-07
-9.480232744819924e-05   1.2952321961958065e-05   -3.7805127604535575e-07
-9.480232744819924e-05   1.2952321961958065e-05   -3.7805127604535575e-07
-9.480232744819924e-05   1.2952321961958065e-05   -3.7805127604535575e-07
-6.339024825864957e-05   1.3549578526140475e-05   -5.308987053047104e-05
-6.339024825864957e-05   1.3549578526140475e-05   -5.308987053047104e-05
-6.339024825864957e-05   1.3549578526140475e-05   -5.308987053047104e-05
-6.339024825864957e-05   1.3549578526140475e-05   -5.308987053047104e-05
-7.723762740095615e-05   1.2777630799560864e-05   -2.954773665734589e-05
-7.723762740095615e-05   1.2777630799560864e-05   -2.954773665734589e-05
-7.723762740095615e-05   1.2777630799560864e-05   -2.954773665734589e-05
-7.723762740095615e-05   1.2777630799560864e-05   -2.954773665734589e-05
-6.339024825864974e-05   1.2952321961958065e-05   -7.36405214554715e-07
-6.339024825864974e-05   1.2952321961958065e-05   -7.36405214554715e-07
-6.339024825864974e-05   1.2952321961958065e-05   -7.36405214554715e-07
-6.339024825864974e-05   1.2952321961958065e-05   -7.36405214554715e-07
-9.480232744819924e-05   1.3549578526140475e-05   -5.2731516591961354e-05
-9.480232744819924e-05   1.3549578526140475e-05   -5.2731516591961354e-05
-9.480232744819924e-05   1.3549578526140475e-05   -5.2731516591961354e-05
-9.480232744819924e-05   1.3549578526140475e-05   -5.2731516591961354e-05
-9.123016019998647e-05   1.3376977254692807e-05   5.614142917010614e-06
-9.123016019998647e-05   1.3376977254692807e-05   5.614142917010614e-06
-9.123016019998647e-05   1.3376977254692807e-05   5.614142917010614e-06
-9.123016019998647e-05   1.3376977254692807e-05   5.614142917010614e-06
-6.127745828201028e-05   1.4190985506255891e-05   -4.4795431897220936e-05
-6.127745828201028e-05   1.4190985506255891e-05   -4.4795431897220936e-05
-6.127745828201028e-05   1.4190985506255891e-05   -4.4795431897220936e-05
-6.127745828201028e-05   1.4190985506255891e-05   -4.4795431897220936e-05
-7.56003822532841e-05   1.3707267562313406e-05   -2.063366117873148e-05
-7.56003822532841e-05   1.3707267562313406e-05   -2.063366117873148e-05
-7.56003822532841e-05   1.3707267562313406e-05   -2.063366117873148e-05
-7.56003822532841e-05   1.3707267562313406e-05   -2.063366117873148e-05
-6.127745828201038e-05   1.3376977254692373e-05   5.125737966072503e-06
-6.127745828201038e-05   1.3376977254692373e-05   5.125737966072503e-06
-6.127745828201038e-05   1.3376977254692373e-05   5.125737966072503e-06
-6.127745828201038e-05   1.3376977254692373e-05   5.125737966072503e-06
-9.123016019998631e-05   1.4190985506255457e-05   -4.430702694628325e-05
-9.123016019998631e-05   1.4190985506255457e-05   -4.430702694628325e-05
-9.123016019998631e-05   1.4190985506255457e-05   -4.430702694628325e-05
-9.123016019998631e-05   1.4190985506255457e-05   -4.430702694628325e-05
-8.74955103378074e-05   1.374460925406126e-05   1.3640659570169408e-05
-8.74955103378074e-05   1.374460925406126e-05   1.3640659570169408e-05
-8.74955103378074e-05   1.374460925406126e-05   1.3640659570169408e-05
-8.74955103378074e-05   1.374460925406126e-05   1.3640659570169408e-05
-5.9673248963287455e-05   1.5296475386623442e-05   -3.366089573356821e-05
-5.9673248963287455e-05   1.5296475386623442e-05   -3.366089573356821e-05
-5.9673248963287455e-05   1.5296475386623442e-05   -3.366089573356821e-05
-5.9673248963287455e-05   1.5296475386623442e-05   -3.366089573356821e-05
-7.199778507256405e-05   1.4021285598498322e-05   -1.2354888345232713e-05
-7.199778507256405e-05   1.4021285598498322e-05   -1.2354888345232713e-05
-7.199778507256405e-05   1.4021285598498322e-05   -1.2354888345232713e-05
-7.199778507256405e-05   1.4021285598498322e-05   -1.2354888345232713e-05
8.6521064612913e-05   -1.300174045648422e-05   2.9470322562447212e-05
8.6521064612913e-05   -1.300174045648422e-05   2.9470322562447212e-05
8.6521064612913e-05   -1.300174045648422e-05   2.9470322562447212e-05
8.6521064612913e-05   -1.300174045648422e-05   2.9470322562447212e-05
4.350491095346512e-05   -1.6449746327579576e-05   -4.42920703926234e-05
4.350491095346512e-05   -1.6449746327579576e-05   -4.42920703926234e-05
4.350491095346512e-05   -1.6449746327579576e-05   -4.42920703926234e-05
4.350491095346512e-05   -1.6449746327579576e-05   -4.42920703926234e-05
4.457260699958004e-05   -1.269705841996276e-05   2.1127776764245064e-05
4.457260699958004e-05   -1.269705841996276e-05   2.1127776764245064e-05
4.457260699958004e-05   -1.269705841996276e-05   2.1127776764245064e-05
4.457260699958004e-05   -1.269705841996276e-05   2.1127776764245064e-05
8.868321648696024e-05   -1.686120597648756e-05   -4.989141718080665e-05
8.868321648696024e-05   -1.686120597648756e-05   -4.989141718080665e-05
8.868321648696024e-05   -1.686120597648756e-05   -4.989141718080665e-05
8.868321648696024e-05   -1.686120597648756e-05   -4.989141718080665e-05
6.319951886376211e-05   -1.3281196096490144e-05   -9.566593736808169e-06
6.319951886376211e-05   -1.3281196096490144e-05   -9.566593736808169e-06
6.319951886376211e-05   -1.3281196096490144e-05   -9.566593736808169e-06
6.319951886376211e-05   -1.3281196096490144e-05   -9.566593736808169e-06
8.868321648696024e-05   -1.269705841996276e-05   2.3626265298160292e-05
8.868321648696024e-05   -1.269705841996276e-05   2.3626265298160292e-05
8.868321648696024e-05   -1.269705841996276e-05   2.3626265298160292e-05
8.868321648696024e-05   -1.269705841996276e-05   2.3626265298160292e-05
4.457260699958004e-05   -1.686120597648756e-05   -5.238990571472166e-05
4.457260699958004e-05   -1.686120597648756e-05   -5.238990571472166e-05
4.457260699958004e-05   -1.686120597648756e-05   -5.238990571472166e-05
4.457260699958004e-05   -1.686120597648756e-05   -5.238990571472166e-05
4.547518483872707e-05   -1.2256604550642605e-05   1.6664803899352904e-05
4.547518483872707e-05   -1.2256604550642605e-05   1.6664803899352904e-05
4.547518483872707e-05   -1.2256604550642605e-05   1.6664803899352904e-05
4.547518483872707e-05   -1.2256604550642605e-05   1.6664803899352904e-05
9.00311740855062e-05   -1.670937873357592e-05   -5.49235136688521e-05
9.00311740855062e-05   -1.670937873357592e-05   -5.49235136688521e-05
9.00311740855062e-05   -1.670937873357592e-05   -5.49235136688521e-05
9.00311740855062e-05   -1.670937873357592e-05   -5.49235136688521e-05
6.543176174852137e-05   -1.3701830111191235e-05   -1.5729022280641658e-05
6.543176174852137e-05   -1.3701830111191235e-05   -1.5729022280641658e-05
6.543176174852137e-05   -1.3701830111191235e-05   -1.5729022280641658e-05
6.543176174852137e-05   -1.3701830111191235e-05   -1.5729022280641658e-05
9.00311740855062e-05   -1.2256604550642605e-05   1.9336468409113152e-05
9.00311740855062e-05   -1.2256604550642605e-05   1.9336468409113152e-05
9.00311740855062e-05   -1.2256604550642605e-05   1.9336468409113152e-05
9.00311740855062e-05   -1.2256604550642605e-05   1.9336468409113152e-05
4.547518483872707e-05   -1.670937873357592e-05   -5.7595178178612184e-05
4.547518483872707e-05   -1.670937873357592e-05   -5.7595178178612184e-05
4.547518483872707e-05   -1.670937873357592e-05   -5.7595178178612184e-05
4.547518483872707e-05   -1.670937873357592e-05   -5.7595178178612184e-05
4.641886818594634e-05   -1.0537350013121484e-05   7.999636776454336e-06
4.641886818594634e-05   -1.0537350013121484e-05   7.999636776454336e-06
4.641886818594634e-05   -1.0537350013121484e-05   7.999636776454336e-06
4.641886818594634e-05   -1.0537350013121484e-05   7.999636776454336e-06
9.135839153475296e-05   -1.5782510683540803e-05   -6.375247240263847e-05
9.135839153475296e-05   -1.5782510683540803e-05   -6.375247240263847e-05
9.135839153475296e-05   -1.5782510683540803e-05   -6.375247240263847e-05
9.135839153475296e-05   -1.5782510683540803e-05   -6.375247240263847e-05
6.546874402607124e-05   -1.318801167116742e-05   -2.2159759295593037e-05
6.546874402607124e-05   -1.318801167116742e-05   -2.2159759295593037e-05
6.546874402607124e-05   -1.318801167116742e-05   -2.2159759295593037e-05
6.546874402607124e-05   -1.318801167116742e-05   -2.2159759295593037e-05
4.350491095346512e-05   -8.440547657740088e-06   2.8510130883829202e-06
4.350491095346512e-05   -8.440547657740088e-06   2.8510130883829202e-06
4.350491095346512e-05   -8.440547657740088e-06   2.8510130883829202e-06
4.350491095346512e-05   -8.440547657740088e-06   2.8510130883829202e-06
5.200389631983352e-06   -1.653944231044249e-05   -6.584919257237448e-05
5.200389631983352e-06   -1.653944231044249e-05   -6.584919257237448e-05
5.200389631983352e-06   -1.653944231044249e-05   -6.584919257237448e-05
5.200389631983352e-06   -1.653944231044249e-05   -6.584919257237448e-05
6.445240934699922e-06   -8.038539093910713e-06   -4.6992175953579005e-07
6.445240934699922e-06   -8.038539093910713e-06   -4.6992175953579005e-07
6.445240934699922e-06   -8.038539093910713e-06   -4.6992175953579005e-07
6.445240934699922e-06   -8.038539093910713e-06   -4.6992175953579005e-07
4.457260699958012e-05   -1.6456259038728598e-05   -5.896489990077868e-05
4.457260699958012e-05   -1.6456259038728598e-05   -5.896489990077868e-05
4.457260699958012e-05   -1.6456259038728598e-05   -5.896489990077868e-05
4.457260699958012e-05   -1.6456259038728598e-05   -5.896489990077868e-05
2.502879081995293e-05   -1.115619707095332e-05   -2.95719101153984e-05
2.502879081995293e-05   -1.115619707095332e-05   -2.95719101153984e-05
2.502879081995293e-05   -1.115619707095332e-05   -2.95719101153984e-05
2.502879081995293e-05   -1.115619707095332e-05   -2.95719101153984e-05
4.4572606999580014e-05   -8.038539093910713e-06   4.580710207354637e-06
4.4572606999580014e-05   -8.038539093910713e-06   4.580710207354637e-06
4.4572606999580014e-05   -8.038539093910713e-06   4.580710207354637e-06
4.4572606999580014e-05   -8.038539093910713e-06   4.580710207354637e-06
6.445240934699922e-06   -1.6456259038728164e-05   -6.401553186766921e-05
6.445240934699922e-06   -1.6456259038728164e-05   -6.401553186766921e-05
6.445240934699922e-06   -1.6456259038728164e-05   -6.401553186766921e-05
6.445240934699922e-06   -1.6456259038728164e-05   -6.401553186766921e-05
7.568981783610308e-06   -7.288563986300196e-06   -8.726937670059352e-07
7.568981783610308e-06   -7.288563986300196e-06   -8.726937670059352e-07
7.568981783610308e-06   -7.288563986300196e-06   -8.726937670059352e-07
7.568981783610308e-06   -7.288563986300196e-06   -8.726937670059352e-07
4.547518483872707e-05   -1.623760719888503e-05   -5.868027293131657e-05
4.547518483872707e-05   -1.623760719888503e-05   -5.868027293131657e-05
4.547518483872707e-05   -1.623760719888503e-05   -5.868027293131657e-05
4.547518483872707e-05   -1.623760719888503e-05   -5.868027293131657e-05
2.5737053922697743e-05   -1.1280997994024457e-05   -2.8757353594183036e-05
2.5737053922697743e-05   -1.1280997994024457e-05   -2.8757353594183036e-05
2.5737053922697743e-05   -1.1280997994024457e-05   -2.8757353594183036e-05
2.5737053922697743e-05   -1.1280997994024457e-05   -2.8757353594183036e-05
4.547518483872707e-05   -7.288563986300196e-06   4.496732160544966e-06
4.547518483872707e-05   -7.288563986300196e-06   4.496732160544966e-06
4.547518483872707e-05   -7.288563986300196e-06   4.496732160544966e-06
4.547518483872707e-05   -7.288563986300196e-06   4.496732160544966e-06
7.568981783610308e-06   -1.623760719888503e-05   -6.404969885886753e-05
7.568981783610308e-06   -1.623760719888503e-05   -6.404969885886753e-05
7.568981783610308e-06   -1.623760719888503e-05   -6.404969885886753e-05
7.568981783610308e-06   -1.623760719888503e-05   -6.404969885886753e-05
9.245751573218086e-06   -6.221637517970103e-06   -1.6492732571168553e-06
9.245751573218086e-06   -6.221637517970103e-06   -1.6492732571168553e-06
9.245751573218086e-06   -6.221637517970103e-06   -1.6492732571168553e-06
9.245751573218086e-06   -6.221637517970103e-06   -1.6492732571168553e-06
4.6418868185946286e-05   -1.5799321640508433e-05   -5.785785713814109e-05
4.6418868185946286e-05   -1.5799321640508433e-05   -5.785785713814109e-05
4.6418868185946286e-05   -1.5799321640508433e-05   -5.785785713814109e-05
4.6418868185946286e-05   -1.5799321640508433e-05   -5.785785713814109e-05
2.708392274994553e-05   -1.1108590111222599e-05   -2.8447386995711268e-05
2.708392274994553e-05   -1.1108590111222599e-05   -2.8447386995711268e-05
2.708392274994553e-05   -1.1108590111222599e-05   -2.8447386995711268e-05
2.708392274994553e-05   -1.1108590111222599e-05   -2.8447386995711268e-05
5.200389631983352e-06   -4.4553468909612655e-06   -6.630566616778761e-06
5.200389631983352e-06   -4.4553468909612655e-06   -6.630566616778761e-06
5.200389631983352e-06   -4.4553468909612655e-06   -6.630566616778761e-06
5.200389631983352e-06   -4.4553468909612655e-06   -6.630566616778761e-06
-3.2709673979068994e-05   -1.9991358127838168e-05   -7.913561271065883e-05
-3.2709673979068994e-05   -1.9991358127838168e-05   -7.913561271065883e-05
-3.2709673979068994e-05   -1.9991358127838168e-05   -7.913561271065883e-05
-3.2709673979068994e-05   -1.9991358127838168e-05   -7.913561271065883e-05
-3.077099749332521e-05   -3.982331454196152e-06   -1.425721716867643e-05
-3.077099749332521e-05   -3.982331454196152e-06   -1.425721716867643e-05
-3.077099749332521e-05   -3.982331454196152e-06   -1.425721716867643e-05
-3.077099749332521e-05   -3.982331454196152e-06   -1.425721716867643e-05
6.445240934699922e-06   -2.0436124018381047e-05   -6.641200567687424e-05
6.445240934699922e-06   -2.0436124018381047e-05   -6.641200567687424e-05
6.445240934699922e-06   -2.0436124018381047e-05   -6.641200567687424e-05
6.445240934699922e-06   -2.0436124018381047e-05   -6.641200567687424e-05
-1.2519422141927385e-05   -1.1312941823448091e-05   -4.0278143199455314e-05
-1.2519422141927385e-05   -1.1312941823448091e-05   -4.0278143199455314e-05
-1.2519422141927385e-05   -1.1312941823448091e-05   -4.0278143199455314e-05
-1.2519422141927385e-05   -1.1312941823448091e-05   -4.0278143199455314e-05
6.445240934699922e-06   -3.982331454196152e-06   -4.384941630165623e-06
6.445240934699922e-06   -3.982331454196152e-06   -4.384941630165623e-06
6.445240934699922e-06   -3.982331454196152e-06   -4.384941630165623e-06
6.445240934699922e-06   -3.982331454196152e-06   -4.384941630165623e-06
-3.077099749332526e-05   -2.0436124018380613e-05   -7.628428121538543e-05
-3.077099749332526e-05   -2.0436124018380613e-05   -7.628428121538543e-05
-3.077099749332526e-05   -2.0436124018380613e-05   -7.628428121538543e-05
-3.077099749332526e-05   -2.0436124018380613e-05   -7.628428121538543e-05
-2.9100875466031107e-05   -3.2437645343303713e-06   -1.3317693174497072e-05
-2.9100875466031107e-05   -3.2437645343303713e-06   -1.3317693174497072e-05
-2.9100875466031107e-05   -3.2437645343303713e-06   -1.3317693174497072e-05
-2.9100875466031107e-05   -3.2437645343303713e-06   -1.3317693174497072e-05
7.568981783610308e-06   -2.0343718218322412e-05   -6.417414971350441e-05
7.568981783610308e-06   -2.0343718218322412e-05   -6.417414971350441e-05
7.568981783610308e-06   -2.0343718218322412e-05   -6.417414971350441e-05
7.568981783610308e-06   -2.0343718218322412e-05   -6.417414971350441e-05
-1.1142559932502873e-05   -1.1571611317769126e-05   -3.8251510993647566e-05
-1.1142559932502873e-05   -1.1571611317769126e-05   -3.8251510993647566e-05
-1.1142559932502873e-05   -1.1571611317769126e-05   -3.8251510993647566e-05
-1.1142559932502873e-05   -1.1571611317769126e-05   -3.8251510993647566e-05
7.568981783610308e-06   -3.2437645343299376e-06   -3.057720964102107e-06
7.568981783610308e-06   -3.2437645343299376e-06   -3.057720964102107e-06
7.568981783610308e-06   -3.2437645343299376e-06   -3.057720964102107e-06
7.568981783610308e-06   -3.2437645343299376e-06   -3.057720964102107e-06
-2.91008754660312e-05   -2.0343718218322412e-05   -7.443412192389954e-05
-2.91008754660312e-05   -2.0343718218322412e-05   -7.443412192389954e-05
-2.91008754660312e-05   -2.0343718218322412e-05   -7.443412192389954e-05
-2.91008754660312e-05   -2.0343718218322412e-05   -7.443412192389954e-05
-2.6219601946063796e-05   -2.543698099486888e-06   -1.3260523611735749e-05
-2.6219601946063796e-05   -2.543698099486888e-06   -1.3260523611735749e-05
-2.6219601946063796e-05   -2.543698099486888e-06   -1.3260523611735749e-05
-2.6219601946063796e-05   -2.543698099486888e-06   -1.3260523611735749e-05
9.245751573218086e-06   -1.9634105817881945e-05   -6.211520151283567e-05
9.245751573218086e-06   -1.9634105817881945e-05   -6.211520151283567e-05
9.245751573218086e-06   -1.9634105817881945e-05   -6.211520151283567e-05
9.245751573218086e-06   -1.9634105817881945e-05   -6.211520151283567e-05
-9.353449095199705e-06   -1.1317902928900756e-05   -3.6106255465527635e-05
-9.353449095199705e-06   -1.1317902928900756e-05   -3.6106255465527635e-05
-9.353449095199705e-06   -1.1317902928900756e-05   -3.6106255465527635e-05
-9.353449095199705e-06   -1.1317902928900756e-05   -3.6106255465527635e-05
-3.2709673979068927e-05   1.080996617171693e-06   -9.275641129585831e-06
-3.2709673979068927e-05   1.080996617171693e-06   -9.275641129585831e-06
-3.2709673979068927e-05   1.080996617171693e-06   -9.275641129585831e-06
-3.2709673979068927e-05   1.080996617171693e-06   -9.275641129585831e-06
-7.50206841537161e-05   -2.496427874459266e-05   -9.54211566377228e-05
-7.50206841537161e-05   -2.496427874459266e-05   -9.54211566377228e-05
-7.50206841537161e-05   -2.496427874459266e-05   -9.54211566377228e-05
-7.50206841537161e-05   -2.496427874459266e-05   -9.54211566377228e-05
-7.270839581260258e-05   1.9587665013678403e-06   -2.41305213011145e-05
-7.270839581260258e-05   1.9587665013678403e-06   -2.41305213011145e-05
-7.270839581260258e-05   1.9587665013678403e-06   -2.41305213011145e-05
-7.270839581260258e-05   1.9587665013678403e-06   -2.41305213011145e-05
-3.077099749332521e-05   -2.78595738308564e-05   -7.613518096724178e-05
-3.077099749332521e-05   -2.78595738308564e-05   -7.613518096724178e-05
-3.077099749332521e-05   -2.78595738308564e-05   -7.613518096724178e-05
-3.077099749332521e-05   -2.78595738308564e-05   -7.613518096724178e-05
-5.2040802755818866e-05   -1.2715385639272634e-05   -4.977201844470243e-05
-5.2040802755818866e-05   -1.2715385639272634e-05   -4.977201844470243e-05
-5.2040802755818866e-05   -1.2715385639272634e-05   -4.977201844470243e-05
-5.2040802755818866e-05   -1.2715385639272634e-05   -4.977201844470243e-05
-3.077099749332521e-05   1.9587665013678403e-06   -6.239517101779913e-06
-3.077099749332521e-05   1.9587665013678403e-06   -6.239517101779913e-06
-3.077099749332521e-05   1.9587665013678403e-06   -6.239517101779913e-06
-3.077099749332521e-05   1.9587665013678403e-06   -6.239517101779913e-06
-7.270839581260258e-05   -2.78595738308564e-05   -9.402618516657661e-05
-7.270839581260258e-05   -2.78595738308564e-05   -9.402618516657661e-05
-7.270839581260258e-05   -2.78595738308564e-05   -9.402618516657661e-05
-7.270839581260258e-05   -2.78595738308564e-05   -9.402618516657661e-05
-7.049152415572964e-05   2.767135831081499e-06   -2.157225164531101e-05
-7.049152415572964e-05   2.767135831081499e-06   -2.157225164531101e-05
-7.049152415572964e-05   2.767135831081499e-06   -2.157225164531101e-05
-7.049152415572964e-05   2.767135831081499e-06   -2.157225164531101e-05
-2.9100875466031147e-05   -2.8018255179510648e-05   -7.208543152178618e-05
-2.9100875466031147e-05   -2.8018255179510648e-05   -7.208543152178618e-05
-2.9100875466031147e-05   -2.8018255179510648e-05   -7.208543152178618e-05
-2.9100875466031147e-05   -2.8018255179510648e-05   -7.208543152178618e-05
-4.9786310670771275e-05   -1.2761411380485255e-05   -4.676381245996813e-05
-4.9786310670771275e-05   -1.2761411380485255e-05   -4.676381245996813e-05
-4.9786310670771275e-05   -1.2761411380485255e-05   -4.676381245996813e-05
-4.9786310670771275e-05   -1.2761411380485255e-05   -4.676381245996813e-05
-2.910087546603112e-05   2.767135831081499e-06   -3.1010170389554614e-06
-2.910087546603112e-05   2.767135831081499e-06   -3.1010170389554614e-06
-2.910087546603112e-05   2.767135831081499e-06   -3.1010170389554614e-06
-2.910087546603112e-05   2.767135831081499e-06   -3.1010170389554614e-06
-7.049152415572978e-05   -2.8018255179510215e-05   -9.055666612814211e-05
-7.049152415572978e-05   -2.8018255179510215e-05   -9.055666612814211e-05
-7.049152415572978e-05   -2.8018255179510215e-05   -9.055666612814211e-05
-7.049152415572978e-05   -2.8018255179510215e-05   -9.055666612814211e-05
-6.686014849965227e-05   3.4516311953436234e-06   -1.8964578533189023e-05
-6.686014849965227e-05   3.4516311953436234e-06   -1.8964578533189023e-05
-6.686014849965227e-05   3.4516311953436234e-06   -1.8964578533189023e-05
-6.686014849965227e-05   3.4516311953436234e-06   -1.8964578533189023e-05
-2.6219601946063904e-05   -2.558909101553746e-05   -6.927438946264028e-05
-2.6219601946063904e-05   -2.558909101553746e-05   -6.927438946264028e-05
-2.6219601946063904e-05   -2.558909101553746e-05   -6.927438946264028e-05
-2.6219601946063904e-05   -2.558909101553746e-05   -6.927438946264028e-05
-4.755754031595415e-05   -1.128517236222452e-05   -4.2293510038143525e-05
-4.755754031595415e-05   -1.128517236222452e-05   -4.2293510038143525e-05
-4.755754031595415e-05   -1.128517236222452e-05   -4.2293510038143525e-05
-4.755754031595415e-05   -1.128517236222452e-05   -4.2293510038143525e-05
-7.50206841537161e-05   1.0692943175890767e-05   -1.6331541068565023e-05
-7.50206841537161e-05   1.0692943175890767e-05   -1.6331541068565023e-05
-7.50206841537161e-05   1.0692943175890767e-05   -1.6331541068565023e-05
-7.50206841537161e-05   1.0692943175890767e-05   -1.6331541068565023e-05
-0.00012924587631122397   0.0   -0.00011312262723661291
-0.00012924587631122397   0.0   -0.00011312262723661291
-0.00012924587631122397   0.0   -0.00011312262723661291
-0.00012924587631122397   0.0   -0.00011312262723661291
-0.00012585995245103517   1.3549578526140475e-05   -1.254514562351464e-05
-0.00012585995245103517   1.3549578526140475e-05   -1.254514562351464e-05
-0.00012585995245103517   1.3549578526140475e-05   -1.254514562351464e-05
-0.00012585995245103517   1.3549578526140475e-05   -1.254514562351464e-05
-7.270839581260246e-05   0.0   -9.300132623855139e-05
-7.270839581260246e-05   0.0   -9.300132623855139e-05
-7.270839581260246e-05   0.0   -9.300132623855139e-05
-7.270839581260246e-05   0.0   -9.300132623855139e-05
-9.642892890779738e-05   4.133842070284943e-06   -5.5947409655397506e-05
-9.642892890779738e-05   4.133842070284943e-06   -5.5947409655397506e-05
-9.642892890779738e-05   4.133842070284943e-06   -5.5947409655397506e-05
-9.642892890779738e-05   4.133842070284943e-06   -5.5947409655397506e-05
-7.270839581260252e-05   1.3549578526140475e-05   -4.415398507830268e-06
-7.270839581260252e-05   1.3549578526140475e-05   -4.415398507830268e-06
-7.270839581260252e-05   1.3549578526140475e-05   -4.415398507830268e-06
-7.270839581260252e-05   1.3549578526140475e-05   -4.415398507830268e-06
-0.00012585995245103493   0.0   -0.00010113107335423541
-0.00012585995245103493   0.0   -0.00010113107335423541
-0.00012585995245103493   0.0   -0.00010113107335423541
-0.00012585995245103493   0.0   -0.00010113107335423541
-0.00012299728677121194   1.4190985506255891e-05   -5.056518628898318e-06
-0.00012299728677121194   1.4190985506255891e-05   -5.056518628898318e-06
-0.00012299728677121194   1.4190985506255891e-05   -5.056518628898318e-06
-0.00012299728677121194   1.4190985506255891e-05   -5.056518628898318e-06
-7.049152415572978e-05   0.0   -8.405153168428205e-05
-7.049152415572978e-05   0.0   -8.405153168428205e-05
-7.049152415572978e-05   0.0   -8.405153168428205e-05
-7.049152415572978e-05   0.0   -8.405153168428205e-05
-9.54133306800864e-05   6.559596882472433e-06   -4.6450945606503436e-05
-9.54133306800864e-05   6.559596882472433e-06   -4.6450945606503436e-05
-9.54133306800864e-05   6.559596882472433e-06   -4.6450945606503436e-05
-9.54133306800864e-05   6.559596882472433e-06   -4.6450945606503436e-05
-7.049152415572978e-05   1.4190985506255891e-05   3.4580726748550863e-06
-7.049152415572978e-05   1.4190985506255891e-05   3.4580726748550863e-06
-7.049152415572978e-05   1.4190985506255891e-05   3.4580726748550863e-06
-7.049152415572978e-05   1.4190985506255891e-05   3.4580726748550863e-06
-0.00012299728677121172   0.0   -9.256612298803521e-05
-0.00012299728677121172   0.0   -9.256612298803521e-05
-0.00012299728677121172   0.0   -9.256612298803521e-05
-0.00012299728677121172   0.0   -9.256612298803521e-05
-0.0001172873776277961   1.5296475386623442e-05   6.991020028954652e-06
-0.0001172873776277961   1.5296475386623442e-05   6.991020028954652e-06
-0.0001172873776277961   1.5296475386623442e-05   6.991020028954652e-06
-0.0001172873776277961   1.5296475386623442e-05   6.991020028954652e-06
-6.68601484996524e-05   0.0   -6.787647661931094e-05
-6.68601484996524e-05   0.0   -6.787647661931094e-05
-6.68601484996524e-05   0.0   -6.787647661931094e-05
-6.68601484996524e-05   0.0   -6.787647661931094e-05
-9.043553138268996e-05   8.093632382986937e-06   -3.344035124404023e-05
-9.043553138268996e-05   8.093632382986937e-06   -3.344035124404023e-05
-9.043553138268996e-05   8.093632382986937e-06   -3.344035124404023e-05
-9.043553138268996e-05   8.093632382986937e-06   -3.344035124404023e-05
9.572282351626193e-05   -1.6449746327579576e-05   5.7162468720697596e-05
9.572282351626193e-05   -1.6449746327579576e-05   5.7162468720697596e-05
9.572282351626193e-05   -1.6449746327579576e-05   5.7162468720697596e-05
9.572282351626193e-05   -1.6449746327579576e-05   5.7162468720697596e-05
4.9680109496484984e-05   -1.2663705813475371e-05   -1.7303763670467988e-05
4.9680109496484984e-05   -1.2663705813475371e-05   -1.7303763670467988e-05
4.9680109496484984e-05   -1.2663705813475371e-05   -1.7303763670467988e-05
4.9680109496484984e-05   -1.2663705813475371e-05   -1.7303763670467988e-05
4.842704728736023e-05   -1.686120597648756e-05   5.0499206846707154e-05
4.842704728736023e-05   -1.686120597648756e-05   5.0499206846707154e-05
4.842704728736023e-05   -1.686120597648756e-05   5.0499206846707154e-05
4.842704728736023e-05   -1.686120597648756e-05   5.0499206846707154e-05
9.469455947090804e-05   -1.3925545888241863e-05   -2.8374709512153873e-05
9.469455947090804e-05   -1.3925545888241863e-05   -2.8374709512153873e-05
9.469455947090804e-05   -1.3925545888241863e-05   -2.8374709512153873e-05
9.469455947090804e-05   -1.3925545888241863e-05   -2.8374709512153873e-05
6.918039054536051e-05   -1.4167792001329796e-05   1.4294253031611704e-05
6.918039054536051e-05   -1.4167792001329796e-05   1.4294253031611704e-05
6.918039054536051e-05   -1.4167792001329796e-05   1.4294253031611704e-05
6.918039054536051e-05   -1.4167792001329796e-05   1.4294253031611704e-05
9.469455947090804e-05   -1.686120597648756e-05   4.873781079375904e-05
9.469455947090804e-05   -1.686120597648756e-05   4.873781079375904e-05
9.469455947090804e-05   -1.686120597648756e-05   4.873781079375904e-05
9.469455947090804e-05   -1.686120597648756e-05   4.873781079375904e-05
4.842704728736023e-05   -1.3925545888241863e-05   -2.6613313459206275e-05
4.842704728736023e-05   -1.3925545888241863e-05   -2.6613313459206275e-05
4.842704728736023e-05   -1.3925545888241863e-05   -2.6613313459206275e-05
4.842704728736023e-05   -1.3925545888241863e-05   -2.6613313459206275e-05
4.72937971121538e-05   -1.670937873357592e-05   4.5346915353232375e-05
4.72937971121538e-05   -1.670937873357592e-05   4.5346915353232375e-05
4.72937971121538e-05   -1.670937873357592e-05   4.5346915353232375e-05
4.72937971121538e-05   -1.670937873357592e-05   4.5346915353232375e-05
9.35064960624295e-05   -1.4042546712494854e-05   -3.327434877654247e-05
9.35064960624295e-05   -1.4042546712494854e-05   -3.327434877654247e-05
9.35064960624295e-05   -1.4042546712494854e-05   -3.327434877654247e-05
9.35064960624295e-05   -1.4042546712494854e-05   -3.327434877654247e-05
6.912404949750917e-05   -1.4416236349854353e-05   7.587275947407266e-06
6.912404949750917e-05   -1.4416236349854353e-05   7.587275947407266e-06
6.912404949750917e-05   -1.4416236349854353e-05   7.587275947407266e-06
6.912404949750917e-05   -1.4416236349854353e-05   7.587275947407266e-06
9.350649606242967e-05   -1.670937873357592e-05   4.3746816140583606e-05
9.350649606242967e-05   -1.670937873357592e-05   4.3746816140583606e-05
9.350649606242967e-05   -1.670937873357592e-05   4.3746816140583606e-05
9.350649606242967e-05   -1.670937873357592e-05   4.3746816140583606e-05
4.72937971121538e-05   -1.4042546712494854e-05   -3.167424956389362e-05
4.72937971121538e-05   -1.4042546712494854e-05   -3.167424956389362e-05
4.72937971121538e-05   -1.4042546712494854e-05   -3.167424956389362e-05
4.72937971121538e-05   -1.4042546712494854e-05   -3.167424956389362e-05
4.591136349394541e-05   -1.5782510683540803e-05   3.6964634095678316e-05
4.591136349394541e-05   -1.5782510683540803e-05   3.6964634095678316e-05
4.591136349394541e-05   -1.5782510683540803e-05   3.6964634095678316e-05
4.591136349394541e-05   -1.5782510683540803e-05   3.6964634095678316e-05
9.164511643814809e-05   -1.3752565289046163e-05   -4.047625471468905e-05
9.164511643814809e-05   -1.3752565289046163e-05   -4.047625471468905e-05
9.164511643814809e-05   -1.3752565289046163e-05   -4.047625471468905e-05
9.164511643814809e-05   -1.3752565289046163e-05   -4.047625471468905e-05
6.67608856175187e-05   -1.3708751521899695e-05   9.71175059405016e-07
6.67608856175187e-05   -1.3708751521899695e-05   9.71175059405016e-07
6.67608856175187e-05   -1.3708751521899695e-05   9.71175059405016e-07
6.67608856175187e-05   -1.3708751521899695e-05   9.71175059405016e-07
4.9680109496484984e-05   -1.653944231044249e-05   4.273630764103009e-05
4.9680109496484984e-05   -1.653944231044249e-05   4.273630764103009e-05
4.9680109496484984e-05   -1.653944231044249e-05   4.273630764103009e-05
4.9680109496484984e-05   -1.653944231044249e-05   4.273630764103009e-05
1.0626754732394274e-05   -7.84413529455628e-06   -1.7135432756256114e-05
1.0626754732394274e-05   -7.84413529455628e-06   -1.7135432756256114e-05
1.0626754732394274e-05   -7.84413529455628e-06   -1.7135432756256114e-05
1.0626754732394274e-05   -7.84413529455628e-06   -1.7135432756256114e-05
8.643541800804435e-06   -1.6456259038728164e-05   4.880550452876411e-05
8.643541800804435e-06   -1.6456259038728164e-05   4.880550452876411e-05
8.643541800804435e-06   -1.6456259038728164e-05   4.880550452876411e-05
8.643541800804435e-06   -1.6456259038728164e-05   4.880550452876411e-05
4.842704728736023e-05   -8.320772591870283e-06   -2.238162981694342e-05
4.842704728736023e-05   -8.320772591870283e-06   -2.238162981694342e-05
4.842704728736023e-05   -8.320772591870283e-06   -2.238162981694342e-05
4.842704728736023e-05   -8.320772591870283e-06   -2.238162981694342e-05
2.9304118152815944e-05   -1.1835443557504932e-05   1.1598721320010916e-05
2.9304118152815944e-05   -1.1835443557504932e-05   1.1598721320010916e-05
2.9304118152815944e-05   -1.1835443557504932e-05   1.1598721320010916e-05
2.9304118152815944e-05   -1.1835443557504932e-05   1.1598721320010916e-05
4.842704728736028e-05   -1.6456259038728598e-05   4.392421266064916e-05
4.842704728736028e-05   -1.6456259038728598e-05   4.392421266064916e-05
4.842704728736028e-05   -1.6456259038728598e-05   4.392421266064916e-05
4.842704728736028e-05   -1.6456259038728598e-05   4.392421266064916e-05
8.643541800804435e-06   -8.320772591870283e-06   -1.750033794882923e-05
8.643541800804435e-06   -8.320772591870283e-06   -1.750033794882923e-05
8.643541800804435e-06   -8.320772591870283e-06   -1.750033794882923e-05
8.643541800804435e-06   -8.320772591870283e-06   -1.750033794882923e-05
7.229779726478731e-06   -1.623760719888503e-05   4.888405616666801e-05
7.229779726478731e-06   -1.623760719888503e-05   4.888405616666801e-05
7.229779726478731e-06   -1.623760719888503e-05   4.888405616666801e-05
7.229779726478731e-06   -1.623760719888503e-05   4.888405616666801e-05
4.72937971121538e-05   -8.533881255317656e-06   -2.2511541708930468e-05
4.72937971121538e-05   -8.533881255317656e-06   -2.2511541708930468e-05
4.72937971121538e-05   -8.533881255317656e-06   -2.2511541708930468e-05
4.72937971121538e-05   -8.533881255317656e-06   -2.2511541708930468e-05
2.7605254542903686e-05   -1.1593844185968805e-05   1.2138673664877759e-05
2.7605254542903686e-05   -1.1593844185968805e-05   1.2138673664877759e-05
2.7605254542903686e-05   -1.1593844185968805e-05   1.2138673664877759e-05
2.7605254542903686e-05   -1.1593844185968805e-05   1.2138673664877759e-05
4.729379711215388e-05   -1.623760719888503e-05   4.4261820600527716e-05
4.729379711215388e-05   -1.623760719888503e-05   4.4261820600527716e-05
4.729379711215388e-05   -1.623760719888503e-05   4.4261820600527716e-05
4.729379711215388e-05   -1.623760719888503e-05   4.4261820600527716e-05
7.229779726478731e-06   -8.533881255317656e-06   -1.788930614279047e-05
7.229779726478731e-06   -8.533881255317656e-06   -1.788930614279047e-05
7.229779726478731e-06   -8.533881255317656e-06   -1.788930614279047e-05
7.229779726478731e-06   -8.533881255317656e-06   -1.788930614279047e-05
5.656904245273346e-06   -1.5799321640508433e-05   5.047982325568582e-05
5.656904245273346e-06   -1.5799321640508433e-05   5.047982325568582e-05
5.656904245273346e-06   -1.5799321640508433e-05   5.047982325568582e-05
5.656904245273346e-06   -1.5799321640508433e-05   5.047982325568582e-05
4.591136349394535e-05   -8.343525818410146e-06   -2.1084419652026525e-05
4.591136349394535e-05   -8.343525818410146e-06   -2.1084419652026525e-05
4.591136349394535e-05   -8.343525818410146e-06   -2.1084419652026525e-05
4.591136349394535e-05   -8.343525818410146e-06   -2.1084419652026525e-05
2.6565348443880805e-05   -1.1086789332529455e-05   1.2804896873219404e-05
2.6565348443880805e-05   -1.1086789332529455e-05   1.2804896873219404e-05
2.6565348443880805e-05   -1.1086789332529455e-05   1.2804896873219404e-05
2.6565348443880805e-05   -1.1086789332529455e-05   1.2804896873219404e-05
1.0626754732394328e-05   -1.9991358127838168e-05   4.398867845440378e-05
1.0626754732394328e-05   -1.9991358127838168e-05   4.398867845440378e-05
1.0626754732394328e-05   -1.9991358127838168e-05   4.398867845440378e-05
1.0626754732394328e-05   -1.9991358127838168e-05   4.398867845440378e-05
-2.688572330529661e-05   -3.3198985320954076e-06   -8.529242517635273e-06
-2.688572330529661e-05   -3.3198985320954076e-06   -8.529242517635273e-06
-2.688572330529661e-05   -3.3198985320954076e-06   -8.529242517635273e-06
-2.688572330529661e-05   -3.3198985320954076e-06   -8.529242517635273e-06
-2.99712093018919e-05   -2.0436124018380613e-05   5.656691775138625e-05
-2.99712093018919e-05   -2.0436124018380613e-05   5.656691775138625e-05
-2.99712093018919e-05   -2.0436124018380613e-05   5.656691775138625e-05
-2.99712093018919e-05   -2.0436124018380613e-05   5.656691775138625e-05
8.643541800804462e-06   -3.506312298668171e-06   -1.7948887784935137e-05
8.643541800804462e-06   -3.506312298668171e-06   -1.7948887784935137e-05
8.643541800804462e-06   -3.506312298668171e-06   -1.7948887784935137e-05
8.643541800804462e-06   -3.506312298668171e-06   -1.7948887784935137e-05
-9.059432904491669e-06   -1.1434081604116096e-05   1.6312731640493947e-05
-9.059432904491669e-06   -1.1434081604116096e-05   1.6312731640493947e-05
-9.059432904491669e-06   -1.1434081604116096e-05   1.6312731640493947e-05
-9.059432904491669e-06   -1.1434081604116096e-05   1.6312731640493947e-05
8.643541800804435e-06   -2.0436124018381047e-05   4.64090307195587e-05
8.643541800804435e-06   -2.0436124018381047e-05   4.64090307195587e-05
8.643541800804435e-06   -2.0436124018381047e-05   4.64090307195587e-05
8.643541800804435e-06   -2.0436124018381047e-05   4.64090307195587e-05
-2.9971209301891846e-05   -3.5063122986677374e-06   -7.79100075310726e-06
-2.9971209301891846e-05   -3.5063122986677374e-06   -7.79100075310726e-06
-2.9971209301891846e-05   -3.5063122986677374e-06   -7.79100075310726e-06
-2.9971209301891846e-05   -3.5063122986677374e-06   -7.79100075310726e-06
-3.185627339401866e-05   -2.0343718218322412e-05   5.872524396630932e-05
-3.185627339401866e-05   -2.0343718218322412e-05   5.872524396630932e-05
-3.185627339401866e-05   -2.0343718218322412e-05   5.872524396630932e-05
-3.185627339401866e-05   -2.0343718218322412e-05   5.872524396630932e-05
7.229779726478731e-06   -3.7343204611927673e-06   -1.6383816555464435e-05
7.229779726478731e-06   -3.7343204611927673e-06   -1.6383816555464435e-05
7.229779726478731e-06   -3.7343204611927673e-06   -1.6383816555464435e-05
7.229779726478731e-06   -3.7343204611927673e-06   -1.6383816555464435e-05
-1.1147917874252509e-05   -1.1399876530377839e-05   1.8845013087265727e-05
-1.1147917874252509e-05   -1.1399876530377839e-05   1.8845013087265727e-05
-1.1147917874252509e-05   -1.1399876530377839e-05   1.8845013087265727e-05
-1.1147917874252509e-05   -1.1399876530377839e-05   1.8845013087265727e-05
7.229779726478731e-06   -2.0343718218322412e-05   4.875960531203118e-05
7.229779726478731e-06   -2.0343718218322412e-05   4.875960531203118e-05
7.229779726478731e-06   -2.0343718218322412e-05   4.875960531203118e-05
7.229779726478731e-06   -2.0343718218322412e-05   4.875960531203118e-05
-3.185627339401861e-05   -3.7343204611927673e-06   -6.418177901186192e-06
-3.185627339401861e-05   -3.7343204611927673e-06   -6.418177901186192e-06
-3.185627339401861e-05   -3.7343204611927673e-06   -6.418177901186192e-06
-3.185627339401861e-05   -3.7343204611927673e-06   -6.418177901186192e-06
-3.407432880337804e-05   -1.9634105817881945e-05   6.152116931681896e-05
-3.407432880337804e-05   -1.9634105817881945e-05   6.152116931681896e-05
-3.407432880337804e-05   -1.9634105817881945e-05   6.152116931681896e-05
-3.407432880337804e-05   -1.9634105817881945e-05   6.152116931681896e-05
5.656904245273346e-06   -3.7139725473744716e-06   -1.4249632393237906e-05
5.656904245273346e-06   -3.7139725473744716e-06   -1.4249632393237906e-05
5.656904245273346e-06   -3.7139725473744716e-06   -1.4249632393237906e-05
5.656904245273346e-06   -3.7139725473744716e-06   -1.4249632393237906e-05
-1.28481616872428e-05   -1.0949033267464853e-05   2.0933180593009837e-05
-1.28481616872428e-05   -1.0949033267464853e-05   2.0933180593009837e-05
-1.28481616872428e-05   -1.0949033267464853e-05   2.0933180593009837e-05
-1.28481616872428e-05   -1.0949033267464853e-05   2.0933180593009837e-05
-2.6885723305296636e-05   -2.496427874459266e-05   5.333317550184442e-05
-2.6885723305296636e-05   -2.496427874459266e-05   5.333317550184442e-05
-2.6885723305296636e-05   -2.496427874459266e-05   5.333317550184442e-05
-2.6885723305296636e-05   -2.496427874459266e-05   5.333317550184442e-05
-6.962632696296223e-05   3.508914851073526e-06   -8.172477701982005e-07
-6.962632696296223e-05   3.508914851073526e-06   -8.172477701982005e-07
-6.962632696296223e-05   3.508914851073526e-06   -8.172477701982005e-07
-6.962632696296223e-05   3.508914851073526e-06   -8.172477701982005e-07
-7.333112910524775e-05   -2.78595738308564e-05   7.540807394457259e-05
-7.333112910524775e-05   -2.78595738308564e-05   7.540807394457259e-05
-7.333112910524775e-05   -2.78595738308564e-05   7.540807394457259e-05
-7.333112910524775e-05   -2.78595738308564e-05   7.540807394457259e-05
-2.9971209301891846e-05   3.2938527442143498e-06   -1.555051500606294e-05
-2.9971209301891846e-05   3.2938527442143498e-06   -1.555051500606294e-05
-2.9971209301891846e-05   3.2938527442143498e-06   -1.555051500606294e-05
-2.9971209301891846e-05   3.2938527442143498e-06   -1.555051500606294e-05
-4.9253388137570476e-05   -1.0391283329067025e-05   2.479753136403693e-05
-4.9253388137570476e-05   -1.0391283329067025e-05   2.479753136403693e-05
-4.9253388137570476e-05   -1.0391283329067025e-05   2.479753136403693e-05
-4.9253388137570476e-05   -1.0391283329067025e-05   2.479753136403693e-05
-2.99712093018919e-05   -2.78595738308564e-05   5.671601799953009e-05
-2.99712093018919e-05   -2.78595738308564e-05   5.671601799953009e-05
-2.99712093018919e-05   -2.78595738308564e-05   5.671601799953009e-05
-2.99712093018919e-05   -2.78595738308564e-05   5.671601799953009e-05
-7.333112910524775e-05   3.2938527442143498e-06   3.141540938979715e-06
-7.333112910524775e-05   3.2938527442143498e-06   3.141540938979715e-06
-7.333112910524775e-05   3.2938527442143498e-06   3.141540938979715e-06
-7.333112910524775e-05   3.2938527442143498e-06   3.141540938979715e-06
-7.55898398155758e-05   -2.8018255179510215e-05   7.962565441857906e-05
-7.55898398155758e-05   -2.8018255179510215e-05   7.962565441857906e-05
-7.55898398155758e-05   -2.8018255179510215e-05   7.962565441857906e-05
-7.55898398155758e-05   -2.8018255179510215e-05   7.962565441857906e-05
-3.185627339401861e-05   2.901278237416212e-06   -1.1815343000839246e-05
-3.185627339401861e-05   2.901278237416212e-06   -1.1815343000839246e-05
-3.185627339401861e-05   2.901278237416212e-06   -1.1815343000839246e-05
-3.185627339401861e-05   2.901278237416212e-06   -1.1815343000839246e-05
-5.166219959018824e-05   -1.1954009068603291e-05   3.0107706376388238e-05
-5.166219959018824e-05   -1.1954009068603291e-05   3.0107706376388238e-05
-5.166219959018824e-05   -1.1954009068603291e-05   3.0107706376388238e-05
-5.166219959018824e-05   -1.1954009068603291e-05   3.0107706376388238e-05
-3.185627339401858e-05   -2.8018255179510648e-05   6.107393436842251e-05
-3.185627339401858e-05   -2.8018255179510648e-05   6.107393436842251e-05
-3.185627339401858e-05   -2.8018255179510648e-05   6.107393436842251e-05
-3.185627339401858e-05   -2.8018255179510648e-05   6.107393436842251e-05
-7.55898398155757e-05   2.901278237416212e-06   6.736377049316924e-06
-7.55898398155757e-05   2.901278237416212e-06   6.736377049316924e-06
-7.55898398155757e-05   2.901278237416212e-06   6.736377049316924e-06
-7.55898398155757e-05   2.901278237416212e-06   6.736377049316924e-06
-7.80228140601467e-05   -2.558909101553746e-05   8.144405958519308e-05
-7.80228140601467e-05   -2.558909101553746e-05   8.144405958519308e-05
-7.80228140601467e-05   -2.558909101553746e-05   8.144405958519308e-05
-7.80228140601467e-05   -2.558909101553746e-05   8.144405958519308e-05
-3.407432880337793e-05   2.4572982963645858e-06   -8.63124942989638e-06
-3.407432880337793e-05   2.4572982963645858e-06   -8.63124942989638e-06
-3.407432880337793e-05   2.4572982963645858e-06   -8.63124942989638e-06
-3.407432880337793e-05   2.4572982963645858e-06   -8.63124942989638e-06
-5.414152099213995e-05   -1.2045298569500311e-05   3.3515629004227034e-05
-5.414152099213995e-05   -1.2045298569500311e-05   3.3515629004227034e-05
-5.414152099213995e-05   -1.2045298569500311e-05   3.3515629004227034e-05
-5.414152099213995e-05   -1.2045298569500311e-05   3.3515629004227034e-05
-6.962632696296198e-05   0.0   5.913138696588796e-05
-6.962632696296198e-05   0.0   5.913138696588796e-05
-6.962632696296198e-05   0.0   5.913138696588796e-05
-6.962632696296198e-05   0.0   5.913138696588796e-05
-0.00012269829284448984   1.6080030360110607e-05   -1.9673871287258704e-05
-0.00012269829284448984   1.6080030360110607e-05   -1.9673871287258704e-05
-0.00012269829284448984   1.6080030360110607e-05   -1.9673871287258704e-05
-0.00012269829284448984   1.6080030360110607e-05   -1.9673871287258704e-05
-0.00012781324146948411   0.0   8.574081358664375e-05
-0.00012781324146948411   0.0   8.574081358664375e-05
-0.00012781324146948411   0.0   8.574081358664375e-05
-0.00012781324146948411   0.0   8.574081358664375e-05
-7.333112910524762e-05   1.551313452341106e-05   -1.437058773446384e-05
-7.333112910524762e-05   1.551313452341106e-05   -1.437058773446384e-05
-7.333112910524762e-05   1.551313452341106e-05   -1.437058773446384e-05
-7.333112910524762e-05   1.551313452341106e-05   -1.437058773446384e-05
-9.417157706210726e-05   9.540613422530375e-06   2.3947004854164183e-05
-9.417157706210726e-05   9.540613422530375e-06   2.3947004854164183e-05
-9.417157706210726e-05   9.540613422530375e-06   2.3947004854164183e-05
-9.417157706210726e-05   9.540613422530375e-06   2.3947004854164183e-05
-7.333112910524756e-05   0.0   7.643293287259729e-05
-7.333112910524756e-05   0.0   7.643293287259729e-05
-7.333112910524756e-05   0.0   7.643293287259729e-05
-7.333112910524756e-05   0.0   7.643293287259729e-05
-0.00012781324146948433   1.551313452341106e-05   -5.062707020416944e-06
-0.00012781324146948433   1.551313452341106e-05   -5.062707020416944e-06
-0.00012781324146948433   1.551313452341106e-05   -5.062707020416944e-06
-0.00012781324146948433   1.551313452341106e-05   -5.062707020416944e-06
-0.00013038998629265493   0.0   9.519848439151291e-05
-0.00013038998629265493   0.0   9.519848439151291e-05
-0.00013038998629265493   0.0   9.519848439151291e-05
-0.00013038998629265493   0.0   9.519848439151291e-05
-7.55898398155757e-05   1.5112825881791626e-05   -5.20278859936045e-06
-7.55898398155757e-05   1.5112825881791626e-05   -5.20278859936045e-06
-7.55898398155757e-05   1.5112825881791626e-05   -5.20278859936045e-06
-7.55898398155757e-05   1.5112825881791626e-05   -5.20278859936045e-06
-9.909815007565532e-05   7.964605089940888e-06   3.8266660975883255e-05
-9.909815007565532e-05   7.964605089940888e-06   3.8266660975883255e-05
-9.909815007565532e-05   7.964605089940888e-06   3.8266660975883255e-05
-9.909815007565532e-05   7.964605089940888e-06   3.8266660975883255e-05
-7.55898398155757e-05   0.0   8.613078886243871e-05
-7.55898398155757e-05   0.0   8.613078886243871e-05
-7.55898398155757e-05   0.0   8.613078886243871e-05
-7.55898398155757e-05   0.0   8.613078886243871e-05
-0.00013038998629265536   1.511282588179206e-05   3.864906929714395e-06
-0.00013038998629265536   1.511282588179206e-05   3.864906929714395e-06
-0.00013038998629265536   1.511282588179206e-05   3.864906929714395e-06
-0.00013038998629265536   1.511282588179206e-05   3.864906929714395e-06
-0.00013326200579435744   0.0   0.00010781151397947462
-0.00013326200579435744   0.0   0.00010781151397947462
-0.00013326200579435744   0.0   0.00010781151397947462
-0.00013326200579435744   0.0   0.00010781151397947462
-7.80228140601467e-05   1.2575180374038968e-05   8.201086198033085e-06
-7.80228140601467e-05   1.2575180374038968e-05   8.201086198033085e-06
-7.80228140601467e-05   1.2575180374038968e-05   8.201086198033085e-06
-7.80228140601467e-05   1.2575180374038968e-05   8.201086198033085e-06
-9.993273655222454e-05   5.586198006580015e-06   4.8911013105305096e-05
-9.993273655222454e-05   5.586198006580015e-06   4.8911013105305096e-05
-9.993273655222454e-05   5.586198006580015e-06   4.8911013105305096e-05
-9.993273655222454e-05   5.586198006580015e-06   4.8911013105305096e-05
8.414042011758297e-05   -1.2663705813475805e-05   5.978249497623966e-05
8.414042011758297e-05   -1.2663705813475805e-05   5.978249497623966e-05
8.414042011758297e-05   -1.2663705813475805e-05   5.978249497623966e-05
8.414042011758297e-05   -1.2663705813475805e-05   5.978249497623966e-05
4.256580403046601e-05   -9.541044749456808e-06   -7.634935197210757e-06
4.256580403046601e-05   -9.541044749456808e-06   -7.634935197210757e-06
4.256580403046601e-05   -9.541044749456808e-06   -7.634935197210757e-06
4.256580403046601e-05   -9.541044749456808e-06   -7.634935197210757e-06
4.1439411132797465e-05   -1.3925545888241863e-05   5.219278593256637e-05
4.1439411132797465e-05   -1.3925545888241863e-05   5.219278593256637e-05
4.1439411132797465e-05   -1.3925545888241863e-05   5.219278593256637e-05
4.1439411132797465e-05   -1.3925545888241863e-05   5.219278593256637e-05
8.212805047267473e-05   -1.0816335868656535e-05   -1.7487138978980292e-05
8.212805047267473e-05   -1.0816335868656535e-05   -1.7487138978980292e-05
8.212805047267473e-05   -1.0816335868656535e-05   -1.7487138978980292e-05
8.212805047267473e-05   -1.0816335868656535e-05   -1.7487138978980292e-05
5.9782971686854254e-05   -1.1266761336319736e-05   2.0024914277985185e-05
5.9782971686854254e-05   -1.1266761336319736e-05   2.0024914277985185e-05
5.9782971686854254e-05   -1.1266761336319736e-05   2.0024914277985185e-05
5.9782971686854254e-05   -1.1266761336319736e-05   2.0024914277985185e-05
8.21280504726746e-05   -1.3925545888241863e-05   5.032725992081531e-05
8.21280504726746e-05   -1.3925545888241863e-05   5.032725992081531e-05
8.21280504726746e-05   -1.3925545888241863e-05   5.032725992081531e-05
8.21280504726746e-05   -1.3925545888241863e-05   5.032725992081531e-05
4.1439411132797546e-05   -1.0816335868656535e-05   -1.5621612967229226e-05
4.1439411132797546e-05   -1.0816335868656535e-05   -1.5621612967229226e-05
4.1439411132797546e-05   -1.0816335868656535e-05   -1.5621612967229226e-05
4.1439411132797546e-05   -1.0816335868656535e-05   -1.5621612967229226e-05
3.998792525684935e-05   -1.4042546712494854e-05   4.6854472318619365e-05
3.998792525684935e-05   -1.4042546712494854e-05   4.6854472318619365e-05
3.998792525684935e-05   -1.4042546712494854e-05   4.6854472318619365e-05
3.998792525684935e-05   -1.4042546712494854e-05   4.6854472318619365e-05
8.009343881299556e-05   -1.1006548360947398e-05   -2.180964928588616e-05
8.009343881299556e-05   -1.1006548360947398e-05   -2.180964928588616e-05
8.009343881299556e-05   -1.1006548360947398e-05   -2.180964928588616e-05
8.009343881299556e-05   -1.1006548360947398e-05   -2.180964928588616e-05
5.921526568737623e-05   -1.1759363253904462e-05   1.3438994859253601e-05
5.921526568737623e-05   -1.1759363253904462e-05   1.3438994859253601e-05
5.921526568737623e-05   -1.1759363253904462e-05   1.3438994859253601e-05
5.921526568737623e-05   -1.1759363253904462e-05   1.3438994859253601e-05
8.009343881299556e-05   -1.4042546712494854e-05   4.503287330769111e-05
8.009343881299556e-05   -1.4042546712494854e-05   4.503287330769111e-05
8.009343881299556e-05   -1.4042546712494854e-05   4.503287330769111e-05
8.009343881299556e-05   -1.4042546712494854e-05   4.503287330769111e-05
3.998792525684935e-05   -1.1006548360947398e-05   -1.9988050274957455e-05
3.998792525684935e-05   -1.1006548360947398e-05   -1.9988050274957455e-05
3.998792525684935e-05   -1.1006548360947398e-05   -1.9988050274957455e-05
3.998792525684935e-05   -1.1006548360947398e-05   -1.9988050274957455e-05
3.846529303658674e-05   -1.3752565289046597e-05   3.8938367539780375e-05
3.846529303658674e-05   -1.3752565289046597e-05   3.8938367539780375e-05
3.846529303658674e-05   -1.3752565289046597e-05   3.8938367539780375e-05
3.846529303658674e-05   -1.3752565289046597e-05   3.8938367539780375e-05
7.754673477037137e-05   -1.0939831205402858e-05   -2.7885009133380428e-05
7.754673477037137e-05   -1.0939831205402858e-05   -2.7885009133380428e-05
7.754673477037137e-05   -1.0939831205402858e-05   -2.7885009133380428e-05
7.754673477037137e-05   -1.0939831205402858e-05   -2.7885009133380428e-05
5.6570794767159035e-05   -1.1452502036161244e-05   7.382493370429666e-06
5.6570794767159035e-05   -1.1452502036161244e-05   7.382493370429666e-06
5.6570794767159035e-05   -1.1452502036161244e-05   7.382493370429666e-06
5.6570794767159035e-05   -1.1452502036161244e-05   7.382493370429666e-06
4.256580403046606e-05   -7.84413529455628e-06   5.660723831933147e-05
4.256580403046606e-05   -7.84413529455628e-06   5.660723831933147e-05
4.256580403046606e-05   -7.84413529455628e-06   5.660723831933147e-05
4.256580403046606e-05   -7.84413529455628e-06   5.660723831933147e-05
4.693434580127503e-06   -3.3699562004304955e-06   -3.828869974757589e-06
4.693434580127503e-06   -3.3699562004304955e-06   -3.828869974757589e-06
4.693434580127503e-06   -3.3699562004304955e-06   -3.828869974757589e-06
4.693434580127503e-06   -3.3699562004304955e-06   -3.828869974757589e-06
3.5748055786737044e-06   -8.320772591870283e-06   5.898340329528592e-05
3.5748055786737044e-06   -8.320772591870283e-06   5.898340329528592e-05
3.5748055786737044e-06   -8.320772591870283e-06   5.898340329528592e-05
3.5748055786737044e-06   -8.320772591870283e-06   5.898340329528592e-05
4.1439411132797546e-05   -4.055883057776412e-06   -6.683206348710854e-06
4.1439411132797546e-05   -4.055883057776412e-06   -6.683206348710854e-06
4.1439411132797546e-05   -4.055883057776412e-06   -6.683206348710854e-06
4.1439411132797546e-05   -4.055883057776412e-06   -6.683206348710854e-06
2.284752194750851e-05   -5.483475193636747e-06   2.5159830908287264e-05
2.284752194750851e-05   -5.483475193636747e-06   2.5159830908287264e-05
2.284752194750851e-05   -5.483475193636747e-06   2.5159830908287264e-05
2.284752194750851e-05   -5.483475193636747e-06   2.5159830908287264e-05
4.1439411132797505e-05   -8.320772591870283e-06   5.6424469574828905e-05
4.1439411132797505e-05   -8.320772591870283e-06   5.6424469574828905e-05
4.1439411132797505e-05   -8.320772591870283e-06   5.6424469574828905e-05
4.1439411132797505e-05   -8.320772591870283e-06   5.6424469574828905e-05
3.5748055786737044e-06   -4.055883057776412e-06   -4.124272628254055e-06
3.5748055786737044e-06   -4.055883057776412e-06   -4.124272628254055e-06
3.5748055786737044e-06   -4.055883057776412e-06   -4.124272628254055e-06
3.5748055786737044e-06   -4.055883057776412e-06   -4.124272628254055e-06
2.1465034369775877e-06   -8.53388125531809e-06   5.843359496874234e-05
2.1465034369775877e-06   -8.53388125531809e-06   5.843359496874234e-05
2.1465034369775877e-06   -8.53388125531809e-06   5.843359496874234e-05
2.1465034369775877e-06   -8.53388125531809e-06   5.843359496874234e-05
3.998792525684935e-05   -4.506523263386221e-06   -7.0518561928699635e-06
3.998792525684935e-05   -4.506523263386221e-06   -7.0518561928699635e-06
3.998792525684935e-05   -4.506523263386221e-06   -7.0518561928699635e-06
3.998792525684935e-05   -4.506523263386221e-06   -7.0518561928699635e-06
2.1429542371312136e-05   -5.7435698909572355e-06   2.4621009926235405e-05
2.1429542371312136e-05   -5.7435698909572355e-06   2.4621009926235405e-05
2.1429542371312136e-05   -5.7435698909572355e-06   2.4621009926235405e-05
2.1429542371312136e-05   -5.7435698909572355e-06   2.4621009926235405e-05
3.998792525684928e-05   -8.533881255317656e-06   5.601718017358287e-05
3.998792525684928e-05   -8.533881255317656e-06   5.601718017358287e-05
3.998792525684928e-05   -8.533881255317656e-06   5.601718017358287e-05
3.998792525684928e-05   -8.533881255317656e-06   5.601718017358287e-05
2.1465034369775877e-06   -4.506523263386221e-06   -4.635441397710929e-06
2.1465034369775877e-06   -4.506523263386221e-06   -4.635441397710929e-06
2.1465034369775877e-06   -4.506523263386221e-06   -4.635441397710929e-06
2.1465034369775877e-06   -4.506523263386221e-06   -4.635441397710929e-06
5.686385189249609e-07   -8.343525818410146e-06   5.9297858532725636e-05
5.686385189249609e-07   -8.343525818410146e-06   5.9297858532725636e-05
5.686385189249609e-07   -8.343525818410146e-06   5.9297858532725636e-05
5.686385189249609e-07   -8.343525818410146e-06   5.9297858532725636e-05
3.8465293036586714e-05   -4.7008205401113945e-06   -6.0488554970234895e-06
3.8465293036586714e-05   -4.7008205401113945e-06   -6.0488554970234895e-06
3.8465293036586714e-05   -4.7008205401113945e-06   -6.0488554970234895e-06
3.8465293036586714e-05   -4.7008205401113945e-06   -6.0488554970234895e-06
2.027305872155587e-05   -5.690296108879205e-06   2.486522036928982e-05
2.027305872155587e-05   -5.690296108879205e-06   2.486522036928982e-05
2.027305872155587e-05   -5.690296108879205e-06   2.486522036928982e-05
2.027305872155587e-05   -5.690296108879205e-06   2.486522036928982e-05
4.693434580127503e-06   -3.3198985320954076e-06   5.789506025698156e-05
4.693434580127503e-06   -3.3198985320954076e-06   5.789506025698156e-05
4.693434580127503e-06   -3.3198985320954076e-06   5.789506025698156e-05
4.693434580127503e-06   -3.3198985320954076e-06   5.789506025698156e-05
-3.1994034743112256e-05   2.9875778474759e-06   5.337638793250724e-07
-3.1994034743112256e-05   2.9875778474759e-06   5.337638793250724e-07
-3.1994034743112256e-05   2.9875778474759e-06   5.337638793250724e-07
-3.1994034743112256e-05   2.9875778474759e-06   5.337638793250724e-07
-3.3254286627047974e-05   -3.5063122986677374e-06   6.211555865954631e-05
-3.3254286627047974e-05   -3.5063122986677374e-06   6.211555865954631e-05
-3.3254286627047974e-05   -3.5063122986677374e-06   6.211555865954631e-05
-3.3254286627047974e-05   -3.5063122986677374e-06   6.211555865954631e-05
3.5748055786737044e-06   2.4615297019429418e-06   -2.8469668836897367e-06
3.5748055786737044e-06   2.4615297019429418e-06   -2.8469668836897367e-06
3.5748055786737044e-06   2.4615297019429418e-06   -2.8469668836897367e-06
3.5748055786737044e-06   2.4615297019429418e-06   -2.8469668836897367e-06
-1.421876817570579e-05   -6.729521256302468e-08   2.832628432231245e-05
-1.421876817570579e-05   -6.729521256302468e-08   2.832628432231245e-05
-1.421876817570579e-05   -6.729521256302468e-08   2.832628432231245e-05
-1.421876817570579e-05   -6.729521256302468e-08   2.832628432231245e-05
3.5748055786737315e-06   -3.5063122986677374e-06   5.8534853459179473e-05
3.5748055786737315e-06   -3.5063122986677374e-06   5.8534853459179473e-05
3.5748055786737315e-06   -3.5063122986677374e-06   5.8534853459179473e-05
3.5748055786737315e-06   -3.5063122986677374e-06   5.8534853459179473e-05
-3.3254286627047974e-05   2.4615297019429418e-06   7.337383166768335e-07
-3.3254286627047974e-05   2.4615297019429418e-06   7.337383166768335e-07
-3.3254286627047974e-05   2.4615297019429418e-06   7.337383166768335e-07
-3.3254286627047974e-05   2.4615297019429418e-06   7.337383166768335e-07
-3.494458609265517e-05   -3.7343204611923336e-06   6.336277514837341e-05
-3.494458609265517e-05   -3.7343204611923336e-06   6.336277514837341e-05
-3.494458609265517e-05   -3.7343204611923336e-06   6.336277514837341e-05
-3.494458609265517e-05   -3.7343204611923336e-06   6.336277514837341e-05
2.1465034369775877e-06   1.971830525983407e-06   -1.8793979933199277e-06
2.1465034369775877e-06   1.971830525983407e-06   -1.8793979933199277e-06
2.1465034369775877e-06   1.971830525983407e-06   -1.8793979933199277e-06
2.1465034369775877e-06   1.971830525983407e-06   -1.8793979933199277e-06
-1.5462093343536658e-05   -2.1592862075193314e-07   2.8780918795578525e-05
-1.5462093343536658e-05   -2.1592862075193314e-07   2.8780918795578525e-05
-1.5462093343536658e-05   -2.1592862075193314e-07   2.8780918795578525e-05
-1.5462093343536658e-05   -2.1592862075193314e-07   2.8780918795578525e-05
2.1465034369775877e-06   -3.7343204611927673e-06   5.993908455606805e-05
2.1465034369775877e-06   -3.7343204611927673e-06   5.993908455606805e-05
2.1465034369775877e-06   -3.7343204611927673e-06   5.993908455606805e-05
2.1465034369775877e-06   -3.7343204611927673e-06   5.993908455606805e-05
-3.494458609265512e-05   1.971830525983407e-06   1.544292598985213e-06
-3.494458609265512e-05   1.971830525983407e-06   1.544292598985213e-06
-3.494458609265512e-05   1.971830525983407e-06   1.544292598985213e-06
-3.494458609265512e-05   1.971830525983407e-06   1.544292598985213e-06
-3.674549705273976e-05   -3.7139725473744716e-06   6.485885714097462e-05
-3.674549705273976e-05   -3.7139725473744716e-06   6.485885714097462e-05
-3.674549705273976e-05   -3.7139725473744716e-06   6.485885714097462e-05
-3.674549705273976e-05   -3.7139725473744716e-06   6.485885714097462e-05
5.686385189249609e-07   1.6188421904901953e-06   -5.310576545190294e-07
5.686385189249609e-07   1.6188421904901953e-06   -5.310576545190294e-07
5.686385189249609e-07   1.6188421904901953e-06   -5.310576545190294e-07
5.686385189249609e-07   1.6188421904901953e-06   -5.310576545190294e-07
-1.7047973920751203e-05   -3.2301070333187396e-07   2.999507481456871e-05
-1.7047973920751203e-05   -3.2301070333187396e-07   2.999507481456871e-05
-1.7047973920751203e-05   -3.2301070333187396e-07   2.999507481456871e-05
-1.7047973920751203e-05   -3.2301070333187396e-07   2.999507481456871e-05
-3.199403474311212e-05   3.508914851073526e-06   5.230762467476149e-05
-3.199403474311212e-05   3.508914851073526e-06   5.230762467476149e-05
-3.199403474311212e-05   3.508914851073526e-06   5.230762467476149e-05
-3.199403474311212e-05   3.508914851073526e-06   5.230762467476149e-05
-6.79271695710738e-05   9.742269564304122e-06   -3.840920543903004e-06
-6.79271695710738e-05   9.742269564304122e-06   -3.840920543903004e-06
-6.79271695710738e-05   9.742269564304122e-06   -3.840920543903004e-06
-6.79271695710738e-05   9.742269564304122e-06   -3.840920543903004e-06
-6.976419828922135e-05   3.2938527442143498e-06   5.790832096322146e-05
-6.976419828922135e-05   3.2938527442143498e-06   5.790832096322146e-05
-6.976419828922135e-05   3.2938527442143498e-06   5.790832096322146e-05
-6.976419828922135e-05   3.2938527442143498e-06   5.790832096322146e-05
-3.3254286627047865e-05   9.214313671932622e-06   -6.4938083636985095e-06
-3.3254286627047865e-05   9.214313671932622e-06   -6.4938083636985095e-06
-3.3254286627047865e-05   9.214313671932622e-06   -6.4938083636985095e-06
-3.3254286627047865e-05   9.214313671932622e-06   -6.4938083636985095e-06
-5.033373652131011e-05   6.553686274536619e-06   2.3568317898509453e-05
-5.033373652131011e-05   6.553686274536619e-06   2.3568317898509453e-05
-5.033373652131011e-05   6.553686274536619e-06   2.3568317898509453e-05
-5.033373652131011e-05   6.553686274536619e-06   2.3568317898509453e-05
-3.325428662704792e-05   3.293852744213916e-06   5.435604440659036e-05
-3.325428662704792e-05   3.293852744213916e-06   5.435604440659036e-05
-3.325428662704792e-05   3.293852744213916e-06   5.435604440659036e-05
-3.325428662704792e-05   3.293852744213916e-06   5.435604440659036e-05
-6.976419828922119e-05   9.214313671933056e-06   -2.9415318070671447e-06
-6.976419828922119e-05   9.214313671933056e-06   -2.9415318070671447e-06
-6.976419828922119e-05   9.214313671933056e-06   -2.9415318070671447e-06
-6.976419828922119e-05   9.214313671933056e-06   -2.9415318070671447e-06
-7.201495104134509e-05   2.901278237415778e-06   6.146078661733783e-05
-7.201495104134509e-05   2.901278237415778e-06   6.146078661733783e-05
-7.201495104134509e-05   2.901278237415778e-06   6.146078661733783e-05
-7.201495104134509e-05   2.901278237415778e-06   6.146078661733783e-05
-3.494458609265512e-05   8.726572518445112e-06   -3.818331532429652e-06
-3.494458609265512e-05   8.726572518445112e-06   -3.818331532429652e-06
-3.494458609265512e-05   8.726572518445112e-06   -3.818331532429652e-06
-3.494458609265512e-05   8.726572518445112e-06   -3.818331532429652e-06
-5.170311717475165e-05   6.43067939020206e-06   2.5490089481343696e-05
-5.170311717475165e-05   6.43067939020206e-06   2.5490089481343696e-05
-5.170311717475165e-05   6.43067939020206e-06   2.5490089481343696e-05
-5.170311717475165e-05   6.43067939020206e-06   2.5490089481343696e-05
-3.494458609265509e-05   2.901278237416212e-06   5.796561004872019e-05
-3.494458609265509e-05   2.901278237416212e-06   5.796561004872019e-05
-3.494458609265509e-05   2.901278237416212e-06   5.796561004872019e-05
-3.494458609265509e-05   2.901278237416212e-06   5.796561004872019e-05
-7.201495104134509e-05   8.726572518445112e-06   -3.2315496381217154e-07
-7.201495104134509e-05   8.726572518445112e-06   -3.2315496381217154e-07
-7.201495104134509e-05   8.726572518445112e-06   -3.2315496381217154e-07
-7.201495104134509e-05   8.726572518445112e-06   -3.2315496381217154e-07
-7.439703649375333e-05   2.4572982963645858e-06   6.429368839438098e-05
-7.439703649375333e-05   2.4572982963645858e-06   6.429368839438098e-05
-7.439703649375333e-05   2.4572982963645858e-06   6.429368839438098e-05
-7.439703649375333e-05   2.4572982963645858e-06   6.429368839438098e-05
-3.6745497052739626e-05   8.071512050315897e-06   -1.8274055930116314e-06
-3.6745497052739626e-05   8.071512050315897e-06   -1.8274055930116314e-06
-3.6745497052739626e-05   8.071512050315897e-06   -1.8274055930116314e-06
-3.6745497052739626e-05   8.071512050315897e-06   -1.8274055930116314e-06
-5.398024797586735e-05   6.034455451229062e-06   2.811941323832139e-05
-5.398024797586735e-05   6.034455451229062e-06   2.811941323832139e-05
-5.398024797586735e-05   6.034455451229062e-06   2.811941323832139e-05
-5.398024797586735e-05   6.034455451229062e-06   2.811941323832139e-05
-6.79271695710738e-05   1.6080030360110607e-05   2.7542995769573543e-05
-6.79271695710738e-05   1.6080030360110607e-05   2.7542995769573543e-05
-6.79271695710738e-05   1.6080030360110607e-05   2.7542995769573543e-05
-6.79271695710738e-05   1.6080030360110607e-05   2.7542995769573543e-05
-0.00010233009586671176   1.5844063361476323e-05   -2.9936794922337095e-05
-0.00010233009586671176   1.5844063361476323e-05   -2.9936794922337095e-05
-0.00010233009586671176   1.5844063361476323e-05   -2.9936794922337095e-05
-0.00010233009586671176   1.5844063361476323e-05   -2.9936794922337095e-05
-0.00010562687626970892   1.5513134523411493e-05   4.077548186297297e-05
-0.00010562687626970892   1.5513134523411493e-05   4.077548186297297e-05
-0.00010562687626970892   1.5513134523411493e-05   4.077548186297297e-05
-0.00010562687626970892   1.5513134523411493e-05   4.077548186297297e-05
-6.976419828922119e-05   1.6145283812069294e-05   -1.9374937677701335e-05
-6.976419828922119e-05   1.6145283812069294e-05   -1.9374937677701335e-05
-6.976419828922119e-05   1.6145283812069294e-05   -1.9374937677701335e-05
-6.976419828922119e-05   1.6145283812069294e-05   -1.9374937677701335e-05
-8.293388900762995e-05   1.6148282206367333e-05   2.57274781640109e-06
-8.293388900762995e-05   1.6148282206367333e-05   2.57274781640109e-06
-8.293388900762995e-05   1.6148282206367333e-05   2.57274781640109e-06
-8.293388900762995e-05   1.6148282206367333e-05   2.57274781640109e-06
-6.976419828922113e-05   1.5513134523411493e-05   4.039619228977812e-05
-6.976419828922113e-05   1.5513134523411493e-05   4.039619228977812e-05
-6.976419828922113e-05   1.5513134523411493e-05   4.039619228977812e-05
-6.976419828922113e-05   1.5513134523411493e-05   4.039619228977812e-05
-0.00010562687626970892   1.6145283812069727e-05   -1.8995648104506643e-05
-0.00010562687626970892   1.6145283812069727e-05   -1.8995648104506643e-05
-0.00010562687626970892   1.6145283812069727e-05   -1.8995648104506643e-05
-0.00010562687626970892   1.6145283812069727e-05   -1.8995648104506643e-05
-0.0001088599273283064   1.5112825881791626e-05   5.0070771151922416e-05
-0.0001088599273283064   1.5112825881791626e-05   5.0070771151922416e-05
-0.0001088599273283064   1.5112825881791626e-05   5.0070771151922416e-05
-0.0001088599273283064   1.5112825881791626e-05   5.0070771151922416e-05
-7.201495104134495e-05   1.6028076187228797e-05   -1.188667284294278e-05
-7.201495104134495e-05   1.6028076187228797e-05   -1.188667284294278e-05
-7.201495104134495e-05   1.6028076187228797e-05   -1.188667284294278e-05
-7.201495104134495e-05   1.6028076187228797e-05   -1.188667284294278e-05
-8.670867224188913e-05   1.6143488790847788e-05   1.2533614929127377e-05
-8.670867224188913e-05   1.6143488790847788e-05   1.2533614929127377e-05
-8.670867224188913e-05   1.6143488790847788e-05   1.2533614929127377e-05
-8.670867224188913e-05   1.6143488790847788e-05   1.2533614929127377e-05
-7.201495104134495e-05   1.5112825881791626e-05   4.9521620968660026e-05
-7.201495104134495e-05   1.5112825881791626e-05   4.9521620968660026e-05
-7.201495104134495e-05   1.5112825881791626e-05   4.9521620968660026e-05
-7.201495104134495e-05   1.5112825881791626e-05   4.9521620968660026e-05
-0.0001088599273283064   1.6028076187228363e-05   -1.1337522659680228e-05
-0.0001088599273283064   1.6028076187228363e-05   -1.1337522659680228e-05
-0.0001088599273283064   1.6028076187228363e-05   -1.1337522659680228e-05
-0.0001088599273283064   1.6028076187228363e-05   -1.1337522659680228e-05
-0.00011267237781987719   1.2575180374038968e-05   6.560441370627099e-05
-0.00011267237781987719   1.2575180374038968e-05   6.560441370627099e-05
-0.00011267237781987719   1.2575180374038968e-05   6.560441370627099e-05
-0.00011267237781987719   1.2575180374038968e-05   6.560441370627099e-05
-7.439703649375309e-05   1.475221915920883e-05   5.059548916288583e-07
-7.439703649375309e-05   1.475221915920883e-05   5.059548916288583e-07
-7.439703649375309e-05   1.475221915920883e-05   5.059548916288583e-07
-7.439703649375309e-05   1.475221915920883e-05   5.059548916288583e-07
-8.807000080643486e-05   1.537504256432466e-05   2.292053470302985e-05
-8.807000080643486e-05   1.537504256432466e-05   2.292053470302985e-05
-8.807000080643486e-05   1.537504256432466e-05   2.292053470302985e-05
-8.807000080643486e-05   1.537504256432466e-05   2.292053470302985e-05
6.818134915891485e-05   -9.541044749456808e-06   5.2660452977249406e-05
6.818134915891485e-05   -9.541044749456808e-06   5.2660452977249406e-05
6.818134915891485e-05   -9.541044749456808e-06   5.2660452977249406e-05
6.818134915891485e-05   -9.541044749456808e-06   5.2660452977249406e-05
3.3765202641240904e-05   -6.987455165021091e-06   -3.1676374682122147e-06
3.3765202641240904e-05   -6.987455165021091e-06   -3.1676374682122147e-06
3.3765202641240904e-05   -6.987455165021091e-06   -3.1676374682122147e-06
3.3765202641240904e-05   -6.987455165021091e-06   -3.1676374682122147e-06
3.246786083276595e-05   -1.0816335868656535e-05   4.5800598770329246e-05
3.246786083276595e-05   -1.0816335868656535e-05   4.5800598770329246e-05
3.246786083276595e-05   -1.0816335868656535e-05   4.5800598770329246e-05
3.246786083276595e-05   -1.0816335868656535e-05   4.5800598770329246e-05
6.579495651005854e-05   -8.10982197457311e-06   -1.1368469028274837e-05
6.579495651005854e-05   -8.10982197457311e-06   -1.1368469028274837e-05
6.579495651005854e-05   -8.10982197457311e-06   -1.1368469028274837e-05
6.579495651005854e-05   -8.10982197457311e-06   -1.1368469028274837e-05
4.776064943112426e-05   -8.773136690612502e-06   1.9086698266238748e-05
4.776064943112426e-05   -8.773136690612502e-06   1.9086698266238748e-05
4.776064943112426e-05   -8.773136690612502e-06   1.9086698266238748e-05
4.776064943112426e-05   -8.773136690612502e-06   1.9086698266238748e-05
6.579495651005842e-05   -1.0816335868656535e-05   4.417669043387928e-05
6.579495651005842e-05   -1.0816335868656535e-05   4.417669043387928e-05
6.579495651005842e-05   -1.0816335868656535e-05   4.417669043387928e-05
6.579495651005842e-05   -1.0816335868656535e-05   4.417669043387928e-05
3.246786083276607e-05   -8.10982197457311e-06   -9.744560691824899e-06
3.246786083276607e-05   -8.10982197457311e-06   -9.744560691824899e-06
3.246786083276607e-05   -8.10982197457311e-06   -9.744560691824899e-06
3.246786083276607e-05   -8.10982197457311e-06   -9.744560691824899e-06
3.102653703595546e-05   -1.1006548360947398e-05   4.105041457913507e-05
3.102653703595546e-05   -1.1006548360947398e-05   4.105041457913507e-05
3.102653703595546e-05   -1.1006548360947398e-05   4.105041457913507e-05
3.102653703595546e-05   -1.1006548360947398e-05   4.105041457913507e-05
6.363456747310348e-05   -8.335757976674855e-06   -1.4898777046675003e-05
6.363456747310348e-05   -8.335757976674855e-06   -1.4898777046675003e-05
6.363456747310348e-05   -8.335757976674855e-06   -1.4898777046675003e-05
6.363456747310348e-05   -8.335757976674855e-06   -1.4898777046675003e-05
4.6859587487486725e-05   -9.20789620064387e-06   1.358280586373404e-05
4.6859587487486725e-05   -9.20789620064387e-06   1.358280586373404e-05
4.6859587487486725e-05   -9.20789620064387e-06   1.358280586373404e-05
4.6859587487486725e-05   -9.20789620064387e-06   1.358280586373404e-05
6.363456747310326e-05   -1.1006548360947398e-05   3.944794034857176e-05
6.363456747310326e-05   -1.1006548360947398e-05   3.944794034857176e-05
6.363456747310326e-05   -1.1006548360947398e-05   3.944794034857176e-05
6.363456747310326e-05   -1.1006548360947398e-05   3.944794034857176e-05
3.102653703595551e-05   -8.335757976674855e-06   -1.3296302816111693e-05
3.102653703595551e-05   -8.335757976674855e-06   -1.3296302816111693e-05
3.102653703595551e-05   -8.335757976674855e-06   -1.3296302816111693e-05
3.102653703595551e-05   -8.335757976674855e-06   -1.3296302816111693e-05
2.964052426388737e-05   -1.0939831205402858e-05   3.443010052718706e-05
2.964052426388737e-05   -1.0939831205402858e-05   3.443010052718706e-05
2.964052426388737e-05   -1.0939831205402858e-05   3.443010052718706e-05
2.964052426388737e-05   -1.0939831205402858e-05   3.443010052718706e-05
6.118827959606028e-05   -8.429415933470293e-06   -1.96557408562604e-05
6.118827959606028e-05   -8.429415933470293e-06   -1.96557408562604e-05
6.118827959606028e-05   -8.429415933470293e-06   -1.96557408562604e-05
6.118827959606028e-05   -8.429415933470293e-06   -1.96557408562604e-05
4.4441010622044006e-05   -9.053236171962381e-06   8.63066624352952e-06
4.4441010622044006e-05   -9.053236171962381e-06   8.63066624352952e-06
4.4441010622044006e-05   -9.053236171962381e-06   8.63066624352952e-06
4.4441010622044006e-05   -9.053236171962381e-06   8.63066624352952e-06
3.3765202641240904e-05   -3.3699562004304955e-06   5.531416449388866e-05
3.3765202641240904e-05   -3.3699562004304955e-06   5.531416449388866e-05
3.3765202641240904e-05   -3.3699562004304955e-06   5.531416449388866e-05
3.3765202641240904e-05   -3.3699562004304955e-06   5.531416449388866e-05
1.4609000819862687e-06   -1.3355629506894146e-06   2.6942961783094424e-06
1.4609000819862687e-06   -1.3355629506894146e-06   2.6942961783094424e-06
1.4609000819862687e-06   -1.3355629506894146e-06   2.6942961783094424e-06
1.4609000819862687e-06   -1.3355629506894146e-06   2.6942961783094424e-06
2.1577539748083956e-07   -4.055883057775978e-06   5.589333200052863e-05
2.1577539748083956e-07   -4.055883057775978e-06   5.589333200052863e-05
2.1577539748083956e-07   -4.055883057775978e-06   5.589333200052863e-05
2.1577539748083956e-07   -4.055883057775978e-06   5.589333200052863e-05
3.246786083276607e-05   -2.1320053716408077e-06   9.855296633720455e-07
3.246786083276607e-05   -2.1320053716408077e-06   9.855296633720455e-07
3.246786083276607e-05   -2.1320053716408077e-06   9.855296633720455e-07
3.246786083276607e-05   -2.1320053716408077e-06   9.855296633720455e-07
1.6771588110406863e-05   -2.622221959808907e-06   2.744011415353845e-05
1.6771588110406863e-05   -2.622221959808907e-06   2.744011415353845e-05
1.6771588110406863e-05   -2.622221959808907e-06   2.744011415353845e-05
1.6771588110406863e-05   -2.622221959808907e-06   2.744011415353845e-05
3.2467860832766045e-05   -4.055883057776412e-06   5.473900538884762e-05
3.2467860832766045e-05   -4.055883057776412e-06   5.473900538884762e-05
3.2467860832766045e-05   -4.055883057776412e-06   5.473900538884762e-05
3.2467860832766045e-05   -4.055883057776412e-06   5.473900538884762e-05
2.1577539748081245e-07   -2.1320053716408077e-06   2.139856275053427e-06
2.1577539748081245e-07   -2.1320053716408077e-06   2.139856275053427e-06
2.1577539748081245e-07   -2.1320053716408077e-06   2.139856275053427e-06
2.1577539748081245e-07   -2.1320053716408077e-06   2.139856275053427e-06
-1.078431305368677e-06   -4.506523263386221e-06   5.5055896935917933e-05
-1.078431305368677e-06   -4.506523263386221e-06   5.5055896935917933e-05
-1.078431305368677e-06   -4.506523263386221e-06   5.5055896935917933e-05
-1.078431305368677e-06   -4.506523263386221e-06   5.5055896935917933e-05
3.102653703595551e-05   -2.724376138893859e-06   4.783280923489615e-07
3.102653703595551e-05   -2.724376138893859e-06   4.783280923489615e-07
3.102653703595551e-05   -2.724376138893859e-06   4.783280923489615e-07
3.102653703595551e-05   -2.724376138893859e-06   4.783280923489615e-07
1.534289171724928e-05   -3.0398406312185343e-06   2.680701565225464e-05
1.534289171724928e-05   -3.0398406312185343e-06   2.680701565225464e-05
1.534289171724928e-05   -3.0398406312185343e-06   2.680701565225464e-05
1.534289171724928e-05   -3.0398406312185343e-06   2.680701565225464e-05
3.102653703595546e-05   -4.506523263386221e-06   5.398660866122234e-05
3.102653703595546e-05   -4.506523263386221e-06   5.398660866122234e-05
3.102653703595546e-05   -4.506523263386221e-06   5.398660866122234e-05
3.102653703595546e-05   -4.506523263386221e-06   5.398660866122234e-05
-1.078431305368677e-06   -2.724376138893859e-06   1.5476163670443896e-06
-1.078431305368677e-06   -2.724376138893859e-06   1.5476163670443896e-06
-1.078431305368677e-06   -2.724376138893859e-06   1.5476163670443896e-06
-1.078431305368677e-06   -2.724376138893859e-06   1.5476163670443896e-06
-2.4257830650558504e-06   -4.7008205401113945e-06   5.548357417273957e-05
-2.4257830650558504e-06   -4.7008205401113945e-06   5.548357417273957e-05
-2.4257830650558504e-06   -4.7008205401113945e-06   5.548357417273957e-05
-2.4257830650558504e-06   -4.7008205401113945e-06   5.548357417273957e-05
2.964052426388745e-05   -3.1925531078090714e-06   1.13476816511937e-06
2.964052426388745e-05   -3.1925531078090714e-06   1.13476816511937e-06
2.964052426388745e-05   -3.1925531078090714e-06   1.13476816511937e-06
2.964052426388745e-05   -3.1925531078090714e-06   1.13476816511937e-06
1.4267537470223462e-05   -3.2649797665211706e-06   2.6799868816454095e-05
1.4267537470223462e-05   -3.2649797665211706e-06   2.6799868816454095e-05
1.4267537470223462e-05   -3.2649797665211706e-06   2.6799868816454095e-05
1.4267537470223462e-05   -3.2649797665211706e-06   2.6799868816454095e-05
1.4609000819862687e-06   2.987577847476334e-06   5.711294847007332e-05
1.4609000819862687e-06   2.987577847476334e-06   5.711294847007332e-05
1.4609000819862687e-06   2.987577847476334e-06   5.711294847007332e-05
1.4609000819862687e-06   2.987577847476334e-06   5.711294847007332e-05
-2.989787355471568e-05   4.342447513126443e-06   5.661247541626857e-06
-2.989787355471568e-05   4.342447513126443e-06   5.661247541626857e-06
-2.989787355471568e-05   4.342447513126443e-06   5.661247541626857e-06
-2.989787355471568e-05   4.342447513126443e-06   5.661247541626857e-06
-3.119866873969561e-05   2.461529701942508e-06   5.7901037260993295e-05
-3.119866873969561e-05   2.461529701942508e-06   5.7901037260993295e-05
-3.119866873969561e-05   2.461529701942508e-06   5.7901037260993295e-05
-3.119866873969561e-05   2.461529701942508e-06   5.7901037260993295e-05
2.1577539748081245e-07   3.6788622284427384e-06   4.813230849799288e-06
2.1577539748081245e-07   3.6788622284427384e-06   4.813230849799288e-06
2.1577539748081245e-07   3.6788622284427384e-06   4.813230849799288e-06
2.1577539748081245e-07   3.6788622284427384e-06   4.813230849799288e-06
-1.4878037922341227e-05   3.406721082382675e-06   3.013287107047171e-05
-1.4878037922341227e-05   3.406721082382675e-06   3.013287107047171e-05
-1.4878037922341227e-05   3.406721082382675e-06   3.013287107047171e-05
-1.4878037922341227e-05   3.406721082382675e-06   3.013287107047171e-05
2.1577539748083956e-07   2.461529701942508e-06   5.7170637745093114e-05
2.1577539748083956e-07   2.461529701942508e-06   5.7170637745093114e-05
2.1577539748083956e-07   2.461529701942508e-06   5.7170637745093114e-05
2.1577539748083956e-07   2.461529701942508e-06   5.7170637745093114e-05
-3.119866873969561e-05   3.6788622284427384e-06   5.54363036569909e-06
-3.119866873969561e-05   3.6788622284427384e-06   5.54363036569909e-06
-3.119866873969561e-05   3.6788622284427384e-06   5.54363036569909e-06
-3.119866873969561e-05   3.6788622284427384e-06   5.54363036569909e-06
-3.2572495984961055e-05   1.971830525983407e-06   5.844953194924325e-05
-3.2572495984961055e-05   1.971830525983407e-06   5.844953194924325e-05
-3.2572495984961055e-05   1.971830525983407e-06   5.844953194924325e-05
-3.2572495984961055e-05   1.971830525983407e-06   5.844953194924325e-05
-1.078431305368677e-06   3.034483207540236e-06   5.321832540988486e-06
-1.078431305368677e-06   3.034483207540236e-06   5.321832540988486e-06
-1.078431305368677e-06   3.034483207540236e-06   5.321832540988486e-06
-1.078431305368677e-06   3.034483207540236e-06   5.321832540988486e-06
-1.60865620422416e-05   3.027430141036569e-06   3.033961560901206e-05
-1.60865620422416e-05   3.027430141036569e-06   3.033961560901206e-05
-1.60865620422416e-05   3.027430141036569e-06   3.033961560901206e-05
-1.60865620422416e-05   3.027430141036569e-06   3.033961560901206e-05
-1.078431305368677e-06   1.9718305259829733e-06   5.781194034030915e-05
-1.078431305368677e-06   1.9718305259829733e-06   5.781194034030915e-05
-1.078431305368677e-06   1.9718305259829733e-06   5.781194034030915e-05
-1.078431305368677e-06   1.9718305259829733e-06   5.781194034030915e-05
-3.257249598496111e-05   3.034483207540236e-06   5.959424149922475e-06
-3.257249598496111e-05   3.034483207540236e-06   5.959424149922475e-06
-3.257249598496111e-05   3.034483207540236e-06   5.959424149922475e-06
-3.257249598496111e-05   3.034483207540236e-06   5.959424149922475e-06
-3.3990296447829465e-05   1.6188421904901953e-06   5.932095699248121e-05
-3.3990296447829465e-05   1.6188421904901953e-06   5.932095699248121e-05
-3.3990296447829465e-05   1.6188421904901953e-06   5.932095699248121e-05
-3.3990296447829465e-05   1.6188421904901953e-06   5.932095699248121e-05
-2.4257830650558504e-06   2.460855764185345e-06   6.2082265436417075e-06
-2.4257830650558504e-06   2.460855764185345e-06   6.2082265436417075e-06
-2.4257830650558504e-06   2.460855764185345e-06   6.2082265436417075e-06
-2.4257830650558504e-06   2.460855764185345e-06   6.2082265436417075e-06
-1.7394364010485237e-05   2.6639617180662656e-06   3.1033997880363544e-05
-1.7394364010485237e-05   2.6639617180662656e-06   3.1033997880363544e-05
-1.7394364010485237e-05   2.6639617180662656e-06   3.1033997880363544e-05
-1.7394364010485237e-05   2.6639617180662656e-06   3.1033997880363544e-05
-2.989787355471576e-05   9.742269564304122e-06   4.981117301829747e-05
-2.989787355471576e-05   9.742269564304122e-06   4.981117301829747e-05
-2.989787355471576e-05   9.742269564304122e-06   4.981117301829747e-05
-2.989787355471576e-05   9.742269564304122e-06   4.981117301829747e-05
-6.026033538058032e-05   9.86537281323337e-06   -7.190680754529805e-07
-6.026033538058032e-05   9.86537281323337e-06   -7.190680754529805e-07
-6.026033538058032e-05   9.86537281323337e-06   -7.190680754529805e-07
-6.026033538058032e-05   9.86537281323337e-06   -7.190680754529805e-07
-6.177058126121256e-05   9.214313671933056e-06   5.068346315795875e-05
-6.177058126121256e-05   9.214313671933056e-06   5.068346315795875e-05
-6.177058126121256e-05   9.214313671933056e-06   5.068346315795875e-05
-6.177058126121256e-05   9.214313671933056e-06   5.068346315795875e-05
-3.119866873969567e-05   9.230934634167631e-06   -2.7969695524341113e-07
-3.119866873969567e-05   9.230934634167631e-06   -2.7969695524341113e-07
-3.119866873969567e-05   9.230934634167631e-06   -2.7969695524341113e-07
-3.119866873969567e-05   9.230934634167631e-06   -2.7969695524341113e-07
-4.557723583021331e-05   9.491334574084076e-06   2.3528341565002664e-05
-4.557723583021331e-05   9.491334574084076e-06   2.3528341565002664e-05
-4.557723583021331e-05   9.491334574084076e-06   2.3528341565002664e-05
-4.557723583021331e-05   9.491334574084076e-06   2.3528341565002664e-05
-3.119866873969567e-05   9.214313671933056e-06   5.067349058061801e-05
-3.119866873969567e-05   9.214313671933056e-06   5.067349058061801e-05
-3.119866873969567e-05   9.214313671933056e-06   5.067349058061801e-05
-3.119866873969567e-05   9.214313671933056e-06   5.067349058061801e-05
-6.17705812612125e-05   9.230934634167631e-06   -2.6972437790272023e-07
-6.17705812612125e-05   9.230934634167631e-06   -2.6972437790272023e-07
-6.17705812612125e-05   9.230934634167631e-06   -2.6972437790272023e-07
-6.17705812612125e-05   9.230934634167631e-06   -2.6972437790272023e-07
-6.344482625078021e-05   8.726572518445112e-06   5.3038991266755355e-05
-6.344482625078021e-05   8.726572518445112e-06   5.3038991266755355e-05
-6.344482625078021e-05   8.726572518445112e-06   5.3038991266755355e-05
-6.344482625078021e-05   8.726572518445112e-06   5.3038991266755355e-05
-3.257249598496111e-05   8.646711599990045e-06   1.6330240414631726e-06
-3.257249598496111e-05   8.646711599990045e-06   1.6330240414631726e-06
-3.257249598496111e-05   8.646711599990045e-06   1.6330240414631726e-06
-3.257249598496111e-05   8.646711599990045e-06   1.6330240414631726e-06
-4.6670472479051325e-05   9.132596399785264e-06   2.4838120651736494e-05
-4.6670472479051325e-05   9.132596399785264e-06   2.4838120651736494e-05
-4.6670472479051325e-05   9.132596399785264e-06   2.4838120651736494e-05
-4.6670472479051325e-05   9.132596399785264e-06   2.4838120651736494e-05
-3.257249598496108e-05   8.726572518445545e-06   5.3086907817828004e-05
-3.257249598496108e-05   8.726572518445545e-06   5.3086907817828004e-05
-3.257249598496108e-05   8.726572518445545e-06   5.3086907817828004e-05
-3.257249598496108e-05   8.726572518445545e-06   5.3086907817828004e-05
-6.344482625078005e-05   8.646711599990045e-06   1.5851074903901977e-06
-6.344482625078005e-05   8.646711599990045e-06   1.5851074903901977e-06
-6.344482625078005e-05   8.646711599990045e-06   1.5851074903901977e-06
-6.344482625078005e-05   8.646711599990045e-06   1.5851074903901977e-06
-6.504070271990721e-05   8.071512050315897e-06   5.474231472446696e-05
-6.504070271990721e-05   8.071512050315897e-06   5.474231472446696e-05
-6.504070271990721e-05   8.071512050315897e-06   5.474231472446696e-05
-6.504070271990721e-05   8.071512050315897e-06   5.474231472446696e-05
-3.399029644782957e-05   7.933836238975533e-06   3.0742430911410122e-06
-3.399029644782957e-05   7.933836238975533e-06   3.0742430911410122e-06
-3.399029644782957e-05   7.933836238975533e-06   3.0742430911410122e-06
-3.399029644782957e-05   7.933836238975533e-06   3.0742430911410122e-06
-4.840662328125905e-05   8.667503397760939e-06   2.666125418492114e-05
-4.840662328125905e-05   8.667503397760939e-06   2.666125418492114e-05
-4.840662328125905e-05   8.667503397760939e-06   2.666125418492114e-05
-4.840662328125905e-05   8.667503397760939e-06   2.666125418492114e-05
-6.0260335380580264e-05   1.5844063361476323e-05   2.3930740788400805e-05
-6.0260335380580264e-05   1.5844063361476323e-05   2.3930740788400805e-05
-6.0260335380580264e-05   1.5844063361476323e-05   2.3930740788400805e-05
-6.0260335380580264e-05   1.5844063361476323e-05   2.3930740788400805e-05
-8.909544045653141e-05   1.4196112495413766e-05   -2.511653819115521e-05
-8.909544045653141e-05   1.4196112495413766e-05   -2.511653819115521e-05
-8.909544045653141e-05   1.4196112495413766e-05   -2.511653819115521e-05
-8.909544045653141e-05   1.4196112495413766e-05   -2.511653819115521e-05
-9.147355330080259e-05   1.6145283812069727e-05   3.3169404928111434e-05
-9.147355330080259e-05   1.6145283812069727e-05   3.3169404928111434e-05
-9.147355330080259e-05   1.6145283812069727e-05   3.3169404928111434e-05
-9.147355330080259e-05   1.6145283812069727e-05   3.3169404928111434e-05
-6.177058126121256e-05   1.4344196546715003e-05   -1.525489611199258e-05
-6.177058126121256e-05   1.4344196546715003e-05   -1.525489611199258e-05
-6.177058126121256e-05   1.4344196546715003e-05   -1.525489611199258e-05
-6.177058126121256e-05   1.4344196546715003e-05   -1.525489611199258e-05
-7.275368627035489e-05   1.5045621285596743e-05   2.629424059915524e-06
-7.275368627035489e-05   1.5045621285596743e-05   2.629424059915524e-06
-7.275368627035489e-05   1.5045621285596743e-05   2.629424059915524e-06
-7.275368627035489e-05   1.5045621285596743e-05   2.629424059915524e-06
-6.17705812612124e-05   1.6145283812069294e-05   3.4250057287324616e-05
-6.17705812612124e-05   1.6145283812069294e-05   3.4250057287324616e-05
-6.17705812612124e-05   1.6145283812069294e-05   3.4250057287324616e-05
-6.17705812612124e-05   1.6145283812069294e-05   3.4250057287324616e-05
-9.147355330080292e-05   1.4344196546715003e-05   -1.633554847120522e-05
-9.147355330080292e-05   1.4344196546715003e-05   -1.633554847120522e-05
-9.147355330080292e-05   1.4344196546715003e-05   -1.633554847120522e-05
-9.147355330080292e-05   1.4344196546715003e-05   -1.633554847120522e-05
-9.379627553802528e-05   1.6028076187228363e-05   4.0370001893782516e-05
-9.379627553802528e-05   1.6028076187228363e-05   4.0370001893782516e-05
-9.379627553802528e-05   1.6028076187228363e-05   4.0370001893782516e-05
-9.379627553802528e-05   1.6028076187228363e-05   4.0370001893782516e-05
-6.344482625078021e-05   1.4185623697491115e-05   -9.110275424450932e-06
-6.344482625078021e-05   1.4185623697491115e-05   -9.110275424450932e-06
-6.344482625078021e-05   1.4185623697491115e-05   -9.110275424450932e-06
-6.344482625078021e-05   1.4185623697491115e-05   -9.110275424450932e-06
-7.567118698598101e-05   1.5319296578258663e-05   1.0586788739090896e-05
-7.567118698598101e-05   1.5319296578258663e-05   1.0586788739090896e-05
-7.567118698598101e-05   1.5319296578258663e-05   1.0586788739090896e-05
-7.567118698598101e-05   1.5319296578258663e-05   1.0586788739090896e-05
-6.344482625078021e-05   1.6028076187228363e-05   4.147547338762491e-05
-6.344482625078021e-05   1.6028076187228363e-05   4.147547338762491e-05
-6.344482625078021e-05   1.6028076187228363e-05   4.147547338762491e-05
-6.344482625078021e-05   1.6028076187228363e-05   4.147547338762491e-05
-9.37962755380256e-05   1.4185623697491115e-05   -1.0215746918293108e-05
-9.37962755380256e-05   1.4185623697491115e-05   -1.0215746918293108e-05
-9.37962755380256e-05   1.4185623697491115e-05   -1.0215746918293108e-05
-9.37962755380256e-05   1.4185623697491115e-05   -1.0215746918293108e-05
-9.650955680966461e-05   1.475221915920883e-05   5.27098309824536e-05
-9.650955680966461e-05   1.475221915920883e-05   5.27098309824536e-05
-9.650955680966461e-05   1.475221915920883e-05   5.27098309824536e-05
-9.650955680966461e-05   1.475221915920883e-05   5.27098309824536e-05
-6.504070271990721e-05   1.3090025868738465e-05   1.2590568071402458e-06
-6.504070271990721e-05   1.3090025868738465e-05   1.2590568071402458e-06
-6.504070271990721e-05   1.3090025868738465e-05   1.2590568071402458e-06
-6.504070271990721e-05   1.3090025868738465e-05   1.2590568071402458e-06
-7.641871042562737e-05   1.4867442600592033e-05   1.9155952944229903e-05
-7.641871042562737e-05   1.4867442600592033e-05   1.9155952944229903e-05
-7.641871042562737e-05   1.4867442600592033e-05   1.9155952944229903e-05
-7.641871042562737e-05   1.4867442600592033e-05   1.9155952944229903e-05
5.170040802257355e-05   -6.987455165021091e-06   4.392502062489914e-05
5.170040802257355e-05   -6.987455165021091e-06   4.392502062489914e-05
5.170040802257355e-05   -6.987455165021091e-06   4.392502062489914e-05
5.170040802257355e-05   -6.987455165021091e-06   4.392502062489914e-05
2.4344592712867383e-05   -4.610560420567102e-06   -2.418680446053794e-07
2.4344592712867383e-05   -4.610560420567102e-06   -2.418680446053794e-07
2.4344592712867383e-05   -4.610560420567102e-06   -2.418680446053794e-07
2.4344592712867383e-05   -4.610560420567102e-06   -2.418680446053794e-07
2.318640138665489e-05   -8.10982197457311e-06   3.860152809710281e-05
2.318640138665489e-05   -8.10982197457311e-06   3.860152809710281e-05
2.318640138665489e-05   -8.10982197457311e-06   3.860152809710281e-05
2.318640138665489e-05   -8.10982197457311e-06   3.860152809710281e-05
4.945997847875057e-05   -5.598690310740749e-06   -6.694446054689279e-06
4.945997847875057e-05   -5.598690310740749e-06   -6.694446054689279e-06
4.945997847875057e-05   -5.598690310740749e-06   -6.694446054689279e-06
4.945997847875057e-05   -5.598690310740749e-06   -6.694446054689279e-06
3.542397456008887e-05   -6.375354163723392e-06   1.7164892121536313e-05
3.542397456008887e-05   -6.375354163723392e-06   1.7164892121536313e-05
3.542397456008887e-05   -6.375354163723392e-06   1.7164892121536313e-05
3.542397456008887e-05   -6.375354163723392e-06   1.7164892121536313e-05
4.945997847875057e-05   -8.10982197457311e-06   3.7094849098803524e-05
4.945997847875057e-05   -8.10982197457311e-06   3.7094849098803524e-05
4.945997847875057e-05   -8.10982197457311e-06   3.7094849098803524e-05
4.945997847875057e-05   -8.10982197457311e-06   3.7094849098803524e-05
2.3186401386654923e-05   -5.598690310740749e-06   -5.187767056390007e-06
2.3186401386654923e-05   -5.598690310740749e-06   -5.187767056390007e-06
2.3186401386654923e-05   -5.598690310740749e-06   -5.187767056390007e-06
2.3186401386654923e-05   -5.598690310740749e-06   -5.187767056390007e-06
2.190847171090487e-05   -8.335757976675288e-06   3.4858867025099743e-05
2.190847171090487e-05   -8.335757976675288e-06   3.4858867025099743e-05
2.190847171090487e-05   -8.335757976675288e-06   3.4858867025099743e-05
2.190847171090487e-05   -8.335757976675288e-06   3.4858867025099743e-05
4.749702633571495e-05   -5.863076117240164e-06   -9.272333131910934e-06
4.749702633571495e-05   -5.863076117240164e-06   -9.272333131910934e-06
4.749702633571495e-05   -5.863076117240164e-06   -9.272333131910934e-06
4.749702633571495e-05   -5.863076117240164e-06   -9.272333131910934e-06
3.449259842937971e-05   -6.776034299687227e-06   1.2949488288116552e-05
3.449259842937971e-05   -6.776034299687227e-06   1.2949488288116552e-05
3.449259842937971e-05   -6.776034299687227e-06   1.2949488288116552e-05
3.449259842937971e-05   -6.776034299687227e-06   1.2949488288116552e-05
4.7497026335714875e-05   -8.335757976675288e-06   3.3375257909439016e-05
4.7497026335714875e-05   -8.335757976675288e-06   3.3375257909439016e-05
4.7497026335714875e-05   -8.335757976675288e-06   3.3375257909439016e-05
4.7497026335714875e-05   -8.335757976675288e-06   3.3375257909439016e-05
2.190847171090491e-05   -5.863076117240164e-06   -7.788724016250057e-06
2.190847171090491e-05   -5.863076117240164e-06   -7.788724016250057e-06
2.190847171090491e-05   -5.863076117240164e-06   -7.788724016250057e-06
2.190847171090491e-05   -5.863076117240164e-06   -7.788724016250057e-06
2.0728718877922998e-05   -8.429415933470293e-06   2.979383253025542e-05
2.0728718877922998e-05   -8.429415933470293e-06   2.979383253025542e-05
2.0728718877922998e-05   -8.429415933470293e-06   2.979383253025542e-05
2.0728718877922998e-05   -8.429415933470293e-06   2.979383253025542e-05
4.530462948392315e-05   -6.112052422506831e-06   -1.2556436586322737e-05
4.530462948392315e-05   -6.112052422506831e-06   -1.2556436586322737e-05
4.530462948392315e-05   -6.112052422506831e-06   -1.2556436586322737e-05
4.530462948392315e-05   -6.112052422506831e-06   -1.2556436586322737e-05
3.244647491285513e-05   -6.738225621158098e-06   9.249524951315421e-06
3.244647491285513e-05   -6.738225621158098e-06   9.249524951315421e-06
3.244647491285513e-05   -6.738225621158098e-06   9.249524951315421e-06
3.244647491285513e-05   -6.738225621158098e-06   9.249524951315421e-06
2.43445927128673e-05   -1.3355629506894146e-06   4.999245516824793e-05
2.43445927128673e-05   -1.3355629506894146e-06   4.999245516824793e-05
2.43445927128673e-05   -1.3355629506894146e-06   4.999245516824793e-05
2.43445927128673e-05   -1.3355629506894146e-06   4.999245516824793e-05
-1.55122299788982e-06   -1.9768232855776197e-08   7.622239147686127e-06
-1.55122299788982e-06   -1.9768232855776197e-08   7.622239147686127e-06
-1.55122299788982e-06   -1.9768232855776197e-08   7.622239147686127e-06
-1.55122299788982e-06   -1.9768232855776197e-08   7.622239147686127e-06
-2.6398430507309774e-06   -2.1320053716408077e-06   5.0082826822484515e-05
-2.6398430507309774e-06   -2.1320053716408077e-06   5.0082826822484515e-05
-2.6398430507309774e-06   -2.1320053716408077e-06   5.0082826822484515e-05
-2.6398430507309774e-06   -2.1320053716408077e-06   5.0082826822484515e-05
2.3186401386654923e-05   -8.799914213326876e-07   6.287877723323238e-06
2.3186401386654923e-05   -8.799914213326876e-07   6.287877723323238e-06
2.3186401386654923e-05   -8.799914213326876e-07   6.287877723323238e-06
2.3186401386654923e-05   -8.799914213326876e-07   6.287877723323238e-06
1.0659582484098905e-05   -1.122940152164121e-06   2.7311678466082276e-05
1.0659582484098905e-05   -1.122940152164121e-06   2.7311678466082276e-05
1.0659582484098905e-05   -1.122940152164121e-06   2.7311678466082276e-05
1.0659582484098905e-05   -1.122940152164121e-06   2.7311678466082276e-05
2.3186401386654862e-05   -2.1320053716408077e-06   4.9331618452299686e-05
2.3186401386654862e-05   -2.1320053716408077e-06   4.9331618452299686e-05
2.3186401386654862e-05   -2.1320053716408077e-06   4.9331618452299686e-05
2.3186401386654862e-05   -2.1320053716408077e-06   4.9331618452299686e-05
-2.6398430507309774e-06   -8.799914213326876e-07   7.0390860935081075e-06
-2.6398430507309774e-06   -8.799914213326876e-07   7.0390860935081075e-06
-2.6398430507309774e-06   -8.799914213326876e-07   7.0390860935081075e-06
-2.6398430507309774e-06   -8.799914213326876e-07   7.0390860935081075e-06
-3.751525955824356e-06   -2.724376138893859e-06   4.933286107977001e-05
-3.751525955824356e-06   -2.724376138893859e-06   4.933286107977001e-05
-3.751525955824356e-06   -2.724376138893859e-06   4.933286107977001e-05
-3.751525955824356e-06   -2.724376138893859e-06   4.933286107977001e-05
2.190847171090491e-05   -1.5587708952109758e-06   5.866835155678379e-06
2.190847171090491e-05   -1.5587708952109758e-06   5.866835155678379e-06
2.190847171090491e-05   -1.5587708952109758e-06   5.866835155678379e-06
2.190847171090491e-05   -1.5587708952109758e-06   5.866835155678379e-06
9.439173215946397e-06   -1.6541982894050997e-06   2.6706255750460264e-05
9.439173215946397e-06   -1.6541982894050997e-06   2.6706255750460264e-05
9.439173215946397e-06   -1.6541982894050997e-06   2.6706255750460264e-05
9.439173215946397e-06   -1.6541982894050997e-06   2.6706255750460264e-05
2.190847171090487e-05   -2.724376138893859e-06   4.863349793356045e-05
2.190847171090487e-05   -2.724376138893859e-06   4.863349793356045e-05
2.190847171090487e-05   -2.724376138893859e-06   4.863349793356045e-05
2.190847171090487e-05   -2.724376138893859e-06   4.863349793356045e-05
-3.751525955824356e-06   -1.5587708952109758e-06   6.5661983018878815e-06
-3.751525955824356e-06   -1.5587708952109758e-06   6.5661983018878815e-06
-3.751525955824356e-06   -1.5587708952109758e-06   6.5661983018878815e-06
-3.751525955824356e-06   -1.5587708952109758e-06   6.5661983018878815e-06
-4.869179427585918e-06   -3.1925531078090714e-06   4.968064587829125e-05
-4.869179427585918e-06   -3.1925531078090714e-06   4.968064587829125e-05
-4.869179427585918e-06   -3.1925531078090714e-06   4.968064587829125e-05
-4.869179427585918e-06   -3.1925531078090714e-06   4.968064587829125e-05
2.0728718877923025e-05   -2.1882972914498942e-06   6.414928545960699e-06
2.0728718877923025e-05   -2.1882972914498942e-06   6.414928545960699e-06
2.0728718877923025e-05   -2.1882972914498942e-06   6.414928545960699e-06
2.0728718877923025e-05   -2.1882972914498942e-06   6.414928545960699e-06
8.506137132623565e-06   -2.048316310974529e-06   2.670190953317557e-05
8.506137132623565e-06   -2.048316310974529e-06   2.670190953317557e-05
8.506137132623565e-06   -2.048316310974529e-06   2.670190953317557e-05
8.506137132623565e-06   -2.048316310974529e-06   2.670190953317557e-05
-1.55122299788982e-06   4.342447513126443e-06   5.2935961562875595e-05
-1.55122299788982e-06   4.342447513126443e-06   5.2935961562875595e-05
-1.55122299788982e-06   4.342447513126443e-06   5.2935961562875595e-05
-1.55122299788982e-06   4.342447513126443e-06   5.2935961562875595e-05
-2.690383248258029e-05   4.468091050778989e-06   1.0756998544316464e-05
-2.690383248258029e-05   4.468091050778989e-06   1.0756998544316464e-05
-2.690383248258029e-05   4.468091050778989e-06   1.0756998544316464e-05
-2.690383248258029e-05   4.468091050778989e-06   1.0756998544316464e-05
-2.799807145492848e-05   3.6788622284427384e-06   5.277574227754967e-05
-2.799807145492848e-05   3.6788622284427384e-06   5.277574227754967e-05
-2.799807145492848e-05   3.6788622284427384e-06   5.277574227754967e-05
-2.799807145492848e-05   3.6788622284427384e-06   5.277574227754967e-05
-2.6398430507309774e-06   3.711430362308716e-06   1.049248739023442e-05
-2.6398430507309774e-06   3.711430362308716e-06   1.049248739023442e-05
-2.6398430507309774e-06   3.711430362308716e-06   1.049248739023442e-05
-2.6398430507309774e-06   3.711430362308716e-06   1.049248739023442e-05
-1.481163607013293e-05   3.979885587801317e-06   3.061773595394203e-05
-1.481163607013293e-05   3.979885587801317e-06   3.061773595394203e-05
-1.481163607013293e-05   3.979885587801317e-06   3.061773595394203e-05
-1.481163607013293e-05   3.979885587801317e-06   3.061773595394203e-05
-2.6398430507309774e-06   3.6788622284427384e-06   5.275620139723043e-05
-2.6398430507309774e-06   3.6788622284427384e-06   5.275620139723043e-05
-2.6398430507309774e-06   3.6788622284427384e-06   5.275620139723043e-05
-2.6398430507309774e-06   3.6788622284427384e-06   5.275620139723043e-05
-2.799807145492848e-05   3.711430362308716e-06   1.0512028270554148e-05
-2.799807145492848e-05   3.711430362308716e-06   1.0512028270554148e-05
-2.799807145492848e-05   3.711430362308716e-06   1.0512028270554148e-05
-2.799807145492848e-05   3.711430362308716e-06   1.0512028270554148e-05
-2.9119766911783485e-05   3.034483207540236e-06   5.3066432270347606e-05
-2.9119766911783485e-05   3.034483207540236e-06   5.3066432270347606e-05
-2.9119766911783485e-05   3.034483207540236e-06   5.3066432270347606e-05
-2.9119766911783485e-05   3.034483207540236e-06   5.3066432270347606e-05
-3.751525955824356e-06   2.9667415685956725e-06   1.0826675660448619e-05
-3.751525955824356e-06   2.9667415685956725e-06   1.0826675660448619e-05
-3.751525955824356e-06   2.9667415685956725e-06   1.0826675660448619e-05
-3.751525955824356e-06   2.9667415685956725e-06   1.0826675660448619e-05
-1.5827817000966686e-05   3.4707873892278127e-06   3.065139990997463e-05
-1.5827817000966686e-05   3.4707873892278127e-06   3.065139990997463e-05
-1.5827817000966686e-05   3.4707873892278127e-06   3.065139990997463e-05
-1.5827817000966686e-05   3.4707873892278127e-06   3.065139990997463e-05
-3.751525955824356e-06   3.034483207540236e-06   5.310707725371378e-05
-3.751525955824356e-06   3.034483207540236e-06   5.310707725371378e-05
-3.751525955824356e-06   3.034483207540236e-06   5.310707725371378e-05
-3.751525955824356e-06   3.034483207540236e-06   5.310707725371378e-05
-2.9119766911783485e-05   2.9667415685956725e-06   1.0786030677082227e-05
-2.9119766911783485e-05   2.9667415685956725e-06   1.0786030677082227e-05
-2.9119766911783485e-05   2.9667415685956725e-06   1.0786030677082227e-05
-2.9119766911783485e-05   2.9667415685956725e-06   1.0786030677082227e-05
-3.024113594719943e-05   2.460855764185345e-06   5.372864983905828e-05
-3.024113594719943e-05   2.460855764185345e-06   5.372864983905828e-05
-3.024113594719943e-05   2.460855764185345e-06   5.372864983905828e-05
-3.024113594719943e-05   2.460855764185345e-06   5.372864983905828e-05
-4.869179427585918e-06   2.260032500229093e-06   1.1562549598076422e-05
-4.869179427585918e-06   2.260032500229093e-06   1.1562549598076422e-05
-4.869179427585918e-06   2.260032500229093e-06   1.1562549598076422e-05
-4.869179427585918e-06   2.260032500229093e-06   1.1562549598076422e-05
-1.689155543698869e-05   2.974603544420376e-06   3.117110032056742e-05
-1.689155543698869e-05   2.974603544420376e-06   3.117110032056742e-05
-1.689155543698869e-05   2.974603544420376e-06   3.117110032056742e-05
-1.689155543698869e-05   2.974603544420376e-06   3.117110032056742e-05
-2.690383248258021e-05   9.86537281323337e-06   4.655717011902956e-05
-2.690383248258021e-05   9.86537281323337e-06   4.655717011902956e-05
-2.690383248258021e-05   9.86537281323337e-06   4.655717011902956e-05
-2.690383248258021e-05   9.86537281323337e-06   4.655717011902956e-05
-5.1689622362398704e-05   8.78575984766556e-06   4.5997525399917895e-06
-5.1689622362398704e-05   8.78575984766556e-06   4.5997525399917895e-06
-5.1689622362398704e-05   8.78575984766556e-06   4.5997525399917895e-06
-5.1689622362398704e-05   8.78575984766556e-06   4.5997525399917895e-06
-5.286684129710879e-05   9.230934634167631e-06   4.625009847348139e-05
-5.286684129710879e-05   9.230934634167631e-06   4.625009847348139e-05
-5.286684129710879e-05   9.230934634167631e-06   4.625009847348139e-05
-5.286684129710879e-05   9.230934634167631e-06   4.625009847348139e-05
-2.7998071454928507e-05   8.0604071622907e-06   5.504465219640026e-06
-2.7998071454928507e-05   8.0604071622907e-06   5.504465219640026e-06
-2.7998071454928507e-05   8.0604071622907e-06   5.504465219640026e-06
-2.7998071454928507e-05   8.0604071622907e-06   5.504465219640026e-06
-3.973307065991982e-05   8.869298935952272e-06   2.4577462163761978e-05
-3.973307065991982e-05   8.869298935952272e-06   2.4577462163761978e-05
-3.973307065991982e-05   8.869298935952272e-06   2.4577462163761978e-05
-3.973307065991982e-05   8.869298935952272e-06   2.4577462163761978e-05
-2.799807145492848e-05   9.230934634167631e-06   4.695241495660733e-05
-2.799807145492848e-05   9.230934634167631e-06   4.695241495660733e-05
-2.799807145492848e-05   9.230934634167631e-06   4.695241495660733e-05
-2.799807145492848e-05   9.230934634167631e-06   4.695241495660733e-05
-5.286684129710879e-05   8.0604071622907e-06   4.802148736514139e-06
-5.286684129710879e-05   8.0604071622907e-06   4.802148736514139e-06
-5.286684129710879e-05   8.0604071622907e-06   4.802148736514139e-06
-5.286684129710879e-05   8.0604071622907e-06   4.802148736514139e-06
-5.416311271069763e-05   8.646711599990045e-06   4.79831367647043e-05
-5.416311271069763e-05   8.646711599990045e-06   4.79831367647043e-05
-5.416311271069763e-05   8.646711599990045e-06   4.79831367647043e-05
-5.416311271069763e-05   8.646711599990045e-06   4.79831367647043e-05
-2.9119766911783512e-05   7.385219271351454e-06   7.001122497031205e-06
-2.9119766911783512e-05   7.385219271351454e-06   7.001122497031205e-06
-2.9119766911783512e-05   7.385219271351454e-06   7.001122497031205e-06
-2.9119766911783512e-05   7.385219271351454e-06   7.001122497031205e-06
-4.057952593877749e-05   8.405907557062445e-06   2.5488307903928805e-05
-4.057952593877749e-05   8.405907557062445e-06   2.5488307903928805e-05
-4.057952593877749e-05   8.405907557062445e-06   2.5488307903928805e-05
-4.057952593877749e-05   8.405907557062445e-06   2.5488307903928805e-05
-2.9119766911783485e-05   8.646711599990045e-06   4.874003216188776e-05
-2.9119766911783485e-05   8.646711599990045e-06   4.874003216188776e-05
-2.9119766911783485e-05   8.646711599990045e-06   4.874003216188776e-05
-2.9119766911783485e-05   8.646711599990045e-06   4.874003216188776e-05
-5.416311271069763e-05   7.385219271351454e-06   6.244227099847692e-06
-5.416311271069763e-05   7.385219271351454e-06   6.244227099847692e-06
-5.416311271069763e-05   7.385219271351454e-06   6.244227099847692e-06
-5.416311271069763e-05   7.385219271351454e-06   6.244227099847692e-06
-5.534876515854979e-05   7.933836238975533e-06   4.928889566666213e-05
-5.534876515854979e-05   7.933836238975533e-06   4.928889566666213e-05
-5.534876515854979e-05   7.933836238975533e-06   4.928889566666213e-05
-5.534876515854979e-05   7.933836238975533e-06   4.928889566666213e-05
-3.024113594719946e-05   6.5995652795114955e-06   8.243409556756844e-06
-3.024113594719946e-05   6.5995652795114955e-06   8.243409556756844e-06
-3.024113594719946e-05   6.5995652795114955e-06   8.243409556756844e-06
-3.024113594719946e-05   6.5995652795114955e-06   8.243409556756844e-06
-4.1923327967120745e-05   7.883943317780421e-06   2.6943102766999855e-05
-4.1923327967120745e-05   7.883943317780421e-06   2.6943102766999855e-05
-4.1923327967120745e-05   7.883943317780421e-06   2.6943102766999855e-05
-4.1923327967120745e-05   7.883943317780421e-06   2.6943102766999855e-05
-5.1689622362398704e-05   1.4196112495413766e-05   2.250070274362431e-05
-5.1689622362398704e-05   1.4196112495413766e-05   2.250070274362431e-05
-5.1689622362398704e-05   1.4196112495413766e-05   2.250070274362431e-05
-5.1689622362398704e-05   1.4196112495413766e-05   2.250070274362431e-05
-7.52103196933428e-05   1.2099408545048276e-05   -1.7958481844835184e-05
-7.52103196933428e-05   1.2099408545048276e-05   -1.7958481844835184e-05
-7.52103196933428e-05   1.2099408545048276e-05   -1.7958481844835184e-05
-7.52103196933428e-05   1.2099408545048276e-05   -1.7958481844835184e-05
-7.732519457539914e-05   1.4344196546715003e-05   2.988019552281748e-05
-7.732519457539914e-05   1.4344196546715003e-05   2.988019552281748e-05
-7.732519457539914e-05   1.4344196546715003e-05   2.988019552281748e-05
-7.732519457539914e-05   1.4344196546715003e-05   2.988019552281748e-05
-5.286684129710879e-05   1.203631118575901e-05   -9.498995391093046e-06
-5.286684129710879e-05   1.203631118575901e-05   -9.498995391093046e-06
-5.286684129710879e-05   1.203631118575901e-05   -9.498995391093046e-06
-5.286684129710879e-05   1.203631118575901e-05   -9.498995391093046e-06
-6.182808388038191e-05   1.2977163535622498e-05   4.87189750444407e-06
-6.182808388038191e-05   1.2977163535622498e-05   4.87189750444407e-06
-6.182808388038191e-05   1.2977163535622498e-05   4.87189750444407e-06
-6.182808388038191e-05   1.2977163535622498e-05   4.87189750444407e-06
-5.286684129710874e-05   1.4344196546715003e-05   3.1264926739391205e-05
-5.286684129710874e-05   1.4344196546715003e-05   3.1264926739391205e-05
-5.286684129710874e-05   1.4344196546715003e-05   3.1264926739391205e-05
-5.286684129710874e-05   1.4344196546715003e-05   3.1264926739391205e-05
-7.732519457539925e-05   1.203631118575901e-05   -1.0883726607666664e-05
-7.732519457539925e-05   1.203631118575901e-05   -1.0883726607666664e-05
-7.732519457539925e-05   1.203631118575901e-05   -1.0883726607666664e-05
-7.732519457539925e-05   1.203631118575901e-05   -1.0883726607666664e-05
-7.921949992446776e-05   1.4185623697491115e-05   3.585048164486335e-05
-7.921949992446776e-05   1.4185623697491115e-05   3.585048164486335e-05
-7.921949992446776e-05   1.4185623697491115e-05   3.585048164486335e-05
-7.921949992446776e-05   1.4185623697491115e-05   3.585048164486335e-05
-5.416311271069763e-05   1.1790170022490248e-05   -4.472891506420384e-06
-5.416311271069763e-05   1.1790170022490248e-05   -4.472891506420384e-06
-5.416311271069763e-05   1.1790170022490248e-05   -4.472891506420384e-06
-5.416311271069763e-05   1.1790170022490248e-05   -4.472891506420384e-06
-6.425516782097789e-05   1.3119531460525132e-05   1.1549583481228524e-05
-6.425516782097789e-05   1.3119531460525132e-05   1.1549583481228524e-05
-6.425516782097789e-05   1.3119531460525132e-05   1.1549583481228524e-05
-6.425516782097789e-05   1.3119531460525132e-05   1.1549583481228524e-05
-5.416311271069763e-05   1.4185623697491115e-05   3.728775384986382e-05
-5.416311271069763e-05   1.4185623697491115e-05   3.728775384986382e-05
-5.416311271069763e-05   1.4185623697491115e-05   3.728775384986382e-05
-5.416311271069763e-05   1.4185623697491115e-05   3.728775384986382e-05
-7.921949992446793e-05   1.1790170022490248e-05   -5.91016371142086e-06
-7.921949992446793e-05   1.1790170022490248e-05   -5.91016371142086e-06
-7.921949992446793e-05   1.1790170022490248e-05   -5.91016371142086e-06
-7.921949992446793e-05   1.1790170022490248e-05   -5.91016371142086e-06
-8.139686760255568e-05   1.3090025868738465e-05   4.612618301814107e-05
-8.139686760255568e-05   1.3090025868738465e-05   4.612618301814107e-05
-8.139686760255568e-05   1.3090025868738465e-05   4.612618301814107e-05
-8.139686760255568e-05   1.3090025868738465e-05   4.612618301814107e-05
-5.534876515854979e-05   1.0706472783199392e-05   4.1428107961214876e-06
-5.534876515854979e-05   1.0706472783199392e-05   4.1428107961214876e-06
-5.534876515854979e-05   1.0706472783199392e-05   4.1428107961214876e-06
-5.534876515854979e-05   1.0706472783199392e-05   4.1428107961214876e-06
-6.478021145328778e-05   1.2670463802961964e-05   1.868349334216196e-05
-6.478021145328778e-05   1.2670463802961964e-05   1.868349334216196e-05
-6.478021145328778e-05   1.2670463802961964e-05   1.868349334216196e-05
-6.478021145328778e-05   1.2670463802961964e-05   1.868349334216196e-05
3.556362421356522e-05   -4.610560420567102e-06   3.5719663669235915e-05
3.556362421356522e-05   -4.610560420567102e-06   3.5719663669235915e-05
3.556362421356522e-05   -4.610560420567102e-06   3.5719663669235915e-05
3.556362421356522e-05   -4.610560420567102e-06   3.5719663669235915e-05
1.4753191303128584e-05   -2.258306951949743e-06   2.4469608996785346e-06
1.4753191303128584e-05   -2.258306951949743e-06   2.4469608996785346e-06
1.4753191303128584e-05   -2.258306951949743e-06   2.4469608996785346e-06
1.4753191303128584e-05   -2.258306951949743e-06   2.4469608996785346e-06
1.3822407446440842e-05   -5.598690310740749e-06   3.2121715117115236e-05
1.3822407446440842e-05   -5.598690310740749e-06   3.2121715117115236e-05
1.3822407446440842e-05   -5.598690310740749e-06   3.2121715117115236e-05
1.3822407446440842e-05   -5.598690310740749e-06   3.2121715117115236e-05
3.358330204364501e-05   -3.141188167399972e-06   -2.2876104975628087e-06
3.358330204364501e-05   -3.141188167399972e-06   -2.2876104975628087e-06
3.358330204364501e-05   -3.141188167399972e-06   -2.2876104975628087e-06
3.358330204364501e-05   -3.141188167399972e-06   -2.2876104975628087e-06
2.321470479428294e-05   -3.996496282086641e-06   1.5506569786852835e-05
2.321470479428294e-05   -3.996496282086641e-06   1.5506569786852835e-05
2.321470479428294e-05   -3.996496282086641e-06   1.5506569786852835e-05
2.321470479428294e-05   -3.996496282086641e-06   1.5506569786852835e-05
3.3583302043645066e-05   -5.598690310741183e-06   3.064721383111055e-05
3.3583302043645066e-05   -5.598690310741183e-06   3.064721383111055e-05
3.3583302043645066e-05   -5.598690310741183e-06   3.064721383111055e-05
3.3583302043645066e-05   -5.598690310741183e-06   3.064721383111055e-05
1.3822407446440794e-05   -3.141188167399972e-06   -8.131092115583154e-07
1.3822407446440794e-05   -3.141188167399972e-06   -8.131092115583154e-07
1.3822407446440794e-05   -3.141188167399972e-06   -8.131092115583154e-07
1.3822407446440794e-05   -3.141188167399972e-06   -8.131092115583154e-07
1.2777494595773276e-05   -5.863076117240164e-06   2.9448938197595628e-05
1.2777494595773276e-05   -5.863076117240164e-06   2.9448938197595628e-05
1.2777494595773276e-05   -5.863076117240164e-06   2.9448938197595628e-05
1.2777494595773276e-05   -5.863076117240164e-06   2.9448938197595628e-05
3.188383660234199e-05   -3.4456538318813554e-06   -3.8454185179003365e-06
3.188383660234199e-05   -3.4456538318813554e-06   -3.8454185179003365e-06
3.188383660234199e-05   -3.4456538318813554e-06   -3.8454185179003365e-06
3.188383660234199e-05   -3.4456538318813554e-06   -3.8454185179003365e-06
2.2331282887903993e-05   -4.370792264681879e-06   1.2630587399177089e-05
2.2331282887903993e-05   -4.370792264681879e-06   1.2630587399177089e-05
2.2331282887903993e-05   -4.370792264681879e-06   1.2630587399177089e-05
2.2331282887903993e-05   -4.370792264681879e-06   1.2630587399177089e-05
3.188383660234204e-05   -5.863076117240164e-06   2.7998484826380647e-05
3.188383660234204e-05   -5.863076117240164e-06   2.7998484826380647e-05
3.188383660234204e-05   -5.863076117240164e-06   2.7998484826380647e-05
3.188383660234204e-05   -5.863076117240164e-06   2.7998484826380647e-05
1.2777494595773249e-05   -3.4456538318813554e-06   -2.3949651466854092e-06
1.2777494595773249e-05   -3.4456538318813554e-06   -2.3949651466854092e-06
1.2777494595773249e-05   -3.4456538318813554e-06   -2.3949651466854092e-06
1.2777494595773249e-05   -3.4456538318813554e-06   -2.3949651466854092e-06
1.1841046944850294e-05   -6.112052422506831e-06   2.598226063655132e-05
1.1841046944850294e-05   -6.112052422506831e-06   2.598226063655132e-05
1.1841046944850294e-05   -6.112052422506831e-06   2.598226063655132e-05
1.1841046944850294e-05   -6.112052422506831e-06   2.598226063655132e-05
2.9957143733918144e-05   -3.8498518825100594e-06   -5.568554335892928e-06
2.9957143733918144e-05   -3.8498518825100594e-06   -5.568554335892928e-06
2.9957143733918144e-05   -3.8498518825100594e-06   -5.568554335892928e-06
2.9957143733918144e-05   -3.8498518825100594e-06   -5.568554335892928e-06
2.070236608903732e-05   -4.445318637623721e-06   1.0213355125309685e-05
2.070236608903732e-05   -4.445318637623721e-06   1.0213355125309685e-05
2.070236608903732e-05   -4.445318637623721e-06   1.0213355125309685e-05
2.070236608903732e-05   -4.445318637623721e-06   1.0213355125309685e-05
1.4753191303128638e-05   -1.9768232855776197e-08   4.420564611199796e-05
1.4753191303128638e-05   -1.9768232855776197e-08   4.420564611199796e-05
1.4753191303128638e-05   -1.9768232855776197e-08   4.420564611199796e-05
1.4753191303128638e-05   -1.9768232855776197e-08   4.420564611199796e-05
-4.7796441608908636e-06   1.172951738492075e-06   1.2366552321440953e-05
-4.7796441608908636e-06   1.172951738492075e-06   1.2366552321440953e-05
-4.7796441608908636e-06   1.172951738492075e-06   1.2366552321440953e-05
-4.7796441608908636e-06   1.172951738492075e-06   1.2366552321440953e-05
-5.63468932753797e-06   -8.799914213326876e-07   4.429228112927896e-05
-5.63468932753797e-06   -8.799914213326876e-07   4.429228112927896e-05
-5.63468932753797e-06   -8.799914213326876e-07   4.429228112927896e-05
-5.63468932753797e-06   -8.799914213326876e-07   4.429228112927896e-05
1.3822407446440794e-05   2.782106327523827e-07   1.1168865273530593e-05
1.3822407446440794e-05   2.782106327523827e-07   1.1168865273530593e-05
1.3822407446440794e-05   2.782106327523827e-07   1.1168865273530593e-05
1.3822407446440794e-05   2.782106327523827e-07   1.1168865273530593e-05
4.401244277511692e-06   6.122354920734194e-08   2.7000996138540286e-05
4.401244277511692e-06   6.122354920734194e-08   2.7000996138540286e-05
4.401244277511692e-06   6.122354920734194e-08   2.7000996138540286e-05
4.401244277511692e-06   6.122354920734194e-08   2.7000996138540286e-05
1.3822407446440835e-05   -8.799914213326876e-07   4.3597359896828305e-05
1.3822407446440835e-05   -8.799914213326876e-07   4.3597359896828305e-05
1.3822407446440835e-05   -8.799914213326876e-07   4.3597359896828305e-05
1.3822407446440835e-05   -8.799914213326876e-07   4.3597359896828305e-05
-5.63468932753797e-06   2.782106327523827e-07   1.1863786505981631e-05
-5.63468932753797e-06   2.782106327523827e-07   1.1863786505981631e-05
-5.63468932753797e-06   2.782106327523827e-07   1.1863786505981631e-05
-5.63468932753797e-06   2.782106327523827e-07   1.1863786505981631e-05
-6.508798500317014e-06   -1.5587708952109758e-06   4.376698599262781e-05
-6.508798500317014e-06   -1.5587708952109758e-06   4.376698599262781e-05
-6.508798500317014e-06   -1.5587708952109758e-06   4.376698599262781e-05
-6.508798500317014e-06   -1.5587708952109758e-06   4.376698599262781e-05
1.2777494595773249e-05   -4.546231900386284e-07   1.0960675542707247e-05
1.2777494595773249e-05   -4.546231900386284e-07   1.0960675542707247e-05
1.2777494595773249e-05   -4.546231900386284e-07   1.0960675542707247e-05
1.2777494595773249e-05   -4.546231900386284e-07   1.0960675542707247e-05
3.4616633589213513e-06   -5.359674280472522e-07   2.6535867480266876e-05
3.4616633589213513e-06   -5.359674280472522e-07   2.6535867480266876e-05
3.4616633589213513e-06   -5.359674280472522e-07   2.6535867480266876e-05
3.4616633589213513e-06   -5.359674280472522e-07   2.6535867480266876e-05
1.2777494595773296e-05   -1.5587708952109758e-06   4.310449736952401e-05
1.2777494595773296e-05   -1.5587708952109758e-06   4.310449736952401e-05
1.2777494595773296e-05   -1.5587708952109758e-06   4.310449736952401e-05
1.2777494595773296e-05   -1.5587708952109758e-06   4.310449736952401e-05
-6.508798500317041e-06   -4.546231900386284e-07   1.1623164165810605e-05
-6.508798500317041e-06   -4.546231900386284e-07   1.1623164165810605e-05
-6.508798500317041e-06   -4.546231900386284e-07   1.1623164165810605e-05
-6.508798500317041e-06   -4.546231900386284e-07   1.1623164165810605e-05
-7.375478286973642e-06   -2.1882972914498942e-06   4.4169577327279885e-05
-7.375478286973642e-06   -2.1882972914498942e-06   4.4169577327279885e-05
-7.375478286973642e-06   -2.1882972914498942e-06   4.4169577327279885e-05
-7.375478286973642e-06   -2.1882972914498942e-06   4.4169577327279885e-05
1.184104694485024e-05   -1.177681183078469e-06   1.1535665609217148e-05
1.184104694485024e-05   -1.177681183078469e-06   1.1535665609217148e-05
1.184104694485024e-05   -1.177681183078469e-06   1.1535665609217148e-05
1.184104694485024e-05   -1.177681183078469e-06   1.1535665609217148e-05
2.718548825974037e-06   -1.0346915495732661e-06   2.6654035360574745e-05
2.718548825974037e-06   -1.0346915495732661e-06   2.6654035360574745e-05
2.718548825974037e-06   -1.0346915495732661e-06   2.6654035360574745e-05
2.718548825974037e-06   -1.0346915495732661e-06   2.6654035360574745e-05
-4.7796441608908365e-06   4.468091050778989e-06   4.798065136884535e-05
-4.7796441608908365e-06   4.468091050778989e-06   4.798065136884535e-05
-4.7796441608908365e-06   4.468091050778989e-06   4.798065136884535e-05
-4.7796441608908365e-06   4.468091050778989e-06   4.798065136884535e-05
-2.3992460446848316e-05   4.394613407612911e-06   1.591520430634986e-05
-2.3992460446848316e-05   4.394613407612911e-06   1.591520430634986e-05
-2.3992460446848316e-05   4.394613407612911e-06   1.591520430634986e-05
-2.3992460446848316e-05   4.394613407612911e-06   1.591520430634986e-05
-2.4835786279640913e-05   3.711430362308716e-06   4.7667298212642666e-05
-2.4835786279640913e-05   3.711430362308716e-06   4.7667298212642666e-05
-2.4835786279640913e-05   3.711430362308716e-06   4.7667298212642666e-05
-2.4835786279640913e-05   3.711430362308716e-06   4.7667298212642666e-05
-5.6346893275379425e-06   3.5807900067032737e-06   1.574385417250088e-05
-5.6346893275379425e-06   3.5807900067032737e-06   1.574385417250088e-05
-5.6346893275379425e-06   3.5807900067032737e-06   1.574385417250088e-05
-5.6346893275379425e-06   3.5807900067032737e-06   1.574385417250088e-05
-1.4847513523743184e-05   3.9391839193689965e-06   3.0883524818577915e-05
-1.4847513523743184e-05   3.9391839193689965e-06   3.0883524818577915e-05
-1.4847513523743184e-05   3.9391839193689965e-06   3.0883524818577915e-05
-1.4847513523743184e-05   3.9391839193689965e-06   3.0883524818577915e-05
-5.63468932753797e-06   3.711430362308716e-06   4.774568242600554e-05
-5.63468932753797e-06   3.711430362308716e-06   4.774568242600554e-05
-5.63468932753797e-06   3.711430362308716e-06   4.774568242600554e-05
-5.63468932753797e-06   3.711430362308716e-06   4.774568242600554e-05
-2.4835786279640913e-05   3.5807900067032737e-06   1.5665469959138005e-05
-2.4835786279640913e-05   3.5807900067032737e-06   1.5665469959138005e-05
-2.4835786279640913e-05   3.5807900067032737e-06   1.5665469959138005e-05
-2.4835786279640913e-05   3.5807900067032737e-06   1.5665469959138005e-05
-2.569949688269337e-05   2.9667415685956725e-06   4.791318483125242e-05
-2.569949688269337e-05   2.9667415685956725e-06   4.791318483125242e-05
-2.569949688269337e-05   2.9667415685956725e-06   4.791318483125242e-05
-2.569949688269337e-05   2.9667415685956725e-06   4.791318483125242e-05
-6.508798500316987e-06   2.776277368702132e-06   1.6042966047228127e-05
-6.508798500316987e-06   2.776277368702132e-06   1.6042966047228127e-05
-6.508798500316987e-06   2.776277368702132e-06   1.6042966047228127e-05
-6.508798500316987e-06   2.776277368702132e-06   1.6042966047228127e-05
-1.562011140070591e-05   3.348166568687902e-06   3.088535402788592e-05
-1.562011140070591e-05   3.348166568687902e-06   3.088535402788592e-05
-1.562011140070591e-05   3.348166568687902e-06   3.088535402788592e-05
-1.562011140070591e-05   3.348166568687902e-06   3.088535402788592e-05
-6.508798500317014e-06   2.9667415685956725e-06   4.802746335118876e-05
-6.508798500317014e-06   2.9667415685956725e-06   4.802746335118876e-05
-6.508798500317014e-06   2.9667415685956725e-06   4.802746335118876e-05
-6.508798500317014e-06   2.9667415685956725e-06   4.802746335118876e-05
-2.569949688269337e-05   2.7762773687025656e-06   1.5928687527292165e-05
-2.569949688269337e-05   2.7762773687025656e-06   1.5928687527292165e-05
-2.569949688269337e-05   2.7762773687025656e-06   1.5928687527292165e-05
-2.569949688269337e-05   2.7762773687025656e-06   1.5928687527292165e-05
-2.655325466012037e-05   2.260032500229093e-06   4.8559606619912174e-05
-2.655325466012037e-05   2.260032500229093e-06   4.8559606619912174e-05
-2.655325466012037e-05   2.260032500229093e-06   4.8559606619912174e-05
-2.655325466012037e-05   2.260032500229093e-06   4.8559606619912174e-05
-7.375478286973642e-06   2.0016353841165874e-06   1.6751684267668748e-05
-7.375478286973642e-06   2.0016353841165874e-06   1.6751684267668748e-05
-7.375478286973642e-06   2.0016353841165874e-06   1.6751684267668748e-05
-7.375478286973642e-06   2.0016353841165874e-06   1.6751684267668748e-05
-1.6428108847522615e-05   2.7709571675266914e-06   3.137780879853755e-05
-1.6428108847522615e-05   2.7709571675266914e-06   3.137780879853755e-05
-1.6428108847522615e-05   2.7709571675266914e-06   3.137780879853755e-05
-1.6428108847522615e-05   2.7709571675266914e-06   3.137780879853755e-05
-2.3992460446848316e-05   8.78575984766556e-06   4.242708655796158e-05
-2.3992460446848316e-05   8.78575984766556e-06   4.242708655796158e-05
-2.3992460446848316e-05   8.78575984766556e-06   4.242708655796158e-05
-2.3992460446848316e-05   8.78575984766556e-06   4.242708655796158e-05
-4.287704557244559e-05   7.528164520970767e-06   1.0198220819282347e-05
-4.287704557244559e-05   7.528164520970767e-06   1.0198220819282347e-05
-4.287704557244559e-05   7.528164520970767e-06   1.0198220819282347e-05
-4.287704557244559e-05   7.528164520970767e-06   1.0198220819282347e-05
-4.378136085321456e-05   8.0604071622907e-06   4.1863042718144616e-05
-4.378136085321456e-05   8.0604071622907e-06   4.1863042718144616e-05
-4.378136085321456e-05   8.0604071622907e-06   4.1863042718144616e-05
-4.378136085321456e-05   8.0604071622907e-06   4.1863042718144616e-05
-2.483578627964086e-05   6.732586422984136e-06   1.1083777539106182e-05
-2.483578627964086e-05   6.732586422984136e-06   1.1083777539106182e-05
-2.483578627964086e-05   6.732586422984136e-06   1.1083777539106182e-05
-2.483578627964086e-05   6.732586422984136e-06   1.1083777539106182e-05
-3.3776134401287635e-05   7.645335169732814e-06   2.543670849380268e-05
-3.3776134401287635e-05   7.645335169732814e-06   2.543670849380268e-05
-3.3776134401287635e-05   7.645335169732814e-06   2.543670849380268e-05
-3.3776134401287635e-05   7.645335169732814e-06   2.543670849380268e-05
-2.4835786279640913e-05   8.0604071622907e-06   4.265973516172903e-05
-2.4835786279640913e-05   8.0604071622907e-06   4.265973516172903e-05
-2.4835786279640913e-05   8.0604071622907e-06   4.265973516172903e-05
-2.4835786279640913e-05   8.0604071622907e-06   4.265973516172903e-05
-4.3781360853214503e-05   6.73258642298457e-06   1.0287085095522308e-05
-4.3781360853214503e-05   6.73258642298457e-06   1.0287085095522308e-05
-4.3781360853214503e-05   6.73258642298457e-06   1.0287085095522308e-05
-4.3781360853214503e-05   6.73258642298457e-06   1.0287085095522308e-05
-4.479938348526702e-05   7.385219271351454e-06   4.329537244059881e-05
-4.479938348526702e-05   7.385219271351454e-06   4.329537244059881e-05
-4.479938348526702e-05   7.385219271351454e-06   4.329537244059881e-05
-4.479938348526702e-05   7.385219271351454e-06   4.329537244059881e-05
-2.5699496882693315e-05   5.997045587013104e-06   1.2295132313578934e-05
-2.5699496882693315e-05   5.997045587013104e-06   1.2295132313578934e-05
-2.5699496882693315e-05   5.997045587013104e-06   1.2295132313578934e-05
-2.5699496882693315e-05   5.997045587013104e-06   1.2295132313578934e-05
-3.440380671678532e-05   7.103127155689247e-06   2.6138666429193608e-05
-3.440380671678532e-05   7.103127155689247e-06   2.6138666429193608e-05
-3.440380671678532e-05   7.103127155689247e-06   2.6138666429193608e-05
-3.440380671678532e-05   7.103127155689247e-06   2.6138666429193608e-05
-2.5699496882693315e-05   7.385219271351454e-06   4.4128276651201346e-05
-2.5699496882693315e-05   7.385219271351454e-06   4.4128276651201346e-05
-2.5699496882693315e-05   7.385219271351454e-06   4.4128276651201346e-05
-2.5699496882693315e-05   7.385219271351454e-06   4.4128276651201346e-05
-4.479938348526697e-05   5.997045587013104e-06   1.1462228102976021e-05
-4.479938348526697e-05   5.997045587013104e-06   1.1462228102976021e-05
-4.479938348526697e-05   5.997045587013104e-06   1.1462228102976021e-05
-4.479938348526697e-05   5.997045587013104e-06   1.1462228102976021e-05
-4.570494686951637e-05   6.5995652795114955e-06   4.4506463310685536e-05
-4.570494686951637e-05   6.5995652795114955e-06   4.4506463310685536e-05
-4.570494686951637e-05   6.5995652795114955e-06   4.4506463310685536e-05
-4.570494686951637e-05   6.5995652795114955e-06   4.4506463310685536e-05
-2.6553254660120263e-05   5.175403235709204e-06   1.3441473521306742e-05
-2.6553254660120263e-05   5.175403235709204e-06   1.3441473521306742e-05
-2.6553254660120263e-05   5.175403235709204e-06   1.3441473521306742e-05
-2.6553254660120263e-05   5.175403235709204e-06   1.3441473521306742e-05
-3.542342551427703e-05   6.533113486591191e-06   2.7410465461039676e-05
-3.542342551427703e-05   6.533113486591191e-06   2.7410465461039676e-05
-3.542342551427703e-05   6.533113486591191e-06   2.7410465461039676e-05
-3.542342551427703e-05   6.533113486591191e-06   2.7410465461039676e-05
-4.287704557244559e-05   1.2099408545048276e-05   2.0372317347336832e-05
-4.287704557244559e-05   1.2099408545048276e-05   2.0372317347336832e-05
-4.287704557244559e-05   1.2099408545048276e-05   2.0372317347336832e-05
-4.287704557244559e-05   1.2099408545048276e-05   2.0372317347336832e-05
-6.056786186182245e-05   9.865779215790377e-06   -1.0452554065845817e-05
-6.056786186182245e-05   9.865779215790377e-06   -1.0452554065845817e-05
-6.056786186182245e-05   9.865779215790377e-06   -1.0452554065845817e-05
-6.056786186182245e-05   9.865779215790377e-06   -1.0452554065845817e-05
-6.24574686576456e-05   1.203631118575901e-05   2.6105495409645824e-05
-6.24574686576456e-05   1.203631118575901e-05   2.6105495409645824e-05
-6.24574686576456e-05   1.203631118575901e-05   2.6105495409645824e-05
-6.24574686576456e-05   1.203631118575901e-05   2.6105495409645824e-05
-4.3781360853214395e-05   9.608972550939014e-06   -3.564947750181024e-06
-4.3781360853214395e-05   9.608972550939014e-06   -3.564947750181024e-06
-4.3781360853214395e-05   9.608972550939014e-06   -3.564947750181024e-06
-4.3781360853214395e-05   9.608972550939014e-06   -3.564947750181024e-06
-5.0456760500201814e-05   1.070523987609616e-05   6.902957933038159e-06
-5.0456760500201814e-05   1.070523987609616e-05   6.902957933038159e-06
-5.0456760500201814e-05   1.070523987609616e-05   6.902957933038159e-06
-5.0456760500201814e-05   1.070523987609616e-05   6.902957933038159e-06
-4.3781360853214503e-05   1.2036311185759443e-05   2.7561898590537648e-05
-4.3781360853214503e-05   1.2036311185759443e-05   2.7561898590537648e-05
-4.3781360853214503e-05   1.2036311185759443e-05   2.7561898590537648e-05
-4.3781360853214503e-05   1.2036311185759443e-05   2.7561898590537648e-05
-6.24574686576457e-05   9.608972550939014e-06   -5.021350931073065e-06
-6.24574686576457e-05   9.608972550939014e-06   -5.021350931073065e-06
-6.24574686576457e-05   9.608972550939014e-06   -5.021350931073065e-06
-6.24574686576457e-05   9.608972550939014e-06   -5.021350931073065e-06
-6.410691082747223e-05   1.1790170022490248e-05   3.1082524869956076e-05
-6.410691082747223e-05   1.1790170022490248e-05   3.1082524869956076e-05
-6.410691082747223e-05   1.1790170022490248e-05   3.1082524869956076e-05
-6.410691082747223e-05   1.1790170022490248e-05   3.1082524869956076e-05
-4.479938348526686e-05   9.297288415200267e-06   3.9904159732150144e-07
-4.479938348526686e-05   9.297288415200267e-06   3.9904159732150144e-07
-4.479938348526686e-05   9.297288415200267e-06   3.9904159732150144e-07
-4.479938348526686e-05   9.297288415200267e-06   3.9904159732150144e-07
-5.2455150018272895e-05   1.0711024109001308e-05   1.2310411069385964e-05
-5.2455150018272895e-05   1.0711024109001308e-05   1.2310411069385964e-05
-5.2455150018272895e-05   1.0711024109001308e-05   1.2310411069385964e-05
-5.2455150018272895e-05   1.0711024109001308e-05   1.2310411069385964e-05
-4.479938348526702e-05   1.1790170022490248e-05   3.257825383433063e-05
-4.479938348526702e-05   1.1790170022490248e-05   3.257825383433063e-05
-4.479938348526702e-05   1.1790170022490248e-05   3.257825383433063e-05
-4.479938348526702e-05   1.1790170022490248e-05   3.257825383433063e-05
-6.410691082747223e-05   9.297288415200267e-06   -1.0966873670526173e-06
-6.410691082747223e-05   9.297288415200267e-06   -1.0966873670526173e-06
-6.410691082747223e-05   9.297288415200267e-06   -1.0966873670526173e-06
-6.410691082747223e-05   9.297288415200267e-06   -1.0966873670526173e-06
-6.602095240014998e-05   1.0706472783199392e-05   3.973439284964348e-05
-6.602095240014998e-05   1.0706472783199392e-05   3.973439284964348e-05
-6.602095240014998e-05   1.0706472783199392e-05   3.973439284964348e-05
-6.602095240014998e-05   1.0706472783199392e-05   3.973439284964348e-05
-4.5704946869516206e-05   8.253082323057392e-06   7.346417908005707e-06
-4.5704946869516206e-05   8.253082323057392e-06   7.346417908005707e-06
-4.5704946869516206e-05   8.253082323057392e-06   7.346417908005707e-06
-4.5704946869516206e-05   8.253082323057392e-06   7.346417908005707e-06
-5.290624685448753e-05   1.0256434226102278e-05   1.8146573407797073e-05
-5.290624685448753e-05   1.0256434226102278e-05   1.8146573407797073e-05
-5.290624685448753e-05   1.0256434226102278e-05   1.8146573407797073e-05
-5.290624685448753e-05   1.0256434226102278e-05   1.8146573407797073e-05
1.9686253474121603e-05   -2.258306951949743e-06   2.806869908271491e-05
1.9686253474121603e-05   -2.258306951949743e-06   2.806869908271491e-05
1.9686253474121603e-05   -2.258306951949743e-06   2.806869908271491e-05
1.9686253474121603e-05   -2.258306951949743e-06   2.806869908271491e-05
5.1227862379078e-06   6.68523947617173e-08   5.191349297052313e-06
5.1227862379078e-06   6.68523947617173e-08   5.191349297052313e-06
5.1227862379078e-06   6.68523947617173e-08   5.191349297052313e-06
5.1227862379078e-06   6.68523947617173e-08   5.191349297052313e-06
4.42760368192715e-06   -3.141188167399972e-06   2.6178733985509706e-05
4.42760368192715e-06   -3.141188167399972e-06   2.6178733985509706e-05
4.42760368192715e-06   -3.141188167399972e-06   2.6178733985509706e-05
4.42760368192715e-06   -3.141188167399972e-06   2.6178733985509706e-05
1.796863411824286e-05   -7.236541889653683e-07   2.159829537922895e-06
1.796863411824286e-05   -7.236541889653683e-07   2.159829537922895e-06
1.796863411824286e-05   -7.236541889653683e-07   2.159829537922895e-06
1.796863411824286e-05   -7.236541889653683e-07   2.159829537922895e-06
1.1103386698920493e-05   -1.6259910320557888e-06   1.414331067598192e-05
1.1103386698920493e-05   -1.6259910320557888e-06   1.414331067598192e-05
1.1103386698920493e-05   -1.6259910320557888e-06   1.414331067598192e-05
1.1103386698920493e-05   -1.6259910320557888e-06   1.414331067598192e-05
1.7968634118242888e-05   -3.141188167399972e-06   2.4728213598448944e-05
1.7968634118242888e-05   -3.141188167399972e-06   2.4728213598448944e-05
1.7968634118242888e-05   -3.141188167399972e-06   2.4728213598448944e-05
1.7968634118242888e-05   -3.141188167399972e-06   2.4728213598448944e-05
4.4276036819271435e-06   -7.236541889653683e-07   3.6103499249839823e-06
4.4276036819271435e-06   -7.236541889653683e-07   3.6103499249839823e-06
4.4276036819271435e-06   -7.236541889653683e-07   3.6103499249839823e-06
4.4276036819271435e-06   -7.236541889653683e-07   3.6103499249839823e-06
3.6179355729467673e-06   -3.445653831881789e-06   2.4575686011251048e-05
3.6179355729467673e-06   -3.445653831881789e-06   2.4575686011251048e-05
3.6179355729467673e-06   -3.445653831881789e-06   2.4575686011251048e-05
3.6179355729467673e-06   -3.445653831881789e-06   2.4575686011251048e-05
1.6514937052908817e-05   -1.0652628061444316e-06   1.6524489292049443e-06
1.6514937052908817e-05   -1.0652628061444316e-06   1.6524489292049443e-06
1.6514937052908817e-05   -1.0652628061444316e-06   1.6524489292049443e-06
1.6514937052908817e-05   -1.0652628061444316e-06   1.6524489292049443e-06
1.0271445709107389e-05   -1.9709741653963636e-06   1.260169465109222e-05
1.0271445709107389e-05   -1.9709741653963636e-06   1.260169465109222e-05
1.0271445709107389e-05   -1.9709741653963636e-06   1.260169465109222e-05
1.0271445709107389e-05   -1.9709741653963636e-06   1.260169465109222e-05
1.6514937052908844e-05   -3.445653831881789e-06   2.3147451395808373e-05
1.6514937052908844e-05   -3.445653831881789e-06   2.3147451395808373e-05
1.6514937052908844e-05   -3.445653831881789e-06   2.3147451395808373e-05
1.6514937052908844e-05   -3.445653831881789e-06   2.3147451395808373e-05
3.6179355729467537e-06   -1.0652628061444316e-06   3.080683544647673e-06
3.6179355729467537e-06   -1.0652628061444316e-06   3.080683544647673e-06
3.6179355729467537e-06   -1.0652628061444316e-06   3.080683544647673e-06
3.6179355729467537e-06   -1.0652628061444316e-06   3.080683544647673e-06
2.9166940086407887e-06   -3.8498518825100594e-06   2.272781387175596e-05
2.9166940086407887e-06   -3.8498518825100594e-06   2.272781387175596e-05
2.9166940086407887e-06   -3.8498518825100594e-06   2.272781387175596e-05
2.9166940086407887e-06   -3.8498518825100594e-06   2.272781387175596e-05
1.4813508488329766e-05   -1.635751388677888e-06   1.5713294426421005e-06
1.4813508488329766e-05   -1.635751388677888e-06   1.5713294426421005e-06
1.4813508488329766e-05   -1.635751388677888e-06   1.5713294426421005e-06
1.4813508488329766e-05   -1.635751388677888e-06   1.5713294426421005e-06
9.050862454966398e-06   -2.150358916659656e-06   1.148450401503709e-05
9.050862454966398e-06   -2.150358916659656e-06   1.148450401503709e-05
9.050862454966398e-06   -2.150358916659656e-06   1.148450401503709e-05
9.050862454966398e-06   -2.150358916659656e-06   1.148450401503709e-05
5.122786237907807e-06   1.1729517384916413e-06   3.866775412969558e-05
5.122786237907807e-06   1.1729517384916413e-06   3.866775412969558e-05
5.122786237907807e-06   1.1729517384916413e-06   3.866775412969558e-05
5.122786237907807e-06   1.1729517384916413e-06   3.866775412969558e-05
-8.149357883951064e-06   2.224197302711818e-06   1.7178261265129178e-05
-8.149357883951064e-06   2.224197302711818e-06   1.7178261265129178e-05
-8.149357883951064e-06   2.224197302711818e-06   1.7178261265129178e-05
-8.149357883951064e-06   2.224197302711818e-06   1.7178261265129178e-05
-8.759774297754496e-06   2.782106327523827e-07   3.879171621455906e-05
-8.759774297754496e-06   2.782106327523827e-07   3.879171621455906e-05
-8.759774297754496e-06   2.782106327523827e-07   3.879171621455906e-05
-8.759774297754496e-06   2.782106327523827e-07   3.879171621455906e-05
4.4276036819271435e-06   1.3298902060197935e-06   1.618174517112973e-05
4.4276036819271435e-06   1.3298902060197935e-06   1.618174517112973e-05
4.4276036819271435e-06   1.3298902060197935e-06   1.618174517112973e-05
4.4276036819271435e-06   1.3298902060197935e-06   1.618174517112973e-05
-1.9386313951866285e-06   1.1625978265199233e-06   2.6892512394020564e-05
-1.9386313951866285e-06   1.1625978265199233e-06   2.6892512394020564e-05
-1.9386313951866285e-06   1.1625978265199233e-06   2.6892512394020564e-05
-1.9386313951866285e-06   1.1625978265199233e-06   2.6892512394020564e-05
4.4276036819271435e-06   2.782106327523827e-07   3.816070847059857e-05
4.4276036819271435e-06   2.782106327523827e-07   3.816070847059857e-05
4.4276036819271435e-06   2.782106327523827e-07   3.816070847059857e-05
4.4276036819271435e-06   2.782106327523827e-07   3.816070847059857e-05
-8.759774297754496e-06   1.3298902060197935e-06   1.6812752915090247e-05
-8.759774297754496e-06   1.3298902060197935e-06   1.6812752915090247e-05
-8.759774297754496e-06   1.3298902060197935e-06   1.6812752915090247e-05
-8.759774297754496e-06   1.3298902060197935e-06   1.6812752915090247e-05
-9.387896037821194e-06   -4.546231900386284e-07   3.8546825358988165e-05
-9.387896037821194e-06   -4.546231900386284e-07   3.8546825358988165e-05
-9.387896037821194e-06   -4.546231900386284e-07   3.8546825358988165e-05
-9.387896037821194e-06   -4.546231900386284e-07   3.8546825358988165e-05
3.6179355729467537e-06   5.712079072027303e-07   1.6254940682697085e-05
3.6179355729467537e-06   5.712079072027303e-07   1.6254940682697085e-05
3.6179355729467537e-06   5.712079072027303e-07   1.6254940682697085e-05
3.6179355729467537e-06   5.712079072027303e-07   1.6254940682697085e-05
-2.589885453143324e-06   5.383891150045547e-07   2.6621000334833237e-05
-2.589885453143324e-06   5.383891150045547e-07   2.6621000334833237e-05
-2.589885453143324e-06   5.383891150045547e-07   2.6621000334833237e-05
-2.589885453143324e-06   5.383891150045547e-07   2.6621000334833237e-05
3.6179355729467673e-06   -4.546231900386284e-07   3.793132670064348e-05
3.6179355729467673e-06   -4.546231900386284e-07   3.793132670064348e-05
3.6179355729467673e-06   -4.546231900386284e-07   3.793132670064348e-05
3.6179355729467673e-06   -4.546231900386284e-07   3.793132670064348e-05
-9.387896037821222e-06   5.712079072027303e-07   1.6870439341041838e-05
-9.387896037821222e-06   5.712079072027303e-07   1.6870439341041838e-05
-9.387896037821222e-06   5.712079072027303e-07   1.6870439341041838e-05
-9.387896037821222e-06   5.712079072027303e-07   1.6870439341041838e-05
-1.000651015185583e-05   -1.177681183078469e-06   3.9058301543370587e-05
-1.000651015185583e-05   -1.177681183078469e-06   3.9058301543370587e-05
-1.000651015185583e-05   -1.177681183078469e-06   3.9058301543370587e-05
-1.000651015185583e-05   -1.177681183078469e-06   3.9058301543370587e-05
2.9166940086407887e-06   -2.0503443224034572e-07   1.6936039892040424e-05
2.9166940086407887e-06   -2.0503443224034572e-07   1.6936039892040424e-05
2.9166940086407887e-06   -2.0503443224034572e-07   1.6936039892040424e-05
2.9166940086407887e-06   -2.0503443224034572e-07   1.6936039892040424e-05
-3.141862685747131e-06   -2.2630383472548032e-08   2.692419195342657e-05
-3.141862685747131e-06   -2.2630383472548032e-08   2.692419195342657e-05
-3.141862685747131e-06   -2.2630383472548032e-08   2.692419195342657e-05
-3.141862685747131e-06   -2.2630383472548032e-08   2.692419195342657e-05
-8.149357883951064e-06   4.394613407612911e-06   4.2891240039035937e-05
-8.149357883951064e-06   4.394613407612911e-06   4.2891240039035937e-05
-8.149357883951064e-06   4.394613407612911e-06   4.2891240039035937e-05
-8.149357883951064e-06   4.394613407612911e-06   4.2891240039035937e-05
-2.1199599770632205e-05   4.140265782250291e-06   2.0988228319349968e-05
-2.1199599770632205e-05   4.140265782250291e-06   2.0988228319349968e-05
-2.1199599770632205e-05   4.140265782250291e-06   2.0988228319349968e-05
-2.1199599770632205e-05   4.140265782250291e-06   2.0988228319349968e-05
-2.178503184863188e-05   3.5807900067032737e-06   4.251231135158186e-05
-2.178503184863188e-05   3.5807900067032737e-06   4.251231135158186e-05
-2.178503184863188e-05   3.5807900067032737e-06   4.251231135158186e-05
-2.178503184863188e-05   3.5807900067032737e-06   4.251231135158186e-05
-8.759774297754469e-06   3.3150024575424614e-06   2.096302129628324e-05
-8.759774297754469e-06   3.3150024575424614e-06   2.096302129628324e-05
-8.759774297754469e-06   3.3150024575424614e-06   2.096302129628324e-05
-8.759774297754469e-06   3.3150024575424614e-06   2.096302129628324e-05
-1.5001133502841487e-05   3.766201791364967e-06   3.109456703780263e-05
-1.5001133502841487e-05   3.766201791364967e-06   3.109456703780263e-05
-1.5001133502841487e-05   3.766201791364967e-06   3.109456703780263e-05
-1.5001133502841487e-05   3.766201791364967e-06   3.109456703780263e-05
-8.759774297754496e-06   3.5807900067032737e-06   4.267178388107874e-05
-8.759774297754496e-06   3.5807900067032737e-06   4.267178388107874e-05
-8.759774297754496e-06   3.5807900067032737e-06   4.267178388107874e-05
-8.759774297754496e-06   3.5807900067032737e-06   4.267178388107874e-05
-2.1785031848631827e-05   3.3150024575424614e-06   2.0803548766786797e-05
-2.1785031848631827e-05   3.3150024575424614e-06   2.0803548766786797e-05
-2.1785031848631827e-05   3.3150024575424614e-06   2.0803548766786797e-05
-2.1785031848631827e-05   3.3150024575424614e-06   2.0803548766786797e-05
-2.2389757821015567e-05   2.776277368702132e-06   4.279722595468944e-05
-2.2389757821015567e-05   2.776277368702132e-06   4.279722595468944e-05
-2.2389757821015567e-05   2.776277368702132e-06   4.279722595468944e-05
-2.2389757821015567e-05   2.776277368702132e-06   4.279722595468944e-05
-9.387896037821194e-06   2.4939418925078952e-06   2.1296857601748806e-05
-9.387896037821194e-06   2.4939418925078952e-06   2.1296857601748806e-05
-9.387896037821194e-06   2.4939418925078952e-06   2.1296857601748806e-05
-9.387896037821194e-06   2.4939418925078952e-06   2.1296857601748806e-05
-1.5522585070111965e-05   3.1381215566199903e-06   3.113483152376612e-05
-1.5522585070111965e-05   3.1381215566199903e-06   3.113483152376612e-05
-1.5522585070111965e-05   3.1381215566199903e-06   3.113483152376612e-05
-1.5522585070111965e-05   3.1381215566199903e-06   3.113483152376612e-05
-9.387896037821222e-06   2.776277368702132e-06   4.296662724040585e-05
-9.387896037821222e-06   2.776277368702132e-06   4.296662724040585e-05
-9.387896037821222e-06   2.776277368702132e-06   4.296662724040585e-05
-9.387896037821222e-06   2.776277368702132e-06   4.296662724040585e-05
-2.2389757821015513e-05   2.493941892508112e-06   2.112745631603196e-05
-2.2389757821015513e-05   2.493941892508112e-06   2.112745631603196e-05
-2.2389757821015513e-05   2.493941892508112e-06   2.112745631603196e-05
-2.2389757821015513e-05   2.493941892508112e-06   2.112745631603196e-05
-2.298510663848618e-05   2.0016353841161537e-06   4.3491498065691006e-05
-2.298510663848618e-05   2.0016353841161537e-06   4.3491498065691006e-05
-2.298510663848618e-05   2.0016353841161537e-06   4.3491498065691006e-05
-2.298510663848618e-05   2.0016353841161537e-06   4.3491498065691006e-05
-1.0006510151855803e-05   1.7075479322682316e-06   2.2036956392416235e-05
-1.0006510151855803e-05   1.7075479322682316e-06   2.2036956392416235e-05
-1.0006510151855803e-05   1.7075479322682316e-06   2.2036956392416235e-05
-1.0006510151855803e-05   1.7075479322682316e-06   2.2036956392416235e-05
-1.6077122600842824e-05   2.52251890495072e-06   3.166566122378531e-05
-1.6077122600842824e-05   2.52251890495072e-06   3.166566122378531e-05
-1.6077122600842824e-05   2.52251890495072e-06   3.166566122378531e-05
-1.6077122600842824e-05   2.52251890495072e-06   3.166566122378531e-05
-2.1199599770632205e-05   7.528164520970767e-06   3.77762051727681e-05
-2.1199599770632205e-05   7.528164520970767e-06   3.77762051727681e-05
-2.1199599770632205e-05   7.528164520970767e-06   3.77762051727681e-05
-2.1199599770632205e-05   7.528164520970767e-06   3.77762051727681e-05
-3.4008146090035065e-05   6.1446076681287345e-06   1.559849386205826e-05
-3.4008146090035065e-05   6.1446076681287345e-06   1.559849386205826e-05
-3.4008146090035065e-05   6.1446076681287345e-06   1.559849386205826e-05
-3.4008146090035065e-05   6.1446076681287345e-06   1.559849386205826e-05
-3.464596647722906e-05   6.732586422984136e-06   3.7078251435797814e-05
-3.464596647722906e-05   6.732586422984136e-06   3.7078251435797814e-05
-3.464596647722906e-05   6.732586422984136e-06   3.7078251435797814e-05
-3.464596647722906e-05   6.732586422984136e-06   3.7078251435797814e-05
-2.1785031848631773e-05   5.311973930063364e-06   1.649572788388874e-05
-2.1785031848631773e-05   5.311973930063364e-06   1.649572788388874e-05
-2.1785031848631773e-05   5.311973930063364e-06   1.649572788388874e-05
-2.1785031848631773e-05   5.311973930063364e-06   1.649572788388874e-05
-2.784250159917502e-05   6.325743122405358e-06   2.5983249286057114e-05
-2.784250159917502e-05   6.325743122405358e-06   2.5983249286057114e-05
-2.784250159917502e-05   6.325743122405358e-06   2.5983249286057114e-05
-2.784250159917502e-05   6.325743122405358e-06   2.5983249286057114e-05
-2.178503184863188e-05   6.73258642298457e-06   3.79306189315508e-05
-2.178503184863188e-05   6.73258642298457e-06   3.79306189315508e-05
-2.178503184863188e-05   6.73258642298457e-06   3.79306189315508e-05
-2.178503184863188e-05   6.73258642298457e-06   3.79306189315508e-05
-3.464596647722901e-05   5.311973930063364e-06   1.564336038813619e-05
-3.464596647722901e-05   5.311973930063364e-06   1.564336038813619e-05
-3.464596647722901e-05   5.311973930063364e-06   1.564336038813619e-05
-3.464596647722901e-05   5.311973930063364e-06   1.564336038813619e-05
-3.540167271781793e-05   5.997045587013104e-06   3.8298756170377594e-05
-3.540167271781793e-05   5.997045587013104e-06   3.8298756170377594e-05
-3.540167271781793e-05   5.997045587013104e-06   3.8298756170377594e-05
-3.540167271781793e-05   5.997045587013104e-06   3.8298756170377594e-05
-2.238975782101546e-05   4.5555213026827156e-06   1.7477145912972144e-05
-2.238975782101546e-05   4.5555213026827156e-06   1.7477145912972144e-05
-2.238975782101546e-05   4.5555213026827156e-06   1.7477145912972144e-05
-2.238975782101546e-05   4.5555213026827156e-06   1.7477145912972144e-05
-2.8256730132056264e-05   5.736535506331228e-06   2.654682457585108e-05
-2.8256730132056264e-05   5.736535506331228e-06   2.654682457585108e-05
-2.8256730132056264e-05   5.736535506331228e-06   2.654682457585108e-05
-2.8256730132056264e-05   5.736535506331228e-06   2.654682457585108e-05
-2.2389757821015567e-05   5.997045587013104e-06   3.916367074097561e-05
-2.2389757821015567e-05   5.997045587013104e-06   3.916367074097561e-05
-2.2389757821015567e-05   5.997045587013104e-06   3.916367074097561e-05
-2.2389757821015567e-05   5.997045587013104e-06   3.916367074097561e-05
-3.540167271781782e-05   4.5555213026827156e-06   1.6612231342374127e-05
-3.540167271781782e-05   4.5555213026827156e-06   1.6612231342374127e-05
-3.540167271781782e-05   4.5555213026827156e-06   1.6612231342374127e-05
-3.540167271781782e-05   4.5555213026827156e-06   1.6612231342374127e-05
-3.6050600529655716e-05   5.175403235709638e-06   3.9479710924587245e-05
-3.6050600529655716e-05   5.175403235709638e-06   3.9479710924587245e-05
-3.6050600529655716e-05   5.175403235709638e-06   3.9479710924587245e-05
-3.6050600529655716e-05   5.175403235709638e-06   3.9479710924587245e-05
-2.2985106638486125e-05   3.7477121283611796e-06   1.856050243704741e-05
-2.2985106638486125e-05   3.7477121283611796e-06   1.856050243704741e-05
-2.2985106638486125e-05   3.7477121283611796e-06   1.856050243704741e-05
-2.2985106638486125e-05   3.7477121283611796e-06   1.856050243704741e-05
-2.8967285616919e-05   5.147109124325946e-06   2.769116253685793e-05
-2.8967285616919e-05   5.147109124325946e-06   2.769116253685793e-05
-2.8967285616919e-05   5.147109124325946e-06   2.769116253685793e-05
-2.8967285616919e-05   5.147109124325946e-06   2.769116253685793e-05
-3.400814609003523e-05   9.865779215790377e-06   1.7635473773489627e-05
-3.400814609003523e-05   9.865779215790377e-06   1.7635473773489627e-05
-3.400814609003523e-05   9.865779215790377e-06   1.7635473773489627e-05
-3.400814609003523e-05   9.865779215790377e-06   1.7635473773489627e-05
-4.5541759351867914e-05   7.55068085363437e-06   -2.976274013525215e-06
-4.5541759351867914e-05   7.55068085363437e-06   -2.976274013525215e-06
-4.5541759351867914e-05   7.55068085363437e-06   -2.976274013525215e-06
-4.5541759351867914e-05   7.55068085363437e-06   -2.976274013525215e-06
-4.717609366492869e-05   9.608972550939014e-06   2.173459006057964e-05
-4.717609366492869e-05   9.608972550939014e-06   2.173459006057964e-05
-4.717609366492869e-05   9.608972550939014e-06   2.173459006057964e-05
-4.717609366492869e-05   9.608972550939014e-06   2.173459006057964e-05
-3.464596647722901e-05   7.122925001747538e-06   2.342673277261971e-06
-3.464596647722901e-05   7.122925001747538e-06   2.342673277261971e-06
-3.464596647722901e-05   7.122925001747538e-06   2.342673277261971e-06
-3.464596647722901e-05   7.122925001747538e-06   2.342673277261971e-06
-3.887426902016524e-05   8.381498185617772e-06   8.634700271835621e-06
-3.887426902016524e-05   8.381498185617772e-06   8.634700271835621e-06
-3.887426902016524e-05   8.381498185617772e-06   8.634700271835621e-06
-3.887426902016524e-05   8.381498185617772e-06   8.634700271835621e-06
-3.464596647722901e-05   9.608972550939447e-06   2.32262185900947e-05
-3.464596647722901e-05   9.608972550939447e-06   2.32262185900947e-05
-3.464596647722901e-05   9.608972550939447e-06   2.32262185900947e-05
-3.464596647722901e-05   9.608972550939447e-06   2.32262185900947e-05
-4.717609366492869e-05   7.122925001747538e-06   8.510447477469126e-07
-4.717609366492869e-05   7.122925001747538e-06   8.510447477469126e-07
-4.717609366492869e-05   7.122925001747538e-06   8.510447477469126e-07
-4.717609366492869e-05   7.122925001747538e-06   8.510447477469126e-07
-4.8584010630646924e-05   9.297288415200267e-06   2.571719743233022e-05
-4.8584010630646924e-05   9.297288415200267e-06   2.571719743233022e-05
-4.8584010630646924e-05   9.297288415200267e-06   2.571719743233022e-05
-4.8584010630646924e-05   9.297288415200267e-06   2.571719743233022e-05
-3.540167271781782e-05   6.766668027878087e-06   5.265006476675056e-06
-3.540167271781782e-05   6.766668027878087e-06   5.265006476675056e-06
-3.540167271781782e-05   6.766668027878087e-06   5.265006476675056e-06
-3.540167271781782e-05   6.766668027878087e-06   5.265006476675056e-06
-4.0441712500754524e-05   8.269846037200785e-06   1.2763165975976181e-05
-4.0441712500754524e-05   8.269846037200785e-06   1.2763165975976181e-05
-4.0441712500754524e-05   8.269846037200785e-06   1.2763165975976181e-05
-4.0441712500754524e-05   8.269846037200785e-06   1.2763165975976181e-05
-3.5401672717817875e-05   9.297288415200267e-06   2.72355696647234e-05
-3.5401672717817875e-05   9.297288415200267e-06   2.72355696647234e-05
-3.5401672717817875e-05   9.297288415200267e-06   2.72355696647234e-05
-3.5401672717817875e-05   9.297288415200267e-06   2.72355696647234e-05
-4.8584010630646924e-05   6.766668027878087e-06   3.7466342442816613e-06
-4.8584010630646924e-05   6.766668027878087e-06   3.7466342442816613e-06
-4.8584010630646924e-05   6.766668027878087e-06   3.7466342442816613e-06
-4.8584010630646924e-05   6.766668027878087e-06   3.7466342442816613e-06
-5.026992587204887e-05   8.253082323057392e-06   3.276703061214081e-05
-5.026992587204887e-05   8.253082323057392e-06   3.276703061214081e-05
-5.026992587204887e-05   8.253082323057392e-06   3.276703061214081e-05
-5.026992587204887e-05   8.253082323057392e-06   3.276703061214081e-05
-3.605060052965561e-05   5.79954578067924e-06   1.0540276966912367e-05
-3.605060052965561e-05   5.79954578067924e-06   1.0540276966912367e-05
-3.605060052965561e-05   5.79954578067924e-06   1.0540276966912367e-05
-3.605060052965561e-05   5.79954578067924e-06   1.0540276966912367e-05
-4.083611730092661e-05   7.83006395306974e-06   1.7297827348930353e-05
-4.083611730092661e-05   7.83006395306974e-06   1.7297827348930353e-05
-4.083611730092661e-05   7.83006395306974e-06   1.7297827348930353e-05
-4.083611730092661e-05   7.83006395306974e-06   1.7297827348930353e-05
3.8363506832485484e-06   6.68523947617173e-08   2.090899307268532e-05
3.8363506832485484e-06   6.68523947617173e-08   2.090899307268532e-05
3.8363506832485484e-06   6.68523947617173e-08   2.090899307268532e-05
3.8363506832485484e-06   6.68523947617173e-08   2.090899307268532e-05
-4.4646421519442695e-06   2.296513280979507e-06   8.411801545761457e-06
-4.4646421519442695e-06   2.296513280979507e-06   8.411801545761457e-06
-4.4646421519442695e-06   2.296513280979507e-06   8.411801545761457e-06
-4.4646421519442695e-06   2.296513280979507e-06   8.411801545761457e-06
-4.95532561928005e-06   -7.236541889655852e-07   2.0637345973508088e-05
-4.95532561928005e-06   -7.236541889655852e-07   2.0637345973508088e-05
-4.95532561928005e-06   -7.236541889655852e-07   2.0637345973508088e-05
-4.95532561928005e-06   -7.236541889655852e-07   2.0637345973508088e-05
2.341640325242587e-06   1.5591845686272442e-06   7.106032811414931e-06
2.341640325242587e-06   1.5591845686272442e-06   7.106032811414931e-06
2.341640325242587e-06   1.5591845686272442e-06   7.106032811414931e-06
2.341640325242587e-06   1.5591845686272442e-06   7.106032811414931e-06
-1.0018109471706054e-06   6.739028512361273e-07   1.3209620629204904e-05
-1.0018109471706054e-06   6.739028512361273e-07   1.3209620629204904e-05
-1.0018109471706054e-06   6.739028512361273e-07   1.3209620629204904e-05
-1.0018109471706054e-06   6.739028512361273e-07   1.3209620629204904e-05
2.341640325242587e-06   -7.236541889655852e-07   1.926764271895239e-05
2.341640325242587e-06   -7.236541889655852e-07   1.926764271895239e-05
2.341640325242587e-06   -7.236541889655852e-07   1.926764271895239e-05
2.341640325242587e-06   -7.236541889655852e-07   1.926764271895239e-05
-4.95532561928005e-06   1.5591845686272442e-06   8.475736065970303e-06
-4.95532561928005e-06   1.5591845686272442e-06   8.475736065970303e-06
-4.95532561928005e-06   1.5591845686272442e-06   8.475736065970303e-06
-4.95532561928005e-06   1.5591845686272442e-06   8.475736065970303e-06
-5.561196980403841e-06   -1.0652628061442147e-06   2.010647886086371e-05
-5.561196980403841e-06   -1.0652628061442147e-06   2.010647886086371e-05
-5.561196980403841e-06   -1.0652628061442147e-06   2.010647886086371e-05
-5.561196980403841e-06   -1.0652628061442147e-06   2.010647886086371e-05
1.0453442069462447e-06   1.1522003932962818e-06   7.765098962282424e-06
1.0453442069462447e-06   1.1522003932962818e-06   7.765098962282424e-06
1.0453442069462447e-06   1.1522003932962818e-06   7.765098962282424e-06
1.0453442069462447e-06   1.1522003932962818e-06   7.765098962282424e-06
-1.8096029858912283e-06   3.596401160117519e-07   1.299888045004909e-05
-1.8096029858912283e-06   3.596401160117519e-07   1.299888045004909e-05
-1.8096029858912283e-06   3.596401160117519e-07   1.299888045004909e-05
-1.8096029858912283e-06   3.596401160117519e-07   1.299888045004909e-05
1.0453442069462447e-06   -1.0652628061444316e-06   1.8776000941199238e-05
1.0453442069462447e-06   -1.0652628061444316e-06   1.8776000941199238e-05
1.0453442069462447e-06   -1.0652628061444316e-06   1.8776000941199238e-05
1.0453442069462447e-06   -1.0652628061444316e-06   1.8776000941199238e-05
-5.561196980403827e-06   1.1522003932962818e-06   9.095576881946706e-06
-5.561196980403827e-06   1.1522003932962818e-06   9.095576881946706e-06
-5.561196980403827e-06   1.1522003932962818e-06   9.095576881946706e-06
-5.561196980403827e-06   1.1522003932962818e-06   9.095576881946706e-06
-6.067087145248193e-06   -1.6357513886781049e-06   1.9931006753003697e-05
-6.067087145248193e-06   -1.6357513886781049e-06   1.9931006753003697e-05
-6.067087145248193e-06   -1.6357513886781049e-06   1.9931006753003697e-05
-6.067087145248193e-06   -1.6357513886781049e-06   1.9931006753003697e-05
-5.803678344690313e-07   2.87927765794168e-07   9.632267075688583e-06
-5.803678344690313e-07   2.87927765794168e-07   9.632267075688583e-06
-5.803678344690313e-07   2.87927765794168e-07   9.632267075688583e-06
-5.803678344690313e-07   2.87927765794168e-07   9.632267075688583e-06
-2.6757310448228527e-06   6.994101151448079e-08   1.3255331145512779e-05
-2.6757310448228527e-06   6.994101151448079e-08   1.3255331145512779e-05
-2.6757310448228527e-06   6.994101151448079e-08   1.3255331145512779e-05
-2.6757310448228527e-06   6.994101151448079e-08   1.3255331145512779e-05
-4.4646421519442695e-06   2.224197302711818e-06   3.360295423396136e-05
-4.4646421519442695e-06   2.224197302711818e-06   3.360295423396136e-05
-4.4646421519442695e-06   2.224197302711818e-06   3.360295423396136e-05
-4.4646421519442695e-06   2.224197302711818e-06   3.360295423396136e-05
-1.1414879050994657e-05   2.6619852000800935e-06   2.228189880729831e-05
-1.1414879050994657e-05   2.6619852000800935e-06   2.228189880729831e-05
-1.1414879050994657e-05   2.6619852000800935e-06   2.228189880729831e-05
-1.1414879050994657e-05   2.6619852000800935e-06   2.228189880729831e-05
-1.17843426217688e-05   1.3298902060197935e-06   3.351359400161698e-05
-1.17843426217688e-05   1.3298902060197935e-06   3.351359400161698e-05
-1.17843426217688e-05   1.3298902060197935e-06   3.351359400161698e-05
-1.17843426217688e-05   1.3298902060197935e-06   3.351359400161698e-05
-4.95532561928005e-06   1.8379781759579605e-06   2.1827046215506065e-05
-4.95532561928005e-06   1.8379781759579605e-06   2.1827046215506065e-05
-4.95532561928005e-06   1.8379781759579605e-06   2.1827046215506065e-05
-4.95532561928005e-06   1.8379781759579605e-06   2.1827046215506065e-05
-8.202246681031207e-06   1.918561044563947e-06   2.7190231597261133e-05
-8.202246681031207e-06   1.918561044563947e-06   2.7190231597261133e-05
-8.202246681031207e-06   1.918561044563947e-06   2.7190231597261133e-05
-8.202246681031207e-06   1.918561044563947e-06   2.7190231597261133e-05
-4.95532561928005e-06   1.3298902060197935e-06   3.320874121965386e-05
-4.95532561928005e-06   1.3298902060197935e-06   3.320874121965386e-05
-4.95532561928005e-06   1.3298902060197935e-06   3.320874121965386e-05
-4.95532561928005e-06   1.3298902060197935e-06   3.320874121965386e-05
-1.17843426217688e-05   1.8379781759579605e-06   2.213189899746902e-05
-1.17843426217688e-05   1.8379781759579605e-06   2.213189899746902e-05
-1.17843426217688e-05   1.8379781759579605e-06   2.213189899746902e-05
-1.17843426217688e-05   1.8379781759579605e-06   2.213189899746902e-05
-1.2165339060524113e-05   5.712079072027303e-07   3.358380586222917e-05
-1.2165339060524113e-05   5.712079072027303e-07   3.358380586222917e-05
-1.2165339060524113e-05   5.712079072027303e-07   3.358380586222917e-05
-1.2165339060524113e-05   5.712079072027303e-07   3.358380586222917e-05
-5.561196980403827e-06   1.0763243460628399e-06   2.2273832532045956e-05
-5.561196980403827e-06   1.0763243460628399e-06   2.2273832532045956e-05
-5.561196980403827e-06   1.0763243460628399e-06   2.2273832532045956e-05
-5.561196980403827e-06   1.0763243460628399e-06   2.2273832532045956e-05
-8.579298430641551e-06   1.3157865108115539e-06   2.7160324316926753e-05
-8.579298430641551e-06   1.3157865108115539e-06   2.7160324316926753e-05
-8.579298430641551e-06   1.3157865108115539e-06   2.7160324316926753e-05
-8.579298430641551e-06   1.3157865108115539e-06   2.7160324316926753e-05
-5.561196980403841e-06   5.712079072027303e-07   3.328073599891297e-05
-5.561196980403841e-06   5.712079072027303e-07   3.328073599891297e-05
-5.561196980403841e-06   5.712079072027303e-07   3.328073599891297e-05
-5.561196980403841e-06   5.712079072027303e-07   3.328073599891297e-05
-1.2165339060524113e-05   1.0763243460628399e-06   2.2576902395362165e-05
-1.2165339060524113e-05   1.0763243460628399e-06   2.2576902395362165e-05
-1.2165339060524113e-05   1.0763243460628399e-06   2.2576902395362165e-05
-1.2165339060524113e-05   1.0763243460628399e-06   2.2576902395362165e-05
-1.2538853160055685e-05   -2.0503443224034572e-07   3.42403252349677e-05
-1.2538853160055685e-05   -2.0503443224034572e-07   3.42403252349677e-05
-1.2538853160055685e-05   -2.0503443224034572e-07   3.42403252349677e-05
-1.2538853160055685e-05   -2.0503443224034572e-07   3.42403252349677e-05
-6.067087145248193e-06   2.500794492009406e-07   2.318098021475739e-05
-6.067087145248193e-06   2.500794492009406e-07   2.318098021475739e-05
-6.067087145248193e-06   2.500794492009406e-07   2.318098021475739e-05
-6.067087145248193e-06   2.500794492009406e-07   2.318098021475739e-05
-8.956286741386701e-06   7.223601874073362e-07   2.7712944432064314e-05
-8.956286741386701e-06   7.223601874073362e-07   2.7712944432064314e-05
-8.956286741386701e-06   7.223601874073362e-07   2.7712944432064314e-05
-8.956286741386701e-06   7.223601874073362e-07   2.7712944432064314e-05
-1.1414879050994657e-05   4.140265782250291e-06   3.782820260182025e-05
-1.1414879050994657e-05   4.140265782250291e-06   3.782820260182025e-05
-1.1414879050994657e-05   4.140265782250291e-06   3.782820260182025e-05
-1.1414879050994657e-05   4.140265782250291e-06   3.782820260182025e-05
-1.8346988643619204e-05   3.185512664852794e-06   2.5701834743674075e-05
-1.8346988643619204e-05   3.185512664852794e-06   2.5701834743674075e-05
-1.8346988643619204e-05   3.185512664852794e-06   2.5701834743674075e-05
-1.8346988643619204e-05   3.185512664852794e-06   2.5701834743674075e-05
-1.865929465882395e-05   3.3150024575424614e-06   3.712752075486032e-05
-1.865929465882395e-05   3.3150024575424614e-06   3.712752075486032e-05
-1.865929465882395e-05   3.3150024575424614e-06   3.712752075486032e-05
-1.865929465882395e-05   3.3150024575424614e-06   3.712752075486032e-05
-1.17843426217688e-05   2.42109974429275e-06   2.6205608987718175e-05
-1.17843426217688e-05   2.42109974429275e-06   2.6205608987718175e-05
-1.17843426217688e-05   2.42109974429275e-06   2.6205608987718175e-05
-1.17843426217688e-05   2.42109974429275e-06   2.6205608987718175e-05
-1.5058533323557453e-05   3.203306104785633e-06   3.119326967440368e-05
-1.5058533323557453e-05   3.203306104785633e-06   3.119326967440368e-05
-1.5058533323557453e-05   3.203306104785633e-06   3.119326967440368e-05
-1.5058533323557453e-05   3.203306104785633e-06   3.119326967440368e-05
-1.17843426217688e-05   3.3150024575424614e-06   3.7663862382809974e-05
-1.17843426217688e-05   3.3150024575424614e-06   3.7663862382809974e-05
-1.17843426217688e-05   3.3150024575424614e-06   3.7663862382809974e-05
-1.17843426217688e-05   3.3150024575424614e-06   3.7663862382809974e-05
-1.865929465882395e-05   2.42109974429275e-06   2.566926735976852e-05
-1.865929465882395e-05   2.42109974429275e-06   2.566926735976852e-05
-1.865929465882395e-05   2.42109974429275e-06   2.566926735976852e-05
-1.865929465882395e-05   2.42109974429275e-06   2.566926735976852e-05
-1.899410189700612e-05   2.4939418925078952e-06   3.750032280544838e-05
-1.899410189700612e-05   2.4939418925078952e-06   3.750032280544838e-05
-1.899410189700612e-05   2.4939418925078952e-06   3.750032280544838e-05
-1.899410189700612e-05   2.4939418925078952e-06   3.750032280544838e-05
-1.2165339060524113e-05   1.6441063633619926e-06   2.6628952728799447e-05
-1.2165339060524113e-05   1.6441063633619926e-06   2.6628952728799447e-05
-1.2165339060524113e-05   1.6441063633619926e-06   2.6628952728799447e-05
-1.2165339060524113e-05   1.6441063633619926e-06   2.6628952728799447e-05
-1.5325343386272914e-05   2.590747879683327e-06   3.13276416952546e-05
-1.5325343386272914e-05   2.590747879683327e-06   3.13276416952546e-05
-1.5325343386272914e-05   2.590747879683327e-06   3.13276416952546e-05
-1.5325343386272914e-05   2.590747879683327e-06   3.13276416952546e-05
-1.2165339060524113e-05   2.4939418925078952e-06   3.80102241229357e-05
-1.2165339060524113e-05   2.4939418925078952e-06   3.80102241229357e-05
-1.2165339060524113e-05   2.4939418925078952e-06   3.80102241229357e-05
-1.2165339060524113e-05   2.4939418925078952e-06   3.80102241229357e-05
-1.8994101897006066e-05   1.6441063633619926e-06   2.611905141131185e-05
-1.8994101897006066e-05   1.6441063633619926e-06   2.611905141131185e-05
-1.8994101897006066e-05   1.6441063633619926e-06   2.611905141131185e-05
-1.8994101897006066e-05   1.6441063633619926e-06   2.611905141131185e-05
-1.9321986755513332e-05   1.7075479322682316e-06   3.827739337382372e-05
-1.9321986755513332e-05   1.7075479322682316e-06   3.827739337382372e-05
-1.9321986755513332e-05   1.7075479322682316e-06   3.827739337382372e-05
-1.9321986755513332e-05   1.7075479322682316e-06   3.827739337382372e-05
-1.2538853160055685e-05   9.071140805734079e-07   2.7452431025744577e-05
-1.2538853160055685e-05   9.071140805734079e-07   2.7452431025744577e-05
-1.2538853160055685e-05   9.071140805734079e-07   2.7452431025744577e-05
-1.2538853160055685e-05   9.071140805734079e-07   2.7452431025744577e-05
-1.5622651522425874e-05   1.987243217036524e-06   3.194401748115027e-05
-1.5622651522425874e-05   1.987243217036524e-06   3.194401748115027e-05
-1.5622651522425874e-05   1.987243217036524e-06   3.194401748115027e-05
-1.5622651522425874e-05   1.987243217036524e-06   3.194401748115027e-05
-1.834698864361926e-05   6.144607668128951e-06   3.269575038579507e-05
-1.834698864361926e-05   6.144607668128951e-06   3.269575038579507e-05
-1.834698864361926e-05   6.144607668128951e-06   3.269575038579507e-05
-1.834698864361926e-05   6.144607668128951e-06   3.269575038579507e-05
-2.5162288368362623e-05   4.302137243369312e-06   2.0231435256366976e-05
-2.5162288368362623e-05   4.302137243369312e-06   2.0231435256366976e-05
-2.5162288368362623e-05   4.302137243369312e-06   2.0231435256366976e-05
-2.5162288368362623e-05   4.302137243369312e-06   2.0231435256366976e-05
-2.55053105397449e-05   5.311973930063581e-06   3.1731202762479236e-05
-2.55053105397449e-05   5.311973930063581e-06   3.1731202762479236e-05
-2.55053105397449e-05   5.311973930063581e-06   3.1731202762479236e-05
-2.55053105397449e-05   5.311973930063581e-06   3.1731202762479236e-05
-1.865929465882395e-05   3.4978120809247334e-06   2.1409673403760825e-05
-1.865929465882395e-05   3.4978120809247334e-06   2.1409673403760825e-05
-1.865929465882395e-05   3.4978120809247334e-06   2.1409673403760825e-05
-1.865929465882395e-05   3.4978120809247334e-06   2.1409673403760825e-05
-2.1872062221523598e-05   4.774258418114956e-06   2.599841820594617e-05
-2.1872062221523598e-05   4.774258418114956e-06   2.599841820594617e-05
-2.1872062221523598e-05   4.774258418114956e-06   2.599841820594617e-05
-2.1872062221523598e-05   4.774258418114956e-06   2.599841820594617e-05
-1.865929465882395e-05   5.311973930063581e-06   3.281969987196237e-05
-1.865929465882395e-05   5.311973930063581e-06   3.281969987196237e-05
-1.865929465882395e-05   5.311973930063581e-06   3.281969987196237e-05
-1.865929465882395e-05   5.311973930063581e-06   3.281969987196237e-05
-2.550531053974479e-05   3.4978120809247334e-06   2.032117629427758e-05
-2.550531053974479e-05   3.4978120809247334e-06   2.032117629427758e-05
-2.550531053974479e-05   3.4978120809247334e-06   2.032117629427758e-05
-2.550531053974479e-05   3.4978120809247334e-06   2.032117629427758e-05
-2.5980134966480854e-05   4.555521302682499e-06   3.2786309302728104e-05
-2.5980134966480854e-05   4.555521302682499e-06   3.2786309302728104e-05
-2.5980134966480854e-05   4.555521302682499e-06   3.2786309302728104e-05
-2.5980134966480854e-05   4.555521302682499e-06   3.2786309302728104e-05
-1.899410189700612e-05   2.7826828032477546e-06   2.2206623953264257e-05
-1.899410189700612e-05   2.7826828032477546e-06   2.2206623953264257e-05
-1.899410189700612e-05   2.7826828032477546e-06   2.2206623953264257e-05
-1.899410189700612e-05   2.7826828032477546e-06   2.2206623953264257e-05
-2.2058582795586433e-05   4.180555427938781e-06   2.6475368542750225e-05
-2.2058582795586433e-05   4.180555427938781e-06   2.6475368542750225e-05
-2.2058582795586433e-05   4.180555427938781e-06   2.6475368542750225e-05
-2.2058582795586433e-05   4.180555427938781e-06   2.6475368542750225e-05
-1.8994101897006066e-05   4.555521302682499e-06   3.385001240238813e-05
-1.8994101897006066e-05   4.555521302682499e-06   3.385001240238813e-05
-1.8994101897006066e-05   4.555521302682499e-06   3.385001240238813e-05
-1.8994101897006066e-05   4.555521302682499e-06   3.385001240238813e-05
-2.5980134966480746e-05   2.7826828032477546e-06   2.114292085360326e-05
-2.5980134966480746e-05   2.7826828032477546e-06   2.114292085360326e-05
-2.5980134966480746e-05   2.7826828032477546e-06   2.114292085360326e-05
-2.5980134966480746e-05   2.7826828032477546e-06   2.114292085360326e-05
-2.636097065125692e-05   3.7477121283611796e-06   3.396154367994969e-05
-2.636097065125692e-05   3.7477121283611796e-06   3.396154367994969e-05
-2.636097065125692e-05   3.7477121283611796e-06   3.396154367994969e-05
-2.636097065125692e-05   3.7477121283611796e-06   3.396154367994969e-05
-1.9321986755513332e-05   2.0546317790043605e-06   2.3245752063324673e-05
-1.9321986755513332e-05   2.0546317790043605e-06   2.3245752063324673e-05
-1.9321986755513332e-05   2.0546317790043605e-06   2.3245752063324673e-05
-1.9321986755513332e-05   2.0546317790043605e-06   2.3245752063324673e-05
-2.2451432212898466e-05   3.616492610065058e-06   2.7524377993664163e-05
-2.2451432212898466e-05   3.616492610065058e-06   2.7524377993664163e-05
-2.2451432212898466e-05   3.616492610065058e-06   2.7524377993664163e-05
-2.2451432212898466e-05   3.616492610065058e-06   2.7524377993664163e-05
-2.5162288368362623e-05   7.5506808536341535e-06   1.4404559272649439e-05
-2.5162288368362623e-05   7.5506808536341535e-06   1.4404559272649439e-05
-2.5162288368362623e-05   7.5506808536341535e-06   1.4404559272649439e-05
-2.5162288368362623e-05   7.5506808536341535e-06   1.4404559272649439e-05
-3.0491927382188082e-05   5.075270102506335e-06   4.036581132263852e-06
-3.0491927382188082e-05   5.075270102506335e-06   4.036581132263852e-06
-3.0491927382188082e-05   5.075270102506335e-06   4.036581132263852e-06
-3.0491927382188082e-05   5.075270102506335e-06   4.036581132263852e-06
-3.179620417828838e-05   7.122925001747538e-06   1.6880721670373567e-05
-3.179620417828838e-05   7.122925001747538e-06   1.6880721670373567e-05
-3.179620417828838e-05   7.122925001747538e-06   1.6880721670373567e-05
-3.179620417828838e-05   7.122925001747538e-06   1.6880721670373567e-05
-2.5505310539744846e-05   4.53993503302802e-06   7.945692920699097e-06
-2.5505310539744846e-05   4.53993503302802e-06   7.945692920699097e-06
-2.5505310539744846e-05   4.53993503302802e-06   7.945692920699097e-06
-2.5505310539744846e-05   4.53993503302802e-06   7.945692920699097e-06
-2.725965237894228e-05   6.0125107747297044e-06   9.986050541007058e-06
-2.725965237894228e-05   6.0125107747297044e-06   9.986050541007058e-06
-2.725965237894228e-05   6.0125107747297044e-06   9.986050541007058e-06
-2.725965237894228e-05   6.0125107747297044e-06   9.986050541007058e-06
-2.5505310539744846e-05   7.122925001747538e-06   1.84305156516048e-05
-2.5505310539744846e-05   7.122925001747538e-06   1.84305156516048e-05
-2.5505310539744846e-05   7.122925001747538e-06   1.84305156516048e-05
-2.5505310539744846e-05   7.122925001747538e-06   1.84305156516048e-05
-3.1796204178288485e-05   4.53993503302802e-06   6.3958989394673205e-06
-3.1796204178288485e-05   4.53993503302802e-06   6.3958989394673205e-06
-3.1796204178288485e-05   4.53993503302802e-06   6.3958989394673205e-06
-3.1796204178288485e-05   4.53993503302802e-06   6.3958989394673205e-06
-3.291657421025337e-05   6.766668027878087e-06   1.9882712455690727e-05
-3.291657421025337e-05   6.766668027878087e-06   1.9882712455690727e-05
-3.291657421025337e-05   6.766668027878087e-06   1.9882712455690727e-05
-3.291657421025337e-05   6.766668027878087e-06   1.9882712455690727e-05
-2.5980134966480746e-05   4.17271472564801e-06   9.878352364074282e-06
-2.5980134966480746e-05   4.17271472564801e-06   9.878352364074282e-06
-2.5980134966480746e-05   4.17271472564801e-06   9.878352364074282e-06
-2.5980134966480746e-05   4.17271472564801e-06   9.878352364074282e-06
-2.8363771684380295e-05   5.801708599833047e-06   1.287368390273018e-05
-2.8363771684380295e-05   5.801708599833047e-06   1.287368390273018e-05
-2.8363771684380295e-05   5.801708599833047e-06   1.287368390273018e-05
-2.8363771684380295e-05   5.801708599833047e-06   1.287368390273018e-05
-2.5980134966480746e-05   6.766668027878087e-06   2.14390844370286e-05
-2.5980134966480746e-05   6.766668027878087e-06   2.14390844370286e-05
-2.5980134966480746e-05   6.766668027878087e-06   2.14390844370286e-05
-2.5980134966480746e-05   6.766668027878087e-06   2.14390844370286e-05
-3.291657421025348e-05   4.17271472564801e-06   8.321980382736409e-06
-3.291657421025348e-05   4.17271472564801e-06   8.321980382736409e-06
-3.291657421025348e-05   4.17271472564801e-06   8.321980382736409e-06
-3.291657421025348e-05   4.17271472564801e-06   8.321980382736409e-06
-3.434449094175194e-05   5.79954578067924e-06   2.531716834921734e-05
-3.434449094175194e-05   5.79954578067924e-06   2.531716834921734e-05
-3.434449094175194e-05   5.79954578067924e-06   2.531716834921734e-05
-3.434449094175194e-05   5.79954578067924e-06   2.531716834921734e-05
-2.6360970651256865e-05   3.331604905669038e-06   1.3492065723398551e-05
-2.6360970651256865e-05   3.331604905669038e-06   1.3492065723398551e-05
-2.6360970651256865e-05   3.331604905669038e-06   1.3492065723398551e-05
-2.6360970651256865e-05   3.331604905669038e-06   1.3492065723398551e-05
-2.8681124674891686e-05   5.400431611034045e-06   1.6117693072904143e-05
-2.8681124674891686e-05   5.400431611034045e-06   1.6117693072904143e-05
-2.8681124674891686e-05   5.400431611034045e-06   1.6117693072904143e-05
-2.8681124674891686e-05   5.400431611034045e-06   1.6117693072904143e-05
-1.268148188495209e-05   2.296513280979507e-06   1.4881041418573007e-05
-1.268148188495209e-05   2.296513280979507e-06   1.4881041418573007e-05
-1.268148188495209e-05   2.296513280979507e-06   1.4881041418573007e-05
-1.268148188495209e-05   2.296513280979507e-06   1.4881041418573007e-05
-1.3781593263346004e-05   4.321814382741312e-06   1.4262703115640167e-05
-1.3781593263346004e-05   4.321814382741312e-06   1.4262703115640167e-05
-1.3781593263346004e-05   4.321814382741312e-06   1.4262703115640167e-05
-1.3781593263346004e-05   4.321814382741312e-06   1.4262703115640167e-05
-1.413166850143264e-05   1.5591845686272442e-06   1.600926790102286e-05
-1.413166850143264e-05   1.5591845686272442e-06   1.600926790102286e-05
-1.413166850143264e-05   1.5591845686272442e-06   1.600926790102286e-05
-1.413166850143264e-05   1.5591845686272442e-06   1.600926790102286e-05
-1.416332369346108e-05   3.3796407620971048e-06   1.4969752838321588e-05
-1.416332369346108e-05   3.3796407620971048e-06   1.4969752838321588e-05
-1.416332369346108e-05   3.3796407620971048e-06   1.4969752838321588e-05
-1.416332369346108e-05   3.3796407620971048e-06   1.4969752838321588e-05
-1.334688522701213e-05   2.70223219856619e-06   1.4015467199025066e-05
-1.334688522701213e-05   2.70223219856619e-06   1.4015467199025066e-05
-1.334688522701213e-05   2.70223219856619e-06   1.4015467199025066e-05
-1.334688522701213e-05   2.70223219856619e-06   1.4015467199025066e-05
-1.4163323693461093e-05   1.5591845686270273e-06   1.491699418494077e-05
-1.4163323693461093e-05   1.5591845686270273e-06   1.491699418494077e-05
-1.4163323693461093e-05   1.5591845686270273e-06   1.491699418494077e-05
-1.4163323693461093e-05   1.5591845686270273e-06   1.491699418494077e-05
-1.413166850143264e-05   3.3796407620971048e-06   1.6062026554403705e-05
-1.413166850143264e-05   3.3796407620971048e-06   1.6062026554403705e-05
-1.413166850143264e-05   3.3796407620971048e-06   1.6062026554403705e-05
-1.413166850143264e-05   3.3796407620971048e-06   1.6062026554403705e-05
-1.4586199035230225e-05   1.152200393296065e-06   1.6529365638785895e-05
-1.4586199035230225e-05   1.152200393296065e-06   1.6529365638785895e-05
-1.4586199035230225e-05   1.152200393296065e-06   1.6529365638785895e-05
-1.4586199035230225e-05   1.152200393296065e-06   1.6529365638785895e-05
-1.560354499070047e-05   2.7270772210877085e-06   1.728001613456116e-05
-1.560354499070047e-05   2.7270772210877085e-06   1.728001613456116e-05
-1.560354499070047e-05   2.7270772210877085e-06   1.728001613456116e-05
-1.560354499070047e-05   2.7270772210877085e-06   1.728001613456116e-05
-1.4229373644069998e-05   2.2954805806211197e-06   1.524868854112322e-05
-1.4229373644069998e-05   2.2954805806211197e-06   1.524868854112322e-05
-1.4229373644069998e-05   2.2954805806211197e-06   1.524868854112322e-05
-1.4229373644069998e-05   2.2954805806211197e-06   1.524868854112322e-05
-1.5603544990700497e-05   1.1522003932962818e-06   1.5584439542110518e-05
-1.5603544990700497e-05   1.1522003932962818e-06   1.5584439542110518e-05
-1.5603544990700497e-05   1.1522003932962818e-06   1.5584439542110518e-05
-1.5603544990700497e-05   1.1522003932962818e-06   1.5584439542110518e-05
-1.4586199035230225e-05   2.7270772210877085e-06   1.822494223123613e-05
-1.4586199035230225e-05   2.7270772210877085e-06   1.822494223123613e-05
-1.4586199035230225e-05   2.7270772210877085e-06   1.822494223123613e-05
-1.4586199035230225e-05   2.7270772210877085e-06   1.822494223123613e-05
-1.4873909196529843e-05   2.879277657943848e-07   1.819086247328665e-05
-1.4873909196529843e-05   2.879277657943848e-07   1.819086247328665e-05
-1.4873909196529843e-05   2.879277657943848e-07   1.819086247328665e-05
-1.4873909196529843e-05   2.879277657943848e-07   1.819086247328665e-05
-1.7136347669759267e-05   1.1213511860925542e-06   2.146153920982321e-05
-1.7136347669759267e-05   1.1213511860925542e-06   2.146153920982321e-05
-1.7136347669759267e-05   1.1213511860925542e-06   2.146153920982321e-05
-1.7136347669759267e-05   1.1213511860925542e-06   2.146153920982321e-05
-1.484367573100158e-05   1.7947182927087902e-06   1.7236399047923573e-05
-1.484367573100158e-05   1.7947182927087902e-06   1.7236399047923573e-05
-1.484367573100158e-05   1.7947182927087902e-06   1.7236399047923573e-05
-1.484367573100158e-05   1.7947182927087902e-06   1.7236399047923573e-05
-1.3781593263345977e-05   2.6619852000798767e-06   2.970364660274613e-05
-1.3781593263345977e-05   2.6619852000798767e-06   2.970364660274613e-05
-1.3781593263345977e-05   2.6619852000798767e-06   2.970364660274613e-05
-1.3781593263345977e-05   2.6619852000798767e-06   2.970364660274613e-05
-1.391646635441157e-05   1.1178549587778424e-06   2.8552379972855474e-05
-1.391646635441157e-05   1.1178549587778424e-06   2.8552379972855474e-05
-1.391646635441157e-05   1.1178549587778424e-06   2.8552379972855474e-05
-1.391646635441157e-05   1.1178549587778424e-06   2.8552379972855474e-05
-1.4022335828881043e-05   1.8379781759579605e-06   2.8580667488732202e-05
-1.4022335828881043e-05   1.8379781759579605e-06   2.8580667488732202e-05
-1.4022335828881043e-05   1.8379781759579605e-06   2.8580667488732202e-05
-1.4022335828881043e-05   1.8379781759579605e-06   2.8580667488732202e-05
-1.413166850143264e-05   5.381272395805397e-07   2.954279917147796e-05
-1.413166850143264e-05   5.381272395805397e-07   2.954279917147796e-05
-1.413166850143264e-05   5.381272395805397e-07   2.954279917147796e-05
-1.413166850143264e-05   5.381272395805397e-07   2.954279917147796e-05
-1.3919108892007373e-05   1.3617889427124455e-06   2.8694336133890043e-05
-1.3919108892007373e-05   1.3617889427124455e-06   2.8694336133890043e-05
-1.3919108892007373e-05   1.3617889427124455e-06   2.8694336133890043e-05
-1.3919108892007373e-05   1.3617889427124455e-06   2.8694336133890043e-05
-1.4131668501432634e-05   1.8379781759579605e-06   2.9360578050558134e-05
-1.4131668501432634e-05   1.8379781759579605e-06   2.9360578050558134e-05
-1.4131668501432634e-05   1.8379781759579605e-06   2.9360578050558134e-05
-1.4131668501432634e-05   1.8379781759579605e-06   2.9360578050558134e-05
-1.4022335828881016e-05   5.381272395805397e-07   2.8762888609651458e-05
-1.4022335828881016e-05   5.381272395805397e-07   2.8762888609651458e-05
-1.4022335828881016e-05   5.381272395805397e-07   2.8762888609651458e-05
-1.4022335828881016e-05   5.381272395805397e-07   2.8762888609651458e-05
-1.4153969695424203e-05   1.0763243460628399e-06   2.898019269206441e-05
-1.4153969695424203e-05   1.0763243460628399e-06   2.898019269206441e-05
-1.4153969695424203e-05   1.0763243460628399e-06   2.898019269206441e-05
-1.4153969695424203e-05   1.0763243460628399e-06   2.898019269206441e-05
-1.4586199035230225e-05   -1.3605664863790192e-07   3.0428003521894826e-05
-1.4586199035230225e-05   -1.3605664863790192e-07   3.0428003521894826e-05
-1.4586199035230225e-05   -1.3605664863790192e-07   3.0428003521894826e-05
-1.4586199035230225e-05   -1.3605664863790192e-07   3.0428003521894826e-05
-1.4049347727983632e-05   8.805207665845641e-07   2.8923304894016698e-05
-1.4049347727983632e-05   8.805207665845641e-07   2.8923304894016698e-05
-1.4049347727983632e-05   8.805207665845641e-07   2.8923304894016698e-05
-1.4049347727983632e-05   8.805207665845641e-07   2.8923304894016698e-05
-1.4586199035230225e-05   1.0763243460628399e-06   2.9707621288884507e-05
-1.4586199035230225e-05   1.0763243460628399e-06   2.9707621288884507e-05
-1.4586199035230225e-05   1.0763243460628399e-06   2.9707621288884507e-05
-1.4586199035230225e-05   1.0763243460628399e-06   2.9707621288884507e-05
-1.4153969695424149e-05   -1.3605664863801034e-07   2.97005749250742e-05
-1.4153969695424149e-05   -1.3605664863801034e-07   2.97005749250742e-05
-1.4153969695424149e-05   -1.3605664863801034e-07   2.97005749250742e-05
-1.4153969695424149e-05   -1.3605664863801034e-07   2.97005749250742e-05
-1.4248399013615839e-05   2.500794492009406e-07   2.9821406642165224e-05
-1.4248399013615839e-05   2.500794492009406e-07   2.9821406642165224e-05
-1.4248399013615839e-05   2.500794492009406e-07   2.9821406642165224e-05
-1.4248399013615839e-05   2.500794492009406e-07   2.9821406642165224e-05
-1.487390919652983e-05   -1.0231896799771899e-06   3.1627885091195146e-05
-1.487390919652983e-05   -1.0231896799771899e-06   3.1627885091195146e-05
-1.487390919652983e-05   -1.0231896799771899e-06   3.1627885091195146e-05
-1.487390919652983e-05   -1.0231896799771899e-06   3.1627885091195146e-05
-1.425737266292359e-05   3.137831323103517e-07   2.9798140514478106e-05
-1.425737266292359e-05   3.137831323103517e-07   2.9798140514478106e-05
-1.425737266292359e-05   3.137831323103517e-07   2.9798140514478106e-05
-1.425737266292359e-05   3.137831323103517e-07   2.9798140514478106e-05
-1.3916466354411624e-05   3.185512664852794e-06   3.276995626477937e-05
-1.3916466354411624e-05   3.185512664852794e-06   3.276995626477937e-05
-1.3916466354411624e-05   3.185512664852794e-06   3.276995626477937e-05
-1.3916466354411624e-05   3.185512664852794e-06   3.276995626477937e-05
-1.4944063805174114e-05   3.0986951860586653e-07   2.933190795909377e-05
-1.4944063805174114e-05   3.0986951860586653e-07   2.933190795909377e-05
-1.4944063805174114e-05   3.0986951860586653e-07   2.933190795909377e-05
-1.4944063805174114e-05   3.0986951860586653e-07   2.933190795909377e-05
-1.4977233485949652e-05   2.42109974429275e-06   3.1093095872003745e-05
-1.4977233485949652e-05   2.42109974429275e-06   3.1093095872003745e-05
-1.4977233485949652e-05   2.42109974429275e-06   3.1093095872003745e-05
-1.4977233485949652e-05   2.42109974429275e-06   3.1093095872003745e-05
-1.4022335828881016e-05   -1.810362673364957e-07   3.106288138386698e-05
-1.4022335828881016e-05   -1.810362673364957e-07   3.106288138386698e-05
-1.4022335828881016e-05   -1.810362673364957e-07   3.106288138386698e-05
-1.4022335828881016e-05   -1.810362673364957e-07   3.106288138386698e-05
-1.4439717611044062e-05   1.3861105741025306e-06   3.081822958260862e-05
-1.4439717611044062e-05   1.3861105741025306e-06   3.081822958260862e-05
-1.4439717611044062e-05   1.3861105741025306e-06   3.081822958260862e-05
-1.4439717611044062e-05   1.3861105741025306e-06   3.081822958260862e-05
-1.4022335828881043e-05   2.42109974429275e-06   3.265437747898114e-05
-1.4022335828881043e-05   2.42109974429275e-06   3.265437747898114e-05
-1.4022335828881043e-05   2.42109974429275e-06   3.265437747898114e-05
-1.4022335828881043e-05   2.42109974429275e-06   3.265437747898114e-05
-1.4977233485949652e-05   -1.810362673364957e-07   2.9501599776889315e-05
-1.4977233485949652e-05   -1.810362673364957e-07   2.9501599776889315e-05
-1.4977233485949652e-05   -1.810362673364957e-07   2.9501599776889315e-05
-1.4977233485949652e-05   -1.810362673364957e-07   2.9501599776889315e-05
-1.5040299140325214e-05   1.6441063633619926e-06   3.158439616279731e-05
-1.5040299140325214e-05   1.6441063633619926e-06   3.158439616279731e-05
-1.5040299140325214e-05   1.6441063633619926e-06   3.158439616279731e-05
-1.5040299140325214e-05   1.6441063633619926e-06   3.158439616279731e-05
-1.4153969695424176e-05   -7.689717411456156e-07   3.155502728399977e-05
-1.4153969695424176e-05   -7.689717411456156e-07   3.155502728399977e-05
-1.4153969695424176e-05   -7.689717411456156e-07   3.155502728399977e-05
-1.4153969695424176e-05   -7.689717411456156e-07   3.155502728399977e-05
-1.444434401120197e-05   8.993589753363875e-07   3.103798604707264e-05
-1.444434401120197e-05   8.993589753363875e-07   3.103798604707264e-05
-1.444434401120197e-05   8.993589753363875e-07   3.103798604707264e-05
-1.444434401120197e-05   8.993589753363875e-07   3.103798604707264e-05
-1.4153969695424203e-05   1.6441063633619926e-06   3.303224302550142e-05
-1.4153969695424203e-05   1.6441063633619926e-06   3.303224302550142e-05
-1.4153969695424203e-05   1.6441063633619926e-06   3.303224302550142e-05
-1.4153969695424203e-05   1.6441063633619926e-06   3.303224302550142e-05
-1.504029914032516e-05   -7.689717411456156e-07   3.0107180421295283e-05
-1.504029914032516e-05   -7.689717411456156e-07   3.0107180421295283e-05
-1.504029914032516e-05   -7.689717411456156e-07   3.0107180421295283e-05
-1.504029914032516e-05   -7.689717411456156e-07   3.0107180421295283e-05
-1.5079270093367088e-05   9.071140805736247e-07   3.245945648460368e-05
-1.5079270093367088e-05   9.071140805736247e-07   3.245945648460368e-05
-1.5079270093367088e-05   9.071140805736247e-07   3.245945648460368e-05
-1.5079270093367088e-05   9.071140805736247e-07   3.245945648460368e-05
-1.4248399013615839e-05   -1.3601069855670531e-06   3.243500399136896e-05
-1.4248399013615839e-05   -1.3601069855670531e-06   3.243500399136896e-05
-1.4248399013615839e-05   -1.3601069855670531e-06   3.243500399136896e-05
-1.4248399013615839e-05   -1.3601069855670531e-06   3.243500399136896e-05
-1.4472793888290576e-05   3.9877142092668155e-07   3.175366840526303e-05
-1.4472793888290576e-05   3.9877142092668155e-07   3.175366840526303e-05
-1.4472793888290576e-05   3.9877142092668155e-07   3.175366840526303e-05
-1.4472793888290576e-05   3.9877142092668155e-07   3.175366840526303e-05
-1.4944063805174114e-05   4.302137243369312e-06   2.667965314457981e-05
-1.4944063805174114e-05   4.302137243369312e-06   2.667965314457981e-05
-1.4944063805174114e-05   4.302137243369312e-06   2.667965314457981e-05
-1.4944063805174114e-05   4.302137243369312e-06   2.667965314457981e-05
-1.644756311844418e-05   1.410661834436622e-06   2.2438935710437143e-05
-1.644756311844418e-05   1.410661834436622e-06   2.2438935710437143e-05
-1.644756311844418e-05   1.410661834436622e-06   2.2438935710437143e-05
-1.644756311844418e-05   1.410661834436622e-06   2.2438935710437143e-05
-1.6470983977023433e-05   3.4978120809247334e-06   2.5193405241470766e-05
-1.6470983977023433e-05   3.4978120809247334e-06   2.5193405241470766e-05
-1.6470983977023433e-05   3.4978120809247334e-06   2.5193405241470766e-05
-1.6470983977023433e-05   3.4978120809247334e-06   2.5193405241470766e-05
-1.4977233485949652e-05   7.643176233825596e-07   2.434391776420645e-05
-1.4977233485949652e-05   7.643176233825596e-07   2.434391776420645e-05
-1.4977233485949652e-05   7.643176233825596e-07   2.434391776420645e-05
-1.4977233485949652e-05   7.643176233825596e-07   2.434391776420645e-05
-1.5668794599029058e-05   2.5538533760291037e-06   2.4422798167750824e-05
-1.5668794599029058e-05   2.5538533760291037e-06   2.4422798167750824e-05
-1.5668794599029058e-05   2.5538533760291037e-06   2.4422798167750824e-05
-1.5668794599029058e-05   2.5538533760291037e-06   2.4422798167750824e-05
-1.4977233485949652e-05   3.4978120809247334e-06   2.683350191599594e-05
-1.4977233485949652e-05   3.4978120809247334e-06   2.683350191599594e-05
-1.4977233485949652e-05   3.4978120809247334e-06   2.683350191599594e-05
-1.4977233485949652e-05   3.4978120809247334e-06   2.683350191599594e-05
-1.6470983977023433e-05   7.643176233825596e-07   2.270382108968106e-05
-1.6470983977023433e-05   7.643176233825596e-07   2.270382108968106e-05
-1.6470983977023433e-05   7.643176233825596e-07   2.270382108968106e-05
-1.6470983977023433e-05   7.643176233825596e-07   2.270382108968106e-05
-1.6646671938214098e-05   2.7826828032477546e-06   2.6129021636041652e-05
-1.6646671938214098e-05   2.7826828032477546e-06   2.6129021636041652e-05
-1.6646671938214098e-05   2.7826828032477546e-06   2.6129021636041652e-05
-1.6646671938214098e-05   2.7826828032477546e-06   2.6129021636041652e-05
-1.504029914032516e-05   2.1110435540134306e-07   2.4994680708267827e-05
-1.504029914032516e-05   2.1110435540134306e-07   2.4994680708267827e-05
-1.504029914032516e-05   2.1110435540134306e-07   2.4994680708267827e-05
-1.504029914032516e-05   2.1110435540134306e-07   2.4994680708267827e-05
-1.5620829289292743e-05   2.022282145486623e-06   2.487552428249453e-05
-1.5620829289292743e-05   2.022282145486623e-06   2.487552428249453e-05
-1.5620829289292743e-05   2.022282145486623e-06   2.487552428249453e-05
-1.5620829289292743e-05   2.022282145486623e-06   2.487552428249453e-05
-1.5040299140325214e-05   2.7826828032477546e-06   2.767196870474885e-05
-1.5040299140325214e-05   2.7826828032477546e-06   2.767196870474885e-05
-1.5040299140325214e-05   2.7826828032477546e-06   2.767196870474885e-05
-1.5040299140325214e-05   2.7826828032477546e-06   2.767196870474885e-05
-1.6646671938214098e-05   2.1110435540134306e-07   2.345173363956009e-05
-1.6646671938214098e-05   2.1110435540134306e-07   2.345173363956009e-05
-1.6646671938214098e-05   2.1110435540134306e-07   2.345173363956009e-05
-1.6646671938214098e-05   2.1110435540134306e-07   2.345173363956009e-05
-1.675042772098374e-05   2.0546317790041436e-06   2.7292410677952957e-05
-1.675042772098374e-05   2.0546317790041436e-06   2.7292410677952957e-05
-1.675042772098374e-05   2.0546317790041436e-06   2.7292410677952957e-05
-1.675042772098374e-05   2.0546317790041436e-06   2.7292410677952957e-05
-1.5079270093367033e-05   -3.4641347974146645e-07   2.5947775120505664e-05
-1.5079270093367033e-05   -3.4641347974146645e-07   2.5947775120505664e-05
-1.5079270093367033e-05   -3.4641347974146645e-07   2.5947775120505664e-05
-1.5079270093367033e-05   -3.4641347974146645e-07   2.5947775120505664e-05
-1.569573478255585e-05   1.5478349129657669e-06   2.583866723352877e-05
-1.569573478255585e-05   1.5478349129657669e-06   2.583866723352877e-05
-1.569573478255585e-05   1.5478349129657669e-06   2.583866723352877e-05
-1.569573478255585e-05   1.5478349129657669e-06   2.583866723352877e-05
-1.6447563118444127e-05   5.075270102506335e-06   1.0235160225793936e-05
-1.6447563118444127e-05   5.075270102506335e-06   1.0235160225793936e-05
-1.6447563118444127e-05   5.075270102506335e-06   1.0235160225793936e-05
-1.6447563118444127e-05   5.075270102506335e-06   1.0235160225793936e-05
-1.6193667207194075e-05   2.3190958698546737e-06   9.004615538286205e-06
-1.6193667207194075e-05   2.3190958698546737e-06   9.004615538286205e-06
-1.6193667207194075e-05   2.3190958698546737e-06   9.004615538286205e-06
-1.6193667207194075e-05   2.3190958698546737e-06   9.004615538286205e-06
-1.702613061165079e-05   4.53993503302802e-06   1.1211419044364216e-05
-1.702613061165079e-05   4.53993503302802e-06   1.1211419044364216e-05
-1.702613061165079e-05   4.53993503302802e-06   1.1211419044364216e-05
-1.702613061165079e-05   4.53993503302802e-06   1.1211419044364216e-05
-1.647098397702338e-05   1.8624303271478748e-06   1.1892677476846541e-05
-1.647098397702338e-05   1.8624303271478748e-06   1.1892677476846541e-05
-1.647098397702338e-05   1.8624303271478748e-06   1.1892677476846541e-05
-1.647098397702338e-05   1.8624303271478748e-06   1.1892677476846541e-05
-1.5997880283023384e-05   3.5684666331754766e-06   1.0080549536563266e-05
-1.5997880283023384e-05   3.5684666331754766e-06   1.0080549536563266e-05
-1.5997880283023384e-05   3.5684666331754766e-06   1.0080549536563266e-05
-1.5997880283023384e-05   3.5684666331754766e-06   1.0080549536563266e-05
-1.6470983977023433e-05   4.53993503302802e-06   1.2817921867891739e-05
-1.6470983977023433e-05   4.53993503302802e-06   1.2817921867891739e-05
-1.6470983977023433e-05   4.53993503302802e-06   1.2817921867891739e-05
-1.6470983977023433e-05   4.53993503302802e-06   1.2817921867891739e-05
-1.702613061165079e-05   1.8624303271478748e-06   1.0286174653318693e-05
-1.702613061165079e-05   1.8624303271478748e-06   1.0286174653318693e-05
-1.702613061165079e-05   1.8624303271478748e-06   1.0286174653318693e-05
-1.702613061165079e-05   1.8624303271478748e-06   1.0286174653318693e-05
-1.7757489858215595e-05   4.17271472564801e-06   1.3299007541877966e-05
-1.7757489858215595e-05   4.17271472564801e-06   1.3299007541877966e-05
-1.7757489858215595e-05   4.17271472564801e-06   1.3299007541877966e-05
-1.7757489858215595e-05   4.17271472564801e-06   1.3299007541877966e-05
-1.6646671938214098e-05   1.5636387179240353e-06   1.3013089946509854e-05
-1.6646671938214098e-05   1.5636387179240353e-06   1.3013089946509854e-05
-1.6646671938214098e-05   1.5636387179240353e-06   1.3013089946509854e-05
-1.6646671938214098e-05   1.5636387179240353e-06   1.3013089946509854e-05
-1.658983902961522e-05   3.3005688076478187e-06   1.1876210378343726e-05
-1.658983902961522e-05   3.3005688076478187e-06   1.1876210378343726e-05
-1.658983902961522e-05   3.3005688076478187e-06   1.1876210378343726e-05
-1.658983902961522e-05   3.3005688076478187e-06   1.1876210378343726e-05
-1.6646671938214043e-05   4.17271472564801e-06   1.4864453146512134e-05
-1.6646671938214043e-05   4.17271472564801e-06   1.4864453146512134e-05
-1.6646671938214043e-05   4.17271472564801e-06   1.4864453146512134e-05
-1.6646671938214043e-05   4.17271472564801e-06   1.4864453146512134e-05
-1.7757489858215595e-05   1.5636387179240353e-06   1.1447644341875361e-05
-1.7757489858215595e-05   1.5636387179240353e-06   1.1447644341875361e-05
-1.7757489858215595e-05   1.5636387179240353e-06   1.1447644341875361e-05
-1.7757489858215595e-05   1.5636387179240353e-06   1.1447644341875361e-05
-1.8847971721843403e-05   3.331604905669038e-06   1.7134535161854748e-05
-1.8847971721843403e-05   3.331604905669038e-06   1.7134535161854748e-05
-1.8847971721843403e-05   3.331604905669038e-06   1.7134535161854748e-05
-1.8847971721843403e-05   3.331604905669038e-06   1.7134535161854748e-05
-1.6750427720983686e-05   9.648759293588846e-07   1.505866587954137e-05
-1.6750427720983686e-05   9.648759293588846e-07   1.505866587954137e-05
-1.6750427720983686e-05   9.648759293588846e-07   1.505866587954137e-05
-1.6750427720983686e-05   9.648759293588846e-07   1.505866587954137e-05
-1.6789674074165265e-05   2.9837621732663622e-06   1.3912744721831117e-05
-1.6789674074165265e-05   2.9837621732663622e-06   1.3912744721831117e-05
-1.6789674074165265e-05   2.9837621732663622e-06   1.3912744721831117e-05
-1.6789674074165265e-05   2.9837621732663622e-06   1.3912744721831117e-05
-3.264625115345457e-05   4.32181438274142e-06   1.2415059827766109e-05
-3.264625115345457e-05   4.32181438274142e-06   1.2415059827766109e-05
-3.264625115345457e-05   4.32181438274142e-06   1.2415059827766109e-05
-3.264625115345457e-05   4.32181438274142e-06   1.2415059827766109e-05
-2.1995590451018023e-05   5.989796916998835e-06   3.116695051904824e-05
-2.1995590451018023e-05   5.989796916998835e-06   3.116695051904824e-05
-2.1995590451018023e-05   5.989796916998835e-06   3.116695051904824e-05
-2.1995590451018023e-05   5.989796916998835e-06   3.116695051904824e-05
-2.198194822898986e-05   3.3796407620971048e-06   1.4145137542177647e-05
-2.198194822898986e-05   3.3796407620971048e-06   1.4145137542177647e-05
-2.198194822898986e-05   3.3796407620971048e-06   1.4145137542177647e-05
-2.198194822898986e-05   3.3796407620971048e-06   1.4145137542177647e-05
-3.593487686732831e-05   2.4493135095165954e-06   3.7958214957623565e-05
-3.593487686732831e-05   2.4493135095165954e-06   3.7958214957623565e-05
-3.593487686732831e-05   2.4493135095165954e-06   3.7958214957623565e-05
-3.593487686732831e-05   2.4493135095165954e-06   3.7958214957623565e-05
-2.6688526439830855e-05   3.5547555250085633e-06   2.188436570249927e-05
-2.6688526439830855e-05   3.5547555250085633e-06   2.188436570249927e-05
-2.6688526439830855e-05   3.5547555250085633e-06   2.188436570249927e-05
-2.6688526439830855e-05   3.5547555250085633e-06   2.188436570249927e-05
-3.5934876867328366e-05   3.3796407620971048e-06   1.4703333893725844e-05
-3.5934876867328366e-05   3.3796407620971048e-06   1.4703333893725844e-05
-3.5934876867328366e-05   3.3796407620971048e-06   1.4703333893725844e-05
-3.5934876867328366e-05   3.3796407620971048e-06   1.4703333893725844e-05
-2.198194822898986e-05   2.4493135095165954e-06   3.740001860607533e-05
-2.198194822898986e-05   2.4493135095165954e-06   3.740001860607533e-05
-2.198194822898986e-05   2.4493135095165954e-06   3.740001860607533e-05
-2.198194822898986e-05   2.4493135095165954e-06   3.740001860607533e-05
-2.227386658521397e-05   2.7270772210877085e-06   1.584179095704243e-05
-2.227386658521397e-05   2.7270772210877085e-06   1.584179095704243e-05
-2.227386658521397e-05   2.7270772210877085e-06   1.584179095704243e-05
-2.227386658521397e-05   2.7270772210877085e-06   1.584179095704243e-05
-3.605414537358058e-05   1.7656735328051387e-06   3.938576448395634e-05
-3.605414537358058e-05   1.7656735328051387e-06   3.938576448395634e-05
-3.605414537358058e-05   1.7656735328051387e-06   3.938576448395634e-05
-3.605414537358058e-05   1.7656735328051387e-06   3.938576448395634e-05
-2.846613862427459e-05   2.229203483253869e-06   2.6460968598176675e-05
-2.846613862427459e-05   2.229203483253869e-06   2.6460968598176675e-05
-2.846613862427459e-05   2.229203483253869e-06   2.6460968598176675e-05
-2.846613862427459e-05   2.229203483253869e-06   2.6460968598176675e-05
-3.605414537358065e-05   2.7270772210877085e-06   1.6418633170012004e-05
-3.605414537358065e-05   2.7270772210877085e-06   1.6418633170012004e-05
-3.605414537358065e-05   2.7270772210877085e-06   1.6418633170012004e-05
-3.605414537358065e-05   2.7270772210877085e-06   1.6418633170012004e-05
-2.227386658521393e-05   1.7656735328051387e-06   3.880892227098678e-05
-2.227386658521393e-05   1.7656735328051387e-06   3.880892227098678e-05
-2.227386658521393e-05   1.7656735328051387e-06   3.880892227098678e-05
-2.227386658521393e-05   1.7656735328051387e-06   3.880892227098678e-05
-2.2028272134587705e-05   1.1213511860925542e-06   1.8810941533184877e-05
-2.2028272134587705e-05   1.1213511860925542e-06   1.8810941533184877e-05
-2.2028272134587705e-05   1.1213511860925542e-06   1.8810941533184877e-05
-2.2028272134587705e-05   1.1213511860925542e-06   1.8810941533184877e-05
-3.643192328683616e-05   -1.1368060341712086e-06   4.417192111909027e-05
-3.643192328683616e-05   -1.1368060341712086e-06   4.417192111909027e-05
-3.643192328683616e-05   -1.1368060341712086e-06   4.417192111909027e-05
-3.643192328683616e-05   -1.1368060341712086e-06   4.417192111909027e-05
-2.802361113259101e-05   1.0911444465308475e-06   2.8821297240260482e-05
-2.802361113259101e-05   1.0911444465308475e-06   2.8821297240260482e-05
-2.802361113259101e-05   1.0911444465308475e-06   2.8821297240260482e-05
-2.802361113259101e-05   1.0911444465308475e-06   2.8821297240260482e-05
-2.1995590451018057e-05   1.1178549587779509e-06   2.8632004350317096e-05
-2.1995590451018057e-05   1.1178549587779509e-06   2.8632004350317096e-05
-2.1995590451018057e-05   1.1178549587779509e-06   2.8632004350317096e-05
-2.1995590451018057e-05   1.1178549587779509e-06   2.8632004350317096e-05
-1.3474945707660186e-05   -6.6904394994012875e-06   3.814810224767273e-05
-1.3474945707660186e-05   -6.6904394994012875e-06   3.814810224767273e-05
-1.3474945707660186e-05   -6.6904394994012875e-06   3.814810224767273e-05
-1.3474945707660186e-05   -6.6904394994012875e-06   3.814810224767273e-05
-1.3497242287682711e-05   5.381272395805397e-07   2.4019649041553048e-05
-1.3497242287682711e-05   5.381272395805397e-07   2.4019649041553048e-05
-1.3497242287682711e-05   5.381272395805397e-07   2.4019649041553048e-05
-1.3497242287682711e-05   5.381272395805397e-07   2.4019649041553048e-05
-2.198194822898986e-05   -5.472307956584351e-06   4.1767086728097504e-05
-2.198194822898986e-05   -5.472307956584351e-06   4.1767086728097504e-05
-2.198194822898986e-05   -5.472307956584351e-06   4.1767086728097504e-05
-2.198194822898986e-05   -5.472307956584351e-06   4.1767086728097504e-05
-1.7641457833435615e-05   -3.3071898134426608e-06   3.323386518295544e-05
-1.7641457833435615e-05   -3.3071898134426608e-06   3.323386518295544e-05
-1.7641457833435615e-05   -3.3071898134426608e-06   3.323386518295544e-05
-1.7641457833435615e-05   -3.3071898134426608e-06   3.323386518295544e-05
-2.1981948228989867e-05   5.381272395805397e-07   2.7625910159251765e-05
-2.1981948228989867e-05   5.381272395805397e-07   2.7625910159251765e-05
-2.1981948228989867e-05   5.381272395805397e-07   2.7625910159251765e-05
-2.1981948228989867e-05   5.381272395805397e-07   2.7625910159251765e-05
-1.3497242287682684e-05   -5.472307956584351e-06   3.816082561039857e-05
-1.3497242287682684e-05   -5.472307956584351e-06   3.816082561039857e-05
-1.3497242287682684e-05   -5.472307956584351e-06   3.816082561039857e-05
-1.3497242287682684e-05   -5.472307956584351e-06   3.816082561039857e-05
-1.3543161079363798e-05   -1.3605664863790192e-07   2.4767436674651708e-05
-1.3543161079363798e-05   -1.3605664863790192e-07   2.4767436674651708e-05
-1.3543161079363798e-05   -1.3605664863790192e-07   2.4767436674651708e-05
-1.3543161079363798e-05   -1.3605664863790192e-07   2.4767436674651708e-05
-2.227386658521393e-05   -5.598415937053838e-06   4.2596028090784686e-05
-2.227386658521393e-05   -5.598415937053838e-06   4.2596028090784686e-05
-2.227386658521393e-05   -5.598415937053838e-06   4.2596028090784686e-05
-2.227386658521393e-05   -5.598415937053838e-06   4.2596028090784686e-05
-1.7507634950104844e-05   -2.8891362307849593e-06   3.3026740875174597e-05
-1.7507634950104844e-05   -2.8891362307849593e-06   3.3026740875174597e-05
-1.7507634950104844e-05   -2.8891362307849593e-06   3.3026740875174597e-05
-1.7507634950104844e-05   -2.8891362307849593e-06   3.3026740875174597e-05
-2.227386658521397e-05   -1.3605664863790192e-07   2.8044852247701194e-05
-2.227386658521397e-05   -1.3605664863790192e-07   2.8044852247701194e-05
-2.227386658521397e-05   -1.3605664863790192e-07   2.8044852247701194e-05
-2.227386658521397e-05   -1.3605664863790192e-07   2.8044852247701194e-05
-1.3543161079363771e-05   -5.598415937053838e-06   3.931861251773509e-05
-1.3543161079363771e-05   -5.598415937053838e-06   3.931861251773509e-05
-1.3543161079363771e-05   -5.598415937053838e-06   3.931861251773509e-05
-1.3543161079363771e-05   -5.598415937053838e-06   3.931861251773509e-05
-1.3402447674808145e-05   -1.0231896799771899e-06   2.5698232824277216e-05
-1.3402447674808145e-05   -1.0231896799771899e-06   2.5698232824277216e-05
-1.3402447674808145e-05   -1.0231896799771899e-06   2.5698232824277216e-05
-1.3402447674808145e-05   -1.0231896799771899e-06   2.5698232824277216e-05
-2.202827213458765e-05   -5.654857243478253e-06   4.2853607462010196e-05
-2.202827213458765e-05   -5.654857243478253e-06   4.2853607462010196e-05
-2.202827213458765e-05   -5.654857243478253e-06   4.2853607462010196e-05
-2.202827213458765e-05   -5.654857243478253e-06   4.2853607462010196e-05
-1.7581590346957604e-05   -3.2478248589761036e-06   3.399825171859219e-05
-1.7581590346957604e-05   -3.2478248589761036e-06   3.399825171859219e-05
-1.7581590346957604e-05   -3.2478248589761036e-06   3.399825171859219e-05
-1.7581590346957604e-05   -3.2478248589761036e-06   3.399825171859219e-05
-1.3474945707660186e-05   3.0986951860586653e-07   2.6451941549395994e-05
-1.3474945707660186e-05   3.0986951860586653e-07   2.6451941549395994e-05
-1.3474945707660186e-05   3.0986951860586653e-07   2.6451941549395994e-05
-1.3474945707660186e-05   3.0986951860586653e-07   2.6451941549395994e-05
-9.891684684522827e-06   -5.225882392797588e-06   2.9102592107782977e-05
-9.891684684522827e-06   -5.225882392797588e-06   2.9102592107782977e-05
-9.891684684522827e-06   -5.225882392797588e-06   2.9102592107782977e-05
-9.891684684522827e-06   -5.225882392797588e-06   2.9102592107782977e-05
-9.797918017645762e-06   -1.810362673364957e-07   2.3348824403410305e-05
-9.797918017645762e-06   -1.810362673364957e-07   2.3348824403410305e-05
-9.797918017645762e-06   -1.810362673364957e-07   2.3348824403410305e-05
-9.797918017645762e-06   -1.810362673364957e-07   2.3348824403410305e-05
-1.3497242287682684e-05   -5.132398621266723e-06   3.248518226583015e-05
-1.3497242287682684e-05   -5.132398621266723e-06   3.248518226583015e-05
-1.3497242287682684e-05   -5.132398621266723e-06   3.248518226583015e-05
-1.3497242287682684e-05   -5.132398621266723e-06   3.248518226583015e-05
-1.1592949656669471e-05   -2.642298234862661e-06   2.7817300982299327e-05
-1.1592949656669471e-05   -2.642298234862661e-06   2.7817300982299327e-05
-1.1592949656669471e-05   -2.642298234862661e-06   2.7817300982299327e-05
-1.1592949656669471e-05   -2.642298234862661e-06   2.7817300982299327e-05
-1.3497242287682684e-05   -1.810362673364957e-07   2.6319641815768517e-05
-1.3497242287682684e-05   -1.810362673364957e-07   2.6319641815768517e-05
-1.3497242287682684e-05   -1.810362673364957e-07   2.6319641815768517e-05
-1.3497242287682684e-05   -1.810362673364957e-07   2.6319641815768517e-05
-9.797918017645762e-06   -5.132398621266723e-06   2.951436485347205e-05
-9.797918017645762e-06   -5.132398621266723e-06   2.951436485347205e-05
-9.797918017645762e-06   -5.132398621266723e-06   2.951436485347205e-05
-9.797918017645762e-06   -5.132398621266723e-06   2.951436485347205e-05
-9.715671579178537e-06   -7.689717411456156e-07   2.3909111292192927e-05
-9.715671579178537e-06   -7.689717411456156e-07   2.3909111292192927e-05
-9.715671579178537e-06   -7.689717411456156e-07   2.3909111292192927e-05
-9.715671579178537e-06   -7.689717411456156e-07   2.3909111292192927e-05
-1.3543161079363771e-05   -5.29026797678624e-06   3.300103820055248e-05
-1.3543161079363771e-05   -5.29026797678624e-06   3.300103820055248e-05
-1.3543161079363771e-05   -5.29026797678624e-06   3.300103820055248e-05
-1.3543161079363771e-05   -5.29026797678624e-06   3.300103820055248e-05
-1.148519935394568e-05   -2.8206060502351197e-06   2.8089304835591036e-05
-1.148519935394568e-05   -2.8206060502351197e-06   2.8089304835591036e-05
-1.148519935394568e-05   -2.8206060502351197e-06   2.8089304835591036e-05
-1.148519935394568e-05   -2.8206060502351197e-06   2.8089304835591036e-05
-1.3543161079363771e-05   -7.689717411456156e-07   2.6621889033577335e-05
-1.3543161079363771e-05   -7.689717411456156e-07   2.6621889033577335e-05
-1.3543161079363771e-05   -7.689717411456156e-07   2.6621889033577335e-05
-1.3543161079363771e-05   -7.689717411456156e-07   2.6621889033577335e-05
-9.715671579178537e-06   -5.290267976786295e-06   3.0288260459168182e-05
-9.715671579178537e-06   -5.290267976786295e-06   3.0288260459168182e-05
-9.715671579178537e-06   -5.290267976786295e-06   3.0288260459168182e-05
-9.715671579178537e-06   -5.290267976786295e-06   3.0288260459168182e-05
-9.517608234642188e-06   -1.3601069855670531e-06   2.4775896584407838e-05
-9.517608234642188e-06   -1.3601069855670531e-06   2.4775896584407838e-05
-9.517608234642188e-06   -1.3601069855670531e-06   2.4775896584407838e-05
-9.517608234642188e-06   -1.3601069855670531e-06   2.4775896584407838e-05
-1.3402447674808117e-05   -5.515801348150262e-06   3.3744045602234006e-05
-1.3402447674808117e-05   -5.515801348150262e-06   3.3744045602234006e-05
-1.3402447674808117e-05   -5.515801348150262e-06   3.3744045602234006e-05
-1.3402447674808117e-05   -5.515801348150262e-06   3.3744045602234006e-05
-1.1358829468323097e-05   -3.079408595108501e-06   2.887617960626725e-05
-1.1358829468323097e-05   -3.079408595108501e-06   2.887617960626725e-05
-1.1358829468323097e-05   -3.079408595108501e-06   2.887617960626725e-05
-1.1358829468323097e-05   -3.079408595108501e-06   2.887617960626725e-05
-9.891684684522827e-06   1.410661834436622e-06   1.7972403399256595e-05
-9.891684684522827e-06   1.410661834436622e-06   1.7972403399256595e-05
-9.891684684522827e-06   1.410661834436622e-06   1.7972403399256595e-05
-9.891684684522827e-06   1.410661834436622e-06   1.7972403399256595e-05
-8.221538818667731e-06   -2.142159469155987e-06   1.8624287060192907e-05
-8.221538818667731e-06   -2.142159469155987e-06   1.8624287060192907e-05
-8.221538818667731e-06   -2.142159469155987e-06   1.8624287060192907e-05
-8.221538818667731e-06   -2.142159469155987e-06   1.8624287060192907e-05
-8.03874823618485e-06   7.643176233825596e-07   1.622675687700816e-05
-8.03874823618485e-06   7.643176233825596e-07   1.622675687700816e-05
-8.03874823618485e-06   7.643176233825596e-07   1.622675687700816e-05
-8.03874823618485e-06   7.643176233825596e-07   1.622675687700816e-05
-9.797918017645762e-06   -2.5096582328162746e-06   2.1123092026495752e-05
-9.797918017645762e-06   -2.5096582328162746e-06   2.1123092026495752e-05
-9.797918017645762e-06   -2.5096582328162746e-06   2.1123092026495752e-05
-9.797918017645762e-06   -2.5096582328162746e-06   2.1123092026495752e-05
-8.92161275718606e-06   -4.883371039854454e-07   1.8449790581764793e-05
-8.92161275718606e-06   -4.883371039854454e-07   1.8449790581764793e-05
-8.92161275718606e-06   -4.883371039854454e-07   1.8449790581764793e-05
-8.92161275718606e-06   -4.883371039854454e-07   1.8449790581764793e-05
-9.797918017645762e-06   7.643176233825596e-07   1.819114239072733e-05
-9.797918017645762e-06   7.643176233825596e-07   1.819114239072733e-05
-9.797918017645762e-06   7.643176233825596e-07   1.819114239072733e-05
-9.797918017645762e-06   7.643176233825596e-07   1.819114239072733e-05
-8.03874823618485e-06   -2.5096582328162746e-06   1.9158706512776528e-05
-8.03874823618485e-06   -2.5096582328162746e-06   1.9158706512776528e-05
-8.03874823618485e-06   -2.5096582328162746e-06   1.9158706512776528e-05
-8.03874823618485e-06   -2.5096582328162746e-06   1.9158706512776528e-05
-7.952821996987168e-06   2.1110435540145148e-07   1.699566287204795e-05
-7.952821996987168e-06   2.1110435540145148e-07   1.699566287204795e-05
-7.952821996987168e-06   2.1110435540145148e-07   1.699566287204795e-05
-7.952821996987168e-06   2.1110435540145148e-07   1.699566287204795e-05
-9.715671579178537e-06   -2.790476823127713e-06   2.1734694216150744e-05
-9.715671579178537e-06   -2.790476823127713e-06   2.1734694216150744e-05
-9.715671579178537e-06   -2.790476823127713e-06   2.1734694216150744e-05
-9.715671579178537e-06   -2.790476823127713e-06   2.1734694216150744e-05
-8.740557737934939e-06   -8.830004689016355e-07   1.8965018668208166e-05
-8.740557737934939e-06   -8.830004689016355e-07   1.8965018668208166e-05
-8.740557737934939e-06   -8.830004689016355e-07   1.8965018668208166e-05
-8.740557737934939e-06   -8.830004689016355e-07   1.8965018668208166e-05
-9.715671579178483e-06   2.1110435540145148e-07   1.87966115791652e-05
-9.715671579178483e-06   2.1110435540145148e-07   1.87966115791652e-05
-9.715671579178483e-06   2.1110435540145148e-07   1.87966115791652e-05
-9.715671579178483e-06   2.1110435540145148e-07   1.87966115791652e-05
-7.952821996987168e-06   -2.790476823127713e-06   1.9933745509033494e-05
-7.952821996987168e-06   -2.790476823127713e-06   1.9933745509033494e-05
-7.952821996987168e-06   -2.790476823127713e-06   1.9933745509033494e-05
-7.952821996987168e-06   -2.790476823127713e-06   1.9933745509033494e-05
-7.814823329588836e-06   -3.4641347974135803e-07   1.796127418357942e-05
-7.814823329588836e-06   -3.4641347974135803e-07   1.796127418357942e-05
-7.814823329588836e-06   -3.4641347974135803e-07   1.796127418357942e-05
-7.814823329588836e-06   -3.4641347974135803e-07   1.796127418357942e-05
-9.517608234642188e-06   -3.159290429157423e-06   2.248697519498439e-05
-9.517608234642188e-06   -3.159290429157423e-06   2.248697519498439e-05
-9.517608234642188e-06   -3.159290429157423e-06   2.248697519498439e-05
-9.517608234642188e-06   -3.159290429157423e-06   2.248697519498439e-05
-8.598011221148944e-06   -1.2283141508098944e-06   1.9795727738820997e-05
-8.598011221148944e-06   -1.2283141508098944e-06   1.9795727738820997e-05
-8.598011221148944e-06   -1.2283141508098944e-06   1.9795727738820997e-05
-8.598011221148944e-06   -1.2283141508098944e-06   1.9795727738820997e-05
-8.221538818667731e-06   2.3190958698546737e-06   4.06009498454124e-06
-8.221538818667731e-06   2.3190958698546737e-06   4.06009498454124e-06
-8.221538818667731e-06   2.3190958698546737e-06   4.06009498454124e-06
-8.221538818667731e-06   2.3190958698546737e-06   4.06009498454124e-06
-4.715205096841391e-06   -2.4331248663387673e-07   8.366539507025312e-06
-4.715205096841391e-06   -2.4331248663387673e-07   8.366539507025312e-06
-4.715205096841391e-06   -2.4331248663387673e-07   8.366539507025312e-06
-4.715205096841391e-06   -2.4331248663387673e-07   8.366539507025312e-06
-4.978156191255776e-06   1.8624303271478748e-06   4.095516950406277e-06
-4.978156191255776e-06   1.8624303271478748e-06   4.095516950406277e-06
-4.978156191255776e-06   1.8624303271478748e-06   4.095516950406277e-06
-4.978156191255776e-06   1.8624303271478748e-06   4.095516950406277e-06
-8.03874823618485e-06   -3.377301957977548e-07   1.051660000572221e-05
-8.03874823618485e-06   -3.377301957977548e-07   1.051660000572221e-05
-8.03874823618485e-06   -3.377301957977548e-07   1.051660000572221e-05
-8.03874823618485e-06   -3.377301957977548e-07   1.051660000572221e-05
-6.265402195876357e-06   1.1912666559296464e-06   6.643625160838648e-06
-6.265402195876357e-06   1.1912666559296464e-06   6.643625160838648e-06
-6.265402195876357e-06   1.1912666559296464e-06   6.643625160838648e-06
-6.265402195876357e-06   1.1912666559296464e-06   6.643625160838648e-06
-8.03874823618485e-06   1.8624303271478748e-06   5.415613264173318e-06
-8.03874823618485e-06   1.8624303271478748e-06   5.415613264173318e-06
-8.03874823618485e-06   1.8624303271478748e-06   5.415613264173318e-06
-8.03874823618485e-06   1.8624303271478748e-06   5.415613264173318e-06
-4.9781561912558845e-06   -3.377301957977548e-07   9.19650369195506e-06
-4.9781561912558845e-06   -3.377301957977548e-07   9.19650369195506e-06
-4.9781561912558845e-06   -3.377301957977548e-07   9.19650369195506e-06
-4.9781561912558845e-06   -3.377301957977548e-07   9.19650369195506e-06
-5.193181332948131e-06   1.5636387179240353e-06   5.33920726026346e-06
-5.193181332948131e-06   1.5636387179240353e-06   5.33920726026346e-06
-5.193181332948131e-06   1.5636387179240353e-06   5.33920726026346e-06
-5.193181332948131e-06   1.5636387179240353e-06   5.33920726026346e-06
-7.952821996987168e-06   -4.660478132996709e-07   1.1156420285729409e-05
-7.952821996987168e-06   -4.660478132996709e-07   1.1156420285729409e-05
-7.952821996987168e-06   -4.660478132996709e-07   1.1156420285729409e-05
-7.952821996987168e-06   -4.660478132996709e-07   1.1156420285729409e-05
-6.369402539249322e-06   9.644677267299593e-07   7.659078532148153e-06
-6.369402539249322e-06   9.644677267299593e-07   7.659078532148153e-06
-6.369402539249322e-06   9.644677267299593e-07   7.659078532148153e-06
-6.369402539249322e-06   9.644677267299593e-07   7.659078532148153e-06
-7.952821996987168e-06   1.5636387179240353e-06   6.5570191789979335e-06
-7.952821996987168e-06   1.5636387179240353e-06   6.5570191789979335e-06
-7.952821996987168e-06   1.5636387179240353e-06   6.5570191789979335e-06
-7.952821996987168e-06   1.5636387179240353e-06   6.5570191789979335e-06
-5.193181332948022e-06   -4.660478132996709e-07   9.938608366995153e-06
-5.193181332948022e-06   -4.660478132996709e-07   9.938608366995153e-06
-5.193181332948022e-06   -4.660478132996709e-07   9.938608366995153e-06
-5.193181332948022e-06   -4.660478132996709e-07   9.938608366995153e-06
-5.732934900232363e-06   9.648759293588846e-07   7.561830348034367e-06
-5.732934900232363e-06   9.648759293588846e-07   7.561830348034367e-06
-5.732934900232363e-06   9.648759293588846e-07   7.561830348034367e-06
-5.732934900232363e-06   9.648759293588846e-07   7.561830348034367e-06
-7.814823329588836e-06   -6.200603203544556e-07   1.198260614678967e-05
-7.814823329588836e-06   -6.200603203544556e-07   1.198260614678967e-05
-7.814823329588836e-06   -6.200603203544556e-07   1.198260614678967e-05
-7.814823329588836e-06   -6.200603203544556e-07   1.198260614678967e-05
-6.3785937331753894e-06   8.119201994095937e-07   8.729701840908704e-06
-6.3785937331753894e-06   8.119201994095937e-07   8.729701840908704e-06
-6.3785937331753894e-06   8.119201994095937e-07   8.729701840908704e-06
-6.3785937331753894e-06   8.119201994095937e-07   8.729701840908704e-06
-7.622240425449237e-05   5.989796916998889e-06   3.235896580787884e-05
-7.622240425449237e-05   5.989796916998889e-06   3.235896580787884e-05
-7.622240425449237e-05   5.989796916998889e-06   3.235896580787884e-05
-7.622240425449237e-05   5.989796916998889e-06   3.235896580787884e-05
-1.795414248436885e-05   -3.687292303256031e-05   0.0001037551034550159
-1.795414248436885e-05   -3.687292303256031e-05   0.0001037551034550159
-1.795414248436885e-05   -3.687292303256031e-05   0.0001037551034550159
-1.795414248436885e-05   -3.687292303256031e-05   0.0001037551034550159
-2.104958518988351e-05   2.4493135095165954e-06   1.7793491528753894e-05
-2.104958518988351e-05   2.4493135095165954e-06   1.7793491528753894e-05
-2.104958518988351e-05   2.4493135095165954e-06   1.7793491528753894e-05
-2.104958518988351e-05   2.4493135095165954e-06   1.7793491528753894e-05
-6.951679165300047e-05   -2.8603057977217388e-05   0.00011720359185932234
-6.951679165300047e-05   -2.8603057977217388e-05   0.00011720359185932234
-6.951679165300047e-05   -2.8603057977217388e-05   0.00011720359185932234
-6.951679165300047e-05   -2.8603057977217388e-05   0.00011720359185932234
-4.635928750284551e-05   -1.4242526739741943e-05   6.999143286657886e-05
-4.635928750284551e-05   -1.4242526739741943e-05   6.999143286657886e-05
-4.635928750284551e-05   -1.4242526739741943e-05   6.999143286657886e-05
-4.635928750284551e-05   -1.4242526739741943e-05   6.999143286657886e-05
-6.951679165300035e-05   2.4493135095165954e-06   3.642491442079423e-05
-6.951679165300035e-05   2.4493135095165954e-06   3.642491442079423e-05
-6.951679165300035e-05   2.4493135095165954e-06   3.642491442079423e-05
-6.951679165300035e-05   2.4493135095165954e-06   3.642491442079423e-05
-2.104958518988355e-05   -2.8603057977217388e-05   9.857216896728198e-05
-2.104958518988355e-05   -2.8603057977217388e-05   9.857216896728198e-05
-2.104958518988355e-05   -2.8603057977217388e-05   9.857216896728198e-05
-2.104958518988355e-05   -2.8603057977217388e-05   9.857216896728198e-05
-2.1513564833416864e-05   1.7656735328051387e-06   1.955079241869269e-05
-2.1513564833416864e-05   1.7656735328051387e-06   1.955079241869269e-05
-2.1513564833416864e-05   1.7656735328051387e-06   1.955079241869269e-05
-2.1513564833416864e-05   1.7656735328051387e-06   1.955079241869269e-05
-6.558837394789207e-05   -2.4610656216500996e-05   0.00010883460545906823
-6.558837394789207e-05   -2.4610656216500996e-05   0.00010883460545906823
-6.558837394789207e-05   -2.4610656216500996e-05   0.00010883460545906823
-6.558837394789207e-05   -2.4610656216500996e-05   0.00010883460545906823
-4.4963270066197924e-05   -1.3487353083397875e-05   6.778545044304951e-05
-4.4963270066197924e-05   -1.3487353083397875e-05   6.778545044304951e-05
-4.4963270066197924e-05   -1.3487353083397875e-05   6.778545044304951e-05
-4.4963270066197924e-05   -1.3487353083397875e-05   6.778545044304951e-05
-6.558837394789196e-05   1.7656735328051387e-06   3.537659026827636e-05
-6.558837394789196e-05   1.7656735328051387e-06   3.537659026827636e-05
-6.558837394789196e-05   1.7656735328051387e-06   3.537659026827636e-05
-6.558837394789196e-05   1.7656735328051387e-06   3.537659026827636e-05
-2.1513564833416904e-05   -2.4610656216500996e-05   9.300880760948458e-05
-2.1513564833416904e-05   -2.4610656216500996e-05   9.300880760948458e-05
-2.1513564833416904e-05   -2.4610656216500996e-05   9.300880760948458e-05
-2.1513564833416904e-05   -2.4610656216500996e-05   9.300880760948458e-05
-2.3541244147797503e-05   -1.1368060341711544e-06   2.449336104611618e-05
-2.3541244147797503e-05   -1.1368060341711544e-06   2.449336104611618e-05
-2.3541244147797503e-05   -1.1368060341711544e-06   2.449336104611618e-05
-2.3541244147797503e-05   -1.1368060341711544e-06   2.449336104611618e-05
-6.055678871942468e-05   -1.9313597777295948e-05   9.709201037803614e-05
-6.055678871942468e-05   -1.9313597777295948e-05   9.709201037803614e-05
-6.055678871942468e-05   -1.9313597777295948e-05   9.709201037803614e-05
-6.055678871942468e-05   -1.9313597777295948e-05   9.709201037803614e-05
-4.3235525244410643e-05   -1.2447378945355629e-05   6.410350662051531e-05
-4.3235525244410643e-05   -1.2447378945355629e-05   6.410350662051531e-05
-4.3235525244410643e-05   -1.2447378945355629e-05   6.410350662051531e-05
-4.3235525244410643e-05   -1.2447378945355629e-05   6.410350662051531e-05
-1.7954142484368825e-05   -6.6904394994012875e-06   1.8307462241675288e-05
-1.7954142484368825e-05   -6.6904394994012875e-06   1.8307462241675288e-05
-1.7954142484368825e-05   -6.6904394994012875e-06   1.8307462241675288e-05
-1.7954142484368825e-05   -6.6904394994012875e-06   1.8307462241675288e-05
-6.264428852319887e-06   -1.1327389614069802e-05   3.500814822628918e-05
-6.264428852319887e-06   -1.1327389614069802e-05   3.500814822628918e-05
-6.264428852319887e-06   -1.1327389614069802e-05   3.500814822628918e-05
-6.264428852319887e-06   -1.1327389614069802e-05   3.500814822628918e-05
-6.983904119748453e-06   -5.472307956584351e-06   1.6407179799985143e-05
-6.983904119748453e-06   -5.472307956584351e-06   1.6407179799985143e-05
-6.983904119748453e-06   -5.472307956584351e-06   1.6407179799985143e-05
-6.983904119748453e-06   -5.472307956584351e-06   1.6407179799985143e-05
-2.104958518988355e-05   -1.5061274374569289e-05   4.560336143433438e-05
-2.104958518988355e-05   -1.5061274374569289e-05   4.560336143433438e-05
-2.104958518988355e-05   -1.5061274374569289e-05   4.560336143433438e-05
-2.104958518988355e-05   -1.5061274374569289e-05   4.560336143433438e-05
-1.2382034167169214e-05   -7.906578915205394e-06   2.6864625787525402e-05
-1.2382034167169214e-05   -7.906578915205394e-06   2.6864625787525402e-05
-1.2382034167169214e-05   -7.906578915205394e-06   2.6864625787525402e-05
-1.2382034167169214e-05   -7.906578915205394e-06   2.6864625787525402e-05
-2.1049585189883497e-05   -5.472307956584351e-06   2.216055965077588e-05
-2.1049585189883497e-05   -5.472307956584351e-06   2.216055965077588e-05
-2.1049585189883497e-05   -5.472307956584351e-06   2.216055965077588e-05
-2.1049585189883497e-05   -5.472307956584351e-06   2.216055965077588e-05
-6.98390411974848e-06   -1.5061274374569289e-05   3.9849981583543455e-05
-6.98390411974848e-06   -1.5061274374569289e-05   3.9849981583543455e-05
-6.98390411974848e-06   -1.5061274374569289e-05   3.9849981583543455e-05
-6.98390411974848e-06   -1.5061274374569289e-05   3.9849981583543455e-05
-7.599232080116389e-06   -5.598415937053838e-06   1.8446507002162075e-05
-7.599232080116389e-06   -5.598415937053838e-06   1.8446507002162075e-05
-7.599232080116389e-06   -5.598415937053838e-06   1.8446507002162075e-05
-7.599232080116389e-06   -5.598415937053838e-06   1.8446507002162075e-05
-2.1513564833416904e-05   -1.3750734664268055e-05   4.652845282732471e-05
-2.1513564833416904e-05   -1.3750734664268055e-05   4.652845282732471e-05
-2.1513564833416904e-05   -1.3750734664268055e-05   4.652845282732471e-05
-2.1513564833416904e-05   -1.3750734664268055e-05   4.652845282732471e-05
-1.3946489148656453e-05   -9.680182171617962e-06   3.147432852380075e-05
-1.3946489148656453e-05   -9.680182171617962e-06   3.147432852380075e-05
-1.3946489148656453e-05   -9.680182171617962e-06   3.147432852380075e-05
-1.3946489148656453e-05   -9.680182171617962e-06   3.147432852380075e-05
-2.1513564833416864e-05   -5.598415937053838e-06   2.3337898238490597e-05
-2.1513564833416864e-05   -5.598415937053838e-06   2.3337898238490597e-05
-2.1513564833416864e-05   -5.598415937053838e-06   2.3337898238490597e-05
-2.1513564833416864e-05   -5.598415937053838e-06   2.3337898238490597e-05
-7.599232080116389e-06   -1.3750734664268055e-05   4.163706159099616e-05
-7.599232080116389e-06   -1.3750734664268055e-05   4.163706159099616e-05
-7.599232080116389e-06   -1.3750734664268055e-05   4.163706159099616e-05
-7.599232080116389e-06   -1.3750734664268055e-05   4.163706159099616e-05
-8.59780868109992e-06   -5.654857243478253e-06   2.016685388607438e-05
-8.59780868109992e-06   -5.654857243478253e-06   2.016685388607438e-05
-8.59780868109992e-06   -5.654857243478253e-06   2.016685388607438e-05
-8.59780868109992e-06   -5.654857243478253e-06   2.016685388607438e-05
-2.3541244147797516e-05   -1.2926670302011472e-05   4.943566749902349e-05
-2.3541244147797516e-05   -1.2926670302011472e-05   4.943566749902349e-05
-2.3541244147797516e-05   -1.2926670302011472e-05   4.943566749902349e-05
-2.3541244147797516e-05   -1.2926670302011472e-05   4.943566749902349e-05
-1.4851560497240252e-05   -8.836190939552196e-06   3.249857379728581e-05
-1.4851560497240252e-05   -8.836190939552196e-06   3.249857379728581e-05
-1.4851560497240252e-05   -8.836190939552196e-06   3.249857379728581e-05
-1.4851560497240252e-05   -8.836190939552196e-06   3.249857379728581e-05
-6.264428852319887e-06   -5.225882392797588e-06   9.801233179826396e-06
-6.264428852319887e-06   -5.225882392797588e-06   9.801233179826396e-06
-6.264428852319887e-06   -5.225882392797588e-06   9.801233179826396e-06
-6.264428852319887e-06   -5.225882392797588e-06   9.801233179826396e-06
-3.4887347729256135e-06   -3.106339675587503e-06   1.5699115609142905e-05
-3.4887347729256135e-06   -3.106339675587503e-06   1.5699115609142905e-05
-3.4887347729256135e-06   -3.106339675587503e-06   1.5699115609142905e-05
-3.4887347729256135e-06   -3.106339675587503e-06   1.5699115609142905e-05
-3.3460975995495273e-06   -5.132398621266723e-06   1.1359840222332422e-05
-3.3460975995495273e-06   -5.132398621266723e-06   1.1359840222332422e-05
-3.3460975995495273e-06   -5.132398621266723e-06   1.1359840222332422e-05
-3.3460975995495273e-06   -5.132398621266723e-06   1.1359840222332422e-05
-6.98390411974848e-06   -4.085225676407533e-06   1.6794547322414918e-05
-6.98390411974848e-06   -4.085225676407533e-06   1.6794547322414918e-05
-6.98390411974848e-06   -4.085225676407533e-06   1.6794547322414918e-05
-6.98390411974848e-06   -4.085225676407533e-06   1.6794547322414918e-05
-4.703749396501396e-06   -4.162284164480892e-06   1.3040524543180237e-05
-4.703749396501396e-06   -4.162284164480892e-06   1.3040524543180237e-05
-4.703749396501396e-06   -4.162284164480892e-06   1.3040524543180237e-05
-4.703749396501396e-06   -4.162284164480892e-06   1.3040524543180237e-05
-6.983904119748453e-06   -5.132398621266723e-06   1.0731536455416862e-05
-6.983904119748453e-06   -5.132398621266723e-06   1.0731536455416862e-05
-6.983904119748453e-06   -5.132398621266723e-06   1.0731536455416862e-05
-6.983904119748453e-06   -5.132398621266723e-06   1.0731536455416862e-05
-3.3460975995495273e-06   -4.085225676407533e-06   1.7422851089330424e-05
-3.3460975995495273e-06   -4.085225676407533e-06   1.7422851089330424e-05
-3.3460975995495273e-06   -4.085225676407533e-06   1.7422851089330424e-05
-3.3460975995495273e-06   -4.085225676407533e-06   1.7422851089330424e-05
-3.3447986002990227e-06   -5.290267976786295e-06   1.214134139749341e-05
-3.3447986002990227e-06   -5.290267976786295e-06   1.214134139749341e-05
-3.3447986002990227e-06   -5.290267976786295e-06   1.214134139749341e-05
-3.3447986002990227e-06   -5.290267976786295e-06   1.214134139749341e-05
-7.599232080116389e-06   -5.269586789263094e-06   1.921965515134166e-05
-7.599232080116389e-06   -5.269586789263094e-06   1.921965515134166e-05
-7.599232080116389e-06   -5.269586789263094e-06   1.921965515134166e-05
-7.599232080116389e-06   -5.269586789263094e-06   1.921965515134166e-05
-4.979011165464638e-06   -4.551329721071292e-06   1.4421666052673657e-05
-4.979011165464638e-06   -4.551329721071292e-06   1.4421666052673657e-05
-4.979011165464638e-06   -4.551329721071292e-06   1.4421666052673657e-05
-4.979011165464638e-06   -4.551329721071292e-06   1.4421666052673657e-05
-7.599232080116389e-06   -5.290267976786295e-06   1.2128932684979464e-05
-7.599232080116389e-06   -5.290267976786295e-06   1.2128932684979464e-05
-7.599232080116389e-06   -5.290267976786295e-06   1.2128932684979464e-05
-7.599232080116389e-06   -5.290267976786295e-06   1.2128932684979464e-05
-3.3447986002990227e-06   -5.269586789263094e-06   1.9232063863855605e-05
-3.3447986002990227e-06   -5.269586789263094e-06   1.9232063863855605e-05
-3.3447986002990227e-06   -5.269586789263094e-06   1.9232063863855605e-05
-3.3447986002990227e-06   -5.269586789263094e-06   1.9232063863855605e-05
-3.3831209051152157e-06   -5.515801348150316e-06   1.330804568651638e-05
-3.3831209051152157e-06   -5.515801348150316e-06   1.330804568651638e-05
-3.3831209051152157e-06   -5.515801348150316e-06   1.330804568651638e-05
-3.3831209051152157e-06   -5.515801348150316e-06   1.330804568651638e-05
-8.59780868109992e-06   -6.396212811287775e-06   2.2527438857706465e-05
-8.59780868109992e-06   -6.396212811287775e-06   2.2527438857706465e-05
-8.59780868109992e-06   -6.396212811287775e-06   2.2527438857706465e-05
-8.59780868109992e-06   -6.396212811287775e-06   2.2527438857706465e-05
-5.290946333945558e-06   -4.9766353797161135e-06   1.6164255153506223e-05
-5.290946333945558e-06   -4.9766353797161135e-06   1.6164255153506223e-05
-5.290946333945558e-06   -4.9766353797161135e-06   1.6164255153506223e-05
-5.290946333945558e-06   -4.9766353797161135e-06   1.6164255153506223e-05
-3.4887347729256135e-06   -2.142159469155987e-06   2.726346544718039e-06
-3.4887347729256135e-06   -2.142159469155987e-06   2.726346544718039e-06
-3.4887347729256135e-06   -2.142159469155987e-06   2.726346544718039e-06
-3.4887347729256135e-06   -2.142159469155987e-06   2.726346544718039e-06
-2.577432417801245e-06   6.011249000017552e-07   5.891154424753206e-06
-2.577432417801245e-06   6.011249000017552e-07   5.891154424753206e-06
-2.577432417801245e-06   6.011249000017552e-07   5.891154424753206e-06
-2.577432417801245e-06   6.011249000017552e-07   5.891154424753206e-06
-2.0800258490218234e-06   -2.5096582328162746e-06   4.627602649146727e-06
-2.0800258490218234e-06   -2.5096582328162746e-06   4.627602649146727e-06
-2.0800258490218234e-06   -2.5096582328162746e-06   4.627602649146727e-06
-2.0800258490218234e-06   -2.5096582328162746e-06   4.627602649146727e-06
-3.3460975995495273e-06   2.554005235013855e-07   5.078686979568766e-06
-3.3460975995495273e-06   2.554005235013855e-07   5.078686979568766e-06
-3.3460975995495273e-06   2.554005235013855e-07   5.078686979568766e-06
-3.3460975995495273e-06   2.554005235013855e-07   5.078686979568766e-06
-2.6962646500030055e-06   -9.862944888811096e-07   4.740649071087065e-06
-2.6962646500030055e-06   -9.862944888811096e-07   4.740649071087065e-06
-2.6962646500030055e-06   -9.862944888811096e-07   4.740649071087065e-06
-2.6962646500030055e-06   -9.862944888811096e-07   4.740649071087065e-06
-3.3460975995495273e-06   -2.5096582328162746e-06   2.968567395356125e-06
-3.3460975995495273e-06   -2.5096582328162746e-06   2.968567395356125e-06
-3.3460975995495273e-06   -2.5096582328162746e-06   2.968567395356125e-06
-3.3460975995495273e-06   -2.5096582328162746e-06   2.968567395356125e-06
-2.0800258490218234e-06   2.554005235013855e-07   6.7377222333593135e-06
-2.0800258490218234e-06   2.554005235013855e-07   6.7377222333593135e-06
-2.0800258490218234e-06   2.554005235013855e-07   6.7377222333593135e-06
-2.0800258490218234e-06   2.554005235013855e-07   6.7377222333593135e-06
-1.8047500006838435e-06   -2.790476823127713e-06   5.083047744407405e-06
-1.8047500006838435e-06   -2.790476823127713e-06   5.083047744407405e-06
-1.8047500006838435e-06   -2.790476823127713e-06   5.083047744407405e-06
-1.8047500006838435e-06   -2.790476823127713e-06   5.083047744407405e-06
-3.3447986002990227e-06   -2.9835583990879094e-07   6.154522820501162e-06
-3.3447986002990227e-06   -2.9835583990879094e-07   6.154522820501162e-06
-3.3447986002990227e-06   -2.9835583990879094e-07   6.154522820501162e-06
-3.3447986002990227e-06   -2.9835583990879094e-07   6.154522820501162e-06
-2.4387716303698765e-06   -1.2675899308369279e-06   5.226018325176331e-06
-2.4387716303698765e-06   -1.2675899308369279e-06   5.226018325176331e-06
-2.4387716303698765e-06   -1.2675899308369279e-06   5.226018325176331e-06
-2.4387716303698765e-06   -1.2675899308369279e-06   5.226018325176331e-06
-3.3447986002989685e-06   -2.790476823127713e-06   3.5877751544759716e-06
-3.3447986002989685e-06   -2.790476823127713e-06   3.5877751544759716e-06
-3.3447986002989685e-06   -2.790476823127713e-06   3.5877751544759716e-06
-3.3447986002989685e-06   -2.790476823127713e-06   3.5877751544759716e-06
-1.8047500006838435e-06   -2.9835583990879094e-07   7.649795410432487e-06
-1.8047500006838435e-06   -2.9835583990879094e-07   7.649795410432487e-06
-1.8047500006838435e-06   -2.9835583990879094e-07   7.649795410432487e-06
-1.8047500006838435e-06   -2.9835583990879094e-07   7.649795410432487e-06
-1.382172776998405e-06   -3.159290429157369e-06   5.574267353199093e-06
-1.382172776998405e-06   -3.159290429157369e-06   5.574267353199093e-06
-1.382172776998405e-06   -3.159290429157369e-06   5.574267353199093e-06
-1.382172776998405e-06   -3.159290429157369e-06   5.574267353199093e-06
-3.3831209051152157e-06   -1.442831335186608e-06   7.879305443677753e-06
-3.3831209051152157e-06   -1.442831335186608e-06   7.879305443677753e-06
-3.3831209051152157e-06   -1.442831335186608e-06   7.879305443677753e-06
-3.3831209051152157e-06   -1.442831335186608e-06   7.879305443677753e-06
-2.2262817939829526e-06   -1.700595390166518e-06   6.105898691445761e-06
-2.2262817939829526e-06   -1.700595390166518e-06   6.105898691445761e-06
-2.2262817939829526e-06   -1.700595390166518e-06   6.105898691445761e-06
-2.2262817939829526e-06   -1.700595390166518e-06   6.105898691445761e-06
-2.577432417801245e-06   -2.4331248663393094e-07   -4.347985373061769e-06
-2.577432417801245e-06   -2.4331248663393094e-07   -4.347985373061769e-06
-2.577432417801245e-06   -2.4331248663393094e-07   -4.347985373061769e-06
-2.577432417801245e-06   -2.4331248663393094e-07   -4.347985373061769e-06
-4.6537342412078433e-07   3.7470917153766296e-07   -4.5707405535791445e-07
-4.6537342412078433e-07   3.7470917153766296e-07   -4.5707405535791445e-07
-4.6537342412078433e-07   3.7470917153766296e-07   -4.5707405535791445e-07
-4.6537342412078433e-07   3.7470917153766296e-07   -4.5707405535791445e-07
2.3585510127289815e-08   -3.37730195797809e-07   -3.4215698423256495e-06
2.3585510127289815e-08   -3.37730195797809e-07   -3.4215698423256495e-06
2.3585510127289815e-08   -3.37730195797809e-07   -3.4215698423256495e-06
2.3585510127289815e-08   -3.37730195797809e-07   -3.4215698423256495e-06
-2.0800258490218234e-06   6.50493163505227e-07   -5.08484925992674e-07
-2.0800258490218234e-06   6.50493163505227e-07   -5.08484925992674e-07
-2.0800258490218234e-06   6.50493163505227e-07   -5.08484925992674e-07
-2.0800258490218234e-06   6.50493163505227e-07   -5.08484925992674e-07
-1.165348983200214e-06   1.7156251596179813e-07   -1.7455879805028732e-06
-1.165348983200214e-06   1.7156251596179813e-07   -1.7455879805028732e-06
-1.165348983200214e-06   1.7156251596179813e-07   -1.7455879805028732e-06
-1.165348983200214e-06   1.7156251596179813e-07   -1.7455879805028732e-06
-2.0800258490218234e-06   -3.377301957977548e-07   -4.014503857907809e-06
-2.0800258490218234e-06   -3.377301957977548e-07   -4.014503857907809e-06
-2.0800258490218234e-06   -3.377301957977548e-07   -4.014503857907809e-06
-2.0800258490218234e-06   -3.377301957977548e-07   -4.014503857907809e-06
2.3585510127289815e-08   6.50493163505227e-07   8.444908958921398e-08
2.3585510127289815e-08   6.50493163505227e-07   8.444908958921398e-08
2.3585510127289815e-08   6.50493163505227e-07   8.444908958921398e-08
2.3585510127289815e-08   6.50493163505227e-07   8.444908958921398e-08
2.8215154963318924e-07   -4.660478132996709e-07   -3.0769120882992787e-06
2.8215154963318924e-07   -4.660478132996709e-07   -3.0769120882992787e-06
2.8215154963318924e-07   -4.660478132996709e-07   -3.0769120882992787e-06
2.8215154963318924e-07   -4.660478132996709e-07   -3.0769120882992787e-06
-1.8047500006838435e-06   5.628945043621952e-07   -2.1610822836825617e-07
-1.8047500006838435e-06   5.628945043621952e-07   -2.1610822836825617e-07
-1.8047500006838435e-06   5.628945043621952e-07   -2.1610822836825617e-07
-1.8047500006838435e-06   5.628945043621952e-07   -2.1610822836825617e-07
-8.028505948221671e-07   1.1253037325846971e-07   -1.6157220928082403e-06
-8.028505948221671e-07   1.1253037325846971e-07   -1.6157220928082403e-06
-8.028505948221671e-07   1.1253037325846971e-07   -1.6157220928082403e-06
-8.028505948221671e-07   1.1253037325846971e-07   -1.6157220928082403e-06
-1.8047500006838435e-06   -4.660478132996709e-07   -3.694277478896301e-06
-1.8047500006838435e-06   -4.660478132996709e-07   -3.694277478896301e-06
-1.8047500006838435e-06   -4.660478132996709e-07   -3.694277478896301e-06
-1.8047500006838435e-06   -4.660478132996709e-07   -3.694277478896301e-06
2.8215154963318924e-07   5.628945043621952e-07   4.0125716222892856e-07
2.8215154963318924e-07   5.628945043621952e-07   4.0125716222892856e-07
2.8215154963318924e-07   5.628945043621952e-07   4.0125716222892856e-07
2.8215154963318924e-07   5.628945043621952e-07   4.0125716222892856e-07
6.055125315889863e-07   -6.200603203545098e-07   -2.573906853492545e-06
6.055125315889863e-07   -6.200603203545098e-07   -2.573906853492545e-06
6.055125315889863e-07   -6.200603203545098e-07   -2.573906853492545e-06
6.055125315889863e-07   -6.200603203545098e-07   -2.573906853492545e-06
-1.382172776998405e-06   4.94054132735057e-07   7.043332229939286e-08
-1.382172776998405e-06   4.94054132735057e-07   7.043332229939286e-08
-1.382172776998405e-06   4.94054132735057e-07   7.043332229939286e-08
-1.382172776998405e-06   4.94054132735057e-07   7.043332229939286e-08
-4.742101364542807e-07   4.223090408422099e-08   -1.171743808083491e-06
-4.742101364542807e-07   4.223090408422099e-08   -1.171743808083491e-06
-4.742101364542807e-07   4.223090408422099e-08   -1.171743808083491e-06
-4.742101364542807e-07   4.223090408422099e-08   -1.171743808083491e-06
              </DataArray>   
             <DataArray type="Float64" NumberOfComponents="3" Name="Stress" format="ascii">   
-3.951506273634045   -0.9878765684085112   -0.9878765684085112
-3.951506273634045   -0.9878765684085112   -0.9878765684085112
-3.951506273634045   -0.9878765684085112   -0.9878765684085112
-3.951506273634045   -0.9878765684085112   -0.9878765684085112
-2.2868135569839785   -0.07221399656853283   -0.0457562422110873
-2.2868135569839785   -0.07221399656853283   -0.0457562422110873
-2.2868135569839785   -0.07221399656853283   -0.0457562422110873
-2.2868135569839785   -0.07221399656853283   -0.0457562422110873
-2.465148803784597   -0.6162872009461493   -0.6162872009461493
-2.465148803784597   -0.6162872009461493   -0.6162872009461493
-2.465148803784597   -0.6162872009461493   -0.6162872009461493
-2.465148803784597   -0.6162872009461493   -0.6162872009461493
-3.8085198077229996   -0.31257430116953977   -0.11947907127349974
-3.8085198077229996   -0.31257430116953977   -0.11947907127349974
-3.8085198077229996   -0.31257430116953977   -0.11947907127349974
-3.8085198077229996   -0.31257430116953977   -0.11947907127349974
-2.9870618471899175   -0.48960009302269225   -0.00823521873497263
-2.9870618471899175   -0.48960009302269225   -0.00823521873497263
-2.9870618471899175   -0.48960009302269225   -0.00823521873497263
-2.9870618471899175   -0.48960009302269225   -0.00823521873497263
-4.135676814704887   -1.0339192036762217   -1.0339192036762217
-4.135676814704887   -1.0339192036762217   -1.0339192036762217
-4.135676814704887   -1.0339192036762217   -1.0339192036762217
-4.135676814704887   -1.0339192036762217   -1.0339192036762217
-2.21555846471898   0.02749103364426858   -0.012113740208481744
-2.21555846471898   0.02749103364426858   -0.012113740208481744
-2.21555846471898   0.02749103364426858   -0.012113740208481744
-2.21555846471898   0.02749103364426858   -0.012113740208481744
-2.472309502117751   -0.6180773755294378   -0.6180773755294378
-2.472309502117751   -0.6180773755294378   -0.6180773755294378
-2.472309502117751   -0.6180773755294378   -0.6180773755294378
-2.472309502117751   -0.6180773755294378   -0.6180773755294378
-3.9367510875924574   -0.3156379790748448   -0.17510572403194838
-3.9367510875924574   -0.3156379790748448   -0.17510572403194838
-3.9367510875924574   -0.3156379790748448   -0.17510572403194838
-3.9367510875924574   -0.3156379790748448   -0.17510572403194838
-3.098696172098941   -0.4610413169019025   -0.1644703307418936
-3.098696172098941   -0.4610413169019025   -0.1644703307418936
-3.098696172098941   -0.4610413169019025   -0.1644703307418936
-3.098696172098941   -0.4610413169019025   -0.1644703307418936
-4.265113718856784   -1.066278429714196   -1.066278429714196
-4.265113718856784   -1.066278429714196   -1.066278429714196
-4.265113718856784   -1.066278429714196   -1.066278429714196
-4.265113718856784   -1.066278429714196   -1.066278429714196
-2.209313447356039   0.06719649860730442   0.011629024142379457
-2.209313447356039   0.06719649860730442   0.011629024142379457
-2.209313447356039   0.06719649860730442   0.011629024142379457
-2.209313447356039   0.06719649860730442   0.011629024142379457
-2.4712450872651233   -0.6178112718162808   -0.6178112718162808
-2.4712450872651233   -0.6178112718162808   -0.6178112718162808
-2.4712450872651233   -0.6178112718162808   -0.6178112718162808
-2.4712450872651233   -0.6178112718162808   -0.6178112718162808
-4.1657637848564235   -0.2770002717777892   -0.10494584091727566
-4.1657637848564235   -0.2770002717777892   -0.10494584091727566
-4.1657637848564235   -0.2770002717777892   -0.10494584091727566
-4.1657637848564235   -0.2770002717777892   -0.10494584091727566
-3.181605557901533   -0.4539305779222288   -0.2972898978111705
-3.181605557901533   -0.4539305779222288   -0.2972898978111705
-3.181605557901533   -0.4539305779222288   -0.2972898978111705
-3.181605557901533   -0.4539305779222288   -0.2972898978111705
-2.514688343586732   -0.628672085896683   -0.628672085896683
-2.514688343586732   -0.628672085896683   -0.628672085896683
-2.514688343586732   -0.628672085896683   -0.628672085896683
-2.514688343586732   -0.628672085896683   -0.628672085896683
-1.0489220313703778   -0.06963737933499925   -0.022646001066384418
-1.0489220313703778   -0.06963737933499925   -0.022646001066384418
-1.0489220313703778   -0.06963737933499925   -0.022646001066384418
-1.0489220313703778   -0.06963737933499925   -0.022646001066384418
-1.1014110317995962   -0.27535275794989905   -0.27535275794989905
-1.1014110317995962   -0.27535275794989905   -0.27535275794989905
-1.1014110317995962   -0.27535275794989905   -0.27535275794989905
-1.1014110317995962   -0.27535275794989905   -0.27535275794989905
-2.289616392520701   -0.2691986129734103   -0.08571373259940646
-2.289616392520701   -0.2691986129734103   -0.08571373259940646
-2.289616392520701   -0.2691986129734103   -0.08571373259940646
-2.289616392520701   -0.2691986129734103   -0.08571373259940646
-1.6885636026230253   -0.3198237997261952   0.013229381230293977
-1.6885636026230253   -0.3198237997261952   0.013229381230293977
-1.6885636026230253   -0.3198237997261952   0.013229381230293977
-1.6885636026230253   -0.3198237997261952   0.013229381230293977
-2.4651488037845954   -0.6162872009461489   -0.6162872009461489
-2.4651488037845954   -0.6162872009461489   -0.6162872009461489
-2.4651488037845954   -0.6162872009461489   -0.6162872009461489
-2.4651488037845954   -0.6162872009461489   -0.6162872009461489
-0.9898149761714183   0.007799474387121613   -0.0005247121460296225
-0.9898149761714183   0.007799474387121613   -0.0005247121460296225
-0.9898149761714183   0.007799474387121613   -0.0005247121460296225
-0.9898149761714183   0.007799474387121613   -0.0005247121460296225
-1.077036991576897   -0.26925924789422423   -0.26925924789422423
-1.077036991576897   -0.26925924789422423   -0.26925924789422423
-1.077036991576897   -0.26925924789422423   -0.26925924789422423
-1.077036991576897   -0.26925924789422423   -0.26925924789422423
-2.284060507665455   -0.2196645193923063   -0.0752452594050918
-2.284060507665455   -0.2196645193923063   -0.0752452594050918
-2.284060507665455   -0.2196645193923063   -0.0752452594050918
-2.284060507665455   -0.2196645193923063   -0.0752452594050918
-1.665259846314596   -0.2692922035854666   -0.08708898842416699
-1.665259846314596   -0.2692922035854666   -0.08708898842416699
-1.665259846314596   -0.2692922035854666   -0.08708898842416699
-1.665259846314596   -0.2692922035854666   -0.08708898842416699
-2.472309502117751   -0.6180773755294378   -0.6180773755294378
-2.472309502117751   -0.6180773755294378   -0.6180773755294378
-2.472309502117751   -0.6180773755294378   -0.6180773755294378
-2.472309502117751   -0.6180773755294378   -0.6180773755294378
-0.9507132982520483   0.06722830711546052   0.025871663720334837
-0.9507132982520483   0.06722830711546052   0.025871663720334837
-0.9507132982520483   0.06722830711546052   0.025871663720334837
-0.9507132982520483   0.06722830711546052   0.025871663720334837
-1.0548769688253266   -0.26371924220633164   -0.26371924220633164
-1.0548769688253266   -0.26371924220633164   -0.26371924220633164
-1.0548769688253266   -0.26371924220633164   -0.26371924220633164
-1.0548769688253266   -0.26371924220633164   -0.26371924220633164
-2.267503945006803   -0.1695570476931288   -0.04735978464786096
-2.267503945006803   -0.1695570476931288   -0.04735978464786096
-2.267503945006803   -0.1695570476931288   -0.04735978464786096
-2.267503945006803   -0.1695570476931288   -0.04735978464786096
-1.6737194715158052   -0.23836648598365445   -0.1940613119734497
-1.6737194715158052   -0.23836648598365445   -0.1940613119734497
-1.6737194715158052   -0.23836648598365445   -0.1940613119734497
-1.6737194715158052   -0.23836648598365445   -0.1940613119734497
-1.1449615058778921   -0.28624037646947303   -0.28624037646947303
-1.1449615058778921   -0.28624037646947303   -0.28624037646947303
-1.1449615058778921   -0.28624037646947303   -0.28624037646947303
-1.1449615058778921   -0.28624037646947303   -0.28624037646947303
0.1364424205677249   0.009022211417240123   0.0011091667793050883
0.1364424205677249   0.009022211417240123   0.0011091667793050883
0.1364424205677249   0.009022211417240123   0.0011091667793050883
0.1364424205677249   0.009022211417240123   0.0011091667793050883
0.17705279682301925   0.04426319920575481   0.04426319920575481
0.17705279682301925   0.04426319920575481   0.04426319920575481
0.17705279682301925   0.04426319920575481   0.04426319920575481
0.17705279682301925   0.04426319920575481   0.04426319920575481
-1.035426979648331   -0.17897145024041522   -0.04181380490305749
-1.035426979648331   -0.17897145024041522   -0.04181380490305749
-1.035426979648331   -0.17897145024041522   -0.04181380490305749
-1.035426979648331   -0.17897145024041522   -0.04181380490305749
-0.4429684802090394   -0.11238331072087496   0.07533550504913682
-0.4429684802090394   -0.11238331072087496   0.07533550504913682
-0.4429684802090394   -0.11238331072087496   0.07533550504913682
-0.4429684802090394   -0.11238331072087496   0.07533550504913682
-1.1014110317995962   -0.27535275794989905   -0.27535275794989905
-1.1014110317995962   -0.27535275794989905   -0.27535275794989905
-1.1014110317995962   -0.27535275794989905   -0.27535275794989905
-1.1014110317995962   -0.27535275794989905   -0.27535275794989905
0.18017882390027545   0.0777864818412292   0.026370051956559958
0.18017882390027545   0.0777864818412292   0.026370051956559958
0.18017882390027545   0.0777864818412292   0.026370051956559958
0.18017882390027545   0.0777864818412292   0.026370051956559958
0.19888903207554448   0.04972225801888612   0.04972225801888612
0.19888903207554448   0.04972225801888612   0.04972225801888612
0.19888903207554448   0.04972225801888612   0.04972225801888612
0.19888903207554448   0.04972225801888612   0.04972225801888612
-0.9990528349380831   -0.12055461151466719   -0.028043101079720512
-0.9990528349380831   -0.12055461151466719   -0.028043101079720512
-0.9990528349380831   -0.12055461151466719   -0.028043101079720512
-0.9990528349380831   -0.12055461151466719   -0.028043101079720512
-0.42516723228332265   -0.06949136140228077   -0.025670300635216886
-0.42516723228332265   -0.06949136140228077   -0.025670300635216886
-0.42516723228332265   -0.06949136140228077   -0.025670300635216886
-0.42516723228332265   -0.06949136140228077   -0.025670300635216886
-1.077036991576897   -0.26925924789422423   -0.26925924789422423
-1.077036991576897   -0.26925924789422423   -0.26925924789422423
-1.077036991576897   -0.26925924789422423   -0.26925924789422423
-1.077036991576897   -0.26925924789422423   -0.26925924789422423
0.21527984617372498   0.1368335518578116   0.04456503467086166
0.21527984617372498   0.1368335518578116   0.04456503467086166
0.21527984617372498   0.1368335518578116   0.04456503467086166
0.21527984617372498   0.1368335518578116   0.04456503467086166
0.22833901788731892   0.05708475447182973   0.05708475447182973
0.22833901788731892   0.05708475447182973   0.05708475447182973
0.22833901788731892   0.05708475447182973   0.05708475447182973
0.22833901788731892   0.05708475447182973   0.05708475447182973
-0.95946311288007   -0.05087103671501797   0.0005018320286346023
-0.95946311288007   -0.05087103671501797   0.0005018320286346023
-0.95946311288007   -0.05087103671501797   0.0005018320286346023
-0.95946311288007   -0.05087103671501797   0.0005018320286346023
-0.412697496578206   -0.02814245358550739   -0.12577458850397658
-0.412697496578206   -0.02814245358550739   -0.12577458850397658
-0.412697496578206   -0.02814245358550739   -0.12577458850397658
-0.412697496578206   -0.02814245358550739   -0.12577458850397658
0.14935127214268454   0.037337818035671134   0.037337818035671134
0.14935127214268454   0.037337818035671134   0.037337818035671134
0.14935127214268454   0.037337818035671134   0.037337818035671134
0.14935127214268454   0.037337818035671134   0.037337818035671134
1.433840658369947   0.13153064264406236   0.04408411248340196
1.433840658369947   0.13153064264406236   0.04408411248340196
1.433840658369947   0.13153064264406236   0.04408411248340196
1.433840658369947   0.13153064264406236   0.04408411248340196
1.5566085718300595   0.3891521429575149   0.3891521429575149
1.5566085718300595   0.3891521429575149   0.3891521429575149
1.5566085718300595   0.3891521429575149   0.3891521429575149
1.5566085718300595   0.3891521429575149   0.3891521429575149
0.13491060107220157   -0.10098578411611159   -0.02119879622646992
0.13491060107220157   -0.10098578411611159   -0.02119879622646992
0.13491060107220157   -0.10098578411611159   -0.02119879622646992
0.13491060107220157   -0.10098578411611159   -0.02119879622646992
0.8177635405272916   0.10179798636631196   0.14861006733147153
0.8177635405272916   0.10179798636631196   0.14861006733147153
0.8177635405272916   0.10179798636631196   0.14861006733147153
0.8177635405272916   0.10179798636631196   0.14861006733147153
0.17705279682301986   0.044263199205754965   0.044263199205754965
0.17705279682301986   0.044263199205754965   0.044263199205754965
0.17705279682301986   0.044263199205754965   0.044263199205754965
0.17705279682301986   0.044263199205754965   0.044263199205754965
1.4505786002269023   0.1800153837833095   0.0681390441159346
1.4505786002269023   0.1800153837833095   0.0681390441159346
1.4505786002269023   0.1800153837833095   0.0681390441159346
1.4505786002269023   0.1800153837833095   0.0681390441159346
1.5496956148975851   0.3874239037243963   0.3874239037243963
1.5496956148975851   0.3874239037243963   0.3874239037243963
1.5496956148975851   0.3874239037243963   0.3874239037243963
1.5496956148975851   0.3874239037243963   0.3874239037243963
0.1702354497068777   -0.043872897129331394   4.950132376829036e-05
0.1702354497068777   -0.043872897129331394   4.950132376829036e-05
0.1702354497068777   -0.043872897129331394   4.950132376829036e-05
0.1702354497068777   -0.043872897129331394   4.950132376829036e-05
0.8114777096373321   0.13350776205774356   0.038696859757555865
0.8114777096373321   0.13350776205774356   0.038696859757555865
0.8114777096373321   0.13350776205774356   0.038696859757555865
0.8114777096373321   0.13350776205774356   0.038696859757555865
0.19888903207554465   0.04972225801888616   0.04972225801888616
0.19888903207554465   0.04972225801888616   0.04972225801888616
0.19888903207554465   0.04972225801888616   0.04972225801888616
0.19888903207554465   0.04972225801888616   0.04972225801888616
1.4577668425917234   0.23055355863898402   0.0846503872804998
1.4577668425917234   0.23055355863898402   0.0846503872804998
1.4577668425917234   0.23055355863898402   0.0846503872804998
1.4577668425917234   0.23055355863898402   0.0846503872804998
1.579471963286389   0.39486799082159724   0.39486799082159724
1.579471963286389   0.39486799082159724   0.39486799082159724
1.579471963286389   0.39486799082159724   0.39486799082159724
1.579471963286389   0.39486799082159724   0.39486799082159724
0.21660807470202545   0.031709019176859   0.02380577384033123
0.21660807470202545   0.031709019176859   0.02380577384033123
0.21660807470202545   0.031709019176859   0.02380577384033123
0.21660807470202545   0.031709019176859   0.02380577384033123
0.8238297265288181   0.18105502020199019   -0.06321862712224814
0.8238297265288181   0.18105502020199019   -0.06321862712224814
0.8238297265288181   0.18105502020199019   -0.06321862712224814
0.8238297265288181   0.18105502020199019   -0.06321862712224814
1.5541307859382825   0.3885326964845706   0.3885326964845706
1.5541307859382825   0.3885326964845706   0.3885326964845706
1.5541307859382825   0.3885326964845706   0.3885326964845706
1.5541307859382825   0.3885326964845706   0.3885326964845706
3.222339121189994   0.24554808361858632   0.08392094219235795
3.222339121189994   0.24554808361858632   0.08392094219235795
3.222339121189994   0.24554808361858632   0.08392094219235795
3.222339121189994   0.24554808361858632   0.08392094219235795
3.2934194640246575   0.8233548660061644   0.8233548660061644
3.2934194640246575   0.8233548660061644   0.8233548660061644
3.2934194640246575   0.8233548660061644   0.8233548660061644
3.2934194640246575   0.8233548660061644   0.8233548660061644
1.383601943883163   -0.07871591239723702   -0.008012941422215106
1.383601943883163   -0.07871591239723702   -0.008012941422215106
1.383601943883163   -0.07871591239723702   -0.008012941422215106
1.383601943883163   -0.07871591239723702   -0.008012941422215106
2.29834824622665   0.3252115392515055   0.2595416294651284
2.29834824622665   0.3252115392515055   0.2595416294651284
2.29834824622665   0.3252115392515055   0.2595416294651284
2.29834824622665   0.3252115392515055   0.2595416294651284
1.5566085718300584   0.3891521429575146   0.3891521429575146
1.5566085718300584   0.3891521429575146   0.3891521429575146
1.5566085718300584   0.3891521429575146   0.3891521429575146
1.5566085718300584   0.3891521429575146   0.3891521429575146
3.051940823325739   0.2870147978993995   0.1523017306183878
3.051940823325739   0.2870147978993995   0.1523017306183878
3.051940823325739   0.2870147978993995   0.1523017306183878
3.051940823325739   0.2870147978993995   0.1523017306183878
3.194743263491498   0.7986858158728745   0.7986858158728745
3.194743263491498   0.7986858158728745   0.7986858158728745
3.194743263491498   0.7986858158728745   0.7986858158728745
3.194743263491498   0.7986858158728745   0.7986858158728745
1.3882088682600366   -0.043539955587374335   0.010954029848424501
1.3882088682600366   -0.043539955587374335   0.010954029848424501
1.3882088682600366   -0.043539955587374335   0.010954029848424501
1.3882088682600366   -0.043539955587374335   0.010954029848424501
2.2299066683643156   0.3345252743827841   0.12446643796529656
2.2299066683643156   0.3345252743827841   0.12446643796529656
2.2299066683643156   0.3345252743827841   0.12446643796529656
2.2299066683643156   0.3345252743827841   0.12446643796529656
1.5496956148975851   0.3874239037243963   0.3874239037243963
1.5496956148975851   0.3874239037243963   0.3874239037243963
1.5496956148975851   0.3874239037243963   0.3874239037243963
1.5496956148975851   0.3874239037243963   0.3874239037243963
2.953422486466755   0.28788792617391895   0.10287982044816475
2.953422486466755   0.28788792617391895   0.10287982044816475
2.953422486466755   0.28788792617391895   0.10287982044816475
2.953422486466755   0.28788792617391895   0.10287982044816475
3.048014256154747   0.7620035640386867   0.7620035640386867
3.048014256154747   0.7620035640386867   0.7620035640386867
3.048014256154747   0.7620035640386867   0.7620035640386867
3.048014256154747   0.7620035640386867   0.7620035640386867
1.4393313350004913   0.04515022181604095   0.04388261839766475
1.4393313350004913   0.04515022181604095   0.04388261839766475
1.4393313350004913   0.04515022181604095   0.04388261839766475
1.4393313350004913   0.04515022181604095   0.04388261839766475
2.134974450602712   0.3626261319219285   -0.03260108877612731
2.134974450602712   0.3626261319219285   -0.03260108877612731
2.134974450602712   0.3626261319219285   -0.03260108877612731
2.134974450602712   0.3626261319219285   -0.03260108877612731
-3.125212720046544   -0.2237532702496759   0.03494655244576257
-3.125212720046544   -0.2237532702496759   0.03494655244576257
-3.125212720046544   -0.2237532702496759   0.03494655244576257
-3.125212720046544   -0.2237532702496759   0.03494655244576257
-1.9890134777285429   -0.045662216400728595   -0.01278071853278008
-1.9890134777285429   -0.045662216400728595   -0.01278071853278008
-1.9890134777285429   -0.045662216400728595   -0.01278071853278008
-1.9890134777285429   -0.045662216400728595   -0.01278071853278008
-2.0026835476748563   0.08082424675799599   0.04167740831604261
-2.0026835476748563   0.08082424675799599   0.04167740831604261
-2.0026835476748563   0.08082424675799599   0.04167740831604261
-2.0026835476748563   0.08082424675799599   0.04167740831604261
-3.17184012397732   -0.21624185428373643   -0.037454158784514885
-3.17184012397732   -0.21624185428373643   -0.037454158784514885
-3.17184012397732   -0.21624185428373643   -0.037454158784514885
-3.17184012397732   -0.21624185428373643   -0.037454158784514885
-2.470945655109136   -0.08431372013937766   -0.009674099431913052
-2.470945655109136   -0.08431372013937766   -0.009674099431913052
-2.470945655109136   -0.08431372013937766   -0.009674099431913052
-2.470945655109136   -0.08431372013937766   -0.009674099431913052
-3.148890589312058   -0.1537852593175344   0.0148369195755928
-3.148890589312058   -0.1537852593175344   0.0148369195755928
-3.148890589312058   -0.1537852593175344   0.0148369195755928
-3.148890589312058   -0.1537852593175344   0.0148369195755928
-2.0289725270710273   0.015028207060890919   -0.023971448967671144
-2.0289725270710273   0.015028207060890919   -0.023971448967671144
-2.0289725270710273   0.015028207060890919   -0.023971448967671144
-2.0289725270710273   0.015028207060890919   -0.023971448967671144
-2.005206555144249   0.11519141585073717   0.04749671814775705
-2.005206555144249   0.11519141585073717   0.04749671814775705
-2.005206555144249   0.11519141585073717   0.04749671814775705
-2.005206555144249   0.11519141585073717   0.04749671814775705
-3.1912583382718656   -0.1905216348948866   -0.04945715383442234
-3.1912583382718656   -0.1905216348948866   -0.04945715383442234
-3.1912583382718656   -0.1905216348948866   -0.04945715383442234
-3.1912583382718656   -0.1905216348948866   -0.04945715383442234
-2.5405048759723123   -0.05649907049364378   -0.024034014191023495
-2.5405048759723123   -0.05649907049364378   -0.024034014191023495
-2.5405048759723123   -0.05649907049364378   -0.024034014191023495
-2.5405048759723123   -0.05649907049364378   -0.024034014191023495
-3.134086102345665   -0.09242279919896979   0.13830519010063844
-3.134086102345665   -0.09242279919896979   0.13830519010063844
-3.134086102345665   -0.09242279919896979   0.13830519010063844
-3.134086102345665   -0.09242279919896979   0.13830519010063844
-2.0385328232288407   0.04093854799642843   -0.044881754420872444
-2.0385328232288407   0.04093854799642843   -0.044881754420872444
-2.0385328232288407   0.04093854799642843   -0.044881754420872444
-2.0385328232288407   0.04093854799642843   -0.044881754420872444
-1.968885875586295   0.2006453395986083   0.0864043066945881
-1.968885875586295   0.2006453395986083   0.0864043066945881
-1.968885875586295   0.2006453395986083   0.0864043066945881
-1.968885875586295   0.2006453395986083   0.0864043066945881
-3.10334890946482   -0.1538455527347845   -0.08096410309057403
-3.10334890946482   -0.1538455527347845   -0.08096410309057403
-3.10334890946482   -0.1538455527347845   -0.08096410309057403
-3.10334890946482   -0.1538455527347845   -0.08096410309057403
-2.4435592071653085   0.02266398336051756   0.0541104724561039
-2.4435592071653085   0.02266398336051756   0.0541104724561039
-2.4435592071653085   0.02266398336051756   0.0541104724561039
-2.4435592071653085   0.02266398336051756   0.0541104724561039
-2.038492796476555   -0.27015853156472647   -0.03568099710884167
-2.038492796476555   -0.27015853156472647   -0.03568099710884167
-2.038492796476555   -0.27015853156472647   -0.03568099710884167
-2.038492796476555   -0.27015853156472647   -0.03568099710884167
-0.9388230081263058   -0.02072219738162523   0.010000182813514433
-0.9388230081263058   -0.02072219738162523   0.010000182813514433
-0.9388230081263058   -0.02072219738162523   0.010000182813514433
-0.9388230081263058   -0.02072219738162523   0.010000182813514433
-0.9527111823887742   0.018156150512754626   0.014154874699487494
-0.9527111823887742   0.018156150512754626   0.014154874699487494
-0.9527111823887742   0.018156150512754626   0.014154874699487494
-0.9527111823887742   0.018156150512754626   0.014154874699487494
-2.0789779137810447   -0.19777417749480852   -0.061195997962096405
-2.0789779137810447   -0.19777417749480852   -0.061195997962096405
-2.0789779137810447   -0.19777417749480852   -0.061195997962096405
-2.0789779137810447   -0.19777417749480852   -0.061195997962096405
-1.5021985460522005   -0.12189703214092334   -0.034374604808771234
-1.5021985460522005   -0.12189703214092334   -0.034374604808771234
-1.5021985460522005   -0.12189703214092334   -0.034374604808771234
-1.5021985460522005   -0.12189703214092334   -0.034374604808771234
-2.077046765750438   -0.21617069013354306   -0.033143745170336816
-2.077046765750438   -0.21617069013354306   -0.033143745170336816
-2.077046765750438   -0.21617069013354306   -0.033143745170336816
-2.077046765750438   -0.21617069013354306   -0.033143745170336816
-0.9509345480242487   0.040260445546622614   0.0009337514882553494
-0.9509345480242487   0.040260445546622614   0.0009337514882553494
-0.9509345480242487   0.040260445546622614   0.0009337514882553494
-0.9509345480242487   0.040260445546622614   0.0009337514882553494
-0.9492469748683067   0.06620108093288951   0.01926920942374588
-0.9492469748683067   0.06620108093288951   0.01926920942374588
-0.9492469748683067   0.06620108093288951   0.01926920942374588
-0.9492469748683067   0.06620108093288951   0.01926920942374588
-2.079979994105381   -0.14500039751703675   -0.06617866329012861
-2.079979994105381   -0.14500039751703675   -0.06617866329012861
-2.079979994105381   -0.14500039751703675   -0.06617866329012861
-2.079979994105381   -0.14500039751703675   -0.06617866329012861
-1.499412746369708   -0.06786715366092066   -0.016337460865035375
-1.499412746369708   -0.06786715366092066   -0.016337460865035375
-1.499412746369708   -0.06786715366092066   -0.016337460865035375
-1.499412746369708   -0.06786715366092066   -0.016337460865035375
-2.0718687999616288   -0.16358478665683773   -0.007038303431567888
-2.0718687999616288   -0.16358478665683773   -0.007038303431567888
-2.0718687999616288   -0.16358478665683773   -0.007038303431567888
-2.0718687999616288   -0.16358478665683773   -0.007038303431567888
-0.950474961912603   0.09166867717214999   -0.012338322036980293
-0.950474961912603   0.09166867717214999   -0.012338322036980293
-0.950474961912603   0.09166867717214999   -0.012338322036980293
-0.950474961912603   0.09166867717214999   -0.012338322036980293
-0.933469988266456   0.11447565983685948   0.038769796261732895
-0.933469988266456   0.11447565983685948   0.038769796261732895
-0.933469988266456   0.11447565983685948   0.038769796261732895
-0.933469988266456   0.11447565983685948   0.038769796261732895
-2.0578486394401425   -0.08402628809469237   -0.0737378848813577
-2.0578486394401425   -0.08402628809469237   -0.0737378848813577
-2.0578486394401425   -0.08402628809469237   -0.0737378848813577
-2.0578486394401425   -0.08402628809469237   -0.0737378848813577
-1.4932861498543442   -0.016740646181892804   0.00750293271286849
-1.4932861498543442   -0.016740646181892804   0.00750293271286849
-1.4932861498543442   -0.016740646181892804   0.00750293271286849
-1.4932861498543442   -0.016740646181892804   0.00750293271286849
-0.9900379571745006   -0.22487920787407065   -0.04191755193502325
-0.9900379571745006   -0.22487920787407065   -0.04191755193502325
-0.9900379571745006   -0.22487920787407065   -0.04191755193502325
-0.9900379571745006   -0.22487920787407065   -0.04191755193502325
0.10327062977802132   0.023481148796442638   0.03856956041507245
0.10327062977802132   0.023481148796442638   0.03856956041507245
0.10327062977802132   0.023481148796442638   0.03856956041507245
0.10327062977802132   0.023481148796442638   0.03856956041507245
0.09847427110575076   0.05678518730385908   0.00306813206423405
0.09847427110575076   0.05678518730385908   0.00306813206423405
0.09847427110575076   0.05678518730385908   0.00306813206423405
0.09847427110575076   0.05678518730385908   0.00306813206423405
-0.994329909820694   -0.14902154491526579   -0.026761067032091294
-0.994329909820694   -0.14902154491526579   -0.026761067032091294
-0.994329909820694   -0.14902154491526579   -0.026761067032091294
-0.994329909820694   -0.14902154491526579   -0.026761067032091294
-0.44996355456185216   -0.0745164657398381   -0.014203675972636744
-0.44996355456185216   -0.0745164657398381   -0.014203675972636744
-0.44996355456185216   -0.0745164657398381   -0.014203675972636744
-0.44996355456185216   -0.0745164657398381   -0.014203675972636744
-1.0012051263456108   -0.17149671459470728   -0.03866197997723429
-1.0012051263456108   -0.17149671459470728   -0.03866197997723429
-1.0012051263456108   -0.17149671459470728   -0.03866197997723429
-1.0012051263456108   -0.17149671459470728   -0.03866197997723429
0.10917870979504052   0.0830895791476731   0.030285933666868794
0.10917870979504052   0.0830895791476731   0.030285933666868794
0.10917870979504052   0.0830895791476731   0.030285933666868794
0.10917870979504052   0.0830895791476731   0.030285933666868794
0.1061323252997677   0.10967888741926075   0.01793923335206472
0.1061323252997677   0.10967888741926075   0.01793923335206472
0.1061323252997677   0.10967888741926075   0.01793923335206472
0.1061323252997677   0.10967888741926075   0.01793923335206472
-0.9912213157826397   -0.09102143586856867   -0.03337997834646112
-0.9912213157826397   -0.09102143586856867   -0.03337997834646112
-0.9912213157826397   -0.09102143586856867   -0.03337997834646112
-0.9912213157826397   -0.09102143586856867   -0.03337997834646112
-0.4430195723256689   -0.018297581874659963   0.005321497143507048
-0.4430195723256689   -0.018297581874659963   0.005321497143507048
-0.4430195723256689   -0.018297581874659963   0.005321497143507048
-0.4430195723256689   -0.018297581874659963   0.005321497143507048
-0.9938696928116636   -0.11786501895455685   -0.019778280405592093
-0.9938696928116636   -0.11786501895455685   -0.019778280405592093
-0.9938696928116636   -0.11786501895455685   -0.019778280405592093
-0.9938696928116636   -0.11786501895455685   -0.019778280405592093
0.11289993816829899   0.14064170634475626   0.020814478769224945
0.11289993816829899   0.14064170634475626   0.020814478769224945
0.11289993816829899   0.14064170634475626   0.020814478769224945
0.11289993816829899   0.14064170634475626   0.020814478769224945
0.1084997107763264   0.16853085526510198   0.029548468272840023
0.1084997107763264   0.16853085526510198   0.029548468272840023
0.1084997107763264   0.16853085526510198   0.029548468272840023
0.1084997107763264   0.16853085526510198   0.029548468272840023
-0.9783299976819705   -0.02900960529474153   -0.042044985684232476
-0.9783299976819705   -0.02900960529474153   -0.042044985684232476
-0.9783299976819705   -0.02900960529474153   -0.042044985684232476
-0.9783299976819705   -0.02900960529474153   -0.042044985684232476
-0.432009839738492   0.040494805876941764   0.02669654572237603
-0.432009839738492   0.040494805876941764   0.02669654572237603
-0.432009839738492   0.040494805876941764   0.02669654572237603
-0.432009839738492   0.040494805876941764   0.02669654572237603
0.04761218905516062   -0.16481681049677716   -0.05142468390601122
0.04761218905516062   -0.16481681049677716   -0.05142468390601122
0.04761218905516062   -0.16481681049677716   -0.05142468390601122
0.04761218905516062   -0.16481681049677716   -0.05142468390601122
1.1802150547808197   0.081519719012452   0.07075159315082238
1.1802150547808197   0.081519719012452   0.07075159315082238
1.1802150547808197   0.081519719012452   0.07075159315082238
1.1802150547808197   0.081519719012452   0.07075159315082238
1.178721933494073   0.10975738480150005   -0.011294284060285181
1.178721933494073   0.10975738480150005   -0.011294284060285181
1.178721933494073   0.10975738480150005   -0.011294284060285181
1.178721933494073   0.10975738480150005   -0.011294284060285181
0.06809241479801682   -0.09907804152529931   0.0070220793547227794
0.06809241479801682   -0.09907804152529931   0.0070220793547227794
0.06809241479801682   -0.09907804152529931   0.0070220793547227794
0.06809241479801682   -0.09907804152529931   0.0070220793547227794
0.6110429002711819   -0.014081910123764474   0.0013253205500537435
0.6110429002711819   -0.014081910123764474   0.0013253205500537435
0.6110429002711819   -0.014081910123764474   0.0013253205500537435
0.6110429002711819   -0.014081910123764474   0.0013253205500537435
0.05473979851431383   -0.12045332841684378   -0.03836571517224696
0.05473979851431383   -0.12045332841684378   -0.03836571517224696
0.05473979851431383   -0.12045332841684378   -0.03836571517224696
0.05473979851431383   -0.12045332841684378   -0.03836571517224696
1.1989509232859568   0.13800904520122376   0.061599004499398244
1.1989509232859568   0.13800904520122376   0.061599004499398244
1.1989509232859568   0.13800904520122376   0.061599004499398244
1.1989509232859568   0.13800904520122376   0.061599004499398244
1.1879539724696209   0.1620657453333617   0.01202419087448876
1.1879539724696209   0.1620657453333617   0.01202419087448876
1.1879539724696209   0.1620657453333617   0.01202419087448876
1.1879539724696209   0.1620657453333617   0.01202419087448876
0.07045409710559586   -0.04724676291581553   -0.003526257283718248
0.07045409710559586   -0.04724676291581553   -0.003526257283718248
0.07045409710559586   -0.04724676291581553   -0.003526257283718248
0.07045409710559586   -0.04724676291581553   -0.003526257283718248
0.6191312266471162   0.0359216619472115   0.02532117255415684
0.6191312266471162   0.0359216619472115   0.02532117255415684
0.6191312266471162   0.0359216619472115   0.02532117255415684
0.6191312266471162   0.0359216619472115   0.02532117255415684
0.06073535341975106   -0.07138013698105153   -0.02798660164770575
0.06073535341975106   -0.07138013698105153   -0.02798660164770575
0.06073535341975106   -0.07138013698105153   -0.02798660164770575
0.06073535341975106   -0.07138013698105153   -0.02798660164770575
1.2026477967116076   0.19117419995473478   0.05638485746302921
1.2026477967116076   0.19117419995473478   0.05638485746302921
1.2026477967116076   0.19117419995473478   0.05638485746302921
1.2026477967116076   0.19117419995473478   0.05638485746302921
1.1688269550651267   0.22243956259467687   0.025239610566319425
1.1688269550651267   0.22243956259467687   0.025239610566319425
1.1688269550651267   0.22243956259467687   0.025239610566319425
1.1688269550651267   0.22243956259467687   0.025239610566319425
0.06976618146552971   0.016960242353532225   -0.012548565369573716
0.06976618146552971   0.016960242353532225   -0.012548565369573716
0.06976618146552971   0.016960242353532225   -0.012548565369573716
0.06976618146552971   0.016960242353532225   -0.012548565369573716
0.6282204708347779   0.09309054202183245   0.047527942407661776
0.6282204708347779   0.09309054202183245   0.047527942407661776
0.6282204708347779   0.09309054202183245   0.047527942407661776
0.6282204708347779   0.09309054202183245   0.047527942407661776
1.08731919239316   -0.21723474211188076   -0.09497325766314375
1.08731919239316   -0.21723474211188076   -0.09497325766314375
1.08731919239316   -0.21723474211188076   -0.09497325766314375
1.08731919239316   -0.21723474211188076   -0.09497325766314375
2.238440678196709   0.1478473567839933   0.0688276376382172
2.238440678196709   0.1478473567839933   0.0688276376382172
2.238440678196709   0.1478473567839933   0.0688276376382172
2.238440678196709   0.1478473567839933   0.0688276376382172
2.2636834859781234   0.07033231665776252   -0.1428533382421816
2.2636834859781234   0.07033231665776252   -0.1428533382421816
2.2636834859781234   0.07033231665776252   -0.1428533382421816
2.2636834859781234   0.07033231665776252   -0.1428533382421816
1.158311020187112   -0.04471525685266642   0.04112379105905678
1.158311020187112   -0.04471525685266642   0.04112379105905678
1.158311020187112   -0.04471525685266642   0.04112379105905678
1.158311020187112   -0.04471525685266642   0.04112379105905678
1.6030923241298678   -0.027893583374973996   -0.04002148831306447
1.6030923241298678   -0.027893583374973996   -0.04002148831306447
1.6030923241298678   -0.027893583374973996   -0.04002148831306447
1.6030923241298678   -0.027893583374973996   -0.04002148831306447
1.117862163279942   -0.14285702524943883   -0.06297872508000692
1.117862163279942   -0.14285702524943883   -0.06297872508000692
1.117862163279942   -0.14285702524943883   -0.06297872508000692
1.117862163279942   -0.14285702524943883   -0.06297872508000692
2.3246653568499314   0.18900709901917534   0.043381233755446225
2.3246653568499314   0.18900709901917534   0.043381233755446225
2.3246653568499314   0.18900709901917534   0.043381233755446225
2.3246653568499314   0.18900709901917534   0.043381233755446225
2.288498901633918   0.12788471089348485   -0.03221267112116058
2.288498901633918   0.12788471089348485   -0.03221267112116058
2.288498901633918   0.12788471089348485   -0.03221267112116058
2.288498901633918   0.12788471089348485   -0.03221267112116058
1.1535892404890582   -0.018882152162296606   0.021148428467314143
1.1535892404890582   -0.018882152162296606   0.021148428467314143
1.1535892404890582   -0.018882152162296606   0.021148428467314143
1.1535892404890582   -0.018882152162296606   0.021148428467314143
1.6868685724368764   0.042128116302525   0.02769752642019188
1.6868685724368764   0.042128116302525   0.02769752642019188
1.6868685724368764   0.042128116302525   0.02769752642019188
1.6868685724368764   0.042128116302525   0.02769752642019188
1.121154920204862   -0.10926884682606985   -0.05063647828988242
1.121154920204862   -0.10926884682606985   -0.05063647828988242
1.121154920204862   -0.10926884682606985   -0.05063647828988242
1.121154920204862   -0.10926884682606985   -0.05063647828988242
2.3182034750281613   0.21554165866730807   0.028653248076234775
2.3182034750281613   0.21554165866730807   0.028653248076234775
2.3182034750281613   0.21554165866730807   0.028653248076234775
2.3182034750281613   0.21554165866730807   0.028653248076234775
2.284531939520237   0.19554025438049244   -0.04936782329982524
2.284531939520237   0.19554025438049244   -0.04936782329982524
2.284531939520237   0.19554025438049244   -0.04936782329982524
2.284531939520237   0.19554025438049244   -0.04936782329982524
1.1297737736259832   0.04069837759191816   0.01171488837334101
1.1297737736259832   0.04069837759191816   0.01171488837334101
1.1297737736259832   0.04069837759191816   0.01171488837334101
1.1297737736259832   0.04069837759191816   0.01171488837334101
1.6436388433609637   0.07377938159526348   0.020468289261646233
1.6436388433609637   0.07377938159526348   0.020468289261646233
1.6436388433609637   0.07377938159526348   0.020468289261646233
1.6436388433609637   0.07377938159526348   0.020468289261646233
-2.4580074903467746   -0.11165909110224181   0.1262289205778931
-2.4580074903467746   -0.11165909110224181   0.1262289205778931
-2.4580074903467746   -0.11165909110224181   0.1262289205778931
-2.4580074903467746   -0.11165909110224181   0.1262289205778931
-1.631929390495383   -0.06180242290370436   -0.032845388870274134
-1.631929390495383   -0.06180242290370436   -0.032845388870274134
-1.631929390495383   -0.06180242290370436   -0.032845388870274134
-1.631929390495383   -0.06180242290370436   -0.032845388870274134
-1.5732524482343566   0.13215343619895792   0.1059346178859937
-1.5732524482343566   0.13215343619895792   0.1059346178859937
-1.5732524482343566   0.13215343619895792   0.1059346178859937
-1.5732524482343566   0.13215343619895792   0.1059346178859937
-2.4693862340552366   -0.17622699360839172   -0.051485002831835894
-2.4693862340552366   -0.17622699360839172   -0.051485002831835894
-2.4693862340552366   -0.17622699360839172   -0.051485002831835894
-2.4693862340552366   -0.17622699360839172   -0.051485002831835894
-1.9505556719762225   -0.03016357425428945   -0.003460071683086083
-1.9505556719762225   -0.03016357425428945   -0.003460071683086083
-1.9505556719762225   -0.03016357425428945   -0.003460071683086083
-1.9505556719762225   -0.03016357425428945   -0.003460071683086083
-2.400794304444779   -0.02624360691492794   0.1414912585269867
-2.400794304444779   -0.02624360691492794   0.1414912585269867
-2.400794304444779   -0.02624360691492794   0.1414912585269867
-2.400794304444779   -0.02624360691492794   0.1414912585269867
-1.6310380803682893   -0.007023653017983855   -0.043816453566728225
-1.6310380803682893   -0.007023653017983855   -0.043816453566728225
-1.6310380803682893   -0.007023653017983855   -0.043816453566728225
-1.6310380803682893   -0.007023653017983855   -0.043816453566728225
-1.5668837146629682   0.1638883906397185   0.09821835022970538
-1.5668837146629682   0.1638883906397185   0.09821835022970538
-1.5668837146629682   0.1638883906397185   0.09821835022970538
-1.5668837146629682   0.1638883906397185   0.09821835022970538
-2.4312586676914876   -0.14746590686951522   -0.07051339062425324
-2.4312586676914876   -0.14746590686951522   -0.07051339062425324
-2.4312586676914876   -0.14746590686951522   -0.07051339062425324
-2.4312586676914876   -0.14746590686951522   -0.07051339062425324
-1.9548049549211552   0.007123745421264205   0.022598871120782932
-1.9548049549211552   0.007123745421264205   0.022598871120782932
-1.9548049549211552   0.007123745421264205   0.022598871120782932
-1.9548049549211552   0.007123745421264205   0.022598871120782932
-2.367376383304227   0.003693843128360186   0.09773828131417267
-2.367376383304227   0.003693843128360186   0.09773828131417267
-2.367376383304227   0.003693843128360186   0.09773828131417267
-2.367376383304227   0.003693843128360186   0.09773828131417267
-1.6272038275026934   0.016290812189383053   -0.05578463551857121
-1.6272038275026934   0.016290812189383053   -0.05578463551857121
-1.6272038275026934   0.016290812189383053   -0.05578463551857121
-1.6272038275026934   0.016290812189383053   -0.05578463551857121
-1.5684430152851752   0.18491473565934796   0.0779314447004438
-1.5684430152851752   0.18491473565934796   0.0779314447004438
-1.5684430152851752   0.18491473565934796   0.0779314447004438
-1.5684430152851752   0.18491473565934796   0.0779314447004438
-2.3817358203094803   -0.11693589881486538   -0.08993866450648914
-2.3817358203094803   -0.11693589881486538   -0.08993866450648914
-2.3817358203094803   -0.11693589881486538   -0.08993866450648914
-2.3817358203094803   -0.11693589881486538   -0.08993866450648914
-1.898704864764421   0.04049988936086063   0.046906026725615835
-1.898704864764421   0.04049988936086063   0.046906026725615835
-1.898704864764421   0.04049988936086063   0.046906026725615835
-1.898704864764421   0.04049988936086063   0.046906026725615835
-1.6368895901634284   -0.15518776031215992   0.03573895019795581
-1.6368895901634284   -0.15518776031215992   0.03573895019795581
-1.6368895901634284   -0.15518776031215992   0.03573895019795581
-1.6368895901634284   -0.15518776031215992   0.03573895019795581
-0.8262003314363778   -0.029762551499526863   0.0016050049131935626
-0.8262003314363778   -0.029762551499526863   0.0016050049131935626
-0.8262003314363778   -0.029762551499526863   0.0016050049131935626
-0.8262003314363778   -0.029762551499526863   0.0016050049131935626
-0.8028384090805631   0.0812096161015674   0.0575834653193015
-0.8028384090805631   0.0812096161015674   0.0575834653193015
-0.8028384090805631   0.0812096161015674   0.0575834653193015
-0.8028384090805631   0.0812096161015674   0.0575834653193015
-1.6629377553425515   -0.15304325349755588   -0.05729522795847891
-1.6629377553425515   -0.15304325349755588   -0.05729522795847891
-1.6629377553425515   -0.15304325349755588   -0.05729522795847891
-1.6629377553425515   -0.15304325349755588   -0.05729522795847891
-1.2278243309407562   -0.06025010948735343   -0.024814527897686567
-1.2278243309407562   -0.06025010948735343   -0.024814527897686567
-1.2278243309407562   -0.06025010948735343   -0.024814527897686567
-1.2278243309407562   -0.06025010948735343   -0.024814527897686567
-1.6317783934214471   -0.08916950683380886   0.03462783498330407
-1.6317783934214471   -0.08916950683380886   0.03462783498330407
-1.6317783934214471   -0.08916950683380886   0.03462783498330407
-1.6317783934214471   -0.08916950683380886   0.03462783498330407
-0.8276782696290994   0.02365537081039329   -0.00906159213220041
-0.8276782696290994   0.02365537081039329   -0.00906159213220041
-0.8276782696290994   0.02365537081039329   -0.00906159213220041
-0.8276782696290994   0.02365537081039329   -0.00906159213220041
-0.8003293858523337   0.1341312455773554   0.0498289439287849
-0.8003293858523337   0.1341312455773554   0.0498289439287849
-0.8003293858523337   0.1341312455773554   0.0498289439287849
-0.8003293858523337   0.1341312455773554   0.0498289439287849
-1.6535613359828503   -0.1036374930366204   -0.06764387269336697
-1.6535613359828503   -0.1036374930366204   -0.06764387269336697
-1.6535613359828503   -0.1036374930366204   -0.06764387269336697
-1.6535613359828503   -0.1036374930366204   -0.06764387269336697
-1.2144574938191977   -0.006689610078159214   -5.395812091034402e-05
-1.2144574938191977   -0.006689610078159214   -5.395812091034402e-05
-1.2144574938191977   -0.006689610078159214   -5.395812091034402e-05
-1.2144574938191977   -0.006689610078159214   -5.395812091034402e-05
-1.6217643935443709   -0.03548406287860473   0.023187409341014126
-1.6217643935443709   -0.03548406287860473   0.023187409341014126
-1.6217643935443709   -0.03548406287860473   0.023187409341014126
-1.6217643935443709   -0.03548406287860473   0.023187409341014126
-0.8269801378327615   0.0711240058773952   -0.020417576273377758
-0.8269801378327615   0.0711240058773952   -0.020417576273377758
-0.8269801378327615   0.0711240058773952   -0.020417576273377758
-0.8269801378327615   0.0711240058773952   -0.020417576273377758
-0.8001250104424982   0.189735001297533   0.037344933082117296
-0.8001250104424982   0.189735001297533   0.037344933082117296
-0.8001250104424982   0.189735001297533   0.037344933082117296
-0.8001250104424982   0.189735001297533   0.037344933082117296
-1.6456392129186475   -0.05033744397328138   -0.0727973638342949
-1.6456392129186475   -0.05033744397328138   -0.0727973638342949
-1.6456392129186475   -0.05033744397328138   -0.0727973638342949
-1.6456392129186475   -0.05033744397328138   -0.0727973638342949
-1.2152879959853236   0.04241258793070918   0.018863523872136675
-1.2152879959853236   0.04241258793070918   0.018863523872136675
-1.2152879959853236   0.04241258793070918   0.018863523872136675
-1.2152879959853236   0.04241258793070918   0.018863523872136675
-0.8570147093898649   -0.1772797653257537   -0.004949671028023096
-0.8570147093898649   -0.1772797653257537   -0.004949671028023096
-0.8570147093898649   -0.1772797653257537   -0.004949671028023096
-0.8570147093898649   -0.1772797653257537   -0.004949671028023096
-0.027965534790078548   0.008913656899414498   0.03660263220198948
-0.027965534790078548   0.008913656899414498   0.03660263220198948
-0.027965534790078548   0.008913656899414498   0.03660263220198948
-0.027965534790078548   0.008913656899414498   0.03660263220198948
-0.031132150332723096   0.0524674742869517   0.01748626949102538
-0.031132150332723096   0.0524674742869517   0.01748626949102538
-0.031132150332723096   0.0524674742869517   0.01748626949102538
-0.031132150332723096   0.0524674742869517   0.01748626949102538
-0.8576235886759161   -0.11367140026757293   -0.021461416288323324
-0.8576235886759161   -0.11367140026757293   -0.021461416288323324
-0.8576235886759161   -0.11367140026757293   -0.021461416288323324
-0.8576235886759161   -0.11367140026757293   -0.021461416288323324
-0.44479110412136225   -0.05553494098158364   -0.013875894248631355
-0.44479110412136225   -0.05553494098158364   -0.013875894248631355
-0.44479110412136225   -0.05553494098158364   -0.013875894248631355
-0.44479110412136225   -0.05553494098158364   -0.013875894248631355
-0.8567007997277433   -0.11853940321105313   -0.011979468603978714
-0.8567007997277433   -0.11853940321105313   -0.011979468603978714
-0.8567007997277433   -0.11853940321105313   -0.011979468603978714
-0.8567007997277433   -0.11853940321105313   -0.011979468603978714
-0.02734294271188018   0.0620474737994478   0.02685230808274437
-0.02734294271188018   0.0620474737994478   0.02685230808274437
-0.02734294271188018   0.0620474737994478   0.02685230808274437
-0.02734294271188018   0.0620474737994478   0.02685230808274437
-0.0272571132452981   0.11012871974379695   0.008406597178025457
-0.0272571132452981   0.11012871974379695   0.008406597178025457
-0.0272571132452981   0.11012871974379695   0.008406597178025457
-0.0272571132452981   0.11012871974379695   0.008406597178025457
-0.8555008165970769   -0.06044982377474398   -0.03144714044282335
-0.8555008165970769   -0.06044982377474398   -0.03144714044282335
-0.8555008165970769   -0.06044982377474398   -0.03144714044282335
-0.8555008165970769   -0.06044982377474398   -0.03144714044282335
-0.4405029207509989   -0.0022114254887863477   0.006128039348229013
-0.4405029207509989   -0.0022114254887863477   0.006128039348229013
-0.4405029207509989   -0.0022114254887863477   0.006128039348229013
-0.4405029207509989   -0.0022114254887863477   0.006128039348229013
-0.8542122047627478   -0.061695332503735406   -0.023758572542186725
-0.8542122047627478   -0.061695332503735406   -0.023758572542186725
-0.8542122047627478   -0.061695332503735406   -0.023758572542186725
-0.8542122047627478   -0.061695332503735406   -0.023758572542186725
-0.024654562073388113   0.11526539147903003   0.01628268130234266
-0.024654562073388113   0.11526539147903003   0.01628268130234266
-0.024654562073388113   0.11526539147903003   0.01628268130234266
-0.024654562073388113   0.11526539147903003   0.01628268130234266
-0.026459887944253517   0.16951692525541767   -0.0012824426711532735
-0.026459887944253517   0.16951692525541767   -0.0012824426711532735
-0.026459887944253517   0.16951692525541767   -0.0012824426711532735
-0.026459887944253517   0.16951692525541767   -0.0012824426711532735
-0.8551114175338876   -0.006319556406847476   -0.04153254467045153
-0.8551114175338876   -0.006319556406847476   -0.04153254467045153
-0.8551114175338876   -0.006319556406847476   -0.04153254467045153
-0.8551114175338876   -0.006319556406847476   -0.04153254467045153
-0.43718024134975986   0.0511624704087565   0.024471447819214433
-0.43718024134975986   0.0511624704087565   0.024471447819214433
-0.43718024134975986   0.0511624704087565   0.024471447819214433
-0.43718024134975986   0.0511624704087565   0.024471447819214433
-0.08436932675420442   -0.19404000839046986   -0.0424626623287552
-0.08436932675420442   -0.19404000839046986   -0.0424626623287552
-0.08436932675420442   -0.19404000839046986   -0.0424626623287552
-0.08436932675420442   -0.19404000839046986   -0.0424626623287552
0.7673348995347615   0.054201141375789685   0.06957923785254382
0.7673348995347615   0.054201141375789685   0.06957923785254382
0.7673348995347615   0.054201141375789685   0.06957923785254382
0.7673348995347615   0.054201141375789685   0.06957923785254382
0.7422483462573638   0.028874573358701694   -0.02737077768461925
0.7422483462573638   0.028874573358701694   -0.02737077768461925
0.7422483462573638   0.028874573358701694   -0.02737077768461925
0.7422483462573638   0.028874573358701694   -0.02737077768461925
-0.056361690234601   -0.07111218788717837   0.01491823215576642
-0.056361690234601   -0.07111218788717837   0.01491823215576642
-0.056361690234601   -0.07111218788717837   0.01491823215576642
-0.056361690234601   -0.07111218788717837   0.01491823215576642
0.3373723171449954   -0.04483014478688434   -0.007815347747482965
0.3373723171449954   -0.04483014478688434   -0.007815347747482965
0.3373723171449954   -0.04483014478688434   -0.007815347747482965
0.3373723171449954   -0.04483014478688434   -0.007815347747482965
-0.08410007245299889   -0.14158177350927273   -0.05330409331412864
-0.08410007245299889   -0.14158177350927273   -0.05330409331412864
-0.08410007245299889   -0.14158177350927273   -0.05330409331412864
-0.08410007245299889   -0.14158177350927273   -0.05330409331412864
0.7753454822148318   0.10470291271986366   0.06228656274155904
0.7753454822148318   0.10470291271986366   0.06228656274155904
0.7753454822148318   0.10470291271986366   0.06228656274155904
0.7753454822148318   0.10470291271986366   0.06228656274155904
0.7541781796745427   0.0825123275021788   -0.038454887762693506
0.7541781796745427   0.0825123275021788   -0.038454887762693506
0.7541781796745427   0.0825123275021788   -0.038454887762693506
0.7541781796745427   0.0825123275021788   -0.038454887762693506
-0.05479700755533013   -0.023430129152084644   0.004265974523747889
-0.05479700755533013   -0.023430129152084644   0.004265974523747889
-0.05479700755533013   -0.023430129152084644   0.004265974523747889
-0.05479700755533013   -0.023430129152084644   0.004265974523747889
0.34027585480340855   0.0033953203695400863   0.01205620954581221
0.34027585480340855   0.0033953203695400863   0.01205620954581221
0.34027585480340855   0.0033953203695400863   0.01205620954581221
0.34027585480340855   0.0033953203695400863   0.01205620954581221
-0.08177302431450809   -0.08982981952328307   -0.06421441890094434
-0.08177302431450809   -0.08982981952328307   -0.06421441890094434
-0.08177302431450809   -0.08982981952328307   -0.06421441890094434
-0.08177302431450809   -0.08982981952328307   -0.06421441890094434
0.7869935476296749   0.15475136906933   0.053382910445816174
0.7869935476296749   0.15475136906933   0.053382910445816174
0.7869935476296749   0.15475136906933   0.053382910445816174
0.7869935476296749   0.15475136906933   0.053382910445816174
0.7615092987934915   0.14979483590701156   -0.04011871493013867
0.7615092987934915   0.14979483590701156   -0.04011871493013867
0.7615092987934915   0.14979483590701156   -0.04011871493013867
0.7615092987934915   0.14979483590701156   -0.04011871493013867
-0.05491592923069949   0.032314122147466914   -0.006359845995432241
-0.05491592923069949   0.032314122147466914   -0.006359845995432241
-0.05491592923069949   0.032314122147466914   -0.006359845995432241
-0.05491592923069949   0.032314122147466914   -0.006359845995432241
0.35196393293556283   0.05719586250267707   0.03566476575158849
0.35196393293556283   0.05719586250267707   0.03566476575158849
0.35196393293556283   0.05719586250267707   0.03566476575158849
0.35196393293556283   0.05719586250267707   0.03566476575158849
0.6875315629904313   -0.19262271206963882   -0.08261359142367346
0.6875315629904313   -0.19262271206963882   -0.08261359142367346
0.6875315629904313   -0.19262271206963882   -0.08261359142367346
0.6875315629904313   -0.19262271206963882   -0.08261359142367346
1.510920285574379   0.11224667939562263   0.07728138080051755
1.510920285574379   0.11224667939562263   0.07728138080051755
1.510920285574379   0.11224667939562263   0.07728138080051755
1.510920285574379   0.11224667939562263   0.07728138080051755
1.4991230290314583   -0.006769464589513663   -0.10995925646953321
1.4991230290314583   -0.006769464589513663   -0.10995925646953321
1.4991230290314583   -0.006769464589513663   -0.10995925646953321
1.4991230290314583   -0.006769464589513663   -0.10995925646953321
0.7490718193729508   -0.016221026910833547   0.05184218816285701
0.7490718193729508   -0.016221026910833547   0.05184218816285701
0.7490718193729508   -0.016221026910833547   0.05184218816285701
0.7490718193729508   -0.016221026910833547   0.05184218816285701
1.0577052238286857   -0.03749222070692182   -0.03463986317267431
1.0577052238286857   -0.03749222070692182   -0.03463986317267431
1.0577052238286857   -0.03749222070692182   -0.03463986317267431
1.0577052238286857   -0.03749222070692182   -0.03463986317267431
0.6881653167195121   -0.16729285513419095   -0.10161849688097359
0.6881653167195121   -0.16729285513419095   -0.10161849688097359
0.6881653167195121   -0.16729285513419095   -0.10161849688097359
0.6881653167195121   -0.16729285513419095   -0.10161849688097359
1.5644074894271667   0.14868032137611703   0.06101325954337865
1.5644074894271667   0.14868032137611703   0.06101325954337865
1.5644074894271667   0.14868032137611703   0.06101325954337865
1.5644074894271667   0.14868032137611703   0.06101325954337865
1.5357170641864701   0.02382474788281974   -0.14744489500451596
1.5357170641864701   0.02382474788281974   -0.14744489500451596
1.5357170641864701   0.02382474788281974   -0.14744489500451596
1.5357170641864701   0.02382474788281974   -0.14744489500451596
0.7545100434254234   0.007114888378497192   0.03860187011540483
0.7545100434254234   0.007114888378497192   0.03860187011540483
0.7545100434254234   0.007114888378497192   0.03860187011540483
0.7545100434254234   0.007114888378497192   0.03860187011540483
1.1054287806913041   -0.004432871090163493   -0.010602957940712636
1.1054287806913041   -0.004432871090163493   -0.010602957940712636
1.1054287806913041   -0.004432871090163493   -0.010602957940712636
1.1054287806913041   -0.004432871090163493   -0.010602957940712636
0.6959048719674351   -0.1367587760994109   -0.11055032269663405
0.6959048719674351   -0.1367587760994109   -0.11055032269663405
0.6959048719674351   -0.1367587760994109   -0.11055032269663405
0.6959048719674351   -0.1367587760994109   -0.11055032269663405
1.6039900500656419   0.1773662267819122   0.04037855549226129
1.6039900500656419   0.1773662267819122   0.04037855549226129
1.6039900500656419   0.1773662267819122   0.04037855549226129
1.6039900500656419   0.1773662267819122   0.04037855549226129
1.5938322336163864   0.10343877659105663   -0.1386415766213698
1.5938322336163864   0.10343877659105663   -0.1386415766213698
1.5938322336163864   0.10343877659105663   -0.1386415766213698
1.5938322336163864   0.10343877659105663   -0.1386415766213698
0.7569533003410461   0.05872628461702971   0.028169844097630358
0.7569533003410461   0.05872628461702971   0.028169844097630358
0.7569533003410461   0.05872628461702971   0.028169844097630358
0.7569533003410461   0.05872628461702971   0.028169844097630358
1.1134540596354887   0.03339444676122602   0.01596962737653495
1.1134540596354887   0.03339444676122602   0.01596962737653495
1.1134540596354887   0.03339444676122602   0.01596962737653495
1.1134540596354887   0.03339444676122602   0.01596962737653495
-1.7582985486347598   -0.057616239752851406   0.11445468502336745
-1.7582985486347598   -0.057616239752851406   0.11445468502336745
-1.7582985486347598   -0.057616239752851406   0.11445468502336745
-1.7582985486347598   -0.057616239752851406   0.11445468502336745
-1.229545139479314   -0.0819573441933078   -0.04326954814397706
-1.229545139479314   -0.0819573441933078   -0.04326954814397706
-1.229545139479314   -0.0819573441933078   -0.04326954814397706
-1.229545139479314   -0.0819573441933078   -0.04326954814397706
-1.1574025920226283   0.11599044421406313   0.09761854424783033
-1.1574025920226283   0.11599044421406313   0.09761854424783033
-1.1574025920226283   0.11599044421406313   0.09761854424783033
-1.1574025920226283   0.11599044421406313   0.09761854424783033
-1.758443272682783   -0.1447028288620881   -0.06328431913221771
-1.758443272682783   -0.1447028288620881   -0.06328431913221771
-1.758443272682783   -0.1447028288620881   -0.06328431913221771
-1.758443272682783   -0.1447028288620881   -0.06328431913221771
-1.4154199823024953   -0.02259779224898778   -0.0029799940795380148
-1.4154199823024953   -0.02259779224898778   -0.0029799940795380148
-1.4154199823024953   -0.02259779224898778   -0.0029799940795380148
-1.4154199823024953   -0.02259779224898778   -0.0029799940795380148
-1.692834609521866   0.011159637855587878   0.10889652995469166
-1.692834609521866   0.011159637855587878   0.10889652995469166
-1.692834609521866   0.011159637855587878   0.10889652995469166
-1.692834609521866   0.011159637855587878   0.10889652995469166
-1.2176766642531545   -0.03453743157321551   -0.05322394111751414
-1.2176766642531545   -0.03453743157321551   -0.05322394111751414
-1.2176766642531545   -0.03453743157321551   -0.05322394111751414
-1.2176766642531545   -0.03453743157321551   -0.05322394111751414
-1.1465088363123968   0.14008912781329474   0.08251195141070602
-1.1465088363123968   0.14008912781329474   0.08251195141070602
-1.1465088363123968   0.14008912781329474   0.08251195141070602
-1.1465088363123968   0.14008912781329474   0.08251195141070602
-1.7169157066076428   -0.1178442071527579   -0.0800236802257023
-1.7169157066076428   -0.1178442071527579   -0.0800236802257023
-1.7169157066076428   -0.1178442071527579   -0.0800236802257023
-1.7169157066076428   -0.1178442071527579   -0.0800236802257023
-1.4055917771768551   0.009196755155055525   0.014946820101103056
-1.4055917771768551   0.009196755155055525   0.014946820101103056
-1.4055917771768551   0.009196755155055525   0.014946820101103056
-1.4055917771768551   0.009196755155055525   0.014946820101103056
-1.6518567590043864   0.04000210260026671   0.08742474803755532
-1.6518567590043864   0.04000210260026671   0.08742474803755532
-1.6518567590043864   0.04000210260026671   0.08742474803755532
-1.6518567590043864   0.04000210260026671   0.08742474803755532
-1.206742054327422   -0.012931452351496842   -0.06563355849961774
-1.206742054327422   -0.012931452351496842   -0.06563355849961774
-1.206742054327422   -0.012931452351496842   -0.06563355849961774
-1.206742054327422   -0.012931452351496842   -0.06563355849961774
-1.1404738660680138   0.16350506645919083   0.07100420762232544
-1.1404738660680138   0.16350506645919083   0.07100420762232544
-1.1404738660680138   0.16350506645919083   0.07100420762232544
-1.1404738660680138   0.16350506645919083   0.07100420762232544
-1.6612690783356925   -0.08235768882973493   -0.09582441466493391
-1.6612690783356925   -0.08235768882973493   -0.09582441466493391
-1.6612690783356925   -0.08235768882973493   -0.09582441466493391
-1.6612690783356925   -0.08235768882973493   -0.09582441466493391
-1.3528939050999276   0.038964213750141696   0.040126199494325165
-1.3528939050999276   0.038964213750141696   0.040126199494325165
-1.3528939050999276   0.038964213750141696   0.040126199494325165
-1.3528939050999276   0.038964213750141696   0.040126199494325165
-1.2158170990091004   -0.09943686999496082   0.0428501800087311
-1.2158170990091004   -0.09943686999496082   0.0428501800087311
-1.2158170990091004   -0.09943686999496082   0.0428501800087311
-1.2158170990091004   -0.09943686999496082   0.0428501800087311
-0.7043901522775635   -0.05311126227553492   -0.006980982594748511
-0.7043901522775635   -0.05311126227553492   -0.006980982594748511
-0.7043901522775635   -0.05311126227553492   -0.006980982594748511
-0.7043901522775635   -0.05311126227553492   -0.006980982594748511
-0.6686148424240895   0.06780760133431626   0.05263613328241984
-0.6686148424240895   0.06780760133431626   0.05263613328241984
-0.6686148424240895   0.06780760133431626   0.05263613328241984
-0.6686148424240895   0.06780760133431626   0.05263613328241984
-1.2340709509537247   -0.11829130382782449   -0.051441502365763295
-1.2340709509537247   -0.11829130382782449   -0.051441502365763295
-1.2340709509537247   -0.11829130382782449   -0.051441502365763295
-1.2340709509537247   -0.11829130382782449   -0.051441502365763295
-0.9518599324392647   -0.04645720922593832   -0.019374262679554013
-0.9518599324392647   -0.04645720922593832   -0.019374262679554013
-0.9518599324392647   -0.04645720922593832   -0.019374262679554013
-0.9518599324392647   -0.04645720922593832   -0.019374262679554013
-1.2015828673852347   -0.04230975665385506   0.03501736830270846
-1.2015828673852347   -0.04230975665385506   0.03501736830270846
-1.2015828673852347   -0.04230975665385506   0.03501736830270846
-1.2015828673852347   -0.04230975665385506   0.03501736830270846
-0.696936707704201   -0.004007727551281315   -0.01715786423254012
-0.696936707704201   -0.004007727551281315   -0.01715786423254012
-0.696936707704201   -0.004007727551281315   -0.01715786423254012
-0.696936707704201   -0.004007727551281315   -0.01715786423254012
-0.6601083247832569   0.11721473778848912   0.04316427023258726
-0.6601083247832569   0.11721473778848912   0.04316427023258726
-0.6601083247832569   0.11721473778848912   0.04316427023258726
-0.6601083247832569   0.11721473778848912   0.04316427023258726
-1.217478999511375   -0.07164401243031254   -0.06060572434057766
-1.217478999511375   -0.07164401243031254   -0.06060572434057766
-1.217478999511375   -0.07164401243031254   -0.06060572434057766
-1.217478999511375   -0.07164401243031254   -0.06060572434057766
-0.9335864807701252   0.002130420316645204   0.0014971464818710686
-0.9335864807701252   0.002130420316645204   0.0014971464818710686
-0.9335864807701252   0.002130420316645204   0.0014971464818710686
-0.9335864807701252   0.002130420316645204   0.0014971464818710686
-1.1825318589961318   0.01049530838371815   0.03199065742160734
-1.1825318589961318   0.01049530838371815   0.03199065742160734
-1.1825318589961318   0.01049530838371815   0.03199065742160734
-1.1825318589961318   0.01049530838371815   0.03199065742160734
-0.6898816597821689   0.04024922249079041   -0.028736889464268917
-0.6898816597821689   0.04024922249079041   -0.028736889464268917
-0.6898816597821689   0.04024922249079041   -0.028736889464268917
-0.6898816597821689   0.04024922249079041   -0.028736889464268917
-0.6518902075667248   0.16984057456753357   0.034343723517857236
-0.6518902075667248   0.16984057456753357   0.034343723517857236
-0.6518902075667248   0.16984057456753357   0.034343723517857236
-0.6518902075667248   0.16984057456753357   0.034343723517857236
-1.20505238852247   -0.021395002768693494   -0.06698833542206668
-1.20505238852247   -0.021395002768693494   -0.06698833542206668
-1.20505238852247   -0.021395002768693494   -0.06698833542206668
-1.20505238852247   -0.021395002768693494   -0.06698833542206668
-0.9265171631368483   0.04782384228865166   0.021362544332325845
-0.9265171631368483   0.04782384228865166   0.021362544332325845
-0.9265171631368483   0.04782384228865166   0.021362544332325845
-0.9265171631368483   0.04782384228865166   0.021362544332325845
-0.7193063873046164   -0.1363414367041706   0.0016680166986171004
-0.7193063873046164   -0.1363414367041706   0.0016680166986171004
-0.7193063873046164   -0.1363414367041706   0.0016680166986171004
-0.7193063873046164   -0.1363414367041706   0.0016680166986171004
-0.18471414643597484   -0.01577037429968411   0.0293412532262011
-0.18471414643597484   -0.01577037429968411   0.0293412532262011
-0.18471414643597484   -0.01577037429968411   0.0293412532262011
-0.18471414643597484   -0.01577037429968411   0.0293412532262011
-0.18015223943273093   0.028116317518170827   0.010005823397210272
-0.18015223943273093   0.028116317518170827   0.010005823397210272
-0.18015223943273093   0.028116317518170827   0.010005823397210272
-0.18015223943273093   0.028116317518170827   0.010005823397210272
-0.7114135329441627   -0.0798219264255635   -0.013727791558074052
-0.7114135329441627   -0.0798219264255635   -0.013727791558074052
-0.7114135329441627   -0.0798219264255635   -0.013727791558074052
-0.7114135329441627   -0.0798219264255635   -0.013727791558074052
-0.44965892379047734   -0.04878144265679226   -0.013762108558457232
-0.44965892379047734   -0.04878144265679226   -0.013762108558457232
-0.44965892379047734   -0.04878144265679226   -0.013762108558457232
-0.44965892379047734   -0.04878144265679226   -0.013762108558457232
-0.7102571580647014   -0.0812161663374429   -0.0065516772488880305
-0.7102571580647014   -0.0812161663374429   -0.0065516772488880305
-0.7102571580647014   -0.0812161663374429   -0.0065516772488880305
-0.7102571580647014   -0.0812161663374429   -0.0065516772488880305
-0.17713201914217247   0.03368715260007001   0.01953608976810339
-0.17713201914217247   0.03368715260007001   0.01953608976810339
-0.17713201914217247   0.03368715260007001   0.01953608976810339
-0.17713201914217247   0.03368715260007001   0.01953608976810339
-0.1698819468212724   0.08348997996789576   0.0026330084945555207
-0.1698819468212724   0.08348997996789576   0.0026330084945555207
-0.1698819468212724   0.08348997996789576   0.0026330084945555207
-0.1698819468212724   0.08348997996789576   0.0026330084945555207
-0.7028993676861758   -0.030022796479033137   -0.02355341001448546
-0.7028993676861758   -0.030022796479033137   -0.02355341001448546
-0.7028993676861758   -0.030022796479033137   -0.02355341001448546
-0.7028993676861758   -0.030022796479033137   -0.02355341001448546
-0.43869032244250394   0.0009903011680631457   0.005903831782144521
-0.43869032244250394   0.0009903011680631457   0.005903831782144521
-0.43869032244250394   0.0009903011680631457   0.005903831782144521
-0.43869032244250394   0.0009903011680631457   0.005903831782144521
-0.7002897466108206   -0.026019834926894497   -0.014508266189847532
-0.7002897466108206   -0.026019834926894497   -0.014508266189847532
-0.7002897466108206   -0.026019834926894497   -0.014508266189847532
-0.7002897466108206   -0.026019834926894497   -0.014508266189847532
-0.1686354368590738   0.08334314945331636   0.009012388820129155
-0.1686354368590738   0.08334314945331636   0.009012388820129155
-0.1686354368590738   0.08334314945331636   0.009012388820129155
-0.1686354368590738   0.08334314945331636   0.009012388820129155
-0.16067221517969504   0.13966667445326708   -0.006040592724071314
-0.16067221517969504   0.13966667445326708   -0.006040592724071314
-0.16067221517969504   0.13966667445326708   -0.006040592724071314
-0.16067221517969504   0.13966667445326708   -0.006040592724071314
-0.6954206133685094   0.020355661463465874   -0.033823392387001903
-0.6954206133685094   0.020355661463465874   -0.033823392387001903
-0.6954206133685094   0.020355661463465874   -0.033823392387001903
-0.6954206133685094   0.020355661463465874   -0.033823392387001903
-0.4286751435255138   0.051000436718304634   0.024849930543185336
-0.4286751435255138   0.051000436718304634   0.024849930543185336
-0.4286751435255138   0.051000436718304634   0.024849930543185336
-0.4286751435255138   0.051000436718304634   0.024849930543185336
-0.2284672131129605   -0.16659501634661916   -0.03859943811179364
-0.2284672131129605   -0.16659501634661916   -0.03859943811179364
-0.2284672131129605   -0.16659501634661916   -0.03859943811179364
-0.2284672131129605   -0.16659501634661916   -0.03859943811179364
0.32822070815458804   0.026115209220160314   0.06363537106007149
0.32822070815458804   0.026115209220160314   0.06363537106007149
0.32822070815458804   0.026115209220160314   0.06363537106007149
0.32822070815458804   0.026115209220160314   0.06363537106007149
0.30550016077105474   -0.008801095575286126   -0.035388157290412725
0.30550016077105474   -0.008801095575286126   -0.035388157290412725
0.30550016077105474   -0.008801095575286126   -0.035388157290412725
0.30550016077105474   -0.008801095575286126   -0.035388157290412725
-0.1908159511434144   -0.03872615398557187   0.023529736347535638
-0.1908159511434144   -0.03872615398557187   0.023529736347535638
-0.1908159511434144   -0.03872615398557187   0.023529736347535638
-0.1908159511434144   -0.03872615398557187   0.023529736347535638
0.05153033284485296   -0.04569944648660801   -0.00979037885382584
0.05153033284485296   -0.04569944648660801   -0.00979037885382584
0.05153033284485296   -0.04569944648660801   -0.00979037885382584
0.05153033284485296   -0.04569944648660801   -0.00979037885382584
-0.22056076801928057   -0.11643312523228413   -0.04748737678508286
-0.22056076801928057   -0.11643312523228413   -0.04748737678508286
-0.22056076801928057   -0.11643312523228413   -0.04748737678508286
-0.22056076801928057   -0.11643312523228413   -0.04748737678508286
0.34021612646699395   0.07387702449150112   0.05551355112249225
0.34021612646699395   0.07387702449150112   0.05551355112249225
0.34021612646699395   0.07387702449150112   0.05551355112249225
0.34021612646699395   0.07387702449150112   0.05551355112249225
0.324596269513311   0.04357766550869534   -0.04008832924097802
0.324596269513311   0.04357766550869534   -0.04008832924097802
0.324596269513311   0.04357766550869534   -0.04008832924097802
0.324596269513311   0.04357766550869534   -0.04008832924097802
-0.18340339711942497   0.00580946109920908   0.012706275872480704
-0.18340339711942497   0.00580946109920908   0.012706275872480704
-0.18340339711942497   0.00580946109920908   0.012706275872480704
-0.18340339711942497   0.00580946109920908   0.012706275872480704
0.0616798878107856   -0.000584670615221411   0.010210555189765668
0.0616798878107856   -0.000584670615221411   0.010210555189765668
0.0616798878107856   -0.000584670615221411   0.010210555189765668
0.0616798878107856   -0.000584670615221411   0.010210555189765668
-0.2121082181054467   -0.06728936646545378   -0.05771900149296582
-0.2121082181054467   -0.06728936646545378   -0.05771900149296582
-0.2121082181054467   -0.06728936646545378   -0.05771900149296582
-0.2121082181054467   -0.06728936646545378   -0.05771900149296582
0.35761180633800344   0.12098720891202747   0.04757981147914425
0.35761180633800344   0.12098720891202747   0.04757981147914425
0.35761180633800344   0.12098720891202747   0.04757981147914425
0.35761180633800344   0.12098720891202747   0.04757981147914425
0.33996850443707616   0.10330052466541101   -0.04631226707348739
0.33996850443707616   0.10330052466541101   -0.04631226707348739
0.33996850443707616   0.10330052466541101   -0.04631226707348739
0.33996850443707616   0.10330052466541101   -0.04631226707348739
-0.17547993742422477   0.057177176408424915   0.0024102940981206786
-0.17547993742422477   0.057177176408424915   0.0024102940981206786
-0.17547993742422477   0.057177176408424915   0.0024102940981206786
-0.17547993742422477   0.057177176408424915   0.0024102940981206786
0.07738539019695018   0.04852419451090173   0.03093271720182709
0.07738539019695018   0.04852419451090173   0.03093271720182709
0.07738539019695018   0.04852419451090173   0.03093271720182709
0.07738539019695018   0.04852419451090173   0.03093271720182709
0.26137798449589955   -0.16834222048568442   -0.07612081752752266
0.26137798449589955   -0.16834222048568442   -0.07612081752752266
0.26137798449589955   -0.16834222048568442   -0.07612081752752266
0.26137798449589955   -0.16834222048568442   -0.07612081752752266
0.7846006807478275   0.07727056131370846   0.08232184758899817
0.7846006807478275   0.07727056131370846   0.08232184758899817
0.7846006807478275   0.07727056131370846   0.08232184758899817
0.7846006807478275   0.07727056131370846   0.08232184758899817
0.7768378311876876   -0.041076199345465275   -0.10019968582503835
0.7768378311876876   -0.041076199345465275   -0.10019968582503835
0.7768378311876876   -0.041076199345465275   -0.10019968582503835
0.7768378311876876   -0.041076199345465275   -0.10019968582503835
0.32939202548585117   0.013852898354990581   0.06141717235329093
0.32939202548585117   0.013852898354990581   0.06141717235329093
0.32939202548585117   0.013852898354990581   0.06141717235329093
0.32939202548585117   0.013852898354990581   0.06141717235329093
0.5100150150919901   -0.034727729757792314   -0.026858746961863342
0.5100150150919901   -0.034727729757792314   -0.026858746961863342
0.5100150150919901   -0.034727729757792314   -0.026858746961863342
0.5100150150919901   -0.034727729757792314   -0.026858746961863342
0.2686736390870567   -0.14027789404810156   -0.08804396723758903
0.2686736390870567   -0.14027789404810156   -0.08804396723758903
0.2686736390870567   -0.14027789404810156   -0.08804396723758903
0.2686736390870567   -0.14027789404810156   -0.08804396723758903
0.8426247059866881   0.11812308145783489   0.06953540736667553
0.8426247059866881   0.11812308145783489   0.06953540736667553
0.8426247059866881   0.11812308145783489   0.06953540736667553
0.8426247059866881   0.11812308145783489   0.06953540736667553
0.819045249623934   -0.011726557232684398   -0.120140564139029
0.819045249623934   -0.011726557232684398   -0.120140564139029
0.819045249623934   -0.011726557232684398   -0.120140564139029
0.819045249623934   -0.011726557232684398   -0.120140564139029
0.34054302967702244   0.035349675183391084   0.04787346190287594
0.34054302967702244   0.035349675183391084   0.04787346190287594
0.34054302967702244   0.035349675183391084   0.04787346190287594
0.34054302967702244   0.035349675183391084   0.04787346190287594
0.5527106203950434   -0.00514906697020609   -0.003280614223359471
0.5527106203950434   -0.00514906697020609   -0.003280614223359471
0.5527106203950434   -0.00514906697020609   -0.003280614223359471
0.5527106203950434   -0.00514906697020609   -0.003280614223359471
0.280311122726506   -0.11586045776468848   -0.10207593990162132
0.280311122726506   -0.11586045776468848   -0.10207593990162132
0.280311122726506   -0.11586045776468848   -0.10207593990162132
0.280311122726506   -0.11586045776468848   -0.10207593990162132
0.8845558775008374   0.14476229664178572   0.05092372137103409
0.8845558775008374   0.14476229664178572   0.05092372137103409
0.8845558775008374   0.14476229664178572   0.05092372137103409
0.8845558775008374   0.14476229664178572   0.05092372137103409
0.8838213577962124   0.052750251692644315   -0.1285783779794782
0.8838213577962124   0.052750251692644315   -0.1285783779794782
0.8838213577962124   0.052750251692644315   -0.1285783779794782
0.8838213577962124   0.052750251692644315   -0.1285783779794782
0.3519567784275004   0.07889855285783712   0.038031074686205577
0.3519567784275004   0.07889855285783712   0.038031074686205577
0.3519567784275004   0.07889855285783712   0.038031074686205577
0.3519567784275004   0.07889855285783712   0.038031074686205577
0.5739090060869414   0.02747724138116721   0.016986022252799524
0.5739090060869414   0.02747724138116721   0.016986022252799524
0.5739090060869414   0.02747724138116721   0.016986022252799524
0.5739090060869414   0.02747724138116721   0.016986022252799524
-1.0552749541843327   -0.01790772441410257   0.10270836545706792
-1.0552749541843327   -0.01790772441410257   0.10270836545706792
-1.0552749541843327   -0.01790772441410257   0.10270836545706792
-1.0552749541843327   -0.01790772441410257   0.10270836545706792
-0.8221963232729389   -0.10420159889446928   -0.05088659148012354
-0.8221963232729389   -0.10420159889446928   -0.05088659148012354
-0.8221963232729389   -0.10420159889446928   -0.05088659148012354
-0.8221963232729389   -0.10420159889446928   -0.05088659148012354
-0.7442709615678935   0.08835817546117486   0.08784839136920741
-0.7442709615678935   0.08835817546117486   0.08784839136920741
-0.7442709615678935   0.08835817546117486   0.08784839136920741
-0.7442709615678935   0.08835817546117486   0.08784839136920741
-1.0507712553542317   -0.11442698903822107   -0.06923333801095204
-1.0507712553542317   -0.11442698903822107   -0.06923333801095204
-1.0507712553542317   -0.11442698903822107   -0.06923333801095204
-1.0507712553542317   -0.11442698903822107   -0.06923333801095204
-0.8829450718460402   -0.02434961541182662   -0.012849235556613409
-0.8829450718460402   -0.02434961541182662   -0.012849235556613409
-0.8829450718460402   -0.02434961541182662   -0.012849235556613409
-0.8829450718460402   -0.02434961541182662   -0.012849235556613409
-0.9859960465973051   0.04207218627378581   0.09814353046167396
-0.9859960465973051   0.04207218627378581   0.09814353046167396
-0.9859960465973051   0.04207218627378581   0.09814353046167396
-0.9859960465973051   0.04207218627378581   0.09814353046167396
-0.8045543143646592   -0.06364914389067501   -0.061561053262763704
-0.8045543143646592   -0.06364914389067501   -0.061561053262763704
-0.8045543143646592   -0.06364914389067501   -0.061561053262763704
-0.8045543143646592   -0.06364914389067501   -0.061561053262763704
-0.7257556431736392   0.11125634527269856   0.0743190184675763
-0.7257556431736392   0.11125634527269856   0.0743190184675763
-0.7257556431736392   0.11125634527269856   0.0743190184675763
-0.7257556431736392   0.11125634527269856   0.0743190184675763
-1.0025934624591908   -0.08848142380814628   -0.08652687077400152
-1.0025934624591908   -0.08848142380814628   -0.08652687077400152
-1.0025934624591908   -0.08848142380814628   -0.08652687077400152
-1.0025934624591908   -0.08848142380814628   -0.08652687077400152
-0.8577614727826279   0.005634013923660558   0.006269550851464072
-0.8577614727826279   0.005634013923660558   0.006269550851464072
-0.8577614727826279   0.005634013923660558   0.006269550851464072
-0.8577614727826279   0.005634013923660558   0.006269550851464072
-0.9377562792191597   0.06985661557806588   0.07932100603993361
-0.9377562792191597   0.06985661557806588   0.07932100603993361
-0.9377562792191597   0.06985661557806588   0.07932100603993361
-0.9377562792191597   0.06985661557806588   0.07932100603993361
-0.7863377433502484   -0.04282661105009186   -0.07450852609267199
-0.7863377433502484   -0.04282661105009186   -0.07450852609267199
-0.7863377433502484   -0.04282661105009186   -0.07450852609267199
-0.7863377433502484   -0.04282661105009186   -0.07450852609267199
-0.7107428960887803   0.13973223257949696   0.06409901013431321
-0.7107428960887803   0.13973223257949696   0.06409901013431321
-0.7107428960887803   0.13973223257949696   0.06409901013431321
-0.7107428960887803   0.13973223257949696   0.06409901013431321
-0.937860655543689   -0.04695201312191899   -0.10014511343396523
-0.937860655543689   -0.04695201312191899   -0.10014511343396523
-0.937860655543689   -0.04695201312191899   -0.10014511343396523
-0.937860655543689   -0.04695201312191899   -0.10014511343396523
-0.8068947538432165   0.0351741867584327   0.030010078720462144
-0.8068947538432165   0.0351741867584327   0.030010078720462144
-0.8068947538432165   0.0351741867584327   0.030010078720462144
-0.8068947538432165   0.0351741867584327   0.030010078720462144
-0.7934780076396132   -0.05985996605882332   0.04836335385085923
-0.7934780076396132   -0.05985996605882332   0.04836335385085923
-0.7934780076396132   -0.05985996605882332   0.04836335385085923
-0.7934780076396132   -0.05985996605882332   0.04836335385085923
-0.5816989117240707   -0.07901585139525144   -0.01507135919038038
-0.5816989117240707   -0.07901585139525144   -0.01507135919038038
-0.5816989117240707   -0.07901585139525144   -0.01507135919038038
-0.5816989117240707   -0.07901585139525144   -0.01507135919038038
-0.5382108661938012   0.04015045730492575   0.04490721853809532
-0.5382108661938012   0.04015045730492575   0.04490721853809532
-0.5382108661938012   0.04015045730492575   0.04490721853809532
-0.5382108661938012   0.04015045730492575   0.04490721853809532
-0.8051180607504856   -0.0844985915715205   -0.04353033751104238
-0.8051180607504856   -0.0844985915715205   -0.04353033751104238
-0.8051180607504856   -0.0844985915715205   -0.04353033751104238
-0.8051180607504856   -0.0844985915715205   -0.04353033751104238
-0.6777287561015698   -0.04220911401060999   -0.018203992351628503
-0.6777287561015698   -0.04220911401060999   -0.018203992351628503
-0.6777287561015698   -0.04220911401060999   -0.018203992351628503
-0.6777287561015698   -0.04220911401060999   -0.018203992351628503
-0.7727830652366814   -0.007513513761650659   0.04115956224809342
-0.7727830652366814   -0.007513513761650659   0.04115956224809342
-0.7727830652366814   -0.007513513761650659   0.04115956224809342
-0.7727830652366814   -0.007513513761650659   0.04115956224809342
-0.5669227045190652   -0.03321146331640652   -0.025290052466892764
-0.5669227045190652   -0.03321146331640652   -0.025290052466892764
-0.5669227045190652   -0.03321146331640652   -0.025290052466892764
-0.5669227045190652   -0.03321146331640652   -0.025290052466892764
-0.5222393888274897   0.08671008706790166   0.03592516246663874
-0.5222393888274897   0.08671008706790166   0.03592516246663874
-0.5222393888274897   0.08671008706790166   0.03592516246663874
-0.5222393888274897   0.08671008706790166   0.03592516246663874
-0.7812340402184443   -0.03970787652362395   -0.052108744960111274
-0.7812340402184443   -0.03970787652362395   -0.052108744960111274
-0.7812340402184443   -0.03970787652362395   -0.052108744960111274
-0.7812340402184443   -0.03970787652362395   -0.052108744960111274
-0.6546598122713896   0.0027106562880357954   0.0019154334135031495
-0.6546598122713896   0.0027106562880357954   0.0019154334135031495
-0.6546598122713896   0.0027106562880357954   0.0019154334135031495
-0.6546598122713896   0.0027106562880357954   0.0019154334135031495
-0.7470024412529277   0.04203393229854402   0.03730744104528852
-0.7470024412529277   0.04203393229854402   0.03730744104528852
-0.7470024412529277   0.04203393229854402   0.03730744104528852
-0.7470024412529277   0.04203393229854402   0.03730744104528852
-0.5522880766535129   0.009151189385223968   -0.03675937898080319
-0.5522880766535129   0.009151189385223968   -0.03675937898080319
-0.5522880766535129   0.009151189385223968   -0.03675937898080319
-0.5522880766535129   0.009151189385223968   -0.03675937898080319
-0.5063197802001459   0.13722324413643133   0.027370290781263865
-0.5063197802001459   0.13722324413643133   0.027370290781263865
-0.5063197802001459   0.13722324413643133   0.027370290781263865
-0.5063197802001459   0.13722324413643133   0.027370290781263865
-0.7614989587793437   0.009188646857893695   -0.05913771759689318
-0.7614989587793437   0.009188646857893695   -0.05913771759689318
-0.7614989587793437   0.009188646857893695   -0.05913771759689318
-0.7614989587793437   0.009188646857893695   -0.05913771759689318
-0.6379689489263755   0.046716776984450537   0.021584070272869113
-0.6379689489263755   0.046716776984450537   0.021584070272869113
-0.6379689489263755   0.046716776984450537   0.021584070272869113
-0.6379689489263755   0.046716776984450537   0.021584070272869113
-0.5810284371582323   -0.09920704220055956   0.008472204444112022
-0.5810284371582323   -0.09920704220055956   0.008472204444112022
-0.5810284371582323   -0.09920704220055956   0.008472204444112022
-0.5810284371582323   -0.09920704220055956   0.008472204444112022
-0.3445109354060488   -0.04156772419832658   0.02137153096729246
-0.3445109354060488   -0.04156772419832658   0.02137153096729246
-0.3445109354060488   -0.04156772419832658   0.02137153096729246
-0.3445109354060488   -0.04156772419832658   0.02137153096729246
-0.3326015750741856   -0.0007608417377647225   0.002765674010942836
-0.3326015750741856   -0.0007608417377647225   0.002765674010942836
-0.3326015750741856   -0.0007608417377647225   0.002765674010942836
-0.3326015750741856   -0.0007608417377647225   0.002765674010942836
-0.5652914040996209   -0.04529860524969746   -0.005046408436379605
-0.5652914040996209   -0.04529860524969746   -0.005046408436379605
-0.5652914040996209   -0.04529860524969746   -0.005046408436379605
-0.5652914040996209   -0.04529860524969746   -0.005046408436379605
-0.4565814414487322   -0.04452678728288979   -0.013249103306003415
-0.4565814414487322   -0.04452678728288979   -0.013249103306003415
-0.4565814414487322   -0.04452678728288979   -0.013249103306003415
-0.4565814414487322   -0.04452678728288979   -0.013249103306003415
-0.5646256233767163   -0.04760167351230918   0.0005855634407512487
-0.5646256233767163   -0.04760167351230918   0.0005855634407512487
-0.5646256233767163   -0.04760167351230918   0.0005855634407512487
-0.5646256233767163   -0.04760167351230918   0.0005855634407512487
-0.3296648770310886   0.005144705290847956   0.011543617197815211
-0.3296648770310886   0.005144705290847956   0.011543617197815211
-0.3296648770310886   0.005144705290847956   0.011543617197815211
-0.3296648770310886   0.005144705290847956   0.011543617197815211
-0.31526058419322533   0.05130232444795431   -0.004566588872529552
-0.31526058419322533   0.05130232444795431   -0.004566588872529552
-0.31526058419322533   0.05130232444795431   -0.004566588872529552
-0.31526058419322533   0.05130232444795431   -0.004566588872529552
-0.549291688819223   0.0020794218662605612   -0.014705672290390902
-0.549291688819223   0.0020794218662605612   -0.014705672290390902
-0.549291688819223   0.0020794218662605612   -0.014705672290390902
-0.549291688819223   0.0020794218662605612   -0.014705672290390902
-0.438293925309781   0.0022927051043731828   0.006256760178040409
-0.438293925309781   0.0022927051043731828   0.006256760178040409
-0.438293925309781   0.0022927051043731828   0.006256760178040409
-0.438293925309781   0.0022927051043731828   0.006256760178040409
-0.5473912216340193   0.004303943195564583   -0.007427857693684169
-0.5473912216340193   0.004303943195564583   -0.007427857693684169
-0.5473912216340193   0.004303943195564583   -0.007427857693684169
-0.5473912216340193   0.004303943195564583   -0.007427857693684169
-0.31390355116800245   0.05233530332907607   0.001185597372465999
-0.31390355116800245   0.05233530332907607   0.001185597372465999
-0.31390355116800245   0.05233530332907607   0.001185597372465999
-0.31390355116800245   0.05233530332907607   0.001185597372465999
-0.2988826031575888   0.10384042408021141   -0.012937589514194825
-0.2988826031575888   0.10384042408021141   -0.012937589514194825
-0.2988826031575888   0.10384042408021141   -0.012937589514194825
-0.2988826031575888   0.10384042408021141   -0.012937589514194825
-0.5342783516169474   0.049823624736856004   -0.025022946903163687
-0.5342783516169474   0.049823624736856004   -0.025022946903163687
-0.5342783516169474   0.049823624736856004   -0.025022946903163687
-0.5342783516169474   0.049823624736856004   -0.025022946903163687
-0.42099158175794643   0.04927998385173918   0.02497818501664644
-0.42099158175794643   0.04927998385173918   0.02497818501664644
-0.42099158175794643   0.04927998385173918   0.02497818501664644
-0.42099158175794643   0.04927998385173918   0.02497818501664644
-0.3735290656357769   -0.13334932385488069   -0.031937520524799395
-0.3735290656357769   -0.13334932385488069   -0.031937520524799395
-0.3735290656357769   -0.13334932385488069   -0.031937520524799395
-0.3735290656357769   -0.13334932385488069   -0.031937520524799395
-0.11382320877070742   -0.0018030657287855488   0.056047534969549076
-0.11382320877070742   -0.0018030657287855488   0.056047534969549076
-0.11382320877070742   -0.0018030657287855488   0.056047534969549076
-0.11382320877070742   -0.0018030657287855488   0.056047534969549076
-0.12961974486843297   -0.03940001278937049   -0.041035763946438875
-0.12961974486843297   -0.03940001278937049   -0.041035763946438875
-0.12961974486843297   -0.03940001278937049   -0.041035763946438875
-0.12961974486843297   -0.03940001278937049   -0.041035763946438875
-0.32761286587940724   -0.005096926221016436   0.0320453044680828
-0.32761286587940724   -0.005096926221016436   0.0320453044680828
-0.32761286587940724   -0.005096926221016436   0.0320453044680828
-0.32761286587940724   -0.005096926221016436   0.0320453044680828
-0.23612267924215052   -0.042950036513708004   -0.009559322352127657
-0.23612267924215052   -0.042950036513708004   -0.009559322352127657
-0.23612267924215052   -0.042950036513708004   -0.009559322352127657
-0.23612267924215052   -0.042950036513708004   -0.009559322352127657
-0.3580705594625407   -0.08495920071051559   -0.04038088895808736
-0.3580705594625407   -0.08495920071051559   -0.04038088895808736
-0.3580705594625407   -0.08495920071051559   -0.04038088895808736
-0.3580705594625407   -0.08495920071051559   -0.04038088895808736
-0.09512446350813283   0.044499849477300124   0.04754078058839119
-0.09512446350813283   0.044499849477300124   0.04754078058839119
-0.09512446350813283   0.044499849477300124   0.04754078058839119
-0.09512446350813283   0.044499849477300124   0.04754078058839119
-0.10429533106075486   0.009851031333516051   -0.04619393901465454
-0.10429533106075486   0.009851031333516051   -0.04619393901465454
-0.10429533106075486   0.009851031333516051   -0.04619393901465454
-0.10429533106075486   0.009851031333516051   -0.04619393901465454
-0.3128450393090052   0.037445680260386735   0.021367779736138872
-0.3128450393090052   0.037445680260386735   0.021367779736138872
-0.3128450393090052   0.037445680260386735   0.021367779736138872
-0.3128450393090052   0.037445680260386735   0.021367779736138872
-0.2166838619001165   0.0006441035929720118   0.010314927136510893
-0.2166838619001165   0.0006441035929720118   0.010314927136510893
-0.2166838619001165   0.0006441035929720118   0.010314927136510893
-0.2166838619001165   0.0006441035929720118   0.010314927136510893
-0.34233644266204394   -0.03853926211462117   -0.050104294654051605
-0.34233644266204394   -0.03853926211462117   -0.050104294654051605
-0.34233644266204394   -0.03853926211462117   -0.050104294654051605
-0.34233644266204394   -0.03853926211462117   -0.050104294654051605
-0.07104574791119504   0.08959415350505001   0.040310854561614456
-0.07104574791119504   0.08959415350505001   0.040310854561614456
-0.07104574791119504   0.08959415350505001   0.040310854561614456
-0.07104574791119504   0.08959415350505001   0.040310854561614456
-0.08287110109428952   0.06486879426754569   -0.05174045293621069
-0.08287110109428952   0.06486879426754569   -0.05174045293621069
-0.08287110109428952   0.06486879426754569   -0.05174045293621069
-0.08287110109428952   0.06486879426754569   -0.05174045293621069
-0.29772716423509266   0.08560517923772049   0.011074849940776836
-0.29772716423509266   0.08560517923772049   0.011074849940776836
-0.29772716423509266   0.08560517923772049   0.011074849940776836
-0.29772716423509266   0.08560517923772049   0.011074849940776836
-0.19654557232936073   0.04611440801927026   0.03020136956965623
-0.19654557232936073   0.04611440801927026   0.03020136956965623
-0.19654557232936073   0.04611440801927026   0.03020136956965623
-0.19654557232936073   0.04611440801927026   0.03020136956965623
-0.1672317131233282   -0.14343324790233045   -0.0693648046200099
-0.1672317131233282   -0.14343324790233045   -0.0693648046200099
-0.1672317131233282   -0.14343324790233045   -0.0693648046200099
-0.1672317131233282   -0.14343324790233045   -0.0693648046200099
0.060983516249349126   0.04267729476160905   0.08537347347588038
0.060983516249349126   0.04267729476160905   0.08537347347588038
0.060983516249349126   0.04267729476160905   0.08537347347588038
0.060983516249349126   0.04267729476160905   0.08537347347588038
0.06149521129357964   -0.07037559444483388   -0.09182847745355986
0.06149521129357964   -0.07037559444483388   -0.09182847745355986
0.06149521129357964   -0.07037559444483388   -0.09182847745355986
0.06149521129357964   -0.07037559444483388   -0.09182847745355986
-0.09071680280702613   0.04420792021931866   0.06987101335190618
-0.09071680280702613   0.04420792021931866   0.06987101335190618
-0.09071680280702613   0.04420792021931866   0.06987101335190618
-0.09071680280702613   0.04420792021931866   0.06987101335190618
-0.0358781041792543   -0.030359616784604554   -0.016301738148565875
-0.0358781041792543   -0.030359616784604554   -0.016301738148565875
-0.0358781041792543   -0.030359616784604554   -0.016301738148565875
-0.0358781041792543   -0.030359616784604554   -0.016301738148565875
-0.15159566065753582   -0.11057595373384145   -0.07973940194748223
-0.15159566065753582   -0.11057595373384145   -0.07973940194748223
-0.15159566065753582   -0.11057595373384145   -0.07973940194748223
-0.15159566065753582   -0.11057595373384145   -0.07973940194748223
0.12669200241268458   0.08872621277692144   0.07505367092020947
0.12669200241268458   0.08872621277692144   0.07505367092020947
0.12669200241268458   0.08872621277692144   0.07505367092020947
0.12669200241268458   0.08872621277692144   0.07505367092020947
0.10992776331808331   -0.04216019787572991   -0.10906063703375915
0.10992776331808331   -0.04216019787572991   -0.10906063703375915
0.10992776331808331   -0.04216019787572991   -0.10906063703375915
0.10992776331808331   -0.04216019787572991   -0.10906063703375915
-0.07288569704306919   0.0646805820177884   0.05602468038950156
-0.07288569704306919   0.0646805820177884   0.05602468038950156
-0.07288569704306919   0.0646805820177884   0.05602468038950156
-0.07288569704306919   0.0646805820177884   0.05602468038950156
0.004002013879338709   -0.0013425235154324272   0.00524998400045857
0.004002013879338709   -0.0013425235154324272   0.00524998400045857
0.004002013879338709   -0.0013425235154324272   0.00524998400045857
0.004002013879338709   -0.0013425235154324272   0.00524998400045857
-0.13293905911154594   -0.08736145378493557   -0.09220009415015822
-0.13293905911154594   -0.08736145378493557   -0.09220009415015822
-0.13293905911154594   -0.08736145378493557   -0.09220009415015822
-0.13293905911154594   -0.08736145378493557   -0.09220009415015822
0.17430079826573963   0.11420151080616853   0.056442829022624035
0.17430079826573963   0.11420151080616853   0.056442829022624035
0.17430079826573963   0.11420151080616853   0.056442829022624035
0.17430079826573963   0.11420151080616853   0.056442829022624035
0.17774669309155916   0.013096047797470858   -0.11677136527968454
0.17774669309155916   0.013096047797470858   -0.11677136527968454
0.17774669309155916   0.013096047797470858   -0.11677136527968454
0.17774669309155916   0.013096047797470858   -0.11677136527968454
-0.056223185644461555   0.10084281855543642   0.04552510002503843
-0.056223185644461555   0.10084281855543642   0.04552510002503843
-0.056223185644461555   0.10084281855543642   0.04552510002503843
-0.056223185644461555   0.10084281855543642   0.04552510002503843
0.039842057573355676   0.02916909318741409   0.02629572726235756
0.039842057573355676   0.02916909318741409   0.02629572726235756
0.039842057573355676   0.02916909318741409   0.02629572726235756
0.039842057573355676   0.02916909318741409   0.02629572726235756
-0.35110607706315466   0.01969873722343104   0.09752484289959379
-0.35110607706315466   0.01969873722343104   0.09752484289959379
-0.35110607706315466   0.01969873722343104   0.09752484289959379
-0.35110607706315466   0.01969873722343104   0.09752484289959379
-0.4155750390592013   -0.12722954145565246   -0.05756183622763869
-0.4155750390592013   -0.12722954145565246   -0.05756183622763869
-0.4155750390592013   -0.12722954145565246   -0.05756183622763869
-0.4155750390592013   -0.12722954145565246   -0.05756183622763869
-0.33178263327016133   0.05919239191734227   0.07987494468279428
-0.33178263327016133   0.05919239191734227   0.07987494468279428
-0.33178263327016133   0.05919239191734227   0.07987494468279428
-0.33178263327016133   0.05919239191734227   0.07987494468279428
-0.3408983958555083   -0.08391218647575478   -0.07413717187293838
-0.3408983958555083   -0.08391218647575478   -0.07413717187293838
-0.3408983958555083   -0.08391218647575478   -0.07413717187293838
-0.3408983958555083   -0.08391218647575478   -0.07413717187293838
-0.3506852607970296   -0.02698462965869152   -0.026592619725880118
-0.3506852607970296   -0.02698462965869152   -0.026592619725880118
-0.3506852607970296   -0.02698462965869152   -0.026592619725880118
-0.3506852607970296   -0.02698462965869152   -0.026592619725880118
-0.27663668350799914   0.07241536134248862   0.0908438420463638
-0.27663668350799914   0.07241536134248862   0.0908438420463638
-0.27663668350799914   0.07241536134248862   0.0908438420463638
-0.27663668350799914   0.07241536134248862   0.0908438420463638
-0.3920297526846001   -0.09312056296783075   -0.06904769750422636
-0.3920297526846001   -0.09312056296783075   -0.06904769750422636
-0.3920297526846001   -0.09312056296783075   -0.06904769750422636
-0.3920297526846001   -0.09312056296783075   -0.06904769750422636
-0.3058430509361885   0.0816210815536055   0.06723524451178577
-0.3058430509361885   0.0816210815536055   0.06723524451178577
-0.3058430509361885   0.0816210815536055   0.06723524451178577
-0.3058430509361885   0.0816210815536055   0.06723524451178577
-0.28547650872263186   -0.05856485514473163   -0.09238119993939414
-0.28547650872263186   -0.05856485514473163   -0.09238119993939414
-0.28547650872263186   -0.05856485514473163   -0.09238119993939414
-0.28547650872263186   -0.05856485514473163   -0.09238119993939414
-0.3097957088868086   0.001684004193792915   -0.0054547152938123275
-0.3097957088868086   0.001684004193792915   -0.0054547152938123275
-0.3097957088868086   0.001684004193792915   -0.0054547152938123275
-0.3097957088868086   0.001684004193792915   -0.0054547152938123275
-0.22083031324599417   0.09969463720758186   0.07259028509147315
-0.22083031324599417   0.09969463720758186   0.07259028509147315
-0.22083031324599417   0.09969463720758186   0.07259028509147315
-0.22083031324599417   0.09969463720758186   0.07259028509147315
-0.3666993429642084   -0.07284850735009142   -0.0825766267246166
-0.3666993429642084   -0.07284850735009142   -0.0825766267246166
-0.3666993429642084   -0.07284850735009142   -0.0825766267246166
-0.3666993429642084   -0.07284850735009142   -0.0825766267246166
-0.2820987984732385   0.11584406041408349   0.05807339717556583
-0.2820987984732385   0.11584406041408349   0.05807339717556583
-0.2820987984732385   0.11584406041408349   0.05807339717556583
-0.2820987984732385   0.11584406041408349   0.05807339717556583
-0.2115049693040793   -0.010379779495327347   -0.10407921342387638
-0.2115049693040793   -0.010379779495327347   -0.10407921342387638
-0.2115049693040793   -0.010379779495327347   -0.10407921342387638
-0.2115049693040793   -0.010379779495327347   -0.10407921342387638
-0.26059906514235426   0.03161431168024656   0.017192501159877915
-0.26059906514235426   0.03161431168024656   0.017192501159877915
-0.26059906514235426   0.03161431168024656   0.017192501159877915
-0.26059906514235426   0.03161431168024656   0.017192501159877915
-0.3721488495414376   -0.023019710949619417   0.05535928085514669
-0.3721488495414376   -0.023019710949619417   0.05535928085514669
-0.3721488495414376   -0.023019710949619417   0.05535928085514669
-0.3721488495414376   -0.023019710949619417   0.05535928085514669
-0.46074631226124985   -0.1037717280668259   -0.022492074058053424
-0.46074631226124985   -0.1037717280668259   -0.022492074058053424
-0.46074631226124985   -0.1037717280668259   -0.022492074058053424
-0.46074631226124985   -0.1037717280668259   -0.022492074058053424
-0.41058714113894057   0.01052551343139184   0.03705926789197429
-0.41058714113894057   0.01052551343139184   0.03705926789197429
-0.41058714113894057   0.01052551343139184   0.03705926789197429
-0.41058714113894057   0.01052551343139184   0.03705926789197429
-0.37625776816106965   -0.04921322008126864   -0.03409511777313637
-0.37625776816106965   -0.04921322008126864   -0.03409511777313637
-0.37625776816106965   -0.04921322008126864   -0.03409511777313637
-0.37625776816106965   -0.04921322008126864   -0.03409511777313637
-0.4052037081203496   -0.03820992662371229   -0.018760148869318274
-0.4052037081203496   -0.03820992662371229   -0.018760148869318274
-0.4052037081203496   -0.03820992662371229   -0.018760148869318274
-0.4052037081203496   -0.03820992662371229   -0.018760148869318274
-0.3447426877476853   0.025946636144786414   0.0483204280677226
-0.3447426877476853   0.025946636144786414   0.0483204280677226
-0.3447426877476853   0.025946636144786414   0.0483204280677226
-0.3447426877476853   0.025946636144786414   0.0483204280677226
-0.43895931414877476   -0.06149143539111943   -0.03278464833468527
-0.43895931414877476   -0.06149143539111943   -0.03278464833468527
-0.43895931414877476   -0.06149143539111943   -0.03278464833468527
-0.43895931414877476   -0.06149143539111943   -0.03278464833468527
-0.3874176314593419   0.05513313039780372   0.028279880887893953
-0.3874176314593419   0.05513313039780372   0.028279880887893953
-0.3874176314593419   0.05513313039780372   0.028279880887893953
-0.3874176314593419   0.05513313039780372   0.028279880887893953
-0.34531578250344686   -0.006188784080385812   -0.042318547690506726
-0.34531578250344686   -0.006188784080385812   -0.042318547690506726
-0.34531578250344686   -0.006188784080385812   -0.042318547690506726
-0.34531578250344686   -0.006188784080385812   -0.042318547690506726
-0.3775463484418695   0.0034424247400345193   0.0007590266655177862
-0.3775463484418695   0.0034424247400345193   0.0007590266655177862
-0.3775463484418695   0.0034424247400345193   0.0007590266655177862
-0.3775463484418695   0.0034424247400345193   0.0007590266655177862
-0.3122700664715509   0.07320909741291075   0.0435121509756688
-0.3122700664715509   0.07320909741291075   0.0435121509756688
-0.3122700664715509   0.07320909741291075   0.0435121509756688
-0.3122700664715509   0.07320909741291075   0.0435121509756688
-0.41711379048875213   -0.020915194093014775   -0.0441525897683463
-0.41711379048875213   -0.020915194093014775   -0.0441525897683463
-0.41711379048875213   -0.020915194093014775   -0.0441525897683463
-0.41711379048875213   -0.020915194093014775   -0.0441525897683463
-0.36413789695503096   0.1044755068317756   0.0199355204482035
-0.36413789695503096   0.1044755068317756   0.0199355204482035
-0.36413789695503096   0.1044755068317756   0.0199355204482035
-0.36413789695503096   0.1044755068317756   0.0199355204482035
-0.3185916917171472   0.04153198864608244   -0.05007899727596882
-0.3185916917171472   0.04153198864608244   -0.05007899727596882
-0.3185916917171472   0.04153198864608244   -0.05007899727596882
-0.3185916917171472   0.04153198864608244   -0.05007899727596882
-0.35140111543478053   0.04642359314815159   0.020613509553030263
-0.35140111543478053   0.04642359314815159   0.020613509553030263
-0.35140111543478053   0.04642359314815159   0.020613509553030263
-0.35140111543478053   0.04642359314815159   0.020613509553030263
-0.4449562381172742   -0.06282814767919838   0.015514716274189527
-0.4449562381172742   -0.06282814767919838   0.015514716274189527
-0.4449562381172742   -0.06282814767919838   0.015514716274189527
-0.4449562381172742   -0.06282814767919838   0.015514716274189527
-0.5058376096096551   -0.06537297021994148   0.013621306259227648
-0.5058376096096551   -0.06537297021994148   0.013621306259227648
-0.5058376096096551   -0.06537297021994148   0.013621306259227648
-0.5058376096096551   -0.06537297021994148   0.013621306259227648
-0.487243421320649   -0.029637511751895454   -0.004788923726341352
-0.487243421320649   -0.029637511751895454   -0.004788923726341352
-0.487243421320649   -0.029637511751895454   -0.004788923726341352
-0.487243421320649   -0.029637511751895454   -0.004788923726341352
-0.4210073719687538   -0.008938693699591924   0.0044223208738918066
-0.4210073719687538   -0.008938693699591924   0.0044223208738918066
-0.4210073719687538   -0.008938693699591924   0.0044223208738918066
-0.4210073719687538   -0.008938693699591924   0.0044223208738918066
-0.46545788557425843   -0.0393298688741153   -0.012434272494841782
-0.46545788557425843   -0.0393298688741153   -0.012434272494841782
-0.46545788557425843   -0.0393298688741153   -0.012434272494841782
-0.46545788557425843   -0.0393298688741153   -0.012434272494841782
-0.4213640697935396   -0.013969857575938105   0.007669995626305291
-0.4213640697935396   -0.013969857575938105   0.007669995626305291
-0.4213640697935396   -0.013969857575938105   0.007669995626305291
-0.4213640697935396   -0.013969857575938105   0.007669995626305291
-0.48392527689534276   -0.021644901275023526   0.003809187923322639
-0.48392527689534276   -0.021644901275023526   0.003809187923322639
-0.48392527689534276   -0.021644901275023526   0.003809187923322639
-0.48392527689534276   -0.021644901275023526   0.003809187923322639
-0.46291277234322553   0.01986391566143933   -0.012162119790494676
-0.46291277234322553   0.01986391566143933   -0.012162119790494676
-0.46291277234322553   0.01986391566143933   -0.012162119790494676
-0.46291277234322553   0.01986391566143933   -0.012162119790494676
-0.39791623955254773   0.03599809763073629   -0.005078126811067965
-0.39791623955254773   0.03599809763073629   -0.005078126811067965
-0.39791623955254773   0.03599809763073629   -0.005078126811067965
-0.39791623955254773   0.03599809763073629   -0.005078126811067965
-0.44004557059387606   0.004930910291228469   0.0068309502152383295
-0.44004557059387606   0.004930910291228469   0.0068309502152383295
-0.44004557059387606   0.004930910291228469   0.0068309502152383295
-0.44004557059387606   0.004930910291228469   0.0068309502152383295
-0.39712612286246546   0.03535648364142574   -0.0004859293713533677
-0.39712612286246546   0.03535648364142574   -0.0004859293713533677
-0.39712612286246546   0.03535648364142574   -0.0004859293713533677
-0.39712612286246546   0.03535648364142574   -0.0004859293713533677
-0.4611208453845779   0.02308757329948359   -0.006426142635301266
-0.4611208453845779   0.02308757329948359   -0.006426142635301266
-0.4611208453845779   0.02308757329948359   -0.006426142635301266
-0.4611208453845779   0.02308757329948359   -0.006426142635301266
-0.43961648037141815   0.0696622693122729   -0.02049159527157777
-0.43961648037141815   0.0696622693122729   -0.02049159527157777
-0.43961648037141815   0.0696622693122729   -0.02049159527157777
-0.43961648037141815   0.0696622693122729   -0.02049159527157777
-0.37589681300843225   0.08111883538887617   -0.01550238837590337
-0.37589681300843225   0.08111883538887617   -0.01550238837590337
-0.37589681300843225   0.08111883538887617   -0.01550238837590337
-0.37589681300843225   0.08111883538887617   -0.01550238837590337
-0.41580213748205924   0.04927152742572172   0.02519543883220799
-0.41580213748205924   0.04927152742572172   0.02519543883220799
-0.41580213748205924   0.04927152742572172   0.02519543883220799
-0.41580213748205924   0.04927152742572172   0.02519543883220799
-0.5204471598195618   -0.09941437161209278   -0.02538504339816337
-0.5204471598195618   -0.09941437161209278   -0.02538504339816337
-0.5204471598195618   -0.09941437161209278   -0.02538504339816337
-0.5204471598195618   -0.09941437161209278   -0.02538504339816337
-0.5546901373707107   -0.027771038438930515   0.04814942172912562
-0.5546901373707107   -0.027771038438930515   0.04814942172912562
-0.5546901373707107   -0.027771038438930515   0.04814942172912562
-0.5546901373707107   -0.027771038438930515   0.04814942172912562
-0.5635300189359302   -0.06812089636405358   -0.0471573931905491
-0.5635300189359302   -0.06812089636405358   -0.0471573931905491
-0.5635300189359302   -0.06812089636405358   -0.0471573931905491
-0.5635300189359302   -0.06812089636405358   -0.0471573931905491
-0.46627584121967575   0.02983600920451479   0.040575455822114755
-0.46627584121967575   0.02983600920451479   0.040575455822114755
-0.46627584121967575   0.02983600920451479   0.040575455822114755
-0.46627584121967575   0.02983600920451479   0.040575455822114755
-0.5240622746656747   -0.03868117394898188   -0.007808677797370753
-0.5240622746656747   -0.03868117394898188   -0.007808677797370753
-0.5240622746656747   -0.03868117394898188   -0.007808677797370753
-0.5240622746656747   -0.03868117394898188   -0.007808677797370753
-0.4974911942480274   -0.05217892734282473   -0.033486372772307864
-0.4974911942480274   -0.05217892734282473   -0.033486372772307864
-0.4974911942480274   -0.05217892734282473   -0.033486372772307864
-0.4974911942480274   -0.05217892734282473   -0.033486372772307864
-0.5292090998662532   0.016999606224610803   0.03932669956917229
-0.5292090998662532   0.016999606224610803   0.03932669956917229
-0.5292090998662532   0.016999606224610803   0.03932669956917229
-0.5292090998662532   0.016999606224610803   0.03932669956917229
-0.5316862746576607   -0.021177534441632187   -0.052907058425300094
-0.5316862746576607   -0.021177534441632187   -0.052907058425300094
-0.5316862746576607   -0.021177534441632187   -0.052907058425300094
-0.5316862746576607   -0.021177534441632187   -0.052907058425300094
-0.4443540968577402   0.0703689742604334   0.03012619903793376
-0.4443540968577402   0.0703689742604334   0.03012619903793376
-0.4443540968577402   0.0703689742604334   0.03012619903793376
-0.4443540968577402   0.0703689742604334   0.03012619903793376
-0.49521838370486226   0.003931659455015252   0.012072685949975504
-0.49521838370486226   0.003931659455015252   0.012072685949975504
-0.49521838370486226   0.003931659455015252   0.012072685949975504
-0.49521838370486226   0.003931659455015252   0.012072685949975504
-0.47460337415401066   -0.007774821077033672   -0.042976392105957606
-0.47460337415401066   -0.007774821077033672   -0.042976392105957606
-0.47460337415401066   -0.007774821077033672   -0.042976392105957606
-0.47460337415401066   -0.007774821077033672   -0.042976392105957606
-0.4982983617141565   0.06010489654306829   0.03275007530752455
-0.4982983617141565   0.06010489654306829   0.03275007530752455
-0.4982983617141565   0.06010489654306829   0.03275007530752455
-0.4982983617141565   0.06010489654306829   0.03275007530752455
-0.503814237482385   0.030562978947277164   -0.058049078264178114
-0.503814237482385   0.030562978947277164   -0.058049078264178114
-0.503814237482385   0.030562978947277164   -0.058049078264178114
-0.503814237482385   0.030562978947277164   -0.058049078264178114
-0.42237153417842205   0.11557433338303454   0.019821071622640865
-0.42237153417842205   0.11557433338303454   0.019821071622640865
-0.42237153417842205   0.11557433338303454   0.019821071622640865
-0.42237153417842205   0.11557433338303454   0.019821071622640865
-0.47068071582991994   0.04624766844991329   0.03109296548896312
-0.47068071582991994   0.04624766844991329   0.03109296548896312
-0.47068071582991994   0.04624766844991329   0.03109296548896312
-0.47068071582991994   0.04624766844991329   0.03109296548896312
-0.595134602619161   -0.11832484358140219   -0.06351909937066573
-0.595134602619161   -0.11832484358140219   -0.06351909937066573
-0.595134602619161   -0.11832484358140219   -0.06351909937066573
-0.595134602619161   -0.11832484358140219   -0.06351909937066573
-0.6569184977547851   0.009427831191266306   0.08650608003950608
-0.6569184977547851   0.009427831191266306   0.08650608003950608
-0.6569184977547851   0.009427831191266306   0.08650608003950608
-0.6569184977547851   0.009427831191266306   0.08650608003950608
-0.647885717126896   -0.09811169973476525   -0.0845581720986435
-0.647885717126896   -0.09811169973476525   -0.0845581720986435
-0.647885717126896   -0.09811169973476525   -0.0845581720986435
-0.647885717126896   -0.09811169973476525   -0.0845581720986435
-0.5100531729662   0.07456243166352483   0.07754350863051805
-0.5100531729662   0.07456243166352483   0.07754350863051805
-0.5100531729662   0.07456243166352483   0.07754350863051805
-0.5100531729662   0.07456243166352483   0.07754350863051805
-0.5783817778583756   -0.025318194550621384   -0.003965704104294723
-0.5783817778583756   -0.025318194550621384   -0.003965704104294723
-0.5783817778583756   -0.025318194550621384   -0.003965704104294723
-0.5783817778583756   -0.025318194550621384   -0.003965704104294723
-0.5710707396097582   -0.08036120699696644   -0.0726206859267872
-0.5710707396097582   -0.08036120699696644   -0.0726206859267872
-0.5710707396097582   -0.08036120699696644   -0.0726206859267872
-0.5710707396097582   -0.08036120699696644   -0.0726206859267872
-0.5835846464508807   0.06009544295818085   0.07874003858847896
-0.5835846464508807   0.06009544295818085   0.07874003858847896
-0.5835846464508807   0.06009544295818085   0.07874003858847896
-0.5835846464508807   0.06009544295818085   0.07874003858847896
-0.5929756363633233   -0.07069516854400429   -0.10076413309917723
-0.5929756363633233   -0.07069516854400429   -0.10076413309917723
-0.5929756363633233   -0.07069516854400429   -0.10076413309917723
-0.5929756363633233   -0.07069516854400429   -0.10076413309917723
-0.48540228994563217   0.09387265865403033   0.0634626720391804
-0.48540228994563217   0.09387265865403033   0.0634626720391804
-0.48540228994563217   0.09387265865403033   0.0634626720391804
-0.48540228994563217   0.09387265865403033   0.0634626720391804
-0.5411242004728563   0.0033209701698066474   0.01512395157531219
-0.5411242004728563   0.0033209701698066474   0.01512395157531219
-0.5411242004728563   0.0033209701698066474   0.01512395157531219
-0.5411242004728563   0.0033209701698066474   0.01512395157531219
-0.5452287404293761   -0.05779362256873516   -0.08400329915677876
-0.5452287404293761   -0.05779362256873516   -0.08400329915677876
-0.5452287404293761   -0.05779362256873516   -0.08400329915677876
-0.5452287404293761   -0.05779362256873516   -0.08400329915677876
-0.5297091531083608   0.08441114544996868   0.06046196918166205
-0.5297091531083608   0.08441114544996868   0.06046196918166205
-0.5297091531083608   0.08441114544996868   0.06046196918166205
-0.5297091531083608   0.08441114544996868   0.06046196918166205
-0.5209695367055592   -0.023231020508713368   -0.11009774423461288
-0.5209695367055592   -0.023231020508713368   -0.11009774423461288
-0.5209695367055592   -0.023231020508713368   -0.11009774423461288
-0.5209695367055592   -0.023231020508713368   -0.11009774423461288
-0.46331473451256466   0.12273799507747224   0.05227342045472293
-0.46331473451256466   0.12273799507747224   0.05227342045472293
-0.46331473451256466   0.12273799507747224   0.05227342045472293
-0.46331473451256466   0.12273799507747224   0.05227342045472293
-0.4903427580075224   0.031961157895210535   0.037200336601656794
-0.4903427580075224   0.031961157895210535   0.037200336601656794
-0.4903427580075224   0.031961157895210535   0.037200336601656794
-0.4903427580075224   0.031961157895210535   0.037200336601656794
0.3598945089107296   0.05826823401975601   0.09445749317941136
0.3598945089107296   0.05826823401975601   0.09445749317941136
0.3598945089107296   0.05826823401975601   0.09445749317941136
0.3598945089107296   0.05826823401975601   0.09445749317941136
-0.009254421750509431   -0.15188673527257793   -0.062455754673256376
-0.009254421750509431   -0.15188673527257793   -0.062455754673256376
-0.009254421750509431   -0.15188673527257793   -0.062455754673256376
-0.009254421750509431   -0.15188673527257793   -0.062455754673256376
0.08025311630512137   0.029745303081476878   0.07299876375265171
0.08025311630512137   0.029745303081476878   0.07299876375265171
0.08025311630512137   0.029745303081476878   0.07299876375265171
0.08025311630512137   0.029745303081476878   0.07299876375265171
0.3757263734260085   -0.05348939553426112   -0.07813199435466421
0.3757263734260085   -0.05348939553426112   -0.07813199435466421
0.3757263734260085   -0.05348939553426112   -0.07813199435466421
0.3757263734260085   -0.05348939553426112   -0.07813199435466421
0.1835981183252198   -0.02961657963735518   -0.04494115942973048
0.1835981183252198   -0.02961657963735518   -0.04494115942973048
0.1835981183252198   -0.02961657963735518   -0.04494115942973048
0.1835981183252198   -0.02961657963735518   -0.04494115942973048
0.43992350153310444   0.10412706458821165   0.08523718605834256
0.43992350153310444   0.10412706458821165   0.08523718605834256
0.43992350153310444   0.10412706458821165   0.08523718605834256
0.43992350153310444   0.10412706458821165   0.08523718605834256
0.01999015577463667   -0.12393698946438468   -0.07463374635391021
0.01999015577463667   -0.12393698946438468   -0.07463374635391021
0.01999015577463667   -0.12393698946438468   -0.07463374635391021
0.01999015577463667   -0.12393698946438468   -0.07463374635391021
0.11299709166679782   0.05179423095099689   0.06094063014981874
0.11299709166679782   0.05179423095099689   0.06094063014981874
0.11299709166679782   0.05179423095099689   0.06094063014981874
0.11299709166679782   0.05179423095099689   0.06094063014981874
0.438263019079902   -0.028577520510702684   -0.09778809009477848
0.438263019079902   -0.028577520510702684   -0.09778809009477848
0.438263019079902   -0.028577520510702684   -0.09778809009477848
0.438263019079902   -0.028577520510702684   -0.09778809009477848
0.24001375336915642   -0.0021088398588949703   -0.021074982827350937
0.24001375336915642   -0.0021088398588949703   -0.021074982827350937
0.24001375336915642   -0.0021088398588949703   -0.021074982827350937
0.24001375336915642   -0.0021088398588949703   -0.021074982827350937
0.5031802743687974   0.1310723955243602   0.0671482703146357
0.5031802743687974   0.1310723955243602   0.0671482703146357
0.5031802743687974   0.1310723955243602   0.0671482703146357
0.5031802743687974   0.1310723955243602   0.0671482703146357
0.051934705006791926   -0.1040008164551752   -0.08857625574403105
0.051934705006791926   -0.1040008164551752   -0.08857625574403105
0.051934705006791926   -0.1040008164551752   -0.08857625574403105
0.051934705006791926   -0.1040008164551752   -0.08857625574403105
0.14478176694550687   0.09224090602586886   0.05273747793251851
0.14478176694550687   0.09224090602586886   0.05273747793251851
0.14478176694550687   0.09224090602586886   0.05273747793251851
0.14478176694550687   0.09224090602586886   0.05273747793251851
0.5212593863393992   0.027191486355683005   -0.10785820293974517
0.5212593863393992   0.027191486355683005   -0.10785820293974517
0.5212593863393992   0.027191486355683005   -0.10785820293974517
0.5212593863393992   0.027191486355683005   -0.10785820293974517
0.2874557191178867   0.028693747295265373   0.0015126912852313525
0.2874557191178867   0.028693747295265373   0.0015126912852313525
0.2874557191178867   0.028693747295265373   0.0015126912852313525
0.2874557191178867   0.028693747295265373   0.0015126912852313525
0.04953648167416059   0.015588042472799416   0.06402398470472405
0.04953648167416059   0.015588042472799416   0.06402398470472405
0.04953648167416059   0.015588042472799416   0.06402398470472405
0.04953648167416059   0.015588042472799416   0.06402398470472405
-0.3434327288086314   -0.12891246538418696   -0.028643459879736703
-0.3434327288086314   -0.12891246538418696   -0.028643459879736703
-0.3434327288086314   -0.12891246538418696   -0.028643459879736703
-0.3434327288086314   -0.12891246538418696   -0.028643459879736703
-0.286887973676516   -0.018659843515915535   0.02930197056907543
-0.286887973676516   -0.018659843515915535   0.02930197056907543
-0.286887973676516   -0.018659843515915535   0.02930197056907543
-0.286887973676516   -0.018659843515915535   0.02930197056907543
0.052141180198761836   -0.015013605390651472   -0.02280200830701759
0.052141180198761836   -0.015013605390651472   -0.02280200830701759
0.052141180198761836   -0.015013605390651472   -0.02280200830701759
0.052141180198761836   -0.015013605390651472   -0.02280200830701759
-0.13498107968839393   -0.03344758136400503   -0.021627675914177684
-0.13498107968839393   -0.03344758136400503   -0.021627675914177684
-0.13498107968839393   -0.03344758136400503   -0.021627675914177684
-0.13498107968839393   -0.03344758136400503   -0.021627675914177684
0.0832380373569503   0.060865582496346465   0.056803089596919154
0.0832380373569503   0.060865582496346465   0.056803089596919154
0.0832380373569503   0.060865582496346465   0.056803089596919154
0.0832380373569503   0.060865582496346465   0.056803089596919154
-0.3151254349818766   -0.09167963555009717   -0.038865543923546235
-0.3151254349818766   -0.09167963555009717   -0.038865543923546235
-0.3151254349818766   -0.09167963555009717   -0.038865543923546235
-0.3151254349818766   -0.09167963555009717   -0.038865543923546235
-0.25702281849422576   0.024076776910872053   0.020716293256622827
-0.25702281849422576   0.024076776910872053   0.020716293256622827
-0.25702281849422576   0.024076776910872053   0.020716293256622827
-0.25702281849422576   0.024076776910872053   0.020716293256622827
0.08939619819390308   0.025579611427934912   -0.030849217691593003
0.08939619819390308   0.025579611427934912   -0.030849217691593003
0.08939619819390308   0.025579611427934912   -0.030849217691593003
0.08939619819390308   0.025579611427934912   -0.030849217691593003
-0.10333084263997626   0.004280808502491542   -0.002605037996101704
-0.10333084263997626   0.004280808502491542   -0.002605037996101704
-0.10333084263997626   0.004280808502491542   -0.002605037996101704
-0.10333084263997626   0.004280808502491542   -0.002605037996101704
0.12179763974532976   0.1058709418384716   0.05086665965500363
0.12179763974532976   0.1058709418384716   0.05086665965500363
0.12179763974532976   0.1058709418384716   0.05086665965500363
0.12179763974532976   0.1058709418384716   0.05086665965500363
-0.2866744134415911   -0.053464706895593093   -0.050000197673738846
-0.2866744134415911   -0.053464706895593093   -0.050000197673738846
-0.2866744134415911   -0.053464706895593093   -0.050000197673738846
-0.2866744134415911   -0.053464706895593093   -0.050000197673738846
-0.22698381897887485   0.07237567845767186   0.012531579043767248
-0.22698381897887485   0.07237567845767186   0.012531579043767248
-0.22698381897887485   0.07237567845767186   0.012531579043767248
-0.22698381897887485   0.07237567845767186   0.012531579043767248
0.12222064556805105   0.07157640117655018   -0.03940362410543415
0.12222064556805105   0.07157640117655018   -0.03940362410543415
0.12222064556805105   0.07157640117655018   -0.03940362410543415
0.12222064556805105   0.07157640117655018   -0.03940362410543415
-0.06836149349070685   0.045903655594320095   0.017663125139421705
-0.06836149349070685   0.045903655594320095   0.017663125139421705
-0.06836149349070685   0.045903655594320095   0.017663125139421705
-0.06836149349070685   0.045903655594320095   0.017663125139421705
-0.3122789862682458   -0.02478579109658626   0.022998578534594548
-0.3122789862682458   -0.02478579109658626   0.022998578534594548
-0.3122789862682458   -0.02478579109658626   0.022998578534594548
-0.3122789862682458   -0.02478579109658626   0.022998578534594548
-0.6715814139508541   -0.09142662880134822   0.0059823307844296125
-0.6715814139508541   -0.09142662880134822   0.0059823307844296125
-0.6715814139508541   -0.09142662880134822   0.0059823307844296125
-0.6715814139508541   -0.09142662880134822   0.0059823307844296125
-0.6453999027354025   -0.057234349679256974   -0.01266342825778493
-0.6453999027354025   -0.057234349679256974   -0.01266342825778493
-0.6453999027354025   -0.057234349679256974   -0.01266342825778493
-0.6453999027354025   -0.057234349679256974   -0.01266342825778493
-0.2813878418170988   0.02382897979570174   0.014313806554547552
-0.2813878418170988   0.02382897979570174   0.014313806554547552
-0.2813878418170988   0.02382897979570174   0.014313806554547552
-0.2813878418170988   0.02382897979570174   0.014313806554547552
-0.47836121770783285   -0.03433500160951336   -0.01256950872052226
-0.47836121770783285   -0.03433500160951336   -0.01256950872052226
-0.47836121770783285   -0.03433500160951336   -0.01256950872052226
-0.47836121770783285   -0.03433500160951336   -0.01256950872052226
-0.28177271618219996   0.02105621348990766   0.015162201034835864
-0.28177271618219996   0.02105621348990766   0.015162201034835864
-0.28177271618219996   0.02105621348990766   0.015162201034835864
-0.28177271618219996   0.02105621348990766   0.015162201034835864
-0.6425664739297848   -0.052013028932946404   -0.0037176049760072674
-0.6425664739297848   -0.052013028932946404   -0.0037176049760072674
-0.6425664739297848   -0.052013028932946404   -0.0037176049760072674
-0.6425664739297848   -0.052013028932946404   -0.0037176049760072674
-0.6140038666715709   -0.010186783735664978   -0.01991490652405127
-0.6140038666715709   -0.010186783735664978   -0.01991490652405127
-0.6140038666715709   -0.010186783735664978   -0.01991490652405127
-0.6140038666715709   -0.010186783735664978   -0.01991490652405127
-0.251816968734906   0.06557520210685855   0.00524711685723904
-0.251816968734906   0.06557520210685855   0.00524711685723904
-0.251816968734906   0.06557520210685855   0.00524711685723904
-0.251816968734906   0.06557520210685855   0.00524711685723904
-0.4459512080943093   0.007000567417097467   0.0065870050004335386
-0.4459512080943093   0.007000567417097467   0.0065870050004335386
-0.4459512080943093   0.007000567417097467   0.0065870050004335386
-0.4459512080943093   0.007000567417097467   0.0065870050004335386
-0.2510765422387318   0.06773879395392225   0.006785657491045927
-0.2510765422387318   0.06773879395392225   0.006785657491045927
-0.2510765422387318   0.06773879395392225   0.006785657491045927
-0.2510765422387318   0.06773879395392225   0.006785657491045927
-0.6127906293821356   -0.010396711797120262   -0.01363879201542538
-0.6127906293821356   -0.010396711797120262   -0.01363879201542538
-0.6127906293821356   -0.010396711797120262   -0.01363879201542538
-0.6127906293821356   -0.010396711797120262   -0.01363879201542538
-0.5838768535319864   0.036983680390010654   -0.028198122846676776
-0.5838768535319864   0.036983680390010654   -0.028198122846676776
-0.5838768535319864   0.036983680390010654   -0.028198122846676776
-0.5838768535319864   0.036983680390010654   -0.028198122846676776
-0.22351361409348858   0.10744448196114498   -0.005186200032770719
-0.22351361409348858   0.10744448196114498   -0.005186200032770719
-0.22351361409348858   0.10744448196114498   -0.005186200032770719
-0.22351361409348858   0.10744448196114498   -0.005186200032770719
-0.41522412667806796   0.048219605636144094   0.024492823741585762
-0.41522412667806796   0.048219605636144094   0.024492823741585762
-0.41522412667806796   0.048219605636144094   0.024492823741585762
-0.41522412667806796   0.048219605636144094   0.024492823741585762
-0.6712693584653723   -0.06457797593464706   -0.01930604465485692
-0.6712693584653723   -0.06457797593464706   -0.01930604465485692
-0.6712693584653723   -0.06457797593464706   -0.01930604465485692
-0.6712693584653723   -0.06457797593464706   -0.01930604465485692
-0.9960913199710096   -0.0562037686643978   0.03999722778333106
-0.9960913199710096   -0.0562037686643978   0.03999722778333106
-0.9960913199710096   -0.0562037686643978   0.03999722778333106
-0.9960913199710096   -0.0562037686643978   0.03999722778333106
-0.9962155039507098   -0.09498677425617996   -0.05359879875032488
-0.9962155039507098   -0.09498677425617996   -0.05359879875032488
-0.9962155039507098   -0.09498677425617996   -0.05359879875032488
-0.9962155039507098   -0.09498677425617996   -0.05359879875032488
-0.6094824532203794   0.06083501745606573   0.048854452182007346
-0.6094824532203794   0.06083501745606573   0.048854452182007346
-0.6094824532203794   0.06083501745606573   0.048854452182007346
-0.6094824532203794   0.06083501745606573   0.048854452182007346
-0.8136987291232541   -0.034730350194067505   -0.005274285232364784
-0.8136987291232541   -0.034730350194067505   -0.005274285232364784
-0.8136987291232541   -0.034730350194067505   -0.005274285232364784
-0.8136987291232541   -0.034730350194067505   -0.005274285232364784
-0.640495021875155   -0.018497994015136465   -0.02687537962066238
-0.640495021875155   -0.018497994015136465   -0.02687537962066238
-0.640495021875155   -0.018497994015136465   -0.02687537962066238
-0.640495021875155   -0.018497994015136465   -0.02687537962066238
-0.9631842936147605   -0.013635121103811793   0.030205599777062032
-0.9631842936147605   -0.013635121103811793   0.030205599777062032
-0.9631842936147605   -0.013635121103811793   0.030205599777062032
-0.9631842936147605   -0.013635121103811793   0.030205599777062032
-0.9569238542965501   -0.050097345361747064   -0.05963564163415866
-0.9569238542965501   -0.050097345361747064   -0.05963564163415866
-0.9569238542965501   -0.050097345361747064   -0.05963564163415866
-0.9569238542965501   -0.050097345361747064   -0.05963564163415866
-0.5804408755270096   0.09883595414329394   0.038877311319795826
-0.5804408755270096   0.09883595414329394   0.038877311319795826
-0.5804408755270096   0.09883595414329394   0.038877311319795826
-0.5804408755270096   0.09883595414329394   0.038877311319795826
-0.7748768729715784   0.006931222304879914   0.014455955523884075
-0.7748768729715784   0.006931222304879914   0.014455955523884075
-0.7748768729715784   0.006931222304879914   0.014455955523884075
-0.7748768729715784   0.006931222304879914   0.014455955523884075
-0.6104275135756654   0.02390422179435278   -0.036124146574544144
-0.6104275135756654   0.02390422179435278   -0.036124146574544144
-0.6104275135756654   0.02390422179435278   -0.036124146574544144
-0.6104275135756654   0.02390422179435278   -0.036124146574544144
-0.9246657895702226   0.02710581366487566   0.024451522970856114
-0.9246657895702226   0.02710581366487566   0.024451522970856114
-0.9246657895702226   0.02710581366487566   0.024451522970856114
-0.9246657895702226   0.02710581366487566   0.024451522970856114
-0.9217668744050413   -0.0011061148902820062   -0.06418582951732248
-0.9217668744050413   -0.0011061148902820062   -0.06418582951732248
-0.9217668744050413   -0.0011061148902820062   -0.06418582951732248
-0.9217668744050413   -0.0011061148902820062   -0.06418582951732248
-0.5516997585787081   0.140843589837534   0.02882744247219096
-0.5516997585787081   0.140843589837534   0.02882744247219096
-0.5516997585787081   0.140843589837534   0.02882744247219096
-0.5516997585787081   0.140843589837534   0.02882744247219096
-0.745740988044835   0.045819936662105626   0.032149443400479545
-0.745740988044835   0.045819936662105626   0.032149443400479545
-0.745740988044835   0.045819936662105626   0.032149443400479545
-0.745740988044835   0.045819936662105626   0.032149443400479545
-1.0231244654316136   -0.09282419332401504   -0.05854807486007188
-1.0231244654316136   -0.09282419332401504   -0.05854807486007188
-1.0231244654316136   -0.09282419332401504   -0.05854807486007188
-1.0231244654316136   -0.09282419332401504   -0.05854807486007188
-1.3657904428110805   -0.02377023113732546   0.0864499057548452
-1.3657904428110805   -0.02377023113732546   0.0864499057548452
-1.3657904428110805   -0.02377023113732546   0.0864499057548452
-1.3657904428110805   -0.02377023113732546   0.0864499057548452
-1.3464746642016727   -0.12384240854926903   -0.0780592011979785
-1.3464746642016727   -0.12384240854926903   -0.0780592011979785
-1.3464746642016727   -0.12384240854926903   -0.0780592011979785
-1.3464746642016727   -0.12384240854926903   -0.0780592011979785
-0.9289051818351771   0.10274235702315207   0.08522368054800679
-0.9289051818351771   0.10274235702315207   0.08522368054800679
-0.9289051818351771   0.10274235702315207   0.08522368054800679
-0.9289051818351771   0.10274235702315207   0.08522368054800679
-1.1158266950471525   -0.0197679239689294   0.009171221922804312
-1.1158266950471525   -0.0197679239689294   0.009171221922804312
-1.1158266950471525   -0.0197679239689294   0.009171221922804312
-1.1158266950471525   -0.0197679239689294   0.009171221922804312
-0.9897668318248546   -0.05013120359146225   -0.06621100878576262
-0.9897668318248546   -0.05013120359146225   -0.06621100878576262
-0.9897668318248546   -0.05013120359146225   -0.06621100878576262
-0.9897668318248546   -0.05013120359146225   -0.06621100878576262
-1.2837848752712175   0.030859291006119727   0.08068804389888536
-1.2837848752712175   0.030859291006119727   0.08068804389888536
-1.2837848752712175   0.030859291006119727   0.08068804389888536
-1.2837848752712175   0.030859291006119727   0.08068804389888536
-1.284408993606574   -0.09719791705505551   -0.09288350284530694
-1.284408993606574   -0.09719791705505551   -0.09288350284530694
-1.284408993606574   -0.09719791705505551   -0.09288350284530694
-1.284408993606574   -0.09719791705505551   -0.09288350284530694
-0.896876434538042   0.12025826331954742   0.07024584847707759
-0.896876434538042   0.12025826331954742   0.07024584847707759
-0.896876434538042   0.12025826331954742   0.07024584847707759
-0.896876434538042   0.12025826331954742   0.07024584847707759
-1.0804888197637146   0.008178161460591221   0.025118664158787614
-1.0804888197637146   0.008178161460591221   0.025118664158787614
-1.0804888197637146   0.008178161460591221   0.025118664158787614
-1.0804888197637146   0.008178161460591221   0.025118664158787614
-0.9559054658367848   -0.028207266559553634   -0.07643377813752547
-0.9559054658367848   -0.028207266559553634   -0.07643377813752547
-0.9559054658367848   -0.028207266559553634   -0.07643377813752547
-0.9559054658367848   -0.028207266559553634   -0.07643377813752547
-1.2231401939338982   0.05350738119796883   0.06275519726504085
-1.2231401939338982   0.05350738119796883   0.06275519726504085
-1.2231401939338982   0.05350738119796883   0.06275519726504085
-1.2231401939338982   0.05350738119796883   0.06275519726504085
-1.2080126076753588   -0.05736713938582241   -0.103554378698895
-1.2080126076753588   -0.05736713938582241   -0.103554378698895
-1.2080126076753588   -0.05736713938582241   -0.103554378698895
-1.2080126076753588   -0.05736713938582241   -0.103554378698895
-0.8687094898663722   0.1414777984225753   0.05851717986316611
-0.8687094898663722   0.1414777984225753   0.05851717986316611
-0.8687094898663722   0.1414777984225753   0.05851717986316611
-0.8687094898663722   0.1414777984225753   0.05851717986316611
-1.0146909063495764   0.03438206118269069   0.04755060985912196
-1.0146909063495764   0.03438206118269069   0.04755060985912196
-1.0146909063495764   0.03438206118269069   0.04755060985912196
-1.0146909063495764   0.03438206118269069   0.04755060985912196
1.0866986945466677   0.09869490491329214   0.09449932995897826
1.0866986945466677   0.09869490491329214   0.09449932995897826
1.0866986945466677   0.09869490491329214   0.09449932995897826
1.0866986945466677   0.09869490491329214   0.09449932995897826
0.3982796624658525   -0.18111341901867054   -0.062214603714830355
0.3982796624658525   -0.18111341901867054   -0.062214603714830355
0.3982796624658525   -0.18111341901867054   -0.062214603714830355
0.3982796624658525   -0.18111341901867054   -0.062214603714830355
0.49218707332112155   -0.0009675816720842167   0.06801637506116856
0.49218707332112155   -0.0009675816720842167   0.06801637506116856
0.49218707332112155   -0.0009675816720842167   0.06801637506116856
0.49218707332112155   -0.0009675816720842167   0.06801637506116856
1.106639283479373   -0.02547454904810828   -0.07941181570890175
1.106639283479373   -0.02547454904810828   -0.07941181570890175
1.106639283479373   -0.02547454904810828   -0.07941181570890175
1.106639283479373   -0.02547454904810828   -0.07941181570890175
0.7235263425218128   -0.03288185445962613   -0.0699658500571515
0.7235263425218128   -0.03288185445962613   -0.0699658500571515
0.7235263425218128   -0.03288185445962613   -0.0699658500571515
0.7235263425218128   -0.03288185445962613   -0.0699658500571515
1.1715924346016533   0.13773841145221963   0.0821409794021562
1.1715924346016533   0.13773841145221963   0.0821409794021562
1.1715924346016533   0.13773841145221963   0.0821409794021562
1.1715924346016533   0.13773841145221963   0.0821409794021562
0.4318213957308618   -0.15959306864039297   -0.07518652592181392
0.4318213957308618   -0.15959306864039297   -0.07518652592181392
0.4318213957308618   -0.15959306864039297   -0.07518652592181392
0.4318213957308618   -0.15959306864039297   -0.07518652592181392
0.5293359464807047   0.020415880129647818   0.0561059857061099
0.5293359464807047   0.020415880129647818   0.0561059857061099
0.5293359464807047   0.020415880129647818   0.0561059857061099
0.5293359464807047   0.020415880129647818   0.0561059857061099
1.1742345679106052   -0.0011630426396560256   -0.10008574053962954
1.1742345679106052   -0.0011630426396560256   -0.10008574053962954
1.1742345679106052   -0.0011630426396560256   -0.10008574053962954
1.1742345679106052   -0.0011630426396560256   -0.10008574053962954
0.7940634777134798   -0.006608179339962633   -0.04234623563725165
0.7940634777134798   -0.006608179339962633   -0.04234623563725165
0.7940634777134798   -0.006608179339962633   -0.04234623563725165
0.7940634777134798   -0.006608179339962633   -0.04234623563725165
1.2399212262220511   0.16395720051023424   0.06322730786769548
1.2399212262220511   0.16395720051023424   0.06322730786769548
1.2399212262220511   0.16395720051023424   0.06322730786769548
1.2399212262220511   0.16395720051023424   0.06322730786769548
0.4685393779027923   -0.13981427328671125   -0.08764670376709291
0.4685393779027923   -0.13981427328671125   -0.08764670376709291
0.4685393779027923   -0.13981427328671125   -0.08764670376709291
0.4685393779027923   -0.13981427328671125   -0.08764670376709291
0.5664310812484182   0.06752302342135594   0.04862778747960044
0.5664310812484182   0.06752302342135594   0.04862778747960044
0.5664310812484182   0.06752302342135594   0.04862778747960044
0.5664310812484182   0.06752302342135594   0.04862778747960044
1.262973511884124   0.06224766299421727   -0.107981157439826
1.262973511884124   0.06224766299421727   -0.107981157439826
1.262973511884124   0.06224766299421727   -0.107981157439826
1.262973511884124   0.06224766299421727   -0.107981157439826
0.8377166457287106   0.02533074166738314   -0.01842565631238212
0.8377166457287106   0.02533074166738314   -0.01842565631238212
0.8377166457287106   0.02533074166738314   -0.01842565631238212
0.8377166457287106   0.02533074166738314   -0.01842565631238212
0.4730711992041846   0.05520245365496166   0.07542720730319034
0.4730711992041846   0.05520245365496166   0.07542720730319034
0.4730711992041846   0.05520245365496166   0.07542720730319034
0.4730711992041846   0.05520245365496166   0.07542720730319034
-0.22997447517697203   -0.16896913561716287   -0.03257341827492642
-0.22997447517697203   -0.16896913561716287   -0.03257341827492642
-0.22997447517697203   -0.16896913561716287   -0.03257341827492642
-0.22997447517697203   -0.16896913561716287   -0.03257341827492642
-0.16532527127094254   -0.04936915529402201   0.02288669364583406
-0.16532527127094254   -0.04936915529402201   0.02288669364583406
-0.16532527127094254   -0.04936915529402201   0.02288669364583406
-0.16532527127094254   -0.04936915529402201   0.02288669364583406
0.476979993461825   0.0010543731704249354   -0.010040979077815995
0.476979993461825   0.0010543731704249354   -0.010040979077815995
0.476979993461825   0.0010543731704249354   -0.010040979077815995
0.476979993461825   0.0010543731704249354   -0.010040979077815995
0.13246756543711308   -0.03581807354784964   -0.02984828032479483
0.13246756543711308   -0.03581807354784964   -0.02984828032479483
0.13246756543711308   -0.03581807354784964   -0.02984828032479483
0.13246756543711308   -0.03581807354784964   -0.02984828032479483
0.5112176219967366   0.09483532665315036   0.06736621011401679
0.5112176219967366   0.09483532665315036   0.06736621011401679
0.5112176219967366   0.09483532665315036   0.06736621011401679
0.5112176219967366   0.09483532665315036   0.06736621011401679
-0.19680770446616416   -0.1403949134370574   -0.04349971418723862
-0.19680770446616416   -0.1403949134370574   -0.04349971418723862
-0.19680770446616416   -0.1403949134370574   -0.04349971418723862
-0.19680770446616416   -0.1403949134370574   -0.04349971418723862
-0.13071026615012651   -0.009376202616653924   0.014478176429492432
-0.13071026615012651   -0.009376202616653924   0.014478176429492432
-0.13071026615012651   -0.009376202616653924   0.014478176429492432
-0.13071026615012651   -0.009376202616653924   0.014478176429492432
0.5176822973115203   0.036957793222866325   -0.01870417323303036
0.5176822973115203   0.036957793222866325   -0.01870417323303036
0.5176822973115203   0.036957793222866325   -0.01870417323303036
0.5176822973115203   0.036957793222866325   -0.01870417323303036
0.16592446214024603   -0.00420508696429471   -0.011874952056015207
0.16592446214024603   -0.00420508696429471   -0.011874952056015207
0.16592446214024603   -0.00420508696429471   -0.011874952056015207
0.16592446214024603   -0.00420508696429471   -0.011874952056015207
0.5532870764242586   0.13648594476919176   0.05979157078433568
0.5532870764242586   0.13648594476919176   0.05979157078433568
0.5532870764242586   0.13648594476919176   0.05979157078433568
0.5532870764242586   0.13648594476919176   0.05979157078433568
-0.16355229216434702   -0.10614160106446156   -0.05296655519380243
-0.16355229216434702   -0.10614160106446156   -0.05296655519380243
-0.16355229216434702   -0.10614160106446156   -0.05296655519380243
-0.16355229216434702   -0.10614160106446156   -0.05296655519380243
-0.09653642664614985   0.036926853924677525   0.006105711849403532
-0.09653642664614985   0.036926853924677525   0.006105711849403532
-0.09653642664614985   0.036926853924677525   0.006105711849403532
-0.09653642664614985   0.036926853924677525   0.006105711849403532
0.5537987488212184   0.07968426974251194   -0.02669512097756305
0.5537987488212184   0.07968426974251194   -0.02669512097756305
0.5537987488212184   0.07968426974251194   -0.02669512097756305
0.5537987488212184   0.07968426974251194   -0.02669512097756305
0.20719524568418324   0.034539466057524046   0.009101070834468022
0.20719524568418324   0.034539466057524046   0.009101070834468022
0.20719524568418324   0.034539466057524046   0.009101070834468022
0.20719524568418324   0.034539466057524046   0.009101070834468022
-0.1808736363342891   0.011925657191130153   0.03203598313019518
-0.1808736363342891   0.011925657191130153   0.03203598313019518
-0.1808736363342891   0.011925657191130153   0.03203598313019518
-0.1808736363342891   0.011925657191130153   0.03203598313019518
-0.8457452736307793   -0.14913382910656506   -0.004265877207236987
-0.8457452736307793   -0.14913382910656506   -0.004265877207236987
-0.8457452736307793   -0.14913382910656506   -0.004265877207236987
-0.8457452736307793   -0.14913382910656506   -0.004265877207236987
-0.804673150420906   -0.08766768894358719   -0.019884228538028573
-0.804673150420906   -0.08766768894358719   -0.019884228538028573
-0.804673150420906   -0.08766768894358719   -0.019884228538028573
-0.804673150420906   -0.08766768894358719   -0.019884228538028573
-0.15137384713714075   0.021945103803623876   0.021329555217197184
-0.15137384713714075   0.021945103803623876   0.021329555217197184
-0.15137384713714075   0.021945103803623876   0.021329555217197184
-0.15137384713714075   0.021945103803623876   0.021329555217197184
-0.49654170871667386   -0.04588141923880436   -0.018626101414144107
-0.49654170871667386   -0.04588141923880436   -0.018626101414144107
-0.49654170871667386   -0.04588141923880436   -0.018626101414144107
-0.49654170871667386   -0.04588141923880436   -0.018626101414144107
-0.14454884964837755   0.053178288509553216   0.02422135795508365
-0.14454884964837755   0.053178288509553216   0.02422135795508365
-0.14454884964837755   0.053178288509553216   0.02422135795508365
-0.14454884964837755   0.053178288509553216   0.02422135795508365
-0.8096654457415822   -0.11706817148141935   -0.015445222603577474
-0.8096654457415822   -0.11706817148141935   -0.015445222603577474
-0.8096654457415822   -0.11706817148141935   -0.015445222603577474
-0.8096654457415822   -0.11706817148141935   -0.015445222603577474
-0.766527289183306   -0.04378928937738946   -0.02686502011560088
-0.766527289183306   -0.04378928937738946   -0.02686502011560088
-0.766527289183306   -0.04378928937738946   -0.02686502011560088
-0.766527289183306   -0.04378928937738946   -0.02686502011560088
-0.11767919626636704   0.05821029424291976   0.012047028988716235
-0.11767919626636704   0.05821029424291976   0.012047028988716235
-0.11767919626636704   0.05821029424291976   0.012047028988716235
-0.11767919626636704   0.05821029424291976   0.012047028988716235
-0.45807152218075414   -0.009165429401927841   -0.00029000223703410863
-0.45807152218075414   -0.009165429401927841   -0.00029000223703410863
-0.45807152218075414   -0.009165429401927841   -0.00029000223703410863
-0.45807152218075414   -0.009165429401927841   -0.00029000223703410863
-0.1094460679929686   0.09607045983626986   0.015352504762358249
-0.1094460679929686   0.09607045983626986   0.015352504762358249
-0.1094460679929686   0.09607045983626986   0.015352504762358249
-0.1094460679929686   0.09607045983626986   0.015352504762358249
-0.7730565461509683   -0.07994558366500341   -0.023355010666298314
-0.7730565461509683   -0.07994558366500341   -0.023355010666298314
-0.7730565461509683   -0.07994558366500341   -0.023355010666298314
-0.7730565461509683   -0.07994558366500341   -0.023355010666298314
-0.7310224024091742   -6.37464038746316e-05   -0.035218553542183194
-0.7310224024091742   -6.37464038746316e-05   -0.035218553542183194
-0.7310224024091742   -6.37464038746316e-05   -0.035218553542183194
-0.7310224024091742   -6.37464038746316e-05   -0.035218553542183194
-0.08550736499808168   0.0952559363017358   0.0029219377126901112
-0.08550736499808168   0.0952559363017358   0.0029219377126901112
-0.08550736499808168   0.0952559363017358   0.0029219377126901112
-0.08550736499808168   0.0952559363017358   0.0029219377126901112
-0.42272610695098706   0.027410752965139534   0.017161285632657845
-0.42272610695098706   0.027410752965139534   0.017161285632657845
-0.42272610695098706   0.027410752965139534   0.017161285632657845
-0.42272610695098706   0.027410752965139534   0.017161285632657845
-0.8240728723233537   -0.032339220539055   -0.012698479237610916
-0.8240728723233537   -0.032339220539055   -0.012698479237610916
-0.8240728723233537   -0.032339220539055   -0.012698479237610916
-0.8240728723233537   -0.032339220539055   -0.012698479237610916
-1.4472181072909185   -0.12072089316733861   0.028095652839383346
-1.4472181072909185   -0.12072089316733861   0.028095652839383346
-1.4472181072909185   -0.12072089316733861   0.028095652839383346
-1.4472181072909185   -0.12072089316733861   0.028095652839383346
-1.4271089190088144   -0.12443153520447181   -0.05985184533224541
-1.4271089190088144   -0.12443153520447181   -0.05985184533224541
-1.4271089190088144   -0.12443153520447181   -0.05985184533224541
-1.4271089190088144   -0.12443153520447181   -0.05985184533224541
-0.7612278866783273   0.056008362688931806   0.05366603854235278
-0.7612278866783273   0.056008362688931806   0.05366603854235278
-0.7612278866783273   0.056008362688931806   0.05366603854235278
-0.7612278866783273   0.056008362688931806   0.05366603854235278
-1.1071926724072378   -0.04837154734166055   -0.006484763687927705
-1.1071926724072378   -0.04837154734166055   -0.006484763687927705
-1.1071926724072378   -0.04837154734166055   -0.006484763687927705
-1.1071926724072378   -0.04837154734166055   -0.006484763687927705
-0.7845811540105753   0.012188333146351565   -0.019280268576306513
-0.7845811540105753   0.012188333146351565   -0.019280268576306513
-0.7845811540105753   0.012188333146351565   -0.019280268576306513
-0.7845811540105753   0.012188333146351565   -0.019280268576306513
-1.4036832275584408   -0.08053908154377423   0.01338415825893622
-1.4036832275584408   -0.08053908154377423   0.01338415825893622
-1.4036832275584408   -0.08053908154377423   0.01338415825893622
-1.4036832275584408   -0.08053908154377423   0.01338415825893622
-1.377291194936886   -0.08154929505829234   -0.06619861527825918
-1.377291194936886   -0.08154929505829234   -0.06619861527825918
-1.377291194936886   -0.08154929505829234   -0.06619861527825918
-1.377291194936886   -0.08154929505829234   -0.06619861527825918
-0.7257000602401253   0.0906002886916017   0.04288154653131811
-0.7257000602401253   0.0906002886916017   0.04288154653131811
-0.7257000602401253   0.0906002886916017   0.04288154653131811
-0.7257000602401253   0.0906002886916017   0.04288154653131811
-1.0565433615083055   -0.007782401387412902   0.011893291095345149
-1.0565433615083055   -0.007782401387412902   0.011893291095345149
-1.0565433615083055   -0.007782401387412902   0.011893291095345149
-1.0565433615083055   -0.007782401387412902   0.011893291095345149
-0.7476217683149086   0.05199914357629579   -0.028125848727295996
-0.7476217683149086   0.05199914357629579   -0.028125848727295996
-0.7476217683149086   0.05199914357629579   -0.028125848727295996
-0.7476217683149086   0.05199914357629579   -0.028125848727295996
-1.3542320749987315   -0.04181073807961583   0.009358427433836788
-1.3542320749987315   -0.04181073807961583   0.009358427433836788
-1.3542320749987315   -0.04181073807961583   0.009358427433836788
-1.3542320749987315   -0.04181073807961583   0.009358427433836788
-1.3327422191433127   -0.03504934990122138   -0.06959479565698133
-1.3327422191433127   -0.03504934990122138   -0.06959479565698133
-1.3327422191433127   -0.03504934990122138   -0.06959479565698133
-1.3327422191433127   -0.03504934990122138   -0.06959479565698133
-0.6912898935929276   0.12866067296405842   0.03471957117112219
-0.6912898935929276   0.12866067296405842   0.03471957117112219
-0.6912898935929276   0.12866067296405842   0.03471957117112219
-0.6912898935929276   0.12866067296405842   0.03471957117112219
-1.0221961190985076   0.026936376692726083   0.027753836547398936
-1.0221961190985076   0.026936376692726083   0.027753836547398936
-1.0221961190985076   0.026936376692726083   0.027753836547398936
-1.0221961190985076   0.026936376692726083   0.027753836547398936
-1.453393920865825   -0.06940147461645108   -0.05410283358603811
-1.453393920865825   -0.06940147461645108   -0.05410283358603811
-1.453393920865825   -0.06940147461645108   -0.05410283358603811
-1.453393920865825   -0.06940147461645108   -0.05410283358603811
-2.0709467104192587   -0.07460754864670865   0.09378590958136046
-2.0709467104192587   -0.07460754864670865   0.09378590958136046
-2.0709467104192587   -0.07460754864670865   0.09378590958136046
-2.0709467104192587   -0.07460754864670865   0.09378590958136046
-2.0307876293915066   -0.14899788090048993   -0.07159506151387367
-2.0307876293915066   -0.14899788090048993   -0.07159506151387367
-2.0307876293915066   -0.14899788090048993   -0.07159506151387367
-2.0307876293915066   -0.14899788090048993   -0.07159506151387367
-1.3479930019865098   0.11600946003422691   0.09528674454057817
-1.3479930019865098   0.11600946003422691   0.09528674454057817
-1.3479930019865098   0.11600946003422691   0.09528674454057817
-1.3479930019865098   0.11600946003422691   0.09528674454057817
-1.6492555549727925   -0.020395432268136948   0.01899776321871001
-1.6492555549727925   -0.020395432268136948   0.01899776321871001
-1.6492555549727925   -0.020395432268136948   0.01899776321871001
-1.6492555549727925   -0.020395432268136948   0.01899776321871001
-1.4066557865568077   -0.02188003640508257   -0.06013768187159699
-1.4066557865568077   -0.02188003640508257   -0.06013768187159699
-1.4066557865568077   -0.02188003640508257   -0.06013768187159699
-1.4066557865568077   -0.02188003640508257   -0.06013768187159699
-1.9711757609700604   -0.010159300610033728   0.08762570030288705
-1.9711757609700604   -0.010159300610033728   0.08762570030288705
-1.9711757609700604   -0.010159300610033728   0.08762570030288705
-1.9711757609700604   -0.010159300610033728   0.08762570030288705
-1.9554925900963476   -0.12237417598019756   -0.08430019246340335
-1.9554925900963476   -0.12237417598019756   -0.08430019246340335
-1.9554925900963476   -0.12237417598019756   -0.08430019246340335
-1.9554925900963476   -0.12237417598019756   -0.08430019246340335
-1.3061581597475325   0.1324335645669526   0.07548370104326325
-1.3061581597475325   0.1324335645669526   0.07548370104326325
-1.3061581597475325   0.1324335645669526   0.07548370104326325
-1.3061581597475325   0.1324335645669526   0.07548370104326325
-1.6102212995642986   0.008656896107614331   0.034323430907620786
-1.6102212995642986   0.008656896107614331   0.034323430907620786
-1.6102212995642986   0.008656896107614331   0.034323430907620786
-1.6102212995642986   0.008656896107614331   0.034323430907620786
-1.3615051535540612   -0.00040015905295448517   -0.06841754436947385
-1.3615051535540612   -0.00040015905295448517   -0.06841754436947385
-1.3615051535540612   -0.00040015905295448517   -0.06841754436947385
-1.3615051535540612   -0.00040015905295448517   -0.06841754436947385
-1.8992035567679082   0.011401587161614102   0.06336921103694666
-1.8992035567679082   0.011401587161614102   0.06336921103694666
-1.8992035567679082   0.011401587161614102   0.06336921103694666
-1.8992035567679082   0.011401587161614102   0.06336921103694666
-1.8732510285680963   -0.09034128590695928   -0.09603670308278285
-1.8732510285680963   -0.09034128590695928   -0.09603670308278285
-1.8732510285680963   -0.09034128590695928   -0.09603670308278285
-1.8732510285680963   -0.09034128590695928   -0.09603670308278285
-1.2693650356075692   0.14795649099376912   0.06428528112674624
-1.2693650356075692   0.14795649099376912   0.06428528112674624
-1.2693650356075692   0.14795649099376912   0.06428528112674624
-1.2693650356075692   0.14795649099376912   0.06428528112674624
-1.5273325706402998   0.03283208516843206   0.05743188564400706
-1.5273325706402998   0.03283208516843206   0.05743188564400706
-1.5273325706402998   0.03283208516843206   0.05743188564400706
-1.5273325706402998   0.03283208516843206   0.05743188564400706
1.826863948506603   0.1364499628684025   0.09701801967984565
1.826863948506603   0.1364499628684025   0.09701801967984565
1.826863948506603   0.1364499628684025   0.09701801967984565
1.826863948506603   0.1364499628684025   0.09701801967984565
0.8062454788658195   -0.2155964870576398   -0.044481639561562786
0.8062454788658195   -0.2155964870576398   -0.044481639561562786
0.8062454788658195   -0.2155964870576398   -0.044481639561562786
0.8062454788658195   -0.2155964870576398   -0.044481639561562786
0.8993416130344924   -0.037716277036226764   0.0666772147953864
0.8993416130344924   -0.037716277036226764   0.0666772147953864
0.8993416130344924   -0.037716277036226764   0.0666772147953864
0.8993416130344924   -0.037716277036226764   0.0666772147953864
1.8472205349519077   -0.003840722486859738   -0.0697903809614761
1.8472205349519077   -0.003840722486859738   -0.0697903809614761
1.8472205349519077   -0.003840722486859738   -0.0697903809614761
1.8472205349519077   -0.003840722486859738   -0.0697903809614761
1.2661221493460455   -0.03856870188823014   -0.09919485359808738
1.2661221493460455   -0.03856870188823014   -0.09919485359808738
1.2661221493460455   -0.03856870188823014   -0.09919485359808738
1.2661221493460455   -0.03856870188823014   -0.09919485359808738
1.911713037325081   0.16765737212193021   0.08117403629558285
1.911713037325081   0.16765737212193021   0.08117403629558285
1.911713037325081   0.16765737212193021   0.08117403629558285
1.911713037325081   0.16765737212193021   0.08117403629558285
0.8410382352434251   -0.20302524706291183   -0.05953070413325365
0.8410382352434251   -0.20302524706291183   -0.05953070413325365
0.8410382352434251   -0.20302524706291183   -0.05953070413325365
0.8410382352434251   -0.20302524706291183   -0.05953070413325365
0.9358259907469139   -0.018042717294347227   0.05392446335060564
0.9358259907469139   -0.018042717294347227   0.05392446335060564
0.9358259907469139   -0.018042717294347227   0.05392446335060564
0.9358259907469139   -0.018042717294347227   0.05392446335060564
1.9108609864390516   0.017860148725312608   -0.08725069889655969
1.9108609864390516   0.017860148725312608   -0.08725069889655969
1.9108609864390516   0.017860148725312608   -0.08725069889655969
1.9108609864390516   0.017860148725312608   -0.08725069889655969
1.3459609572983853   -0.015359153865991071   -0.06744475815538434
1.3459609572983853   -0.015359153865991071   -0.06744475815538434
1.3459609572983853   -0.015359153865991071   -0.06744475815538434
1.3459609572983853   -0.015359153865991071   -0.06744475815538434
1.9749828292677383   0.19103957544511188   0.0601790885270766
1.9749828292677383   0.19103957544511188   0.0601790885270766
1.9749828292677383   0.19103957544511188   0.0601790885270766
1.9749828292677383   0.19103957544511188   0.0601790885270766
0.8771255176233705   -0.18580077430900277   -0.07181984525245579
0.8771255176233705   -0.18580077430900277   -0.07181984525245579
0.8771255176233705   -0.18580077430900277   -0.07181984525245579
0.8771255176233705   -0.18580077430900277   -0.07181984525245579
0.968866294180602   0.034477872677763116   0.0472771086813639
0.968866294180602   0.034477872677763116   0.0472771086813639
0.968866294180602   0.034477872677763116   0.0472771086813639
0.968866294180602   0.034477872677763116   0.0472771086813639
1.9891201101071208   0.08133968022974869   -0.09138668210168739
1.9891201101071208   0.08133968022974869   -0.09138668210168739
1.9891201101071208   0.08133968022974869   -0.09138668210168739
1.9891201101071208   0.08133968022974869   -0.09138668210168739
1.3759703888915504   0.015858209187744332   -0.04544093375674553
1.3759703888915504   0.015858209187744332   -0.04544093375674553
1.3759703888915504   0.015858209187744332   -0.04544093375674553
1.3759703888915504   0.015858209187744332   -0.04544093375674553
0.8919269465076666   0.07965972891062859   0.08866948267939229
0.8919269465076666   0.07965972891062859   0.08866948267939229
0.8919269465076666   0.07965972891062859   0.08866948267939229
0.8919269465076666   0.07965972891062859   0.08866948267939229
-0.10948310540781647   -0.2658247483294038   -0.025303142668980046
-0.10948310540781647   -0.2658247483294038   -0.025303142668980046
-0.10948310540781647   -0.2658247483294038   -0.025303142668980046
-0.10948310540781647   -0.2658247483294038   -0.025303142668980046
-0.029220886194474896   -0.09364935585026922   0.02264125547495173
-0.029220886194474896   -0.09364935585026922   0.02264125547495173
-0.029220886194474896   -0.09364935585026922   0.02264125547495173
-0.029220886194474896   -0.09364935585026922   0.02264125547495173
0.8844710021249361   -0.04972906607534194   0.004336949286720113
0.8844710021249361   -0.04972906607534194   0.004336949286720113
0.8844710021249361   -0.04972906607534194   0.004336949286720113
0.8844710021249361   -0.04972906607534194   0.004336949286720113
0.3983334694184268   -0.07430044645165322   -0.047362607078177514
0.3983334694184268   -0.07430044645165322   -0.047362607078177514
0.3983334694184268   -0.07430044645165322   -0.047362607078177514
0.3983334694184268   -0.07430044645165322   -0.047362607078177514
0.9311755780234334   0.10960653203258117   0.07852423067129524
0.9311755780234334   0.10960653203258117   0.07852423067129524
0.9311755780234334   0.10960653203258117   0.07852423067129524
0.9311755780234334   0.10960653203258117   0.07852423067129524
-0.07267227558430278   -0.24973176744952094   -0.038533279874935975
-0.07267227558430278   -0.24973176744952094   -0.038533279874935975
-0.07267227558430278   -0.24973176744952094   -0.038533279874935975
-0.07267227558430278   -0.24973176744952094   -0.038533279874935975
0.007987598141966538   -0.0584715064167485   0.013844027738449293
0.007987598141966538   -0.0584715064167485   0.013844027738449293
0.007987598141966538   -0.0584715064167485   0.013844027738449293
0.007987598141966538   -0.0584715064167485   0.013844027738449293
0.9225552509891658   -0.02320808430079896   -0.007263868431682925
0.9225552509891658   -0.02320808430079896   -0.007263868431682925
0.9225552509891658   -0.02320808430079896   -0.007263868431682925
0.9225552509891658   -0.02320808430079896   -0.007263868431682925
0.4306848182063494   -0.05270921570436403   -0.030718355455525523
0.4306848182063494   -0.05270921570436403   -0.030718355455525523
0.4306848182063494   -0.05270921570436403   -0.030718355455525523
0.4306848182063494   -0.05270921570436403   -0.030718355455525523
0.9717691694054189   0.14552960846500734   0.07006803088377614
0.9717691694054189   0.14552960846500734   0.07006803088377614
0.9717691694054189   0.14552960846500734   0.07006803088377614
0.9717691694054189   0.14552960846500734   0.07006803088377614
-0.039298634507533244   -0.22528151341580152   -0.05577712850999661
-0.039298634507533244   -0.22528151341580152   -0.05577712850999661
-0.039298634507533244   -0.22528151341580152   -0.05577712850999661
-0.039298634507533244   -0.22528151341580152   -0.05577712850999661
0.03719022321111653   -0.01730870579705372   0.004948526934771846
0.03719022321111653   -0.01730870579705372   0.004948526934771846
0.03719022321111653   -0.01730870579705372   0.004948526934771846
0.03719022321111653   -0.01730870579705372   0.004948526934771846
0.9510844599892304   0.010594760266453673   -0.017748949864192523
0.9510844599892304   0.010594760266453673   -0.017748949864192523
0.9510844599892304   0.010594760266453673   -0.017748949864192523
0.9510844599892304   0.010594760266453673   -0.017748949864192523
0.4702254961663258   -0.02042814522003812   -0.012884171386508752
0.4702254961663258   -0.02042814522003812   -0.012884171386508752
0.4702254961663258   -0.02042814522003812   -0.012884171386508752
0.4702254961663258   -0.02042814522003812   -0.012884171386508752
-0.03804066774656114   0.02206427247775376   0.04402002483013908
-0.03804066774656114   0.02206427247775376   0.04402002483013908
-0.03804066774656114   0.02206427247775376   0.04402002483013908
-0.03804066774656114   0.02206427247775376   0.04402002483013908
-1.018178984106277   -0.3338022170582341   -0.02040051611387446
-1.018178984106277   -0.3338022170582341   -0.02040051611387446
-1.018178984106277   -0.3338022170582341   -0.02040051611387446
-1.018178984106277   -0.3338022170582341   -0.02040051611387446
-0.9368877698838189   -0.14370532699630995   -0.021408676035793883
-0.9368877698838189   -0.14370532699630995   -0.021408676035793883
-0.9368877698838189   -0.14370532699630995   -0.021408676035793883
-0.9368877698838189   -0.14370532699630995   -0.021408676035793883
-0.034171837931370186   -0.11557243295998659   0.019809573900192647
-0.034171837931370186   -0.11557243295998659   0.019809573900192647
-0.034171837931370186   -0.11557243295998659   0.019809573900192647
-0.034171837931370186   -0.11557243295998659   0.019809573900192647
-0.5091420493498334   -0.13510500525121044   -0.04233325562700513
-0.5091420493498334   -0.13510500525121044   -0.04233325562700513
-0.5091420493498334   -0.13510500525121044   -0.04233325562700513
-0.5091420493498334   -0.13510500525121044   -0.04233325562700513
0.003282696417603523   0.05576038667345684   0.03574942601161776
0.003282696417603523   0.05576038667345684   0.03574942601161776
0.003282696417603523   0.05576038667345684   0.03574942601161776
0.003282696417603523   0.05576038667345684   0.03574942601161776
-0.9719961699677688   -0.3126920123647195   -0.027963991087134474
-0.9719961699677688   -0.3126920123647195   -0.027963991087134474
-0.9719961699677688   -0.3126920123647195   -0.027963991087134474
-0.9719961699677688   -0.3126920123647195   -0.027963991087134474
-0.8907444924664811   -0.10464755242218853   -0.0291769081367111
-0.8907444924664811   -0.10464755242218853   -0.0291769081367111
-0.8907444924664811   -0.10464755242218853   -0.0291769081367111
-0.8907444924664811   -0.10464755242218853   -0.0291769081367111
0.0005003799779991804   -0.0900926451879705   0.008029075689834509
0.0005003799779991804   -0.0900926451879705   0.008029075689834509
0.0005003799779991804   -0.0900926451879705   0.008029075689834509
0.0005003799779991804   -0.0900926451879705   0.008029075689834509
-0.46434832640597523   -0.10703782321835281   -0.02353803295462586
-0.46434832640597523   -0.10703782321835281   -0.02353803295462586
-0.46434832640597523   -0.10703782321835281   -0.02353803295462586
-0.46434832640597523   -0.10703782321835281   -0.02353803295462586
0.041100368516920754   0.09312006336760704   0.027816309828864842
0.041100368516920754   0.09312006336760704   0.027816309828864842
0.041100368516920754   0.09312006336760704   0.027816309828864842
0.041100368516920754   0.09312006336760704   0.027816309828864842
-0.9313774227204115   -0.2878932026927736   -0.04909590913577025
-0.9313774227204115   -0.2878932026927736   -0.04909590913577025
-0.9313774227204115   -0.2878932026927736   -0.04909590913577025
-0.9313774227204115   -0.2878932026927736   -0.04909590913577025
-0.8581409243558598   -0.06742887190333427   -0.037868543954943545
-0.8581409243558598   -0.06742887190333427   -0.037868543954943545
-0.8581409243558598   -0.06742887190333427   -0.037868543954943545
-0.8581409243558598   -0.06742887190333427   -0.037868543954943545
0.023278133553745285   -0.06976262911213124   -0.012157998037006852
0.023278133553745285   -0.06976262911213124   -0.012157998037006852
0.023278133553745285   -0.06976262911213124   -0.012157998037006852
0.023278133553745285   -0.06976262911213124   -0.012157998037006852
-0.43148891204333834   -0.08087637982188381   -0.011793156489817823
-0.43148891204333834   -0.08087637982188381   -0.011793156489817823
-0.43148891204333834   -0.08087637982188381   -0.011793156489817823
-0.43148891204333834   -0.08087637982188381   -0.011793156489817823
-0.9532056135622821   -0.027837250899930083   -0.0014986295522105494
-0.9532056135622821   -0.027837250899930083   -0.0014986295522105494
-0.9532056135622821   -0.027837250899930083   -0.0014986295522105494
-0.9532056135622821   -0.027837250899930083   -0.0014986295522105494
-1.9308929361458094   -0.3588774098475708   -0.016455134421839327
-1.9308929361458094   -0.3588774098475708   -0.016455134421839327
-1.9308929361458094   -0.3588774098475708   -0.016455134421839327
-1.9308929361458094   -0.3588774098475708   -0.016455134421839327
-1.8434921993422204   -0.18393823431230355   -0.06380263379986927
-1.8434921993422204   -0.18393823431230355   -0.06380263379986927
-1.8434921993422204   -0.18393823431230355   -0.06380263379986927
-1.8434921993422204   -0.18393823431230355   -0.06380263379986927
-0.9194530725005134   -0.12003802144542476   0.042097505329840135
-0.9194530725005134   -0.12003802144542476   0.042097505329840135
-0.9194530725005134   -0.12003802144542476   0.042097505329840135
-0.9194530725005134   -0.12003802144542476   0.042097505329840135
-1.3993689033231524   -0.1623194810435891   -0.029851391961253047
-1.3993689033231524   -0.1623194810435891   -0.029851391961253047
-1.3993689033231524   -0.1623194810435891   -0.029851391961253047
-1.3993689033231524   -0.1623194810435891   -0.029851391961253047
-0.9022326788756801   0.015588739118912232   -0.007427287110330735
-0.9022326788756801   0.015588739118912232   -0.007427287110330735
-0.9022326788756801   0.015588739118912232   -0.007427287110330735
-0.9022326788756801   0.015588739118912232   -0.007427287110330735
-1.861485557646641   -0.32033795955623523   -0.017369700078023326
-1.861485557646641   -0.32033795955623523   -0.017369700078023326
-1.861485557646641   -0.32033795955623523   -0.017369700078023326
-1.861485557646641   -0.32033795955623523   -0.017369700078023326
-1.7775599072252286   -0.14312985654668336   -0.0739093326750039
-1.7775599072252286   -0.14312985654668336   -0.0739093326750039
-1.7775599072252286   -0.14312985654668336   -0.0739093326750039
-1.7775599072252286   -0.14312985654668336   -0.0739093326750039
-0.8746207811166227   -0.08937949413803163   0.03617359032843234
-0.8746207811166227   -0.08937949413803163   0.03617359032843234
-0.8746207811166227   -0.08937949413803163   0.03617359032843234
-0.8746207811166227   -0.08937949413803163   0.03617359032843234
-1.3316576481126834   -0.12316920083334132   -0.009870421300353982
-1.3316576481126834   -0.12316920083334132   -0.009870421300353982
-1.3316576481126834   -0.12316920083334132   -0.009870421300353982
-1.3316576481126834   -0.12316920083334132   -0.009870421300353982
-0.8559747207468179   0.05331160574323546   -0.013287207703820456
-0.8559747207468179   0.05331160574323546   -0.013287207703820456
-0.8559747207468179   0.05331160574323546   -0.013287207703820456
-0.8559747207468179   0.05331160574323546   -0.013287207703820456
-1.7994080393514977   -0.28902302818441433   -0.03725682166860597
-1.7994080393514977   -0.28902302818441433   -0.03725682166860597
-1.7994080393514977   -0.28902302818441433   -0.03725682166860597
-1.7994080393514977   -0.28902302818441433   -0.03725682166860597
-1.7240194597628375   -0.10007972383829217   -0.0762528466707205
-1.7240194597628375   -0.10007972383829217   -0.0762528466707205
-1.7240194597628375   -0.10007972383829217   -0.0762528466707205
-1.7240194597628375   -0.10007972383829217   -0.0762528466707205
-0.8488573294338143   -0.0698884927567891   0.011009051508746093
-0.8488573294338143   -0.0698884927567891   0.011009051508746093
-0.8488573294338143   -0.0698884927567891   0.011009051508746093
-0.8488573294338143   -0.0698884927567891   0.011009051508746093
-1.2941777891151167   -0.09929276794302119   -0.0033628920844112134
-1.2941777891151167   -0.09929276794302119   -0.0033628920844112134
-1.2941777891151167   -0.09929276794302119   -0.0033628920844112134
-1.2941777891151167   -0.09929276794302119   -0.0033628920844112134
-1.8779993457543875   -0.06412348007705537   -0.046741112235244575
-1.8779993457543875   -0.06412348007705537   -0.046741112235244575
-1.8779993457543875   -0.06412348007705537   -0.046741112235244575
-1.8779993457543875   -0.06412348007705537   -0.046741112235244575
-2.8316876161292623   -0.2422204354749617   0.1075339793659102
-2.8316876161292623   -0.2422204354749617   0.1075339793659102
-2.8316876161292623   -0.2422204354749617   0.1075339793659102
-2.8316876161292623   -0.2422204354749617   0.1075339793659102
-2.733937776171718   -0.19272396091550859   -0.06243558602289073
-2.733937776171718   -0.19272396091550859   -0.06243558602289073
-2.733937776171718   -0.19272396091550859   -0.06243558602289073
-2.733937776171718   -0.19272396091550859   -0.06243558602289073
-1.764117804392367   0.050379777282265004   0.09875132935481479
-1.764117804392367   0.050379777282265004   0.09875132935481479
-1.764117804392367   0.050379777282265004   0.09875132935481479
-1.764117804392367   0.050379777282265004   0.09875132935481479
-2.1989988832278935   -0.07613904399903387   0.010268905094861683
-2.1989988832278935   -0.07613904399903387   0.010268905094861683
-2.1989988832278935   -0.07613904399903387   0.010268905094861683
-2.1989988832278935   -0.07613904399903387   0.010268905094861683
-1.8052768809100972   -0.004864599874096376   -0.05179967607745101
-1.8052768809100972   -0.004864599874096376   -0.05179967607745101
-1.8052768809100972   -0.004864599874096376   -0.05179967607745101
-1.8052768809100972   -0.004864599874096376   -0.05179967607745101
-2.6861386211816427   -0.13083950528679789   0.114675733298776
-2.6861386211816427   -0.13083950528679789   0.114675733298776
-2.6861386211816427   -0.13083950528679789   0.114675733298776
-2.6861386211816427   -0.13083950528679789   0.114675733298776
-2.6291091571421545   -0.1621241655026348   -0.074353951910052
-2.6291091571421545   -0.1621241655026348   -0.074353951910052
-2.6291091571421545   -0.1621241655026348   -0.074353951910052
-2.6291091571421545   -0.1621241655026348   -0.074353951910052
-1.6988912178705475   0.08090624813606306   0.09539800941565418
-1.6988912178705475   0.08090624813606306   0.09539800941565418
-1.6988912178705475   0.08090624813606306   0.09539800941565418
-1.6988912178705475   0.08090624813606306   0.09539800941565418
-2.1368886020188382   -0.030716527200997212   0.043727605946505266
-2.1368886020188382   -0.030716527200997212   0.043727605946505266
-2.1368886020188382   -0.030716527200997212   0.043727605946505266
-2.1368886020188382   -0.030716527200997212   0.043727605946505266
-1.7415202308795183   0.019080207194388243   -0.05592101468751133
-1.7415202308795183   0.019080207194388243   -0.05592101468751133
-1.7415202308795183   0.019080207194388243   -0.05592101468751133
-1.7415202308795183   0.019080207194388243   -0.05592101468751133
-2.5851524530581322   -0.09897043348593004   0.08227583649333434
-2.5851524530581322   -0.09897043348593004   0.08227583649333434
-2.5851524530581322   -0.09897043348593004   0.08227583649333434
-2.5851524530581322   -0.09897043348593004   0.08227583649333434
-2.520719367608794   -0.13313988056722464   -0.08984224467699743
-2.520719367608794   -0.13313988056722464   -0.08984224467699743
-2.520719367608794   -0.13313988056722464   -0.08984224467699743
-2.520719367608794   -0.13313988056722464   -0.08984224467699743
-1.6504700381567   0.11756596109536549   0.0738485764263103
-1.6504700381567   0.11756596109536549   0.0738485764263103
-1.6504700381567   0.11756596109536549   0.0738485764263103
-1.6504700381567   0.11756596109536549   0.0738485764263103
-2.0204745589031052   0.008141857756115922   0.07717193549617209
-2.0204745589031052   0.008141857756115922   0.07717193549617209
-2.0204745589031052   0.008141857756115922   0.07717193549617209
-2.0204745589031052   0.008141857756115922   0.07717193549617209
2.496602476613545   0.14952299039359396   0.09075874994694202
2.496602476613545   0.14952299039359396   0.09075874994694202
2.496602476613545   0.14952299039359396   0.09075874994694202
2.496602476613545   0.14952299039359396   0.09075874994694202
1.1906447176010917   -0.22328594994354584   0.020564638033689187
1.1906447176010917   -0.22328594994354584   0.020564638033689187
1.1906447176010917   -0.22328594994354584   0.020564638033689187
1.1906447176010917   -0.22328594994354584   0.020564638033689187
1.256578033651199   -0.09403157582635219   0.06989785364177062
1.256578033651199   -0.09403157582635219   0.06989785364177062
1.256578033651199   -0.09403157582635219   0.06989785364177062
1.256578033651199   -0.09403157582635219   0.06989785364177062
2.5099018093078374   0.0208125128781933   -0.019978599243881123
2.5099018093078374   0.0208125128781933   -0.019978599243881123
2.5099018093078374   0.0208125128781933   -0.019978599243881123
2.5099018093078374   0.0208125128781933   -0.019978599243881123
1.75555821491968   -0.048111979559602336   -0.1168288650643361
1.75555821491968   -0.048111979559602336   -0.1168288650643361
1.75555821491968   -0.048111979559602336   -0.1168288650643361
1.75555821491968   -0.048111979559602336   -0.1168288650643361
2.5573940075304225   0.16650919097548855   0.07178571377175053
2.5573940075304225   0.16650919097548855   0.07178571377175053
2.5573940075304225   0.16650919097548855   0.07178571377175053
2.5573940075304225   0.16650919097548855   0.07178571377175053
1.220498632837903   -0.22831545651435792   0.023784730263297138
1.220498632837903   -0.22831545651435792   0.023784730263297138
1.220498632837903   -0.22831545651435792   0.023784730263297138
1.220498632837903   -0.22831545651435792   0.023784730263297138
1.2816099203309341   -0.0798981127683675   0.053209059743157
1.2816099203309341   -0.0798981127683675   0.053209059743157
1.2816099203309341   -0.0798981127683675   0.053209059743157
1.2816099203309341   -0.0798981127683675   0.053209059743157
2.554054664131295   0.03675662681460856   -0.005894439257259548
2.554054664131295   0.03675662681460856   -0.005894439257259548
2.554054664131295   0.03675662681460856   -0.005894439257259548
2.554054664131295   0.03675662681460856   -0.005894439257259548
1.828149600273966   -0.03808427441758988   -0.07976201162835528
1.828149600273966   -0.03808427441758988   -0.07976201162835528
1.828149600273966   -0.03808427441758988   -0.07976201162835528
1.828149600273966   -0.03808427441758988   -0.07976201162835528
2.5942189882019595   0.1819322086994501   0.04975159921121984
2.5942189882019595   0.1819322086994501   0.04975159921121984
2.5942189882019595   0.1819322086994501   0.04975159921121984
2.5942189882019595   0.1819322086994501   0.04975159921121984
1.2493851449049649   -0.21713414600851416   0.029321215853457233
1.2493851449049649   -0.21713414600851416   0.029321215853457233
1.2493851449049649   -0.21713414600851416   0.029321215853457233
1.2493851449049649   -0.21713414600851416   0.029321215853457233
1.3184233553784608   -0.024794123816222147   0.0486410523971184
1.3184233553784608   -0.024794123816222147   0.0486410523971184
1.3184233553784608   -0.024794123816222147   0.0486410523971184
1.3184233553784608   -0.024794123816222147   0.0486410523971184
2.5999355398690502   0.07319592922095558   -0.0007306320432486774
2.5999355398690502   0.07319592922095558   -0.0007306320432486774
2.5999355398690502   0.07319592922095558   -0.0007306320432486774
2.5999355398690502   0.07319592922095558   -0.0007306320432486774
1.8373214456161244   -0.017667042910420927   -0.059553008698038964
1.8373214456161244   -0.017667042910420927   -0.059553008698038964
1.8373214456161244   -0.017667042910420927   -0.059553008698038964
1.8373214456161244   -0.017667042910420927   -0.059553008698038964
1.256465828693058   0.031418763112135095   0.09496548043783987
1.256465828693058   0.031418763112135095   0.09496548043783987
1.256465828693058   0.031418763112135095   0.09496548043783987
1.256465828693058   0.031418763112135095   0.09496548043783987
0.06727986544025247   -0.4454178378686236   0.04596203214424166
0.06727986544025247   -0.4454178378686236   0.04596203214424166
0.06727986544025247   -0.4454178378686236   0.04596203214424166
0.06727986544025247   -0.4454178378686236   0.04596203214424166
0.15329695709133945   -0.18827885525006138   0.04276204844671962
0.15329695709133945   -0.18827885525006138   0.04276204844671962
0.15329695709133945   -0.18827885525006138   0.04276204844671962
0.15329695709133945   -0.18827885525006138   0.04276204844671962
1.2241666294607307   -0.21509746127604995   0.02890671813911619
1.2241666294607307   -0.21509746127604995   0.02890671813911619
1.2241666294607307   -0.21509746127604995   0.02890671813911619
1.2241666294607307   -0.21509746127604995   0.02890671813911619
0.6533360166740118   -0.20002661441986072   -0.07486720323342058
0.6533360166740118   -0.20002661441986072   -0.07486720323342058
0.6533360166740118   -0.20002661441986072   -0.07486720323342058
0.6533360166740118   -0.20002661441986072   -0.07486720323342058
1.2863875428403968   0.04564134746890708   0.07927247629250446
1.2863875428403968   0.04564134746890708   0.07927247629250446
1.2863875428403968   0.04564134746890708   0.07927247629250446
1.2863875428403968   0.04564134746890708   0.07927247629250446
0.10750035817364068   -0.43259334953303835   0.05809354814120271
0.10750035817364068   -0.43259334953303835   0.05809354814120271
0.10750035817364068   -0.43259334953303835   0.05809354814120271
0.10750035817364068   -0.43259334953303835   0.05809354814120271
0.18791386272895003   -0.16247659167810602   0.031034982941997573
0.18791386272895003   -0.16247659167810602   0.031034982941997573
0.18791386272895003   -0.16247659167810602   0.031034982941997573
0.18791386272895003   -0.16247659167810602   0.031034982941997573
1.253781870837235   -0.20161147471645036   0.035782174222745045
1.253781870837235   -0.20161147471645036   0.035782174222745045
1.253781870837235   -0.20161147471645036   0.035782174222745045
1.253781870837235   -0.20161147471645036   0.035782174222745045
0.6828380397682727   -0.19017101793442576   -0.037431913285940824
0.6828380397682727   -0.19017101793442576   -0.037431913285940824
0.6828380397682727   -0.19017101793442576   -0.037431913285940824
0.6828380397682727   -0.19017101793442576   -0.037431913285940824
1.3142888247267444   0.06994374826985131   0.0667617206839898
1.3142888247267444   0.06994374826985131   0.0667617206839898
1.3142888247267444   0.06994374826985131   0.0667617206839898
1.3142888247267444   0.06994374826985131   0.0667617206839898
0.14321116998216554   -0.4182275535216829   0.06327248105165192
0.14321116998216554   -0.4182275535216829   0.06327248105165192
0.14321116998216554   -0.4182275535216829   0.06327248105165192
0.14321116998216554   -0.4182275535216829   0.06327248105165192
0.24102378816788994   -0.12374880456596486   0.020593897795055355
0.24102378816788994   -0.12374880456596486   0.020593897795055355
0.24102378816788994   -0.12374880456596486   0.020593897795055355
0.24102378816788994   -0.12374880456596486   0.020593897795055355
1.2862128034158051   -0.18109950665808544   0.04389367542571104
1.2862128034158051   -0.18109950665808544   0.04389367542571104
1.2862128034158051   -0.18109950665808544   0.04389367542571104
1.2862128034158051   -0.18109950665808544   0.04389367542571104
0.7344470298751193   -0.16625973176742911   0.006119812025732779
0.7344470298751193   -0.16625973176742911   0.006119812025732779
0.7344470298751193   -0.16625973176742911   0.006119812025732779
0.7344470298751193   -0.16625973176742911   0.006119812025732779
0.14232117150132656   -0.08539328149811733   0.06114400607910585
0.14232117150132656   -0.08539328149811733   0.06114400607910585
0.14232117150132656   -0.08539328149811733   0.06114400607910585
0.14232117150132656   -0.08539328149811733   0.06114400607910585
-1.0655143796675839   -0.7655740975093903   0.06642106720973359
-1.0655143796675839   -0.7655740975093903   0.06642106720973359
-1.0655143796675839   -0.7655740975093903   0.06642106720973359
-1.0655143796675839   -0.7655740975093903   0.06642106720973359
-0.9294392145219824   -0.29767317376585556   0.004573246461460172
-0.9294392145219824   -0.29767317376585556   0.004573246461460172
-0.9294392145219824   -0.29767317376585556   0.004573246461460172
-0.9294392145219824   -0.29767317376585556   0.004573246461460172
0.07579127519937873   -0.5581609149441141   0.025115698680968773
0.07579127519937873   -0.5581609149441141   0.025115698680968773
0.07579127519937873   -0.5581609149441141   0.025115698680968773
0.07579127519937873   -0.5581609149441141   0.025115698680968773
-0.4582226142448512   -0.42976978673404787   -0.08984505140748321
-0.4582226142448512   -0.42976978673404787   -0.08984505140748321
-0.4582226142448512   -0.42976978673404787   -0.08984505140748321
-0.4582226142448512   -0.42976978673404787   -0.08984505140748321
0.1785691173294747   -0.06734779817532438   0.04819179256265884
0.1785691173294747   -0.06734779817532438   0.04819179256265884
0.1785691173294747   -0.06734779817532438   0.04819179256265884
0.1785691173294747   -0.06734779817532438   0.04819179256265884
-1.0084743435787145   -0.7647435774612696   0.07646800487322275
-1.0084743435787145   -0.7647435774612696   0.07646800487322275
-1.0084743435787145   -0.7647435774612696   0.07646800487322275
-1.0084743435787145   -0.7647435774612696   0.07646800487322275
-0.8769566649158079   -0.26715979877653223   0.00015035264089436479
-0.8769566649158079   -0.26715979877653223   0.00015035264089436479
-0.8769566649158079   -0.26715979877653223   0.00015035264089436479
-0.8769566649158079   -0.26715979877653223   0.00015035264089436479
0.11227601631645687   -0.5459984920624564   0.036367651263882333
0.11227601631645687   -0.5459984920624564   0.036367651263882333
0.11227601631645687   -0.5459984920624564   0.036367651263882333
0.11227601631645687   -0.5459984920624564   0.036367651263882333
-0.4050900200921787   -0.41520848192804116   -0.033569388083695764
-0.4050900200921787   -0.41520848192804116   -0.033569388083695764
-0.4050900200921787   -0.41520848192804116   -0.033569388083695764
-0.4050900200921787   -0.41520848192804116   -0.033569388083695764
0.21170808407161665   -0.043292516593140803   0.03082201457036551
0.21170808407161665   -0.043292516593140803   0.03082201457036551
0.21170808407161665   -0.043292516593140803   0.03082201457036551
0.21170808407161665   -0.043292516593140803   0.03082201457036551
-0.954934280804137   -0.7484113223790048   0.09151379680173463
-0.954934280804137   -0.7484113223790048   0.09151379680173463
-0.954934280804137   -0.7484113223790048   0.09151379680173463
-0.954934280804137   -0.7484113223790048   0.09151379680173463
-0.7903576057119541   -0.232000873330182   -0.00971347986156118
-0.7903576057119541   -0.232000873330182   -0.00971347986156118
-0.7903576057119541   -0.232000873330182   -0.00971347986156118
-0.7903576057119541   -0.232000873330182   -0.00971347986156118
0.16923601144494013   -0.5118472920285022   0.04975350164284373
0.16923601144494013   -0.5118472920285022   0.04975350164284373
0.16923601144494013   -0.5118472920285022   0.04975350164284373
0.16923601144494013   -0.5118472920285022   0.04975350164284373
-0.3361107679955156   -0.38243913757363207   0.02539834456681224
-0.3361107679955156   -0.38243913757363207   0.02539834456681224
-0.3361107679955156   -0.38243913757363207   0.02539834456681224
-0.3361107679955156   -0.38243913757363207   0.02539834456681224
-0.9505964350126712   -0.15369978678466312   0.029136479759560904
-0.9505964350126712   -0.15369978678466312   0.029136479759560904
-0.9505964350126712   -0.15369978678466312   0.029136479759560904
-0.9505964350126712   -0.15369978678466312   0.029136479759560904
-2.3728914668473817   -1.1923945726155538   -0.05663595387052614
-2.3728914668473817   -1.1923945726155538   -0.05663595387052614
-2.3728914668473817   -1.1923945726155538   -0.05663595387052614
-2.3728914668473817   -1.1923945726155538   -0.05663595387052614
-2.1482384386725184   -0.38733786076804905   -0.06561632511127669
-2.1482384386725184   -0.38733786076804905   -0.06561632511127669
-2.1482384386725184   -0.38733786076804905   -0.06561632511127669
-2.1482384386725184   -0.38733786076804905   -0.06561632511127669
-1.0664066925034785   -0.9977456177969225   0.019808300585046706
-1.0664066925034785   -0.9977456177969225   0.019808300585046706
-1.0664066925034785   -0.9977456177969225   0.019808300585046706
-1.0664066925034785   -0.9977456177969225   0.019808300585046706
-1.6326692920176489   -0.7052448716857669   -0.09432799845410782
-1.6326692920176489   -0.7052448716857669   -0.09432799845410782
-1.6326692920176489   -0.7052448716857669   -0.09432799845410782
-1.6326692920176489   -0.7052448716857669   -0.09432799845410782
-0.8885750496878726   -0.11669811547969484   0.027919012345848922
-0.8885750496878726   -0.11669811547969484   0.027919012345848922
-0.8885750496878726   -0.11669811547969484   0.027919012345848922
-0.8885750496878726   -0.11669811547969484   0.027919012345848922
-2.3207788245036456   -1.263094106100798   -0.05256200893416421
-2.3207788245036456   -1.263094106100798   -0.05256200893416421
-2.3207788245036456   -1.263094106100798   -0.05256200893416421
-2.3207788245036456   -1.263094106100798   -0.05256200893416421
-2.078426551957344   -0.3507431539350478   -0.06683893781592723
-2.078426551957344   -0.3507431539350478   -0.06683893781592723
-2.078426551957344   -0.3507431539350478   -0.06683893781592723
-2.078426551957344   -0.3507431539350478   -0.06683893781592723
-1.015562259792683   -0.9900304647022411   0.029993044182234002
-1.015562259792683   -0.9900304647022411   0.029993044182234002
-1.015562259792683   -0.9900304647022411   0.029993044182234002
-1.015562259792683   -0.9900304647022411   0.029993044182234002
-1.5594942258723343   -0.6863236842764224   -0.06638448517111396
-1.5594942258723343   -0.6863236842764224   -0.06638448517111396
-1.5594942258723343   -0.6863236842764224   -0.06638448517111396
-1.5594942258723343   -0.6863236842764224   -0.06638448517111396
-0.8392085952189584   -0.08765466212871915   0.009385564477330525
-0.8392085952189584   -0.08765466212871915   0.009385564477330525
-0.8392085952189584   -0.08765466212871915   0.009385564477330525
-0.8392085952189584   -0.08765466212871915   0.009385564477330525
-2.254752435135924   -1.2530911751134122   -0.0461203325304424
-2.254752435135924   -1.2530911751134122   -0.0461203325304424
-2.254752435135924   -1.2530911751134122   -0.0461203325304424
-2.254752435135924   -1.2530911751134122   -0.0461203325304424
-1.9695717376371766   -0.31138559983019015   -0.0757620756548969
-1.9695717376371766   -0.31138559983019015   -0.0757620756548969
-1.9695717376371766   -0.31138559983019015   -0.0757620756548969
-1.9695717376371766   -0.31138559983019015   -0.0757620756548969
-0.905568694054384   -0.8906991446094686   0.0729293497055917
-0.905568694054384   -0.8906991446094686   0.0729293497055917
-0.905568694054384   -0.8906991446094686   0.0729293497055917
-0.905568694054384   -0.8906991446094686   0.0729293497055917
-1.477793010624185   -0.6223696663820613   -0.03720343203135176
-1.477793010624185   -0.6223696663820613   -0.03720343203135176
-1.477793010624185   -0.6223696663820613   -0.03720343203135176
-1.477793010624185   -0.6223696663820613   -0.03720343203135176
-2.1522867276516995   -0.13087368312847059   -0.015133147379197229
-2.1522867276516995   -0.13087368312847059   -0.015133147379197229
-2.1522867276516995   -0.13087368312847059   -0.015133147379197229
-2.1522867276516995   -0.13087368312847059   -0.015133147379197229
-3.8003753147295587   -0.7523267317231933   0.03874165611359204
-3.8003753147295587   -0.7523267317231933   0.03874165611359204
-3.8003753147295587   -0.7523267317231933   0.03874165611359204
-3.8003753147295587   -0.7523267317231933   0.03874165611359204
-3.6504383209668467   -0.36269688208845474   -0.0803114509243038
-3.6504383209668467   -0.36269688208845474   -0.0803114509243038
-3.6504383209668467   -0.36269688208845474   -0.0803114509243038
-3.6504383209668467   -0.36269688208845474   -0.0803114509243038
-2.103935875545705   -0.38922954096516377   0.15778817071988638
-2.103935875545705   -0.38922954096516377   0.15778817071988638
-2.103935875545705   -0.38922954096516377   0.15778817071988638
-2.103935875545705   -0.38922954096516377   0.15778817071988638
-2.808150845808664   -0.4365454969088891   0.04048470831889895
-2.808150845808664   -0.4365454969088891   0.04048470831889895
-2.808150845808664   -0.4365454969088891   0.04048470831889895
-2.808150845808664   -0.4365454969088891   0.04048470831889895
-2.0633728695372993   -0.029122308048610435   0.0004959678453699268
-2.0633728695372993   -0.029122308048610435   0.0004959678453699268
-2.0633728695372993   -0.029122308048610435   0.0004959678453699268
-2.0633728695372993   -0.029122308048610435   0.0004959678453699268
-3.7053386789608767   -0.7371414669906363   0.019631344007695173
-3.7053386789608767   -0.7371414669906363   0.019631344007695173
-3.7053386789608767   -0.7371414669906363   0.019631344007695173
-3.7053386789608767   -0.7371414669906363   0.019631344007695173
-3.567671281689357   -0.3323145271457407   -0.10192580317455541
-3.567671281689357   -0.3323145271457407   -0.10192580317455541
-3.567671281689357   -0.3323145271457407   -0.10192580317455541
-3.567671281689357   -0.3323145271457407   -0.10192580317455541
-2.0320633214560795   -0.36963821011678544   0.1838722708721523
-2.0320633214560795   -0.36963821011678544   0.1838722708721523
-2.0320633214560795   -0.36963821011678544   0.1838722708721523
-2.0320633214560795   -0.36963821011678544   0.1838722708721523
-2.764315471645426   -0.3594539299617472   0.038862862966841306
-2.764315471645426   -0.3594539299617472   0.038862862966841306
-2.764315471645426   -0.3594539299617472   0.038862862966841306
-2.764315471645426   -0.3594539299617472   0.038862862966841306
-1.9993350702119423   -0.0022392173501137314   -0.019885465673834812
-1.9993350702119423   -0.0022392173501137314   -0.019885465673834812
-1.9993350702119423   -0.0022392173501137314   -0.019885465673834812
-1.9993350702119423   -0.0022392173501137314   -0.019885465673834812
-3.6057145945385938   -0.7050285815175175   0.08057168695100692
-3.6057145945385938   -0.7050285815175175   0.08057168695100692
-3.6057145945385938   -0.7050285815175175   0.08057168695100692
-3.6057145945385938   -0.7050285815175175   0.08057168695100692
-3.3958168000619247   -0.2690475998051967   -0.11387246617127596
-3.3958168000619247   -0.2690475998051967   -0.11387246617127596
-3.3958168000619247   -0.2690475998051967   -0.11387246617127596
-3.3958168000619247   -0.2690475998051967   -0.11387246617127596
-1.9203112279558965   -0.34352605917242707   0.20268093209376092
-1.9203112279558965   -0.34352605917242707   0.20268093209376092
-1.9203112279558965   -0.34352605917242707   0.20268093209376092
-1.9203112279558965   -0.34352605917242707   0.20268093209376092
-2.5983896454674693   -0.274743533326922   0.07942299664020742
-2.5983896454674693   -0.274743533326922   0.07942299664020742
-2.5983896454674693   -0.274743533326922   0.07942299664020742
-2.5983896454674693   -0.274743533326922   0.07942299664020742
2.7344928714692394   0.08908976598531049   0.03859506380982275
2.7344928714692394   0.08908976598531049   0.03859506380982275
2.7344928714692394   0.08908976598531049   0.03859506380982275
2.7344928714692394   0.08908976598531049   0.03859506380982275
1.3970187387849207   -0.0732562389416444   0.02861443911362234
1.3970187387849207   -0.0732562389416444   0.02861443911362234
1.3970187387849207   -0.0732562389416444   0.02861443911362234
1.3970187387849207   -0.0732562389416444   0.02861443911362234
1.3421840300824335   -0.19753060938997702   0.05602356864067132
1.3421840300824335   -0.19753060938997702   0.05602356864067132
1.3421840300824335   -0.19753060938997702   0.05602356864067132
1.3421840300824335   -0.19753060938997702   0.05602356864067132
2.714610621876263   0.15298647048964448   0.02078647375818328
2.714610621876263   0.15298647048964448   0.02078647375818328
2.714610621876263   0.15298647048964448   0.02078647375818328
2.714610621876263   0.15298647048964448   0.02078647375818328
1.9379703273831836   -0.027657644342929277   -0.07151598090966405
1.9379703273831836   -0.027657644342929277   -0.07151598090966405
1.9379703273831836   -0.027657644342929277   -0.07151598090966405
1.9379703273831836   -0.027657644342929277   -0.07151598090966405
2.699498695979375   0.0686418941782958   0.029571420585093877
2.699498695979375   0.0686418941782958   0.029571420585093877
2.699498695979375   0.0686418941782958   0.029571420585093877
2.699498695979375   0.0686418941782958   0.029571420585093877
1.3527949038710148   -0.11768708518693477   0.029234413380535243
1.3527949038710148   -0.11768708518693477   0.029234413380535243
1.3527949038710148   -0.11768708518693477   0.029234413380535243
1.3527949038710148   -0.11768708518693477   0.029234413380535243
1.3072584749817222   -0.2021497553800704   0.046369838918918466
1.3072584749817222   -0.2021497553800704   0.046369838918918466
1.3072584749817222   -0.2021497553800704   0.046369838918918466
1.3072584749817222   -0.2021497553800704   0.046369838918918466
2.682659666475785   0.1462947410338184   0.03583439851132915
2.682659666475785   0.1462947410338184   0.03583439851132915
2.682659666475785   0.1462947410338184   0.03583439851132915
2.682659666475785   0.1462947410338184   0.03583439851132915
1.931995139751248   -0.03816326814907495   -0.08291403699223175
1.931995139751248   -0.03816326814907495   -0.08291403699223175
1.931995139751248   -0.03816326814907495   -0.08291403699223175
1.931995139751248   -0.03816326814907495   -0.08291403699223175
2.6601952806237747   0.06093756668464323   0.008869643600433824
2.6601952806237747   0.06093756668464323   0.008869643600433824
2.6601952806237747   0.06093756668464323   0.008869643600433824
2.6601952806237747   0.06093756668464323   0.008869643600433824
1.3216568348009112   -0.12485860706371965   0.04107048969851247
1.3216568348009112   -0.12485860706371965   0.04107048969851247
1.3216568348009112   -0.12485860706371965   0.04107048969851247
1.3216568348009112   -0.12485860706371965   0.04107048969851247
1.2703867531234951   -0.184560446228888   0.040036277453088534
1.2703867531234951   -0.184560446228888   0.040036277453088534
1.2703867531234951   -0.184560446228888   0.040036277453088534
1.2703867531234951   -0.184560446228888   0.040036277453088534
2.6333946489709055   0.14776598823790754   0.051423280618664746
2.6333946489709055   0.14776598823790754   0.051423280618664746
2.6333946489709055   0.14776598823790754   0.051423280618664746
2.6333946489709055   0.14776598823790754   0.051423280618664746
1.8592153682393342   -0.0385269076319496   -0.11206156605027524
1.8592153682393342   -0.0385269076319496   -0.11206156605027524
1.8592153682393342   -0.0385269076319496   -0.11206156605027524
1.8592153682393342   -0.0385269076319496   -0.11206156605027524
1.3841152950329887   -0.1775624684137177   0.068403449826035
1.3841152950329887   -0.1775624684137177   0.068403449826035
1.3841152950329887   -0.1775624684137177   0.068403449826035
1.3841152950329887   -0.1775624684137177   0.068403449826035
0.2707410798057082   -0.16486407666320904   0.014883681057960257
0.2707410798057082   -0.16486407666320904   0.014883681057960257
0.2707410798057082   -0.16486407666320904   0.014883681057960257
0.2707410798057082   -0.16486407666320904   0.014883681057960257
0.1762017854680475   -0.41573518433092965   0.07368294685733945
0.1762017854680475   -0.41573518433092965   0.07368294685733945
0.1762017854680475   -0.41573518433092965   0.07368294685733945
0.1762017854680475   -0.41573518433092965   0.07368294685733945
1.3917571743678379   0.05345442221598484   0.05290425846173161
1.3917571743678379   0.05345442221598484   0.05290425846173161
1.3917571743678379   0.05345442221598484   0.05290425846173161
1.3917571743678379   0.05345442221598484   0.05290425846173161
0.793329218654076   -0.176878778347658   -0.0030078470054181183
0.793329218654076   -0.176878778347658   -0.0030078470054181183
0.793329218654076   -0.176878778347658   -0.0030078470054181183
0.793329218654076   -0.176878778347658   -0.0030078470054181183
1.3448826992032645   -0.1852819416536648   0.057268246508508064
1.3448826992032645   -0.1852819416536648   0.057268246508508064
1.3448826992032645   -0.1852819416536648   0.057268246508508064
1.3448826992032645   -0.1852819416536648   0.057268246508508064
0.21124218624148902   -0.18883289485242308   0.021982661246040675
0.21124218624148902   -0.18883289485242308   0.021982661246040675
0.21124218624148902   -0.18883289485242308   0.021982661246040675
0.21124218624148902   -0.18883289485242308   0.021982661246040675
0.13388859103389672   -0.41955061728926535   0.06597974116200853
0.13388859103389672   -0.41955061728926535   0.06597974116200853
0.13388859103389672   -0.41955061728926535   0.06597974116200853
0.13388859103389672   -0.41955061728926535   0.06597974116200853
1.3595449564483446   0.04294220828214257   0.06271028258981667
1.3595449564483446   0.04294220828214257   0.06271028258981667
1.3595449564483446   0.04294220828214257   0.06271028258981667
1.3595449564483446   0.04294220828214257   0.06271028258981667
0.7358915985619567   -0.18855381312728617   -0.03813171188380167
0.7358915985619567   -0.18855381312728617   -0.03813171188380167
0.7358915985619567   -0.18855381312728617   -0.03813171188380167
0.7358915985619567   -0.18855381312728617   -0.03813171188380167
1.3102790459559834   -0.18800323904601768   0.047326177456160246
1.3102790459559834   -0.18800323904601768   0.047326177456160246
1.3102790459559834   -0.18800323904601768   0.047326177456160246
1.3102790459559834   -0.18800323904601768   0.047326177456160246
0.1702975063662757   -0.2014621651210891   0.029935865655727062
0.1702975063662757   -0.2014621651210891   0.029935865655727062
0.1702975063662757   -0.2014621651210891   0.029935865655727062
0.1702975063662757   -0.2014621651210891   0.029935865655727062
0.08653236552725285   -0.4194769616124341   0.05168683854251993
0.08653236552725285   -0.4194769616124341   0.05168683854251993
0.08653236552725285   -0.4194769616124341   0.05168683854251993
0.08653236552725285   -0.4194769616124341   0.05168683854251993
1.322987614167967   0.0434764745515831   0.0750036618949842
1.322987614167967   0.0434764745515831   0.0750036618949842
1.322987614167967   0.0434764745515831   0.0750036618949842
1.322987614167967   0.0434764745515831   0.0750036618949842
0.7007498459661153   -0.18721306992755993   -0.06803450505099701
0.7007498459661153   -0.18721306992755993   -0.06803450505099701
0.7007498459661153   -0.18721306992755993   -0.06803450505099701
0.7007498459661153   -0.18721306992755993   -0.06803450505099701
0.2107730075886484   -0.5113041540318346   0.06148339734127942
0.2107730075886484   -0.5113041540318346   0.06148339734127942
0.2107730075886484   -0.5113041540318346   0.06148339734127942
0.2107730075886484   -0.5113041540318346   0.06148339734127942
-0.8118631130044787   -0.2561024121031504   0.0011166947802270406
-0.8118631130044787   -0.2561024121031504   0.0011166947802270406
-0.8118631130044787   -0.2561024121031504   0.0011166947802270406
-0.8118631130044787   -0.2561024121031504   0.0011166947802270406
-0.9829012333470017   -0.7580321387441938   0.0844520882268893
-0.9829012333470017   -0.7580321387441938   0.0844520882268893
-0.9829012333470017   -0.7580321387441938   0.0844520882268893
-0.9829012333470017   -0.7580321387441938   0.0844520882268893
0.24248015950783766   -0.04405389967139195   0.033393532396748804
0.24248015950783766   -0.04405389967139195   0.033393532396748804
0.24248015950783766   -0.04405389967139195   0.033393532396748804
0.24248015950783766   -0.04405389967139195   0.033393532396748804
-0.330852558584102   -0.3868546904169114   0.01450165348197266
-0.330852558584102   -0.3868546904169114   0.01450165348197266
-0.330852558584102   -0.3868546904169114   0.01450165348197266
-0.330852558584102   -0.3868546904169114   0.01450165348197266
0.14533854681776684   -0.5404569054180242   0.04408847469303076
0.14533854681776684   -0.5404569054180242   0.04408847469303076
0.14533854681776684   -0.5404569054180242   0.04408847469303076
0.14533854681776684   -0.5404569054180242   0.04408847469303076
-0.9023015531369636   -0.2781710654775951   0.0075894160104728915
-0.9023015531369636   -0.2781710654775951   0.0075894160104728915
-0.9023015531369636   -0.2781710654775951   0.0075894160104728915
-0.9023015531369636   -0.2781710654775951   0.0075894160104728915
-1.0418738290833938   -0.7703694028565571   0.0686629426932294
-1.0418738290833938   -0.7703694028565571   0.0686629426932294
-1.0418738290833938   -0.7703694028565571   0.0686629426932294
-1.0418738290833938   -0.7703694028565571   0.0686629426932294
0.20284183304274017   -0.05572819638317935   0.046923530300139654
0.20284183304274017   -0.05572819638317935   0.046923530300139654
0.20284183304274017   -0.05572819638317935   0.046923530300139654
0.20284183304274017   -0.05572819638317935   0.046923530300139654
-0.4045258845436004   -0.41046790951722273   -0.03473113399404913
-0.4045258845436004   -0.41046790951722273   -0.03473113399404913
-0.4045258845436004   -0.41046790951722273   -0.03473113399404913
-0.4045258845436004   -0.41046790951722273   -0.03473113399404913
0.10026655478289545   -0.5500084384153315   0.028327381033068172
0.10026655478289545   -0.5500084384153315   0.028327381033068172
0.10026655478289545   -0.5500084384153315   0.028327381033068172
0.10026655478289545   -0.5500084384153315   0.028327381033068172
-0.9589463104371356   -0.29573692043799293   0.008668053505947529
-0.9589463104371356   -0.29573692043799293   0.008668053505947529
-0.9589463104371356   -0.29573692043799293   0.008668053505947529
-0.9589463104371356   -0.29573692043799293   0.008668053505947529
-1.1057434160416917   -0.7651948239670754   0.05799526943660957
-1.1057434160416917   -0.7651948239670754   0.05799526943660957
-1.1057434160416917   -0.7651948239670754   0.05799526943660957
-1.1057434160416917   -0.7651948239670754   0.05799526943660957
0.15872914857803772   -0.062267362448573324   0.0554611546325834
0.15872914857803772   -0.062267362448573324   0.0554611546325834
0.15872914857803772   -0.062267362448573324   0.0554611546325834
0.15872914857803772   -0.062267362448573324   0.0554611546325834
-0.46426885748652313   -0.4194810789200932   -0.0838483297676662
-0.46426885748652313   -0.4194810789200932   -0.0838483297676662
-0.46426885748652313   -0.4194810789200932   -0.0838483297676662
-0.46426885748652313   -0.4194810789200932   -0.0838483297676662
-0.9214761677740066   -0.8761621002174046   0.07311110904684545
-0.9214761677740066   -0.8761621002174046   0.07311110904684545
-0.9214761677740066   -0.8761621002174046   0.07311110904684545
-0.9214761677740066   -0.8761621002174046   0.07311110904684545
-2.0437085393992587   -0.3189357532849154   -0.0474816784522224
-2.0437085393992587   -0.3189357532849154   -0.0474816784522224
-2.0437085393992587   -0.3189357532849154   -0.0474816784522224
-2.0437085393992587   -0.3189357532849154   -0.0474816784522224
-2.3425245833625614   -1.2701537381414987   -0.066114410278751
-2.3425245833625614   -1.2701537381414987   -0.066114410278751
-2.3425245833625614   -1.2701537381414987   -0.066114410278751
-2.3425245833625614   -1.2701537381414987   -0.066114410278751
-0.856893072364205   -0.07239202577686722   0.02885278017353841
-0.856893072364205   -0.07239202577686722   0.02885278017353841
-0.856893072364205   -0.07239202577686722   0.02885278017353841
-0.856893072364205   -0.07239202577686722   0.02885278017353841
-1.5264388858616298   -0.6099409141277568   -0.05289909371417019
-1.5264388858616298   -0.6099409141277568   -0.05289909371417019
-1.5264388858616298   -0.6099409141277568   -0.05289909371417019
-1.5264388858616298   -0.6099409141277568   -0.05289909371417019
-1.0416820120294945   -0.9918826088375738   0.0243986649078059
-1.0416820120294945   -0.9918826088375738   0.0243986649078059
-1.0416820120294945   -0.9918826088375738   0.0243986649078059
-1.0416820120294945   -0.9918826088375738   0.0243986649078059
-2.15294107570106   -0.3458685870845786   -0.04248202302816394
-2.15294107570106   -0.3458685870845786   -0.04248202302816394
-2.15294107570106   -0.3458685870845786   -0.04248202302816394
-2.15294107570106   -0.3458685870845786   -0.04248202302816394
-2.4126316420879435   -1.2907351044207296   -0.07646077211501007
-2.4126316420879435   -1.2907351044207296   -0.07646077211501007
-2.4126316420879435   -1.2907351044207296   -0.07646077211501007
-2.4126316420879435   -1.2907351044207296   -0.07646077211501007
-0.9112055650974007   -0.09150663912272965   0.04314149888935857
-0.9112055650974007   -0.09150663912272965   0.04314149888935857
-0.9112055650974007   -0.09150663912272965   0.04314149888935857
-0.9112055650974007   -0.09150663912272965   0.04314149888935857
-1.612070100437192   -0.6756186073031469   -0.07453065287117708
-1.612070100437192   -0.6756186073031469   -0.07453065287117708
-1.612070100437192   -0.6756186073031469   -0.07453065287117708
-1.612070100437192   -0.6756186073031469   -0.07453065287117708
-1.1019066256513037   -1.0113933627591583   0.009522919756269094
-1.1019066256513037   -1.0113933627591583   0.009522919756269094
-1.1019066256513037   -1.0113933627591583   0.009522919756269094
-1.1019066256513037   -1.0113933627591583   0.009522919756269094
-2.2221269533592216   -0.37104475260949565   -0.04362768028265064
-2.2221269533592216   -0.37104475260949565   -0.04362768028265064
-2.2221269533592216   -0.37104475260949565   -0.04362768028265064
-2.2221269533592216   -0.37104475260949565   -0.04362768028265064
-2.472473732730248   -1.2359117642615465   -0.08622870987893402
-2.472473732730248   -1.2359117642615465   -0.08622870987893402
-2.472473732730248   -1.2359117642615465   -0.08622870987893402
-2.472473732730248   -1.2359117642615465   -0.08622870987893402
-0.9800188275206364   -0.1184812884183755   0.0399046764931701
-0.9800188275206364   -0.1184812884183755   0.0399046764931701
-0.9800188275206364   -0.1184812884183755   0.0399046764931701
-0.9800188275206364   -0.1184812884183755   0.0399046764931701
-1.690846807343205   -0.6980775618759535   -0.09513125445226842
-1.690846807343205   -0.6980775618759535   -0.09513125445226842
-1.690846807343205   -0.6980775618759535   -0.09513125445226842
-1.690846807343205   -0.6980775618759535   -0.09513125445226842
-2.007021932829233   -0.3650010552860458   0.18201665639900366
-2.007021932829233   -0.3650010552860458   0.18201665639900366
-2.007021932829233   -0.3650010552860458   0.18201665639900366
-2.007021932829233   -0.3650010552860458   0.18201665639900366
-3.538052428172635   -0.26519697259747466   -0.0632567307703891
-3.538052428172635   -0.26519697259747466   -0.0632567307703891
-3.538052428172635   -0.26519697259747466   -0.0632567307703891
-3.538052428172635   -0.26519697259747466   -0.0632567307703891
-3.7553269080392946   -0.7410646300506273   0.050003757786158065
-3.7553269080392946   -0.7410646300506273   0.050003757786158065
-3.7553269080392946   -0.7410646300506273   0.050003757786158065
-3.7553269080392946   -0.7410646300506273   0.050003757786158065
-2.0658374798935797   0.029406404015621057   0.01776096490901992
-2.0658374798935797   0.029406404015621057   0.01776096490901992
-2.0658374798935797   0.029406404015621057   0.01776096490901992
-2.0658374798935797   0.029406404015621057   0.01776096490901992
-2.7062286237193636   -0.26034946478999277   0.05448450048135137
-2.7062286237193636   -0.26034946478999277   0.05448450048135137
-2.7062286237193636   -0.26034946478999277   0.05448450048135137
-2.7062286237193636   -0.26034946478999277   0.05448450048135137
-2.1213531215353614   -0.39196066013660624   0.16154982085233027
-2.1213531215353614   -0.39196066013660624   0.16154982085233027
-2.1213531215353614   -0.39196066013660624   0.16154982085233027
-2.1213531215353614   -0.39196066013660624   0.16154982085233027
-3.6902292803586456   -0.31011557985952914   -0.05545715400166483
-3.6902292803586456   -0.31011557985952914   -0.05545715400166483
-3.6902292803586456   -0.31011557985952914   -0.05545715400166483
-3.6902292803586456   -0.31011557985952914   -0.05545715400166483
-3.84778307642515   -0.7727525663567046   -0.01597975535837315
-3.84778307642515   -0.7727525663567046   -0.01597975535837315
-3.84778307642515   -0.7727525663567046   -0.01597975535837315
-3.84778307642515   -0.7727525663567046   -0.01597975535837315
-2.1310547180943065   0.008016481268606102   0.03267226216382216
-2.1310547180943065   0.008016481268606102   0.03267226216382216
-2.1310547180943065   0.008016481268606102   0.03267226216382216
-2.1310547180943065   0.008016481268606102   0.03267226216382216
-2.8687401587404624   -0.34384351608515146   0.022530958088069028
-2.8687401587404624   -0.34384351608515146   0.022530958088069028
-2.8687401587404624   -0.34384351608515146   0.022530958088069028
-2.8687401587404624   -0.34384351608515146   0.022530958088069028
-2.1948115215565958   -0.41215113257260205   0.13405585869358527
-2.1948115215565958   -0.41215113257260205   0.13405585869358527
-2.1948115215565958   -0.41215113257260205   0.13405585869358527
-2.1948115215565958   -0.41215113257260205   0.13405585869358527
-3.7648640151957666   -0.3334226947483807   -0.040714320819714045
-3.7648640151957666   -0.3334226947483807   -0.040714320819714045
-3.7648640151957666   -0.3334226947483807   -0.040714320819714045
-3.7648640151957666   -0.3334226947483807   -0.040714320819714045
-3.9284829815997315   -0.7857206782828019   -0.00012040981427752229
-3.9284829815997315   -0.7857206782828019   -0.00012040981427752229
-3.9284829815997315   -0.7857206782828019   -0.00012040981427752229
-3.9284829815997315   -0.7857206782828019   -0.00012040981427752229
-2.222582857253392   -0.08598015518051322   0.013294058424311778
-2.222582857253392   -0.08598015518051322   0.013294058424311778
-2.222582857253392   -0.08598015518051322   0.013294058424311778
-2.222582857253392   -0.08598015518051322   0.013294058424311778
-2.9040990603032286   -0.4156108536247546   0.03559777424838358
-2.9040990603032286   -0.4156108536247546   0.03559777424838358
-2.9040990603032286   -0.4156108536247546   0.03559777424838358
-2.9040990603032286   -0.4156108536247546   0.03559777424838358
2.3926610383538964   0.10969706847976052   -0.052261323348267455
2.3926610383538964   0.10969706847976052   -0.052261323348267455
2.3926610383538964   0.10969706847976052   -0.052261323348267455
2.3926610383538964   0.10969706847976052   -0.052261323348267455
1.2050113124748185   -0.02384187125169457   0.02583716331484702
1.2050113124748185   -0.02384187125169457   0.02583716331484702
1.2050113124748185   -0.02384187125169457   0.02583716331484702
1.2050113124748185   -0.02384187125169457   0.02583716331484702
1.1279750918723321   -0.17771514454051213   -0.04608607138866892
1.1279750918723321   -0.17771514454051213   -0.04608607138866892
1.1279750918723321   -0.17771514454051213   -0.04608607138866892
1.1279750918723321   -0.17771514454051213   -0.04608607138866892
2.364852487119575   0.1729140425698456   0.030229251144553063
2.364852487119575   0.1729140425698456   0.030229251144553063
2.364852487119575   0.1729140425698456   0.030229251144553063
2.364852487119575   0.1729140425698456   0.030229251144553063
1.6797015682461862   0.00411203111633307   -0.0648946835752784
1.6797015682461862   0.00411203111633307   -0.0648946835752784
1.6797015682461862   0.00411203111633307   -0.0648946835752784
1.6797015682461862   0.00411203111633307   -0.0648946835752784
2.3257905227441467   0.060526541899200204   -0.05269307006192207
2.3257905227441467   0.060526541899200204   -0.05269307006192207
2.3257905227441467   0.060526541899200204   -0.05269307006192207
2.3257905227441467   0.060526541899200204   -0.05269307006192207
1.164857086655443   -0.06750761346218237   0.028116371448544966
1.164857086655443   -0.06750761346218237   0.028116371448544966
1.164857086655443   -0.06750761346218237   0.028116371448544966
1.164857086655443   -0.06750761346218237   0.028116371448544966
1.0865116435431834   -0.18770698706718403   -0.038026219061081626
1.0865116435431834   -0.18770698706718403   -0.038026219061081626
1.0865116435431834   -0.18770698706718403   -0.038026219061081626
1.0865116435431834   -0.18770698706718403   -0.038026219061081626
2.307222084284018   0.15878072009852984   0.04410810928268788
2.307222084284018   0.15878072009852984   0.04410810928268788
2.307222084284018   0.15878072009852984   0.04410810928268788
2.307222084284018   0.15878072009852984   0.04410810928268788
1.6568879852809841   -0.016930347250885325   -0.07758982110792945
1.6568879852809841   -0.016930347250885325   -0.07758982110792945
1.6568879852809841   -0.016930347250885325   -0.07758982110792945
1.6568879852809841   -0.016930347250885325   -0.07758982110792945
2.267878987456777   0.04783866214729443   -0.04166531690228285
2.267878987456777   0.04783866214729443   -0.04166531690228285
2.267878987456777   0.04783866214729443   -0.04166531690228285
2.267878987456777   0.04783866214729443   -0.04166531690228285
1.1228427410687987   -0.07977692841757467   0.03569920991738498
1.1228427410687987   -0.07977692841757467   0.03569920991738498
1.1228427410687987   -0.07977692841757467   0.03569920991738498
1.1228427410687987   -0.07977692841757467   0.03569920991738498
1.0463290050590768   -0.18514215378710952   -0.026051785594530835
1.0463290050590768   -0.18514215378710952   -0.026051785594530835
1.0463290050590768   -0.18514215378710952   -0.026051785594530835
1.0463290050590768   -0.18514215378710952   -0.026051785594530835
2.235842156478502   0.14903397554982661   0.057313836835135495
2.235842156478502   0.14903397554982661   0.057313836835135495
2.235842156478502   0.14903397554982661   0.057313836835135495
2.235842156478502   0.14903397554982661   0.057313836835135495
1.5746403368228232   -0.029575746122146807   -0.10199002931674118
1.5746403368228232   -0.029575746122146807   -0.10199002931674118
1.5746403368228232   -0.029575746122146807   -0.10199002931674118
1.5746403368228232   -0.029575746122146807   -0.10199002931674118
1.2112005351549393   0.02236613273982918   0.010575272723920046
1.2112005351549393   0.02236613273982918   0.010575272723920046
1.2112005351549393   0.02236613273982918   0.010575272723920046
1.2112005351549393   0.02236613273982918   0.010575272723920046
0.11783779730140778   -0.07232383527341835   -0.0026081713075844365
0.11783779730140778   -0.07232383527341835   -0.0026081713075844365
0.11783779730140778   -0.07232383527341835   -0.0026081713075844365
0.11783779730140778   -0.07232383527341835   -0.0026081713075844365
0.045249557662609435   -0.23528782752605293   -0.04429937354322904
0.045249557662609435   -0.23528782752605293   -0.04429937354322904
0.045249557662609435   -0.23528782752605293   -0.04429937354322904
0.045249557662609435   -0.23528782752605293   -0.04429937354322904
1.2127119791021754   0.13978129110780635   0.06010192911221861
1.2127119791021754   0.13978129110780635   0.06010192911221861
1.2127119791021754   0.13978129110780635   0.06010192911221861
1.2127119791021754   0.13978129110780635   0.06010192911221861
0.6348785809125941   -0.0332607683327483   -0.025270682676735774
0.6348785809125941   -0.0332607683327483   -0.025270682676735774
0.6348785809125941   -0.0332607683327483   -0.025270682676735774
0.6348785809125941   -0.0332607683327483   -0.025270682676735774
1.1771323126462412   0.003621313139492377   0.01836357480086595
1.1771323126462412   0.003621313139492377   0.01836357480086595
1.1771323126462412   0.003621313139492377   0.01836357480086595
1.1771323126462412   0.003621313139492377   0.01836357480086595
0.08216935921489785   -0.09778771446138407   0.002799521153544121
0.08216935921489785   -0.09778771446138407   0.002799521153544121
0.08216935921489785   -0.09778771446138407   0.002799521153544121
0.08216935921489785   -0.09778771446138407   0.002799521153544121
0.005271153474607909   -0.24660791885203182   -0.03076655010725729
0.005271153474607909   -0.24660791885203182   -0.03076655010725729
0.005271153474607909   -0.24660791885203182   -0.03076655010725729
0.005271153474607909   -0.24660791885203182   -0.03076655010725729
1.1688180576476137   0.11949064671205809   0.06630821768182715
1.1688180576476137   0.11949064671205809   0.06630821768182715
1.1688180576476137   0.11949064671205809   0.06630821768182715
1.1688180576476137   0.11949064671205809   0.06630821768182715
0.5889164351386605   -0.05191612904652543   -0.035781940800838886
0.5889164351386605   -0.05191612904652543   -0.035781940800838886
0.5889164351386605   -0.05191612904652543   -0.035781940800838886
0.5889164351386605   -0.05191612904652543   -0.035781940800838886
1.1352319843613679   -0.009073952550569142   0.026942450513234684
1.1352319843613679   -0.009073952550569142   0.026942450513234684
1.1352319843613679   -0.009073952550569142   0.026942450513234684
1.1352319843613679   -0.009073952550569142   0.026942450513234684
0.03866158616093252   -0.11823896018931396   0.007816654661647937
0.03866158616093252   -0.11823896018931396   0.007816654661647937
0.03866158616093252   -0.11823896018931396   0.007816654661647937
0.03866158616093252   -0.11823896018931396   0.007816654661647937
-0.03766197303111418   -0.2478405153199338   -0.02093170026351908
-0.03766197303111418   -0.2478405153199338   -0.02093170026351908
-0.03766197303111418   -0.2478405153199338   -0.02093170026351908
-0.03766197303111418   -0.2478405153199338   -0.02093170026351908
1.1245344438454459   0.10653359866164863   0.07329965588855981
1.1245344438454459   0.10653359866164863   0.07329965588855981
1.1245344438454459   0.10653359866164863   0.07329965588855981
1.1245344438454459   0.10653359866164863   0.07329965588855981
0.5528724200832547   -0.059430031334505945   -0.04484567734937674
0.5528724200832547   -0.059430031334505945   -0.04484567734937674
0.5528724200832547   -0.059430031334505945   -0.04484567734937674
0.5528724200832547   -0.059430031334505945   -0.04484567734937674
0.11973665178933139   -0.06924445410725893   0.003806719965874148
0.11973665178933139   -0.06924445410725893   0.003806719965874148
0.11973665178933139   -0.06924445410725893   0.003806719965874148
0.11973665178933139   -0.06924445410725893   0.003806719965874148
-0.9328876739979193   -0.10790464373654843   -0.02937781010266286
-0.9328876739979193   -0.10790464373654843   -0.02937781010266286
-0.9328876739979193   -0.10790464373654843   -0.02937781010266286
-0.9328876739979193   -0.10790464373654843   -0.02937781010266286
-1.0135844678978818   -0.31202807332024796   -0.05041270844187312
-1.0135844678978818   -0.31202807332024796   -0.05041270844187312
-1.0135844678978818   -0.31202807332024796   -0.05041270844187312
-1.0135844678978818   -0.31202807332024796   -0.05041270844187312
0.12850508843268507   0.10225033233978459   0.03444012044131161
0.12850508843268507   0.10225033233978459   0.03444012044131161
0.12850508843268507   0.10225033233978459   0.03444012044131161
0.12850508843268507   0.10225033233978459   0.03444012044131161
-0.4258328640776615   -0.09209396003021128   -0.025114663495726927
-0.4258328640776615   -0.09209396003021128   -0.025114663495726927
-0.4258328640776615   -0.09209396003021128   -0.025114663495726927
-0.4258328640776615   -0.09209396003021128   -0.025114663495726927
0.0897055990060547   -0.07729076426791494   0.019983769915855442
0.0897055990060547   -0.07729076426791494   0.019983769915855442
0.0897055990060547   -0.07729076426791494   0.019983769915855442
0.0897055990060547   -0.07729076426791494   0.019983769915855442
-0.9718238825352634   -0.12952588077656096   -0.024111974172467618
-0.9718238825352634   -0.12952588077656096   -0.024111974172467618
-0.9718238825352634   -0.12952588077656096   -0.024111974172467618
-0.9718238825352634   -0.12952588077656096   -0.024111974172467618
-1.0604790208352566   -0.32443692302659133   -0.033299249038984916
-1.0604790208352566   -0.32443692302659133   -0.033299249038984916
-1.0604790208352566   -0.32443692302659133   -0.033299249038984916
-1.0604790208352566   -0.32443692302659133   -0.033299249038984916
0.08464171809834298   0.08052234861406354   0.03895600554532267
0.08464171809834298   0.08052234861406354   0.03895600554532267
0.08464171809834298   0.08052234861406354   0.03895600554532267
0.08464171809834298   0.08052234861406354   0.03895600554532267
-0.4646164090125014   -0.10506102430016165   -0.03013481265190827
-0.4646164090125014   -0.10506102430016165   -0.03013481265190827
-0.4646164090125014   -0.10506102430016165   -0.03013481265190827
-0.4646164090125014   -0.10506102430016165   -0.03013481265190827
0.048186588172443715   -0.0905028420927405   0.02770554662263039
0.048186588172443715   -0.0905028420927405   0.02770554662263039
0.048186588172443715   -0.0905028420927405   0.02770554662263039
0.048186588172443715   -0.0905028420927405   0.02770554662263039
-1.0234086312866089   -0.1527964726970502   -0.0195877516252944
-1.0234086312866089   -0.1527964726970502   -0.0195877516252944
-1.0234086312866089   -0.1527964726970502   -0.0195877516252944
-1.0234086312866089   -0.1527964726970502   -0.0195877516252944
-1.1125252749388514   -0.3335318220206534   -0.02960671971092775
-1.1125252749388514   -0.3335318220206534   -0.02960671971092775
-1.1125252749388514   -0.3335318220206534   -0.02960671971092775
-1.1125252749388514   -0.3335318220206534   -0.02960671971092775
0.03719867883347309   0.061965982087886534   0.04356506165159692
0.03719867883347309   0.061965982087886534   0.04356506165159692
0.03719867883347309   0.061965982087886534   0.04356506165159692
0.03719867883347309   0.061965982087886534   0.04356506165159692
-0.5150176970560426   -0.12058731451190333   -0.042212860982013885
-0.5150176970560426   -0.12058731451190333   -0.042212860982013885
-0.5150176970560426   -0.12058731451190333   -0.042212860982013885
-0.5150176970560426   -0.12058731451190333   -0.042212860982013885
-0.9188090674536552   -0.08153117285744364   0.014641751739533079
-0.9188090674536552   -0.08153117285744364   0.014641751739533079
-0.9188090674536552   -0.08153117285744364   0.014641751739533079
-0.9188090674536552   -0.08153117285744364   0.014641751739533079
-1.9579643579515622   -0.12626008500889951   -0.051867210441968487
-1.9579643579515622   -0.12626008500889951   -0.051867210441968487
-1.9579643579515622   -0.12626008500889951   -0.051867210441968487
-1.9579643579515622   -0.12626008500889951   -0.051867210441968487
-2.049734453776105   -0.32678208357091315   -0.050256127384791224
-2.049734453776105   -0.32678208357091315   -0.050256127384791224
-2.049734453776105   -0.32678208357091315   -0.050256127384791224
-2.049734453776105   -0.32678208357091315   -0.050256127384791224
-0.9235665321727486   0.07798462487820801   0.009664271985322548
-0.9235665321727486   0.07798462487820801   0.009664271985322548
-0.9235665321727486   0.07798462487820801   0.009664271985322548
-0.9235665321727486   0.07798462487820801   0.009664271985322548
-1.4504483831838244   -0.10885332891510582   -0.021164869238636204
-1.4504483831838244   -0.10885332891510582   -0.021164869238636204
-1.4504483831838244   -0.10885332891510582   -0.021164869238636204
-1.4504483831838244   -0.10885332891510582   -0.021164869238636204
-0.9520792427186627   -0.09015228921307115   0.035237633347037875
-0.9520792427186627   -0.09015228921307115   0.035237633347037875
-0.9520792427186627   -0.09015228921307115   0.035237633347037875
-0.9520792427186627   -0.09015228921307115   0.035237633347037875
-2.0154024916674675   -0.15282591791691352   -0.05255248249562722
-2.0154024916674675   -0.15282591791691352   -0.05255248249562722
-2.0154024916674675   -0.15282591791691352   -0.05255248249562722
-2.0154024916674675   -0.15282591791691352   -0.05255248249562722
-2.1146406595090093   -0.34786625235156554   -0.035221472843151226
-2.1146406595090093   -0.34786625235156554   -0.035221472843151226
-2.1146406595090093   -0.34786625235156554   -0.035221472843151226
-2.1146406595090093   -0.34786625235156554   -0.035221472843151226
-0.9757242124796294   0.05418727809881779   0.011850591613734945
-0.9757242124796294   0.05418727809881779   0.011850591613734945
-0.9757242124796294   0.05418727809881779   0.011850591613734945
-0.9757242124796294   0.05418727809881779   0.011850591613734945
-1.4915651420680895   -0.12057643974459792   -0.021258190368491553
-1.4915651420680895   -0.12057643974459792   -0.021258190368491553
-1.4915651420680895   -0.12057643974459792   -0.021258190368491553
-1.4915651420680895   -0.12057643974459792   -0.021258190368491553
-1.0038934088579736   -0.11136177507379184   0.036553662894620184
-1.0038934088579736   -0.11136177507379184   0.036553662894620184
-1.0038934088579736   -0.11136177507379184   0.036553662894620184
-1.0038934088579736   -0.11136177507379184   0.036553662894620184
-2.0825741632924   -0.1784198993406813   -0.0443353447709898
-2.0825741632924   -0.1784198993406813   -0.0443353447709898
-2.0825741632924   -0.1784198993406813   -0.0443353447709898
-2.0825741632924   -0.1784198993406813   -0.0443353447709898
-2.188110091220741   -0.3756286957537932   -0.037741096483814005
-2.188110091220741   -0.3756286957537932   -0.037741096483814005
-2.188110091220741   -0.3756286957537932   -0.037741096483814005
-2.188110091220741   -0.3756286957537932   -0.037741096483814005
-1.0320870017152082   0.024847462965184863   0.014205361421432777
-1.0320870017152082   0.024847462965184863   0.014205361421432777
-1.0320870017152082   0.024847462965184863   0.014205361421432777
-1.0320870017152082   0.024847462965184863   0.014205361421432777
-1.5643343655265238   -0.148987609704167   -0.03447912934322327
-1.5643343655265238   -0.148987609704167   -0.03447912934322327
-1.5643343655265238   -0.148987609704167   -0.03447912934322327
-1.5643343655265238   -0.148987609704167   -0.03447912934322327
-1.8914565433805037   0.08971325499659544   0.06469852240783
-1.8914565433805037   0.08971325499659544   0.06469852240783
-1.8914565433805037   0.08971325499659544   0.06469852240783
-1.8914565433805037   0.08971325499659544   0.06469852240783
-2.9331130263669354   -0.14617243790216639   -0.03968412879279612
-2.9331130263669354   -0.14617243790216639   -0.03968412879279612
-2.9331130263669354   -0.14617243790216639   -0.03968412879279612
-2.9331130263669354   -0.14617243790216639   -0.03968412879279612
-3.0057076492596866   -0.1488223947219301   0.06648714058730952
-3.0057076492596866   -0.1488223947219301   0.06648714058730952
-3.0057076492596866   -0.1488223947219301   0.06648714058730952
-3.0057076492596866   -0.1488223947219301   0.06648714058730952
-1.9653938989744872   0.06063805391428023   -0.015973490861916767
-1.9653938989744872   0.06063805391428023   -0.015973490861916767
-1.9653938989744872   0.06063805391428023   -0.015973490861916767
-1.9653938989744872   0.06063805391428023   -0.015973490861916767
-2.3348132280118947   0.0018746431182076195   0.05920451140195543
-2.3348132280118947   0.0018746431182076195   0.05920451140195543
-2.3348132280118947   0.0018746431182076195   0.05920451140195543
-2.3348132280118947   0.0018746431182076195   0.05920451140195543
-1.9447237860550903   0.06639997944282944   0.08161514820651082
-1.9447237860550903   0.06639997944282944   0.08161514820651082
-1.9447237860550903   0.06639997944282944   0.08161514820651082
-1.9447237860550903   0.06639997944282944   0.08161514820651082
-3.025031297145348   -0.15323785521673494   -0.02571563834619306
-3.025031297145348   -0.15323785521673494   -0.02571563834619306
-3.025031297145348   -0.15323785521673494   -0.02571563834619306
-3.025031297145348   -0.15323785521673494   -0.02571563834619306
-3.097399717518781   -0.17370895431396938   0.09039008367541926
-3.097399717518781   -0.17370895431396938   0.09039008367541926
-3.097399717518781   -0.17370895431396938   0.09039008367541926
-3.097399717518781   -0.17370895431396938   0.09039008367541926
-2.0326124173223397   0.043735641484857646   -0.016682155746246596
-2.0326124173223397   0.043735641484857646   -0.016682155746246596
-2.0326124173223397   0.043735641484857646   -0.016682155746246596
-2.0326124173223397   0.043735641484857646   -0.016682155746246596
-2.452873638766514   -0.027276841077801817   0.03218576947254345
-2.452873638766514   -0.027276841077801817   0.03218576947254345
-2.452873638766514   -0.027276841077801817   0.03218576947254345
-2.452873638766514   -0.027276841077801817   0.03218576947254345
-2.0137202290317924   0.04104317673884522   0.08047125045250339
-2.0137202290317924   0.04104317673884522   0.08047125045250339
-2.0137202290317924   0.04104317673884522   0.08047125045250339
-2.0137202290317924   0.04104317673884522   0.08047125045250339
-3.11984927246544   -0.17457385622407862   -0.020992789147766283
-3.11984927246544   -0.17457385622407862   -0.020992789147766283
-3.11984927246544   -0.17457385622407862   -0.020992789147766283
-3.11984927246544   -0.17457385622407862   -0.020992789147766283
-3.227692373182134   -0.2739374591089446   0.07861705471089656
-3.227692373182134   -0.2739374591089446   0.07861705471089656
-3.227692373182134   -0.2739374591089446   0.07861705471089656
-3.227692373182134   -0.2739374591089446   0.07861705471089656
-2.1101092392032266   -0.007672626720874209   -0.015692905429194395
-2.1101092392032266   -0.007672626720874209   -0.015692905429194395
-2.1101092392032266   -0.007672626720874209   -0.015692905429194395
-2.1101092392032266   -0.007672626720874209   -0.015692905429194395
-2.503499383682674   -0.06392044418892884   0.008328639886090838
-2.503499383682674   -0.06392044418892884   0.008328639886090838
-2.503499383682674   -0.06392044418892884   0.008328639886090838
-2.503499383682674   -0.06392044418892884   0.008328639886090838
1.9363314176628341   0.10337829465706888   -0.06938211232935125
1.9363314176628341   0.10337829465706888   -0.06938211232935125
1.9363314176628341   0.10337829465706888   -0.06938211232935125
1.9363314176628341   0.10337829465706888   -0.06938211232935125
0.9604828708422732   -0.0006006424220721951   0.025238822897850177
0.9604828708422732   -0.0006006424220721951   0.025238822897850177
0.9604828708422732   -0.0006006424220721951   0.025238822897850177
0.9604828708422732   -0.0006006424220721951   0.025238822897850177
0.8774618934045411   -0.1433237454706726   -0.0635690953430041
0.8774618934045411   -0.1433237454706726   -0.0635690953430041
0.8774618934045411   -0.1433237454706726   -0.0635690953430041
0.8774618934045411   -0.1433237454706726   -0.0635690953430041
1.899676366913917   0.15675534098468724   0.03164014741161432
1.899676366913917   0.15675534098468724   0.03164014741161432
1.899676366913917   0.15675534098468724   0.03164014741161432
1.899676366913917   0.15675534098468724   0.03164014741161432
1.3451542666354477   0.011899143931155653   -0.044259705258000284
1.3451542666354477   0.011899143931155653   -0.044259705258000284
1.3451542666354477   0.011899143931155653   -0.044259705258000284
1.3451542666354477   0.011899143931155653   -0.044259705258000284
1.8591095334060586   0.0523598881413645   -0.0667985672843363
1.8591095334060586   0.0523598881413645   -0.0667985672843363
1.8591095334060586   0.0523598881413645   -0.0667985672843363
1.8591095334060586   0.0523598881413645   -0.0667985672843363
0.916282659568826   -0.04067435997092311   0.027885349978653537
0.916282659568826   -0.04067435997092311   0.027885349978653537
0.916282659568826   -0.04067435997092311   0.027885349978653537
0.916282659568826   -0.04067435997092311   0.027885349978653537
0.8359347640736776   -0.1553454998699481   -0.05523567034936128
0.8359347640736776   -0.1553454998699481   -0.05523567034936128
0.8359347640736776   -0.1553454998699481   -0.05523567034936128
0.8359347640736776   -0.1553454998699481   -0.05523567034936128
1.8375499104478763   0.14024973525727058   0.04320851953796859
1.8375499104478763   0.14024973525727058   0.04320851953796859
1.8375499104478763   0.14024973525727058   0.04320851953796859
1.8375499104478763   0.14024973525727058   0.04320851953796859
1.3125301479209786   -0.009728009057434706   -0.05825288081704441
1.3125301479209786   -0.009728009057434706   -0.05825288081704441
1.3125301479209786   -0.009728009057434706   -0.05825288081704441
1.3125301479209786   -0.009728009057434706   -0.05825288081704441
1.7978573138249858   0.037570998738624295   -0.0525757270578075
1.7978573138249858   0.037570998738624295   -0.0525757270578075
1.7978573138249858   0.037570998738624295   -0.0525757270578075
1.7978573138249858   0.037570998738624295   -0.0525757270578075
0.874067319883688   -0.05422680416417816   0.03430841299491308
0.874067319883688   -0.05422680416417816   0.03430841299491308
0.874067319883688   -0.05422680416417816   0.03430841299491308
0.874067319883688   -0.05422680416417816   0.03430841299491308
0.7979989363739696   -0.15902111344345837   -0.04511838802675683
0.7979989363739696   -0.15902111344345837   -0.04511838802675683
0.7979989363739696   -0.15902111344345837   -0.04511838802675683
0.7979989363739696   -0.15902111344345837   -0.04511838802675683
1.7675117936553573   0.1256944740839281   0.05372293135032952
1.7675117936553573   0.1256944740839281   0.05372293135032952
1.7675117936553573   0.1256944740839281   0.05372293135032952
1.7675117936553573   0.1256944740839281   0.05372293135032952
1.2369151213044214   -0.024657532254229175   -0.07916986424289033
1.2369151213044214   -0.024657532254229175   -0.07916986424289033
1.2369151213044214   -0.024657532254229175   -0.07916986424289033
1.2369151213044214   -0.024657532254229175   -0.07916986424289033
0.9767929037740304   0.10102207442461326   0.005166270709950956
0.9767929037740304   0.10102207442461326   0.005166270709950956
0.9767929037740304   0.10102207442461326   0.005166270709950956
0.9767929037740304   0.10102207442461326   0.005166270709950956
0.034221159424812624   -0.031728760429122246   -0.0038828040478716807
0.034221159424812624   -0.031728760429122246   -0.0038828040478716807
0.034221159424812624   -0.031728760429122246   -0.0038828040478716807
0.034221159424812624   -0.031728760429122246   -0.0038828040478716807
-0.028351855348170064   -0.12909180058464334   -0.043199694899745775
-0.028351855348170064   -0.12909180058464334   -0.043199694899745775
-0.028351855348170064   -0.12909180058464334   -0.043199694899745775
-0.028351855348170064   -0.12909180058464334   -0.043199694899745775
0.9578579087404153   0.1418777307531529   0.053209505112523606
0.9578579087404153   0.1418777307531529   0.053209505112523606
0.9578579087404153   0.1418777307531529   0.053209505112523606
0.9578579087404153   0.1418777307531529   0.053209505112523606
0.477575252501584   0.020204565012328757   -0.005508020126979891
0.477575252501584   0.020204565012328757   -0.005508020126979891
0.477575252501584   0.020204565012328757   -0.005508020126979891
0.477575252501584   0.020204565012328757   -0.005508020126979891
0.9358963423733159   0.07454471562135612   0.0107346884088272
0.9358963423733159   0.07454471562135612   0.0107346884088272
0.9358963423733159   0.07454471562135612   0.0107346884088272
0.9358963423733159   0.07454471562135612   0.0107346884088272
-0.006003318643681992   -0.06137181511546687   0.0008230031535219444
-0.006003318643681992   -0.06137181511546687   0.0008230031535219444
-0.006003318643681992   -0.06137181511546687   0.0008230031535219444
-0.006003318643681992   -0.06137181511546687   0.0008230031535219444
-0.06769162219964525   -0.14853745754289233   -0.03732262374566615
-0.06769162219964525   -0.14853745754289233   -0.03732262374566615
-0.06769162219964525   -0.14853745754289233   -0.03732262374566615
-0.06769162219964525   -0.14853745754289233   -0.03732262374566615
0.9132966216107058   0.11733758590384143   0.0588905315619824
0.9132966216107058   0.11733758590384143   0.0588905315619824
0.9132966216107058   0.11733758590384143   0.0588905315619824
0.9132966216107058   0.11733758590384143   0.0588905315619824
0.42956122652963336   -0.003964878021732524   -0.019248167320873453
0.42956122652963336   -0.003964878021732524   -0.019248167320873453
0.42956122652963336   -0.003964878021732524   -0.019248167320873453
0.42956122652963336   -0.003964878021732524   -0.019248167320873453
0.8921542865287412   0.05416628113593319   0.016350160920075053
0.8921542865287412   0.05416628113593319   0.016350160920075053
0.8921542865287412   0.05416628113593319   0.016350160920075053
0.8921542865287412   0.05416628113593319   0.016350160920075053
-0.04651031640512611   -0.08532718206242831   0.005373629746465575
-0.04651031640512611   -0.08532718206242831   0.005373629746465575
-0.04651031640512611   -0.08532718206242831   0.005373629746465575
-0.04651031640512611   -0.08532718206242831   0.005373629746465575
-0.10663881521726404   -0.16029178233732397   -0.029653990043593374
-0.10663881521726404   -0.16029178233732397   -0.029653990043593374
-0.10663881521726404   -0.16029178233732397   -0.029653990043593374
-0.10663881521726404   -0.16029178233732397   -0.029653990043593374
0.8709162232144649   0.09660281519862197   0.06384411753362851
0.8709162232144649   0.09660281519862197   0.06384411753362851
0.8709162232144649   0.09660281519862197   0.06384411753362851
0.8709162232144649   0.09660281519862197   0.06384411753362851
0.3939969512491373   -0.019478246917423614   -0.02939354887350972
0.3939969512491373   -0.019478246917423614   -0.02939354887350972
0.3939969512491373   -0.019478246917423614   -0.02939354887350972
0.3939969512491373   -0.019478246917423614   -0.02939354887350972
0.0661698274031232   0.10217397803926391   0.0219577973752951
0.0661698274031232   0.10217397803926391   0.0219577973752951
0.0661698274031232   0.10217397803926391   0.0219577973752951
0.0661698274031232   0.10217397803926391   0.0219577973752951
-0.863192785890743   -0.055691880707466224   -0.029722940753979965
-0.863192785890743   -0.055691880707466224   -0.029722940753979965
-0.863192785890743   -0.055691880707466224   -0.029722940753979965
-0.863192785890743   -0.055691880707466224   -0.029722940753979965
-0.9120131548123167   -0.11819347489701756   -0.027260672497636175
-0.9120131548123167   -0.11819347489701756   -0.027260672497636175
-0.9120131548123167   -0.11819347489701756   -0.027260672497636175
-0.9120131548123167   -0.11819347489701756   -0.027260672497636175
0.03448785894798548   0.11615899004483757   0.025748085951554853
0.03448785894798548   0.11615899004483757   0.025748085951554853
0.03448785894798548   0.11615899004483757   0.025748085951554853
0.03448785894798548   0.11615899004483757   0.025748085951554853
-0.4181152945874258   0.013100271940646294   0.0015656211335086621
-0.4181152945874258   0.013100271940646294   0.0015656211335086621
-0.4181152945874258   0.013100271940646294   0.0015656211335086621
-0.4181152945874258   0.013100271940646294   0.0015656211335086621
0.027780627156290386   0.08074299950317808   0.027627917534735057
0.027780627156290386   0.08074299950317808   0.027627917534735057
0.027780627156290386   0.08074299950317808   0.027627917534735057
0.027780627156290386   0.08074299950317808   0.027627917534735057
-0.9042348019282223   -0.08170636326295942   -0.024856019711222446
-0.9042348019282223   -0.08170636326295942   -0.024856019711222446
-0.9042348019282223   -0.08170636326295942   -0.024856019711222446
-0.9042348019282223   -0.08170636326295942   -0.024856019711222446
-0.9542349342006566   -0.13956456731754974   -0.022601921813744028
-0.9542349342006566   -0.13956456731754974   -0.022601921813744028
-0.9542349342006566   -0.13956456731754974   -0.022601921813744028
-0.9542349342006566   -0.13956456731754974   -0.022601921813744028
-0.006084588635831625   0.09091164529360359   0.03126344123690611
-0.006084588635831625   0.09091164529360359   0.03126344123690611
-0.006084588635831625   0.09091164529360359   0.03126344123690611
-0.006084588635831625   0.09091164529360359   0.03126344123690611
-0.4585627518225646   -0.0077911028335877625   -0.008774127302048743
-0.4585627518225646   -0.0077911028335877625   -0.008774127302048743
-0.4585627518225646   -0.0077911028335877625   -0.008774127302048743
-0.4585627518225646   -0.0077911028335877625   -0.008774127302048743
-0.011817636226414413   0.06011770529629534   0.03339214328130041
-0.011817636226414413   0.06011770529629534   0.03339214328130041
-0.011817636226414413   0.06011770529629534   0.03339214328130041
-0.011817636226414413   0.06011770529629534   0.03339214328130041
-0.9475789252039012   -0.10784766591407782   -0.021038778233431386
-0.9475789252039012   -0.10784766591407782   -0.021038778233431386
-0.9475789252039012   -0.10784766591407782   -0.021038778233431386
-0.9475789252039012   -0.10784766591407782   -0.021038778233431386
-0.9961764040922182   -0.15639421787184618   -0.014860855221375457
-0.9961764040922182   -0.15639421787184618   -0.014860855221375457
-0.9961764040922182   -0.15639421787184618   -0.014860855221375457
-0.9961764040922182   -0.15639421787184618   -0.014860855221375457
-0.048115359832749935   0.06712787255685491   0.035543631984798214
-0.048115359832749935   0.06712787255685491   0.035543631984798214
-0.048115359832749935   0.06712787255685491   0.035543631984798214
-0.048115359832749935   0.06712787255685491   0.035543631984798214
-0.5020816431125976   -0.02903946134759139   -0.020066246731735852
-0.5020816431125976   -0.02903946134759139   -0.020066246731735852
-0.5020816431125976   -0.02903946134759139   -0.020066246731735852
-0.5020816431125976   -0.02903946134759139   -0.020066246731735852
-0.8138756678554964   0.12097104070138923   0.040199728013409236
-0.8138756678554964   0.12097104070138923   0.040199728013409236
-0.8138756678554964   0.12097104070138923   0.040199728013409236
-0.8138756678554964   0.12097104070138923   0.040199728013409236
-1.7304481468389177   -0.07665019526814482   -0.04875308257432828
-1.7304481468389177   -0.07665019526814482   -0.04875308257432828
-1.7304481468389177   -0.07665019526814482   -0.04875308257432828
-1.7304481468389177   -0.07665019526814482   -0.04875308257432828
-1.7685241788065087   -0.09446373996649132   -0.0076199056044753966
-1.7685241788065087   -0.09446373996649132   -0.0076199056044753966
-1.7685241788065087   -0.09446373996649132   -0.0076199056044753966
-1.7685241788065087   -0.09446373996649132   -0.0076199056044753966
-0.8656666273947065   0.08779818550556978   -0.0015196958121646842
-0.8656666273947065   0.08779818550556978   -0.0015196958121646842
-0.8656666273947065   0.08779818550556978   -0.0015196958121646842
-0.8656666273947065   0.08779818550556978   -0.0015196958121646842
-1.2852827997230494   0.013417652311630446   0.009347219048305017
-1.2852827997230494   0.013417652311630446   0.009347219048305017
-1.2852827997230494   0.013417652311630446   0.009347219048305017
-1.2852827997230494   0.013417652311630446   0.009347219048305017
-0.8541017349799855   0.09897110022759195   0.04513185153941776
-0.8541017349799855   0.09897110022759195   0.04513185153941776
-0.8541017349799855   0.09897110022759195   0.04513185153941776
-0.8541017349799855   0.09897110022759195   0.04513185153941776
-1.7786254984548393   -0.1041730819221246   -0.048417161890503685
-1.7786254984548393   -0.1041730819221246   -0.048417161890503685
-1.7786254984548393   -0.1041730819221246   -0.048417161890503685
-1.7786254984548393   -0.1041730819221246   -0.048417161890503685
-1.8205275360819648   -0.11848538177440093   -0.00670938415002334
-1.8205275360819648   -0.11848538177440093   -0.00670938415002334
-1.8205275360819648   -0.11848538177440093   -0.00670938415002334
-1.8205275360819648   -0.11848538177440093   -0.00670938415002334
-0.9083812205252403   0.06370509168652438   0.0033969875592707033
-0.9083812205252403   0.06370509168652438   0.0033969875592707033
-0.9083812205252403   0.06370509168652438   0.0033969875592707033
-0.9083812205252403   0.06370509168652438   0.0033969875592707033
-1.321747313056833   -0.005724938664269985   0.0008602291658681982
-1.321747313056833   -0.005724938664269985   0.0008602291658681982
-1.321747313056833   -0.005724938664269985   0.0008602291658681982
-1.321747313056833   -0.005724938664269985   0.0008602291658681982
-0.8957197983483746   0.07824990052363179   0.05215928960648884
-0.8957197983483746   0.07824990052363179   0.05215928960648884
-0.8957197983483746   0.07824990052363179   0.05215928960648884
-0.8957197983483746   0.07824990052363179   0.05215928960648884
-1.8302283496102105   -0.13006958196288237   -0.04362925160279285
-1.8302283496102105   -0.13006958196288237   -0.04362925160279285
-1.8302283496102105   -0.13006958196288237   -0.04362925160279285
-1.8302283496102105   -0.13006958196288237   -0.04362925160279285
-1.8684223025316475   -0.1441925708672191   0.005340493075852409
-1.8684223025316475   -0.1441925708672191   0.005340493075852409
-1.8684223025316475   -0.1441925708672191   0.005340493075852409
-1.8684223025316475   -0.1441925708672191   0.005340493075852409
-0.9536465145392045   0.03506428132461606   0.006330093347246733
-0.9536465145392045   0.03506428132461606   0.006330093347246733
-0.9536465145392045   0.03506428132461606   0.006330093347246733
-0.9536465145392045   0.03506428132461606   0.006330093347246733
-1.3785154539456392   -0.03251729976541784   -0.010522775664622952
-1.3785154539456392   -0.03251729976541784   -0.010522775664622952
-1.3785154539456392   -0.03251729976541784   -0.010522775664622952
-1.3785154539456392   -0.03251729976541784   -0.010522775664622952
-1.6689181371671618   0.1258772664996728   0.056369504016626076
-1.6689181371671618   0.1258772664996728   0.056369504016626076
-1.6689181371671618   0.1258772664996728   0.056369504016626076
-1.6689181371671618   0.1258772664996728   0.056369504016626076
-2.554042566859073   -0.11808344307569923   -0.04512456662047086
-2.554042566859073   -0.11808344307569923   -0.04512456662047086
-2.554042566859073   -0.11808344307569923   -0.04512456662047086
-2.554042566859073   -0.11808344307569923   -0.04512456662047086
-2.589367149363405   -0.051356240784832474   0.0480282860313761
-2.589367149363405   -0.051356240784832474   0.0480282860313761
-2.589367149363405   -0.051356240784832474   0.0480282860313761
-2.589367149363405   -0.051356240784832474   0.0480282860313761
-1.7427284585139282   0.05231171812303004   -0.025416762231094625
-1.7427284585139282   0.05231171812303004   -0.025416762231094625
-1.7427284585139282   0.05231171812303004   -0.025416762231094625
-1.7427284585139282   0.05231171812303004   -0.025416762231094625
-2.044296075750131   0.026304260777728516   0.04686196772683428
-2.044296075750131   0.026304260777728516   0.04686196772683428
-2.044296075750131   0.026304260777728516   0.04686196772683428
-2.044296075750131   0.026304260777728516   0.04686196772683428
-1.7095625187406758   0.12795329923755067   0.06477135552062405
-1.7095625187406758   0.12795329923755067   0.06477135552062405
-1.7095625187406758   0.12795329923755067   0.06477135552062405
-1.7095625187406758   0.12795329923755067   0.06477135552062405
-2.6205742872092697   -0.1250390199719721   -0.03432462401076364
-2.6205742872092697   -0.1250390199719721   -0.03432462401076364
-2.6205742872092697   -0.1250390199719721   -0.03432462401076364
-2.6205742872092697   -0.1250390199719721   -0.03432462401076364
-2.6539460118554654   -0.06392171700156701   0.06636464635481706
-2.6539460118554654   -0.06392171700156701   0.06636464635481706
-2.6539460118554654   -0.06392171700156701   0.06636464635481706
-2.6539460118554654   -0.06392171700156701   0.06636464635481706
-1.7923218407678976   0.03846293717883448   -0.022629226532922764
-1.7923218407678976   0.03846293717883448   -0.022629226532922764
-1.7923218407678976   0.03846293717883448   -0.022629226532922764
-1.7923218407678976   0.03846293717883448   -0.022629226532922764
-2.1329044720715844   0.012954431985067849   0.029996166173322944
-2.1329044720715844   0.012954431985067849   0.029996166173322944
-2.1329044720715844   0.012954431985067849   0.029996166173322944
-2.1329044720715844   0.012954431985067849   0.029996166173322944
-1.7556934188150366   0.118542530347999   0.0804332900622182
-1.7556934188150366   0.118542530347999   0.0804332900622182
-1.7556934188150366   0.118542530347999   0.0804332900622182
-1.7556934188150366   0.118542530347999   0.0804332900622182
-2.6886871914450254   -0.14211406780742264   -0.029148900787080656
-2.6886871914450254   -0.14211406780742264   -0.029148900787080656
-2.6886871914450254   -0.14211406780742264   -0.029148900787080656
-2.6886871914450254   -0.14211406780742264   -0.029148900787080656
-2.741528386682858   -0.11760483675025896   0.06606519190351344
-2.741528386682858   -0.11760483675025896   0.06606519190351344
-2.741528386682858   -0.11760483675025896   0.06606519190351344
-2.741528386682858   -0.11760483675025896   0.06606519190351344
-1.8454804114156587   -0.0028973955334314905   -0.021245226677991516
-1.8454804114156587   -0.0028973955334314905   -0.021245226677991516
-1.8454804114156587   -0.0028973955334314905   -0.021245226677991516
-1.8454804114156587   -0.0028973955334314905   -0.021245226677991516
-2.159018384483244   -0.006186608948236194   0.024342211758290072
-2.159018384483244   -0.006186608948236194   0.024342211758290072
-2.159018384483244   -0.006186608948236194   0.024342211758290072
-2.159018384483244   -0.006186608948236194   0.024342211758290072
1.4653041702269787   0.08124873005287175   -0.07033561411213562
1.4653041702269787   0.08124873005287175   -0.07033561411213562
1.4653041702269787   0.08124873005287175   -0.07033561411213562
1.4653041702269787   0.08124873005287175   -0.07033561411213562
0.6972007741525591   0.014341746089062413   0.026902255802998
0.6972007741525591   0.014341746089062413   0.026902255802998
0.6972007741525591   0.014341746089062413   0.026902255802998
0.6972007741525591   0.014341746089062413   0.026902255802998
0.6190152923063124   -0.1190539752959813   -0.0667453593841238
0.6190152923063124   -0.1190539752959813   -0.0667453593841238
0.6190152923063124   -0.1190539752959813   -0.0667453593841238
0.6190152923063124   -0.1190539752959813   -0.0667453593841238
1.4333434362695867   0.13487649731741666   0.03325372928731244
1.4333434362695867   0.13487649731741666   0.03325372928731244
1.4333434362695867   0.13487649731741666   0.03325372928731244
1.4333434362695867   0.13487649731741666   0.03325372928731244
0.9992962235334654   0.013528721130226268   -0.029540003715474127
0.9992962235334654   0.013528721130226268   -0.029540003715474127
0.9992962235334654   0.013528721130226268   -0.029540003715474127
0.9992962235334654   0.013528721130226268   -0.029540003715474127
1.3936139423086347   0.035926148284417814   -0.06644339148445032
1.3936139423086347   0.035926148284417814   -0.06644339148445032
1.3936139423086347   0.035926148284417814   -0.06644339148445032
1.3936139423086347   0.035926148284417814   -0.06644339148445032
0.6579591159272317   -0.020889296603016277   0.02980908002750305
0.6579591159272317   -0.020889296603016277   0.02980908002750305
0.6579591159272317   -0.020889296603016277   0.02980908002750305
0.6579591159272317   -0.020889296603016277   0.02980908002750305
0.5824724269426648   -0.13078732318943398   -0.056899289190281255
0.5824724269426648   -0.13078732318943398   -0.056899289190281255
0.5824724269426648   -0.13078732318943398   -0.056899289190281255
0.5824724269426648   -0.13078732318943398   -0.056899289190281255
1.376527635808803   0.11811855295994489   0.043690399580404715
1.376527635808803   0.11811855295994489   0.043690399580404715
1.376527635808803   0.11811855295994489   0.043690399580404715
1.376527635808803   0.11811855295994489   0.043690399580404715
0.9664669922956559   -0.006784929564839337   -0.04158278671411002
0.9664669922956559   -0.006784929564839337   -0.04158278671411002
0.9664669922956559   -0.006784929564839337   -0.04158278671411002
0.9664669922956559   -0.006784929564839337   -0.04158278671411002
1.337734196740413   0.02101103337321175   -0.05316927617480105
1.337734196740413   0.02101103337321175   -0.05316927617480105
1.337734196740413   0.02101103337321175   -0.05316927617480105
1.337734196740413   0.02101103337321175   -0.05316927617480105
0.6202808740037935   -0.03466479560996105   0.036020418535884335
0.6202808740037935   -0.03466479560996105   0.036020418535884335
0.6202808740037935   -0.03466479560996105   0.036020418535884335
0.6202808740037935   -0.03466479560996105   0.036020418535884335
0.5495218933096351   -0.13812411932572344   -0.04738013535220581
0.5495218933096351   -0.13812411932572344   -0.04738013535220581
0.5495218933096351   -0.13812411932572344   -0.04738013535220581
0.5495218933096351   -0.13812411932572344   -0.04738013535220581
1.31247290976248   0.09989616146917296   0.05186331536810149
1.31247290976248   0.09989616146917296   0.05186331536810149
1.31247290976248   0.09989616146917296   0.05186331536810149
1.31247290976248   0.09989616146917296   0.05186331536810149
0.9019324972730792   -0.02217335698739939   -0.05934035681620529
0.9019324972730792   -0.02217335698739939   -0.05934035681620529
0.9019324972730792   -0.02217335698739939   -0.05934035681620529
0.9019324972730792   -0.02217335698739939   -0.05934035681620529
0.7086871780016331   0.10306350693608715   -0.004387485798645202
0.7086871780016331   0.10306350693608715   -0.004387485798645202
0.7086871780016331   0.10306350693608715   -0.004387485798645202
0.7086871780016331   0.10306350693608715   -0.004387485798645202
-0.0459103246737837   -0.009793516465064165   -0.00026005270244479746
-0.0459103246737837   -0.009793516465064165   -0.00026005270244479746
-0.0459103246737837   -0.009793516465064165   -0.00026005270244479746
-0.0459103246737837   -0.009793516465064165   -0.00026005270244479746
-0.10098535255755334   -0.0890088472923435   -0.04238012381698989
-0.10098535255755334   -0.0890088472923435   -0.04238012381698989
-0.10098535255755334   -0.0890088472923435   -0.04238012381698989
-0.10098535255755334   -0.0890088472923435   -0.04238012381698989
0.6901085087500822   0.12254274502837437   0.04712400251036501
0.6901085087500822   0.12254274502837437   0.04712400251036501
0.6901085087500822   0.12254274502837437   0.04712400251036501
0.6901085087500822   0.12254274502837437   0.04712400251036501
0.30815751656247675   0.030286357723940387   0.0021703035884483354
0.30815751656247675   0.030286357723940387   0.0021703035884483354
0.30815751656247675   0.030286357723940387   0.0021703035884483354
0.30815751656247675   0.030286357723940387   0.0021703035884483354
0.6714246041697135   0.07433217811990725   0.0019150465169971015
0.6714246041697135   0.07433217811990725   0.0019150465169971015
0.6714246041697135   0.07433217811990725   0.0019150465169971015
0.6714246041697135   0.07433217811990725   0.0019150465169971015
-0.08197961203565905   -0.04047644444234938   0.004116175942487431
-0.08197961203565905   -0.04047644444234938   0.004116175942487431
-0.08197961203565905   -0.04047644444234938   0.004116175942487431
-0.08197961203565905   -0.04047644444234938   0.004116175942487431
-0.1354095980624058   -0.11118598154646156   -0.03502108601642098
-0.1354095980624058   -0.11118598154646156   -0.03502108601642098
-0.1354095980624058   -0.11118598154646156   -0.03502108601642098
-0.1354095980624058   -0.11118598154646156   -0.03502108601642098
0.649533582639618   0.09609777784538512   0.051521388259660614
0.649533582639618   0.09609777784538512   0.051521388259660614
0.649533582639618   0.09609777784538512   0.051521388259660614
0.649533582639618   0.09609777784538512   0.051521388259660614
0.2657670638558005   0.0041483858545944205   -0.01095607663200685
0.2657670638558005   0.0041483858545944205   -0.01095607663200685
0.2657670638558005   0.0041483858545944205   -0.01095607663200685
0.2657670638558005   0.0041483858545944205   -0.01095607663200685
0.6314665174429851   0.05054185565189838   0.006741984469987802
0.6314665174429851   0.05054185565189838   0.006741984469987802
0.6314665174429851   0.05054185565189838   0.006741984469987802
0.6314665174429851   0.05054185565189838   0.006741984469987802
-0.11760124497319241   -0.06588877146039353   0.008723469343577856
-0.11760124497319241   -0.06588877146039353   0.008723469343577856
-0.11760124497319241   -0.06588877146039353   0.008723469343577856
-0.11760124497319241   -0.06588877146039353   0.008723469343577856
-0.16938867630937374   -0.12984823893463643   -0.028106253608824818
-0.16938867630937374   -0.12984823893463643   -0.028106253608824818
-0.16938867630937374   -0.12984823893463643   -0.028106253608824818
-0.16938867630937374   -0.12984823893463643   -0.028106253608824818
0.6120720462472145   0.07161241491950318   0.05563409509046137
0.6120720462472145   0.07161241491950318   0.05563409509046137
0.6120720462472145   0.07161241491950318   0.05563409509046137
0.6120720462472145   0.07161241491950318   0.05563409509046137
0.23320070095693612   -0.015708492754585572   -0.02190640672696813
0.23320070095693612   -0.015708492754585572   -0.02190640672696813
0.23320070095693612   -0.015708492754585572   -0.02190640672696813
0.23320070095693612   -0.015708492754585572   -0.02190640672696813
-0.015857906274071944   0.1231344899440616   0.017074032886988173
-0.015857906274071944   0.1231344899440616   0.017074032886988173
-0.015857906274071944   0.1231344899440616   0.017074032886988173
-0.015857906274071944   0.1231344899440616   0.017074032886988173
-0.7731714357635208   -0.03331690576846441   -0.025647976764028323
-0.7731714357635208   -0.03331690576846441   -0.025647976764028323
-0.7731714357635208   -0.03331690576846441   -0.025647976764028323
-0.7731714357635208   -0.03331690576846441   -0.025647976764028323
-0.8086710819631425   -0.061623395930304484   -0.02000490301302751
-0.8086710819631425   -0.061623395930304484   -0.02000490301302751
-0.8086710819631425   -0.061623395930304484   -0.02000490301302751
-0.8086710819631425   -0.061623395930304484   -0.02000490301302751
-0.05081001071224589   0.09897418727860688   0.02051355083859697
-0.05081001071224589   0.09897418727860688   0.02051355083859697
-0.05081001071224589   0.09897418727860688   0.02051355083859697
-0.05081001071224589   0.09897418727860688   0.02051355083859697
-0.41115254270696905   0.03201417639264692   0.008069613996317317
-0.41115254270696905   0.03201417639264692   0.008069613996317317
-0.41115254270696905   0.03201417639264692   0.008069613996317317
-0.41115254270696905   0.03201417639264692   0.008069613996317317
-0.05011677843679595   0.09889935439705085   0.024054545097402697
-0.05011677843679595   0.09889935439705085   0.024054545097402697
-0.05011677843679595   0.09889935439705085   0.024054545097402697
-0.05011677843679595   0.09889935439705085   0.024054545097402697
-0.8086978294717928   -0.060882078281948804   -0.02087995820463459
-0.8086978294717928   -0.060882078281948804   -0.02087995820463459
-0.8086978294717928   -0.060882078281948804   -0.02087995820463459
-0.8086978294717928   -0.060882078281948804   -0.02087995820463459
-0.8439304239759688   -0.08562602532858446   -0.013579076533896776
-0.8439304239759688   -0.08562602532858446   -0.013579076533896776
-0.8439304239759688   -0.08562602532858446   -0.013579076533896776
-0.8439304239759688   -0.08562602532858446   -0.013579076533896776
-0.08669626793610301   0.07174287451480266   0.02561670855382866
-0.08669626793610301   0.07174287451480266   0.02561670855382866
-0.08669626793610301   0.07174287451480266   0.02561670855382866
-0.08669626793610301   0.07174287451480266   0.02561670855382866
-0.4467746226541279   0.008350797547959074   -0.0025878051818122513
-0.4467746226541279   0.008350797547959074   -0.0025878051818122513
-0.4467746226541279   0.008350797547959074   -0.0025878051818122513
-0.4467746226541279   0.008350797547959074   -0.0025878051818122513
-0.08529325944054222   0.07474345666213943   0.0296311688842959
-0.08529325944054222   0.07474345666213943   0.0296311688842959
-0.08529325944054222   0.07474345666213943   0.0296311688842959
-0.08529325944054222   0.07474345666213943   0.0296311688842959
-0.8451347954327083   -0.08842797043709977   -0.016798988709078214
-0.8451347954327083   -0.08842797043709977   -0.016798988709078214
-0.8451347954327083   -0.08842797043709977   -0.016798988709078214
-0.8451347954327083   -0.08842797043709977   -0.016798988709078214
-0.8787799530851018   -0.1075579818916107   -0.0072210470051780745
-0.8787799530851018   -0.1075579818916107   -0.0072210470051780745
-0.8787799530851018   -0.1075579818916107   -0.0072210470051780745
-0.8787799530851018   -0.1075579818916107   -0.0072210470051780745
-0.12272519967109646   0.0454053816265409   0.02995750902138432
-0.12272519967109646   0.0454053816265409   0.02995750902138432
-0.12272519967109646   0.0454053816265409   0.02995750902138432
-0.12272519967109646   0.0454053816265409   0.02995750902138432
-0.48402452462520085   -0.015514275313636972   -0.014453253478467255
-0.48402452462520085   -0.015514275313636972   -0.014453253478467255
-0.48402452462520085   -0.015514275313636972   -0.014453253478467255
-0.48402452462520085   -0.015514275313636972   -0.014453253478467255
-0.7256304982910872   0.14150992660184986   0.03722987822781443
-0.7256304982910872   0.14150992660184986   0.03722987822781443
-0.7256304982910872   0.14150992660184986   0.03722987822781443
-0.7256304982910872   0.14150992660184986   0.03722987822781443
-1.4835396577209905   -0.057328560600308553   -0.04628816372522865
-1.4835396577209905   -0.057328560600308553   -0.04628816372522865
-1.4835396577209905   -0.057328560600308553   -0.04628816372522865
-1.4835396577209905   -0.057328560600308553   -0.04628816372522865
-1.5029512218996355   -0.03847867285369966   0.0043806068964172
-1.5029512218996355   -0.03847867285369966   0.0043806068964172
-1.5029512218996355   -0.03847867285369966   0.0043806068964172
-1.5029512218996355   -0.03847867285369966   0.0043806068964172
-0.779339576239642   0.0710395444831109   -0.006010314808937517
-0.779339576239642   0.0710395444831109   -0.006010314808937517
-0.779339576239642   0.0710395444831109   -0.006010314808937517
-0.779339576239642   0.0710395444831109   -0.006010314808937517
-1.1155858051058591   0.030620077863457718   0.01368039498590122
-1.1155858051058591   0.030620077863457718   0.01368039498590122
-1.1155858051058591   0.030620077863457718   0.01368039498590122
-1.1155858051058591   0.030620077863457718   0.01368039498590122
-0.759948340339985   0.11803571992786493   0.04394968924458986
-0.759948340339985   0.11803571992786493   0.04394968924458986
-0.759948340339985   0.11803571992786493   0.04394968924458986
-0.759948340339985   0.11803571992786493   0.04394968924458986
-1.5221565146486091   -0.08528890514777088   -0.04483562455437945
-1.5221565146486091   -0.08528890514777088   -0.04483562455437945
-1.5221565146486091   -0.08528890514777088   -0.04483562455437945
-1.5221565146486091   -0.08528890514777088   -0.04483562455437945
-1.5440055184406565   -0.06274049511360535   0.006793351474038312
-1.5440055184406565   -0.06274049511360535   0.006793351474038312
-1.5440055184406565   -0.06274049511360535   0.006793351474038312
-1.5440055184406565   -0.06274049511360535   0.006793351474038312
-0.8150888571357038   0.0458204003498959   -0.0008176680110474829
-0.8150888571357038   0.0458204003498959   -0.0008176680110474829
-0.8150888571357038   0.0458204003498959   -0.0008176680110474829
-0.8150888571357038   0.0458204003498959   -0.0008176680110474829
-1.1457519206386484   0.009487885971576793   0.0037554311721962885
-1.1457519206386484   0.009487885971576793   0.0037554311721962885
-1.1457519206386484   0.009487885971576793   0.0037554311721962885
-1.1457519206386484   0.009487885971576793   0.0037554311721962885
-0.7948914267066688   0.09576802486265693   0.050221859621362025
-0.7948914267066688   0.09576802486265693   0.050221859621362025
-0.7948914267066688   0.09576802486265693   0.050221859621362025
-0.7948914267066688   0.09576802486265693   0.050221859621362025
-1.563160952961112   -0.11164612371778762   -0.04007819252405686
-1.563160952961112   -0.11164612371778762   -0.04007819252405686
-1.563160952961112   -0.11164612371778762   -0.04007819252405686
-1.563160952961112   -0.11164612371778762   -0.04007819252405686
-1.5812561987980562   -0.08884151583975078   0.01441079178426432
-1.5812561987980562   -0.08884151583975078   0.01441079178426432
-1.5812561987980562   -0.08884151583975078   0.01441079178426432
-1.5812561987980562   -0.08884151583975078   0.01441079178426432
-0.8518375909299777   0.016988946333289012   0.0029438355455460585
-0.8518375909299777   0.016988946333289012   0.0029438355455460585
-0.8518375909299777   0.016988946333289012   0.0029438355455460585
-0.8518375909299777   0.016988946333289012   0.0029438355455460585
-1.1915892497899527   -0.016967768654366916   -0.008827572947811425
-1.1915892497899527   -0.016967768654366916   -0.008827572947811425
-1.1915892497899527   -0.016967768654366916   -0.008827572947811425
-1.1915892497899527   -0.016967768654366916   -0.008827572947811425
-1.4269024116545113   0.12690283540889957   0.052666670597961165
-1.4269024116545113   0.12690283540889957   0.052666670597961165
-1.4269024116545113   0.12690283540889957   0.052666670597961165
-1.4269024116545113   0.12690283540889957   0.052666670597961165
-2.1585870779191523   -0.09953265363042901   -0.051142499357324386
-2.1585870779191523   -0.09953265363042901   -0.051142499357324386
-2.1585870779191523   -0.09953265363042901   -0.051142499357324386
-2.1585870779191523   -0.09953265363042901   -0.051142499357324386
-2.1827696189712955   -0.020899811674770508   0.048566749237270335
-2.1827696189712955   -0.020899811674770508   0.048566749237270335
-2.1827696189712955   -0.020899811674770508   0.048566749237270335
-2.1827696189712955   -0.020899811674770508   0.048566749237270335
-1.4950037078713065   0.035628971516325825   -0.029989467331964156
-1.4950037078713065   0.035628971516325825   -0.029989467331964156
-1.4950037078713065   0.035628971516325825   -0.029989467331964156
-1.4950037078713065   0.035628971516325825   -0.029989467331964156
-1.735521848532072   0.028635236362032024   0.04242939005164881
-1.735521848532072   0.028635236362032024   0.04242939005164881
-1.735521848532072   0.028635236362032024   0.04242939005164881
-1.735521848532072   0.028635236362032024   0.04242939005164881
-1.458456421771051   0.12660388737912548   0.06177204730650554
-1.458456421771051   0.12660388737912548   0.06177204730650554
-1.458456421771051   0.12660388737912548   0.06177204730650554
-1.458456421771051   0.12660388737912548   0.06177204730650554
-2.2186938024276968   -0.11125162489371465   -0.040702354825776485
-2.2186938024276968   -0.11125162489371465   -0.040702354825776485
-2.2186938024276968   -0.11125162489371465   -0.040702354825776485
-2.2186938024276968   -0.11125162489371465   -0.040702354825776485
-2.2364989453847968   -0.033694779966933375   0.06075929235513711
-2.2364989453847968   -0.033694779966933375   0.06075929235513711
-2.2364989453847968   -0.033694779966933375   0.06075929235513711
-2.2364989453847968   -0.033694779966933375   0.06075929235513711
-1.5335969688360005   0.021801282288347157   -0.025705677904634128
-1.5335969688360005   0.021801282288347157   -0.025705677904634128
-1.5335969688360005   0.021801282288347157   -0.025705677904634128
-1.5335969688360005   0.021801282288347157   -0.025705677904634128
-1.8104094332658995   0.014343891456213176   0.025715188882659154
-1.8104094332658995   0.014343891456213176   0.025715188882659154
-1.8104094332658995   0.014343891456213176   0.025715188882659154
-1.8104094332658995   0.014343891456213176   0.025715188882659154
-1.4948280204167077   0.1170630132097436   0.07287733327043289
-1.4948280204167077   0.1170630132097436   0.07287733327043289
-1.4948280204167077   0.1170630132097436   0.07287733327043289
-1.4948280204167077   0.1170630132097436   0.07287733327043289
-2.274246033494979   -0.12793465057921483   -0.03373627758346587
-2.274246033494979   -0.12793465057921483   -0.03373627758346587
-2.274246033494979   -0.12793465057921483   -0.03373627758346587
-2.274246033494979   -0.12793465057921483   -0.03373627758346587
-2.307407313739055   -0.07909140937436787   0.05971160644072286
-2.307407313739055   -0.07909140937436787   0.05971160644072286
-2.307407313739055   -0.07909140937436787   0.05971160644072286
-2.307407313739055   -0.07909140937436787   0.05971160644072286
-1.5743343926032138   -0.01653169781029573   -0.023289995270978858
-1.5743343926032138   -0.01653169781029573   -0.023289995270978858
-1.5743343926032138   -0.01653169781029573   -0.023289995270978858
-1.5743343926032138   -0.01653169781029573   -0.023289995270978858
-1.82993837919093   -0.0033932877310399734   0.020101312416612033
-1.82993837919093   -0.0033932877310399734   0.020101312416612033
-1.82993837919093   -0.0033932877310399734   0.020101312416612033
-1.82993837919093   -0.0033932877310399734   0.020101312416612033
1.004148095456513   0.05670690783489224   -0.06821925677180683
1.004148095456513   0.05670690783489224   -0.06821925677180683
1.004148095456513   0.05670690783489224   -0.06821925677180683
1.004148095456513   0.05670690783489224   -0.06821925677180683
0.42893304310950203   0.027745209260571488   0.029343436894244037
0.42893304310950203   0.027745209260571488   0.029343436894244037
0.42893304310950203   0.027745209260571488   0.029343436894244037
0.42893304310950203   0.027745209260571488   0.029343436894244037
0.3585687052493927   -0.09944551685747315   -0.06358161056694239
0.3585687052493927   -0.09944551685747315   -0.06358161056694239
0.3585687052493927   -0.09944551685747315   -0.06358161056694239
0.3585687052493927   -0.09944551685747315   -0.06358161056694239
0.9803988433067864   0.11431294916297552   0.035644028195187236
0.9803988433067864   0.11431294916297552   0.035644028195187236
0.9803988433067864   0.11431294916297552   0.035644028195187236
0.9803988433067864   0.11431294916297552   0.035644028195187236
0.6563029701572277   0.014572144772845075   -0.017938022377742557
0.6563029701572277   0.014572144772845075   -0.017938022377742557
0.6563029701572277   0.014572144772845075   -0.017938022377742557
0.6563029701572277   0.014572144772845075   -0.017938022377742557
0.9410966714925838   0.017054685134974712   -0.06360856684783282
0.9410966714925838   0.017054685134974712   -0.06360856684783282
0.9410966714925838   0.017054685134974712   -0.06360856684783282
0.9410966714925838   0.017054685134974712   -0.06360856684783282
0.3971330396660501   -0.0029250902270279155   0.03271963488590635
0.3971330396660501   -0.0029250902270279155   0.03271963488590635
0.3971330396660501   -0.0029250902270279155   0.03271963488590635
0.3971330396660501   -0.0029250902270279155   0.03271963488590635
0.3285784584128606   -0.11102833423570635   -0.054094859001909176
0.3285784584128606   -0.11102833423570635   -0.054094859001909176
0.3285784584128606   -0.11102833423570635   -0.054094859001909176
0.3285784584128606   -0.11102833423570635   -0.054094859001909176
0.9310689305404616   0.09788178113336109   0.045899992337555665
0.9310689305404616   0.09788178113336109   0.045899992337555665
0.9310689305404616   0.09788178113336109   0.045899992337555665
0.9310689305404616   0.09788178113336109   0.045899992337555665
0.625212958094695   -0.004510980920455099   -0.029300757244484617
0.625212958094695   -0.004510980920455099   -0.029300757244484617
0.625212958094695   -0.004510980920455099   -0.029300757244484617
0.625212958094695   -0.004510980920455099   -0.029300757244484617
0.8924207639969426   0.002222739026795595   -0.05168179827348146
0.8924207639969426   0.002222739026795595   -0.05168179827348146
0.8924207639969426   0.002222739026795595   -0.05168179827348146
0.8924207639969426   0.002222739026795595   -0.05168179827348146
0.3661419124636587   -0.01645400462186239   0.03914808163824114
0.3661419124636587   -0.01645400462186239   0.03914808163824114
0.3661419124636587   -0.01645400462186239   0.03914808163824114
0.3661419124636587   -0.01645400462186239   0.03914808163824114
0.3017590648492299   -0.12163486189760894   -0.045077956552557974
0.3017590648492299   -0.12163486189760894   -0.045077956552557974
0.3017590648492299   -0.12163486189760894   -0.045077956552557974
0.3017590648492299   -0.12163486189760894   -0.045077956552557974
0.8735030015218866   0.07622135490112157   0.05235781435889457
0.8735030015218866   0.07622135490112157   0.05235781435889457
0.8735030015218866   0.07622135490112157   0.05235781435889457
0.8735030015218866   0.07622135490112157   0.05235781435889457
0.5728643579633448   -0.02020187350707804   -0.04486113827497852
0.5728643579633448   -0.02020187350707804   -0.04486113827497852
0.5728643579633448   -0.02020187350707804   -0.04486113827497852
0.5728643579633448   -0.02020187350707804   -0.04486113827497852
0.4316932128552825   0.08329758379831675   -0.01240808891460644
0.4316932128552825   0.08329758379831675   -0.01240808891460644
0.4316932128552825   0.08329758379831675   -0.01240808891460644
0.4316932128552825   0.08329758379831675   -0.01240808891460644
-0.13297219983789613   0.007409853455884831   0.00404879612069169
-0.13297219983789613   0.007409853455884831   0.00404879612069169
-0.13297219983789613   0.007409853455884831   0.00404879612069169
-0.13297219983789613   0.007409853455884831   0.00404879612069169
-0.18107496488213567   -0.06894333926079445   -0.03912294530326125
-0.18107496488213567   -0.06894333926079445   -0.03912294530326125
-0.18107496488213567   -0.06894333926079445   -0.03912294530326125
-0.18107496488213567   -0.06894333926079445   -0.03912294530326125
0.41960490840672765   0.10018760021724264   0.0419662881450234
0.41960490840672765   0.10018760021724264   0.0419662881450234
0.41960490840672765   0.10018760021724264   0.0419662881450234
0.41960490840672765   0.10018760021724264   0.0419662881450234
0.13136272126144297   0.02901056575226538   0.005026975287045062
0.13136272126144297   0.02901056575226538   0.005026975287045062
0.13136272126144297   0.02901056575226538   0.005026975287045062
0.13136272126144297   0.02901056575226538   0.005026975287045062
0.4006077449655689   0.053876171667243275   -0.006708100510777208
0.4006077449655689   0.053876171667243275   -0.006708100510777208
0.4006077449655689   0.053876171667243275   -0.006708100510777208
0.4006077449655689   0.053876171667243275   -0.006708100510777208
-0.16235538191162094   -0.022909491181440127   0.008441121469958141
-0.16235538191162094   -0.022909491181440127   0.008441121469958141
-0.16235538191162094   -0.022909491181440127   0.008441121469958141
-0.16235538191162094   -0.022909491181440127   0.008441121469958141
-0.20897272759229654   -0.09223457657187914   -0.031634073594746015
-0.20897272759229654   -0.09223457657187914   -0.031634073594746015
-0.20897272759229654   -0.09223457657187914   -0.031634073594746015
-0.20897272759229654   -0.09223457657187914   -0.031634073594746015
0.3853957213782057   0.07333827692947559   0.04562484465963817
0.3853957213782057   0.07333827692947559   0.04562484465963817
0.3853957213782057   0.07333827692947559   0.04562484465963817
0.3853957213782057   0.07333827692947559   0.04562484465963817
0.09698474640369485   0.0027072870110186123   -0.00760892027991561
0.09698474640369485   0.0027072870110186123   -0.00760892027991561
0.09698474640369485   0.0027072870110186123   -0.00760892027991561
0.09698474640369485   0.0027072870110186123   -0.00760892027991561
0.36699899299005123   0.028902065161005457   -0.0019225855126708286
0.36699899299005123   0.028902065161005457   -0.0019225855126708286
0.36699899299005123   0.028902065161005457   -0.0019225855126708286
0.36699899299005123   0.028902065161005457   -0.0019225855126708286
-0.19128214881775785   -0.04850451441702526   0.013088758123097458
-0.19128214881775785   -0.04850451441702526   0.013088758123097458
-0.19128214881775785   -0.04850451441702526   0.013088758123097458
-0.19128214881775785   -0.04850451441702526   0.013088758123097458
-0.23650318966754247   -0.11417217118977407   -0.02471359954116787
-0.23650318966754247   -0.11417217118977407   -0.02471359954116787
-0.23650318966754247   -0.11417217118977407   -0.02471359954116787
-0.23650318966754247   -0.11417217118977407   -0.02471359954116787
0.3545246213182801   0.04749961630129473   0.04961534759379684
0.3545246213182801   0.04749961630129473   0.04961534759379684
0.3545246213182801   0.04749961630129473   0.04961534759379684
0.3545246213182801   0.04749961630129473   0.04961534759379684
0.06934432221665825   -0.01916959663999899   -0.018783451152036005
0.06934432221665825   -0.01916959663999899   -0.018783451152036005
0.06934432221665825   -0.01916959663999899   -0.018783451152036005
0.06934432221665825   -0.01916959663999899   -0.018783451152036005
-0.11214667409735349   0.10594574797785992   0.009640530301426066
-0.11214667409735349   0.10594574797785992   0.009640530301426066
-0.11214667409735349   0.10594574797785992   0.009640530301426066
-0.11214667409735349   0.10594574797785992   0.009640530301426066
-0.6865810520682913   -0.017119227000580717   -0.020852880111839056
-0.6865810520682913   -0.017119227000580717   -0.020852880111839056
-0.6865810520682913   -0.017119227000580717   -0.020852880111839056
-0.6865810520682913   -0.017119227000580717   -0.020852880111839056
-0.7140910655721238   -0.04085253976614503   -0.015339029525284653
-0.7140910655721238   -0.04085253976614503   -0.015339029525284653
-0.7140910655721238   -0.04085253976614503   -0.015339029525284653
-0.7140910655721238   -0.04085253976614503   -0.015339029525284653
-0.14093033591402737   0.07640138505182797   0.01625547522465407
-0.14093033591402737   0.07640138505182797   0.01625547522465407
-0.14093033591402737   0.07640138505182797   0.01625547522465407
-0.14093033591402737   0.07640138505182797   0.01625547522465407
-0.41243328159415976   0.030619666439235874   0.008137089199626076
-0.41243328159415976   0.030619666439235874   0.008137089199626076
-0.41243328159415976   0.030619666439235874   0.008137089199626076
-0.41243328159415976   0.030619666439235874   0.008137089199626076
-0.14005721260718687   0.08035544341169745   0.016667033398990845
-0.14005721260718687   0.08035544341169745   0.016667033398990845
-0.14005721260718687   0.08035544341169745   0.016667033398990845
-0.14005721260718687   0.08035544341169745   0.016667033398990845
-0.7150389827822952   -0.044881392029344686   -0.016049763312941577
-0.7150389827822952   -0.044881392029344686   -0.016049763312941577
-0.7150389827822952   -0.044881392029344686   -0.016049763312941577
-0.7150389827822952   -0.044881392029344686   -0.016049763312941577
-0.7422745103843106   -0.06622905357474393   -0.008664689445696802
-0.7422745103843106   -0.06622905357474393   -0.008664689445696802
-0.7422745103843106   -0.06622905357474393   -0.008664689445696802
-0.7422745103843106   -0.06622905357474393   -0.008664689445696802
-0.1702036790591784   0.04876936018518915   0.021207232313772504
-0.1702036790591784   0.04876936018518915   0.021207232313772504
-0.1702036790591784   0.04876936018518915   0.021207232313772504
-0.1702036790591784   0.04876936018518915   0.021207232313772504
-0.44141064262817353   0.005924579483363918   -0.002732029424345042
-0.44141064262817353   0.005924579483363918   -0.002732029424345042
-0.44141064262817353   0.005924579483363918   -0.002732029424345042
-0.44141064262817353   0.005924579483363918   -0.002732029424345042
-0.16872659200398143   0.054738227954542786   0.022623799820407707
-0.16872659200398143   0.054738227954542786   0.022623799820407707
-0.16872659200398143   0.054738227954542786   0.022623799820407707
-0.16872659200398143   0.054738227954542786   0.022623799820407707
-0.7441965303834418   -0.07264285428802095   -0.011860988728076081
-0.7441965303834418   -0.07264285428802095   -0.011860988728076081
-0.7441965303834418   -0.07264285428802095   -0.011860988728076081
-0.7441965303834418   -0.07264285428802095   -0.011860988728076081
-0.7699877620289608   -0.09047440649738596   -0.002178869240385569
-0.7699877620289608   -0.09047440649738596   -0.002178869240385569
-0.7699877620289608   -0.09047440649738596   -0.002178869240385569
-0.7699877620289608   -0.09047440649738596   -0.002178869240385569
-0.19922549165135076   0.021918105758527137   0.025584613591489357
-0.19922549165135076   0.021918105758527137   0.025584613591489357
-0.19922549165135076   0.021918105758527137   0.025584613591489357
-0.19922549165135076   0.021918105758527137   0.025584613591489357
-0.47157764716472905   -0.01879967364314955   -0.0145111602560455
-0.47157764716472905   -0.01879967364314955   -0.0145111602560455
-0.47157764716472905   -0.01879967364314955   -0.0145111602560455
-0.47157764716472905   -0.01879967364314955   -0.0145111602560455
-0.647683285375535   0.1253364099034173   0.031180316447944806
-0.647683285375535   0.1253364099034173   0.031180316447944806
-0.647683285375535   0.1253364099034173   0.031180316447944806
-0.647683285375535   0.1253364099034173   0.031180316447944806
-1.230220201049257   -0.04149732967952116   -0.04250172706571239
-1.230220201049257   -0.04149732967952116   -0.04250172706571239
-1.230220201049257   -0.04149732967952116   -0.04250172706571239
-1.230220201049257   -0.04149732967952116   -0.04250172706571239
-1.2405708460977858   -0.01796915039878688   0.010177480639717462
-1.2405708460977858   -0.01796915039878688   0.010177480639717462
-1.2405708460977858   -0.01796915039878688   0.010177480639717462
-1.2405708460977858   -0.01796915039878688   0.010177480639717462
-0.6947198987174886   0.04976755751941747   -0.009103292537679247
-0.6947198987174886   0.04976755751941747   -0.009103292537679247
-0.6947198987174886   0.04976755751941747   -0.009103292537679247
-0.6947198987174886   0.04976755751941747   -0.009103292537679247
-0.9476597626980047   0.02919656135189433   0.011827642940282976
-0.9476597626980047   0.02919656135189433   0.011827642940282976
-0.9476597626980047   0.02919656135189433   0.011827642940282976
-0.9476597626980047   0.02919656135189433   0.011827642940282976
-0.6750737391156696   0.10072815622321762   0.03816690676762369
-0.6750737391156696   0.10072815622321762   0.03816690676762369
-0.6750737391156696   0.10072815622321762   0.03816690676762369
-0.6750737391156696   0.10072815622321762   0.03816690676762369
-1.261069598628668   -0.06978234203163983   -0.04050309038184761
-1.261069598628668   -0.06978234203163983   -0.04050309038184761
-1.261069598628668   -0.06978234203163983   -0.04050309038184761
-1.261069598628668   -0.06978234203163983   -0.04050309038184761
-1.273787512707801   -0.0431006310308821   0.013275830657159877
-1.273787512707801   -0.0431006310308821   0.013275830657159877
-1.273787512707801   -0.0431006310308821   0.013275830657159877
-1.273787512707801   -0.0431006310308821   0.013275830657159877
-0.7232034292663962   0.024306697310846836   -0.003845034741723874
-0.7232034292663962   0.024306697310846836   -0.003845034741723874
-0.7232034292663962   0.024306697310846836   -0.003845034741723874
-0.7232034292663962   0.024306697310846836   -0.003845034741723874
-0.972085223860252   0.0067866332989398315   0.000925897824922764
-0.972085223860252   0.0067866332989398315   0.000925897824922764
-0.972085223860252   0.0067866332989398315   0.000925897824922764
-0.972085223860252   0.0067866332989398315   0.000925897824922764
-0.7028521603546538   0.07739572894490207   0.044822278182933446
-0.7028521603546538   0.07739572894490207   0.044822278182933446
-0.7028521603546538   0.07739572894490207   0.044822278182933446
-0.7028521603546538   0.07739572894490207   0.044822278182933446
-1.2942100978476618   -0.09626097889305674   -0.0356767471799761
-1.2942100978476618   -0.09626097889305674   -0.0356767471799761
-1.2942100978476618   -0.09626097889305674   -0.0356767471799761
-1.2942100978476618   -0.09626097889305674   -0.0356767471799761
-1.303374740390932   -0.06985999554302469   0.020236275624931743
-1.303374740390932   -0.06985999554302469   0.020236275624931743
-1.303374740390932   -0.06985999554302469   0.020236275624931743
-1.303374740390932   -0.06985999554302469   0.020236275624931743
-0.7521826743746743   -0.003915158998029328   0.00028732153167534275
-0.7521826743746743   -0.003915158998029328   0.00028732153167534275
-0.7521826743746743   -0.003915158998029328   0.00028732153167534275
-0.7521826743746743   -0.003915158998029328   0.00028732153167534275
-1.008663169394183   -0.019188124623707614   -0.011713012077008506
-1.008663169394183   -0.019188124623707614   -0.011713012077008506
-1.008663169394183   -0.019188124623707614   -0.011713012077008506
-1.008663169394183   -0.019188124623707614   -0.011713012077008506
-1.1803841158435953   0.11614392709396831   0.04903744218910579
-1.1803841158435953   0.11614392709396831   0.04903744218910579
-1.1803841158435953   0.11614392709396831   0.04903744218910579
-1.1803841158435953   0.11614392709396831   0.04903744218910579
-1.7411536531525795   -0.08009361773887719   -0.055322194576144484
-1.7411536531525795   -0.08009361773887719   -0.055322194576144484
-1.7411536531525795   -0.08009361773887719   -0.055322194576144484
-1.7411536531525795   -0.08009361773887719   -0.055322194576144484
-1.7580767773710864   -0.0012651360641275922   0.0486130642655483
-1.7580767773710864   -0.0012651360641275922   0.0486130642655483
-1.7580767773710864   -0.0012651360641275922   0.0486130642655483
-1.7580767773710864   -0.0012651360641275922   0.0486130642655483
-1.2422984295311812   0.01682359991677007   -0.03325318684283898
-1.2422984295311812   0.01682359991677007   -0.03325318684283898
-1.2422984295311812   0.01682359991677007   -0.03325318684283898
-1.2422984295311812   0.01682359991677007   -0.03325318684283898
-1.4153644511478203   0.027039391059873685   0.035769963979582126
-1.4153644511478203   0.027039391059873685   0.035769963979582126
-1.4153644511478203   0.027039391059873685   0.035769963979582126
-1.4153644511478203   0.027039391059873685   0.035769963979582126
-1.2052136062838872   0.11115315930191527   0.057841370008502174
-1.2052136062838872   0.11115315930191527   0.057841370008502174
-1.2052136062838872   0.11115315930191527   0.057841370008502174
-1.2052136062838872   0.11115315930191527   0.057841370008502174
-1.7958876650208961   -0.09632075985177324   -0.04538575019584046
-1.7958876650208961   -0.09632075985177324   -0.04538575019584046
-1.7958876650208961   -0.09632075985177324   -0.04538575019584046
-1.7958876650208961   -0.09632075985177324   -0.04538575019584046
-1.8049871564985769   -0.015080999786961702   0.06127309938139808
-1.8049871564985769   -0.015080999786961702   0.06127309938139808
-1.8049871564985769   -0.015080999786961702   0.06127309938139808
-1.8049871564985769   -0.015080999786961702   0.06127309938139808
-1.2729193473977298   0.00286049825495327   -0.028344472078341704
-1.2729193473977298   0.00286049825495327   -0.028344472078341704
-1.2729193473977298   0.00286049825495327   -0.028344472078341704
-1.2729193473977298   0.00286049825495327   -0.028344472078341704
-1.4785202610308628   0.011148678804020484   0.018653743627280242
-1.4785202610308628   0.011148678804020484   0.018653743627280242
-1.4785202610308628   0.011148678804020484   0.018653743627280242
-1.4785202610308628   0.011148678804020484   0.018653743627280242
-1.2340958822455639   0.10047442131237849   0.06815893062508599
-1.2340958822455639   0.10047442131237849   0.06815893062508599
-1.2340958822455639   0.10047442131237849   0.06815893062508599
-1.2340958822455639   0.10047442131237849   0.06815893062508599
-1.8443359199024367   -0.11322022109607704   -0.03733149632878616
-1.8443359199024367   -0.11322022109607704   -0.03733149632878616
-1.8443359199024367   -0.11322022109607704   -0.03733149632878616
-1.8443359199024367   -0.11322022109607704   -0.03733149632878616
-1.8677441035280729   -0.0582556596207503   0.061499906601607424
-1.8677441035280729   -0.0582556596207503   0.061499906601607424
-1.8677441035280729   -0.0582556596207503   0.061499906601607424
-1.8677441035280729   -0.0582556596207503   0.061499906601607424
-1.3049500799218177   -0.03243989146362353   -0.025060526108920997
-1.3049500799218177   -0.03243989146362353   -0.025060526108920997
-1.3049500799218177   -0.03243989146362353   -0.025060526108920997
-1.3049500799218177   -0.03243989146362353   -0.025060526108920997
-1.4965409811415797   -0.006954418991003131   0.010483443193091538
-1.4965409811415797   -0.006954418991003131   0.010483443193091538
-1.4965409811415797   -0.006954418991003131   0.010483443193091538
-1.4965409811415797   -0.006954418991003131   0.010483443193091538
0.5503542989532285   0.03282841557171261   -0.06666178739377691
0.5503542989532285   0.03282841557171261   -0.06666178739377691
0.5503542989532285   0.03282841557171261   -0.06666178739377691
0.5503542989532285   0.03282841557171261   -0.06666178739377691
0.1593941367556908   0.04015836362149568   0.03193806749300458
0.1593941367556908   0.04015836362149568   0.03193806749300458
0.1593941367556908   0.04015836362149568   0.03193806749300458
0.1593941367556908   0.04015836362149568   0.03193806749300458
0.0973102494658232   -0.08118709164747477   -0.05876758201610098
0.0973102494658232   -0.08118709164747477   -0.05876758201610098
0.0973102494658232   -0.08118709164747477   -0.05876758201610098
0.0973102494658232   -0.08118709164747477   -0.05876758201610098
0.5350413130061609   0.09421484709450005   0.03842999020493906
0.5350413130061609   0.09421484709450005   0.03842999020493906
0.5350413130061609   0.09421484709450005   0.03842999020493906
0.5350413130061609   0.09421484709450005   0.03842999020493906
0.31590004586261894   0.01569888770709494   -0.007327876291250061
0.31590004586261894   0.01569888770709494   -0.007327876291250061
0.31590004586261894   0.01569888770709494   -0.007327876291250061
0.31590004586261894   0.01569888770709494   -0.007327876291250061
0.4959065575140184   -0.0019334180557256664   -0.06109552210555068
0.4959065575140184   -0.0019334180557256664   -0.06109552210555068
0.4959065575140184   -0.0019334180557256664   -0.06109552210555068
0.4959065575140184   -0.0019334180557256664   -0.06109552210555068
0.13522333637788503   0.01373950492266994   0.035871255974064306
0.13522333637788503   0.01373950492266994   0.035871255974064306
0.13522333637788503   0.01373950492266994   0.035871255974064306
0.13522333637788503   0.01373950492266994   0.035871255974064306
0.07386565233706147   -0.09271733112681199   -0.0498922907598482
0.07386565233706147   -0.09271733112681199   -0.0498922907598482
0.07386565233706147   -0.09271733112681199   -0.0498922907598482
0.07386565233706147   -0.09271733112681199   -0.0498922907598482
0.4929011124449517   0.07830139910227929   0.04934057013588175
0.4929011124449517   0.07830139910227929   0.04934057013588175
0.4929011124449517   0.07830139910227929   0.04934057013588175
0.4929011124449517   0.07830139910227929   0.04934057013588175
0.28641733859469476   -0.002299730112352086   -0.019023144752869717
0.28641733859469476   -0.002299730112352086   -0.019023144752869717
0.28641733859469476   -0.002299730112352086   -0.019023144752869717
0.28641733859469476   -0.002299730112352086   -0.019023144752869717
0.4539977261170331   -0.01673954224927933   -0.05013542015215653
0.4539977261170331   -0.01673954224927933   -0.05013542015215653
0.4539977261170331   -0.01673954224927933   -0.05013542015215653
0.4539977261170331   -0.01673954224927933   -0.05013542015215653
0.11113530981145632   0.0006898813712225282   0.04304878411409341
0.11113530981145632   0.0006898813712225282   0.04304878411409341
0.11113530981145632   0.0006898813712225282   0.04304878411409341
0.11113530981145632   0.0006898813712225282   0.04304878411409341
0.05289707043694014   -0.10668063682936738   -0.04154621320860358
0.05289707043694014   -0.10668063682936738   -0.04154621320860358
0.05289707043694014   -0.10668063682936738   -0.04154621320860358
0.05289707043694014   -0.10668063682936738   -0.04154621320860358
0.4407350579367057   0.05280667917060853   0.0547571594142581
0.4407350579367057   0.05280667917060853   0.0547571594142581
0.4407350579367057   0.05280667917060853   0.0547571594142581
0.4407350579367057   0.05280667917060853   0.0547571594142581
0.24580974838195746   -0.01835238896555698   -0.03329590650240105
0.24580974838195746   -0.01835238896555698   -0.03329590650240105
0.24580974838195746   -0.01835238896555698   -0.03329590650240105
0.24580974838195746   -0.01835238896555698   -0.03329590650240105
0.15308381187519626   0.05993354826396502   -0.019388741551938413
0.15308381187519626   0.05993354826396502   -0.019388741551938413
0.15308381187519626   0.05993354826396502   -0.019388741551938413
0.15308381187519626   0.05993354826396502   -0.019388741551938413
-0.22517345147724954   0.01946955834155009   0.0077973248512777475
-0.22517345147724954   0.01946955834155009   0.0077973248512777475
-0.22517345147724954   0.01946955834155009   0.0077973248512777475
-0.22517345147724954   0.01946955834155009   0.0077973248512777475
-0.2651588400560618   -0.0520130287782745   -0.03427310836977292
-0.2651588400560618   -0.0520130287782745   -0.03427310836977292
-0.2651588400560618   -0.0520130287782745   -0.03427310836977292
-0.2651588400560618   -0.0520130287782745   -0.03427310836977292
0.14746338806724482   0.07440897859376312   0.03640204074977002
0.14746338806724482   0.07440897859376312   0.03640204074977002
0.14746338806724482   0.07440897859376312   0.03640204074977002
0.14746338806724482   0.07440897859376312   0.03640204074977002
-0.0487583362783895   0.024378986200190016   0.006145674826770416
-0.0487583362783895   0.024378986200190016   0.006145674826770416
-0.0487583362783895   0.024378986200190016   0.006145674826770416
-0.0487583362783895   0.024378986200190016   0.006145674826770416
0.12859892852754085   0.030742409117836055   -0.014253687472822716
0.12859892852754085   0.030742409117836055   -0.014253687472822716
0.12859892852754085   0.030742409117836055   -0.014253687472822716
0.12859892852754085   0.030742409117836055   -0.014253687472822716
-0.2473337916825052   -0.009385870468494859   0.012224975188230142
-0.2473337916825052   -0.009385870468494859   0.012224975188230142
-0.2473337916825052   -0.009385870468494859   0.012224975188230142
-0.2473337916825052   -0.009385870468494859   0.012224975188230142
-0.2861337699085783   -0.07545741858170615   -0.026824141609486544
-0.2861337699085783   -0.07545741858170615   -0.026824141609486544
-0.2861337699085783   -0.07545741858170615   -0.026824141609486544
-0.2861337699085783   -0.07545741858170615   -0.026824141609486544
0.1199428273181567   0.0480908332010268   0.03968541981779096
0.1199428273181567   0.0480908332010268   0.03968541981779096
0.1199428273181567   0.0480908332010268   0.03968541981779096
0.1199428273181567   0.0480908332010268   0.03968541981779096
-0.07466333794384729   -0.0008881960450264764   -0.0059597020544296
-0.07466333794384729   -0.0008881960450264764   -0.0059597020544296
-0.07466333794384729   -0.0008881960450264764   -0.0059597020544296
-0.07466333794384729   -0.0008881960450264764   -0.0059597020544296
0.10163749184704521   0.005592981019972959   -0.009343405356714494
0.10163749184704521   0.005592981019972959   -0.009343405356714494
0.10163749184704521   0.005592981019972959   -0.009343405356714494
0.10163749184704521   0.005592981019972959   -0.009343405356714494
-0.26917346835697636   -0.034304600320161485   0.016824547886982604
-0.26917346835697636   -0.034304600320161485   0.016824547886982604
-0.26917346835697636   -0.034304600320161485   0.016824547886982604
-0.26917346835697636   -0.034304600320161485   0.016824547886982604
-0.3069497877503185   -0.09873657123665239   -0.020091181027340102
-0.3069497877503185   -0.09873657123665239   -0.020091181027340102
-0.3069497877503185   -0.09873657123665239   -0.020091181027340102
-0.3069497877503185   -0.09873657123665239   -0.020091181027340102
0.09584750922869285   0.022226746831246105   0.04429859708954658
0.09584750922869285   0.022226746831246105   0.04429859708954658
0.09584750922869285   0.022226746831246105   0.04429859708954658
0.09584750922869285   0.022226746831246105   0.04429859708954658
-0.0971027089418388   -0.023540813813196546   -0.01739916086277839
-0.0971027089418388   -0.023540813813196546   -0.01739916086277839
-0.0971027089418388   -0.023540813813196546   -0.01739916086277839
-0.0971027089418388   -0.023540813813196546   -0.01739916086277839
-0.21360513545297807   0.08222352083973898   0.0028849424744461297
-0.21360513545297807   0.08222352083973898   0.0028849424744461297
-0.21360513545297807   0.08222352083973898   0.0028849424744461297
-0.21360513545297807   0.08222352083973898   0.0028849424744461297
-0.6046833238323048   -0.007084827876825961   -0.016588423740241158
-0.6046833238323048   -0.007084827876825961   -0.016588423740241158
-0.6046833238323048   -0.007084827876825961   -0.016588423740241158
-0.6046833238323048   -0.007084827876825961   -0.016588423740241158
-0.6235672423259697   -0.025356610237648985   -0.009897594810788383
-0.6235672423259697   -0.025356610237648985   -0.009897594810788383
-0.6235672423259697   -0.025356610237648985   -0.009897594810788383
-0.6235672423259697   -0.025356610237648985   -0.009897594810788383
-0.23579271596637125   0.04897076917938134   0.011573714121019651
-0.23579271596637125   0.04897076917938134   0.011573714121019651
-0.23579271596637125   0.04897076917938134   0.011573714121019651
-0.23579271596637125   0.04897076917938134   0.011573714121019651
-0.4184209349283101   0.024175389093392036   0.0063803269171275115
-0.4184209349283101   0.024175389093392036   0.0063803269171275115
-0.4184209349283101   0.024175389093392036   0.0063803269171275115
-0.4184209349283101   0.024175389093392036   0.0063803269171275115
-0.23465999922987113   0.056371642283591296   0.009836424699314388
-0.23465999922987113   0.056371642283591296   0.009836424699314388
-0.23465999922987113   0.056371642283591296   0.009836424699314388
-0.23465999922987113   0.056371642283591296   0.009836424699314388
-0.6256094273015884   -0.033666951580978016   -0.011798178345559997
-0.6256094273015884   -0.033666951580978016   -0.011798178345559997
-0.6256094273015884   -0.033666951580978016   -0.011798178345559997
-0.6256094273015884   -0.033666951580978016   -0.011798178345559997
-0.6444493400431405   -0.050950343485631336   -0.0031456250563679684
-0.6444493400431405   -0.050950343485631336   -0.0031456250563679684
-0.6444493400431405   -0.050950343485631336   -0.0031456250563679684
-0.6444493400431405   -0.050950343485631336   -0.0031456250563679684
-0.25793399119582106   0.022279353327773317   0.016437980044820423
-0.25793399119582106   0.022279353327773317   0.016437980044820423
-0.25793399119582106   0.022279353327773317   0.016437980044820423
-0.25793399119582106   0.022279353327773317   0.016437980044820423
-0.44020983239739775   -0.0001281677836358075   -0.004475206782509879
-0.44020983239739775   -0.0001281677836358075   -0.004475206782509879
-0.44020983239739775   -0.0001281677836358075   -0.004475206782509879
-0.44020983239739775   -0.0001281677836358075   -0.004475206782509879
-0.25641530310473276   0.030456453065776337   0.015854320762262796
-0.25641530310473276   0.030456453065776337   0.015854320762262796
-0.25641530310473276   0.030456453065776337   0.015854320762262796
-0.25641530310473276   0.030456453065776337   0.015854320762262796
-0.6472612403596277   -0.06042065544902879   -0.007734814675414144
-0.6472612403596277   -0.06042065544902879   -0.007734814675414144
-0.6472612403596277   -0.06042065544902879   -0.007734814675414144
-0.6472612403596277   -0.06042065544902879   -0.007734814675414144
-0.6649335838610922   -0.07566291782805384   0.0033875878683872623
-0.6649335838610922   -0.07566291782805384   0.0033875878683872623
-0.6649335838610922   -0.07566291782805384   0.0033875878683872623
-0.6649335838610922   -0.07566291782805384   0.0033875878683872623
-0.27969255030124335   -0.003436013817318166   0.02089444879869769
-0.27969255030124335   -0.003436013817318166   0.02089444879869769
-0.27969255030124335   -0.003436013817318166   0.02089444879869769
-0.27969255030124335   -0.003436013817318166   0.02089444879869769
-0.46313288393259117   -0.024491338420960074   -0.016260233222736075
-0.46313288393259117   -0.024491338420960074   -0.016260233222736075
-0.46313288393259117   -0.024491338420960074   -0.016260233222736075
-0.46313288393259117   -0.024491338420960074   -0.016260233222736075
-0.5741279062194882   0.10336853499081522   0.025735301456200767
-0.5741279062194882   0.10336853499081522   0.025735301456200767
-0.5741279062194882   0.10336853499081522   0.025735301456200767
-0.5741279062194882   0.10336853499081522   0.025735301456200767
-0.9757795755731824   -0.028843799443152796   -0.03790140668279742
-0.9757795755731824   -0.028843799443152796   -0.03790140668279742
-0.9757795755731824   -0.028843799443152796   -0.03790140668279742
-0.9757795755731824   -0.028843799443152796   -0.03790140668279742
-0.9776526195477321   -0.0018084136510373994   0.015949572440289717
-0.9776526195477321   -0.0018084136510373994   0.015949572440289717
-0.9776526195477321   -0.0018084136510373994   0.015949572440289717
-0.9776526195477321   -0.0018084136510373994   0.015949572440289717
-0.6138809823452053   0.025156737269021734   -0.011979642413652077
-0.6138809823452053   0.025156737269021734   -0.011979642413652077
-0.6138809823452053   0.025156737269021734   -0.011979642413652077
-0.6138809823452053   0.025156737269021734   -0.011979642413652077
-0.7813741536976415   0.024426950986295798   0.008416256808762117
-0.7813741536976415   0.024426950986295798   0.008416256808762117
-0.7813741536976415   0.024426950986295798   0.008416256808762117
-0.7813741536976415   0.024426950986295798   0.008416256808762117
-0.5943330827347998   0.07820741483748819   0.032709178069924065
-0.5943330827347998   0.07820741483748819   0.032709178069924065
-0.5943330827347998   0.07820741483748819   0.032709178069924065
-0.5943330827347998   0.07820741483748819   0.032709178069924065
-0.9989481838771175   -0.05660675593847245   -0.035729906919210734
-0.9989481838771175   -0.05660675593847245   -0.035729906919210734
-0.9989481838771175   -0.05660675593847245   -0.035729906919210734
-0.9989481838771175   -0.05660675593847245   -0.035729906919210734
-1.0033571288317513   -0.027037355476152686   0.01958840088863356
-1.0033571288317513   -0.027037355476152686   0.01958840088863356
-1.0033571288317513   -0.027037355476152686   0.01958840088863356
-1.0033571288317513   -0.027037355476152686   0.01958840088863356
-0.6348728430672432   0.0005866562666386743   -0.006800139929167642
-0.6348728430672432   0.0005866562666386743   -0.006800139929167642
-0.6348728430672432   0.0005866562666386743   -0.006800139929167642
-0.6348728430672432   0.0005866562666386743   -0.006800139929167642
-0.7999049986840923   0.0017695159545461914   -0.0029671956890455972
-0.7999049986840923   0.0017695159545461914   -0.0029671956890455972
-0.7999049986840923   0.0017695159545461914   -0.0029671956890455972
-0.7999049986840923   0.0017695159545461914   -0.0029671956890455972
-0.614804807505632   0.05465063953371091   0.03947605461183226
-0.614804807505632   0.05465063953371091   0.03947605461183226
-0.614804807505632   0.05465063953371091   0.03947605461183226
-0.614804807505632   0.05465063953371091   0.03947605461183226
-1.0245142793903723   -0.08219045374023473   -0.031044253640405667
-1.0245142793903723   -0.08219045374023473   -0.031044253640405667
-1.0245142793903723   -0.08219045374023473   -0.031044253640405667
-1.0245142793903723   -0.08219045374023473   -0.031044253640405667
-1.0255685000606323   -0.053321911260766075   0.026639385903888327
-1.0255685000606323   -0.053321911260766075   0.026639385903888327
-1.0255685000606323   -0.053321911260766075   0.026639385903888327
-1.0255685000606323   -0.053321911260766075   0.026639385903888327
-0.6561256260438031   -0.025676650125654135   -0.0025588907475744722
-0.6561256260438031   -0.025676650125654135   -0.0025588907475744722
-0.6561256260438031   -0.025676650125654135   -0.0025588907475744722
-0.6561256260438031   -0.025676650125654135   -0.0025588907475744722
-0.8274261249318223   -0.022894982284129034   -0.015364727580944176
-0.8274261249318223   -0.022894982284129034   -0.015364727580944176
-0.8274261249318223   -0.022894982284129034   -0.015364727580944176
-0.8274261249318223   -0.022894982284129034   -0.015364727580944176
-0.9329663351402989   0.10172706998875491   0.04559392604973517
-0.9329663351402989   0.10172706998875491   0.04559392604973517
-0.9329663351402989   0.10172706998875491   0.04559392604973517
-0.9329663351402989   0.10172706998875491   0.04559392604973517
-1.3124240138057002   -0.0603272989592713   -0.057633821779919645
-1.3124240138057002   -0.0603272989592713   -0.057633821779919645
-1.3124240138057002   -0.0603272989592713   -0.057633821779919645
-1.3124240138057002   -0.0603272989592713   -0.057633821779919645
-1.3220757277989463   0.01710541712526703   0.04793319746741104
-1.3220757277989463   0.01710541712526703   0.04793319746741104
-1.3220757277989463   0.01710541712526703   0.04793319746741104
-1.3220757277989463   0.01710541712526703   0.04793319746741104
-0.988144822042333   -0.0030951313298027694   -0.03522472235395752
-0.988144822042333   -0.0030951313298027694   -0.03522472235395752
-0.988144822042333   -0.0030951313298027694   -0.03522472235395752
-0.988144822042333   -0.0030951313298027694   -0.03522472235395752
-1.0899799186000467   0.02446859133633611   0.026340882016812603
-1.0899799186000467   0.02446859133633611   0.026340882016812603
-1.0899799186000467   0.02446859133633611   0.026340882016812603
-1.0899799186000467   0.02446859133633611   0.026340882016812603
-0.9512006067445897   0.09247837200304956   0.05392285080190591
-0.9512006067445897   0.09247837200304956   0.05392285080190591
-0.9512006067445897   0.09247837200304956   0.05392285080190591
-0.9512006067445897   0.09247837200304956   0.05392285080190591
-1.3608787864154566   -0.0803269295263421   -0.04864974896353073
-1.3608787864154566   -0.0803269295263421   -0.04864974896353073
-1.3608787864154566   -0.0803269295263421   -0.04864974896353073
-1.3608787864154566   -0.0803269295263421   -0.04864974896353073
-1.3620946684612143   0.0029393007033486906   0.061224861227119926
-1.3620946684612143   0.0029393007033486906   0.061224861227119926
-1.3620946684612143   0.0029393007033486906   0.061224861227119926
-1.3620946684612143   0.0029393007033486906   0.061224861227119926
-1.0112754348400335   -0.016805398920704984   -0.030235085708240794
-1.0112754348400335   -0.016805398920704984   -0.030235085708240794
-1.0112754348400335   -0.016805398920704984   -0.030235085708240794
-1.0112754348400335   -0.016805398920704984   -0.030235085708240794
-1.1410744396491284   0.007706482537650938   0.00942363807347206
-1.1410744396491284   0.007706482537650938   0.00942363807347206
-1.1410744396491284   0.007706482537650938   0.00942363807347206
-1.1410744396491284   0.007706482537650938   0.00942363807347206
-0.9727607281496246   0.08138977190405344   0.06414327691905383
-0.9727607281496246   0.08138977190405344   0.06414327691905383
-0.9727607281496246   0.08138977190405344   0.06414327691905383
-0.9727607281496246   0.08138977190405344   0.06414327691905383
-1.4023708259610908   -0.09701732093087584   -0.04019930463803781
-1.4023708259610908   -0.09701732093087584   -0.04019930463803781
-1.4023708259610908   -0.09701732093087584   -0.04019930463803781
-1.4023708259610908   -0.09701732093087584   -0.04019930463803781
-1.4174482353062476   -0.03728062537165827   0.06323395973533542
-1.4174482353062476   -0.03728062537165827   0.06323395973533542
-1.4174482353062476   -0.03728062537165827   0.06323395973533542
-1.4174482353062476   -0.03728062537165827   0.06323395973533542
-1.0351400392716879   -0.04817408878629109   -0.02636613262588005
-1.0351400392716879   -0.04817408878629109   -0.02636613262588005
-1.0351400392716879   -0.04817408878629109   -0.02636613262588005
-1.0351400392716879   -0.04817408878629109   -0.02636613262588005
-1.1578141807095248   -0.010103406136110965   -0.0006568993303982459
-1.1578141807095248   -0.010103406136110965   -0.0006568993303982459
-1.1578141807095248   -0.010103406136110965   -0.0006568993303982459
-1.1578141807095248   -0.010103406136110965   -0.0006568993303982459
0.09687377175008308   0.007976437113268642   -0.06645120004252286
0.09687377175008308   0.007976437113268642   -0.06645120004252286
0.09687377175008308   0.007976437113268642   -0.06645120004252286
0.09687377175008308   0.007976437113268642   -0.06645120004252286
-0.1095698118393036   0.04988077045381547   0.03401703484978068
-0.1095698118393036   0.04988077045381547   0.03401703484978068
-0.1095698118393036   0.04988077045381547   0.03401703484978068
-0.1095698118393036   0.04988077045381547   0.03401703484978068
-0.1637207517312943   -0.06392383383304484   -0.05350134969529959
-0.1637207517312943   -0.06392383383304484   -0.05350134969529959
-0.1637207517312943   -0.06392383383304484   -0.05350134969529959
-0.1637207517312943   -0.06392383383304484   -0.05350134969529959
0.08866873086357195   0.07021581593672677   0.041785732359306854
0.08866873086357195   0.07021581593672677   0.041785732359306854
0.08866873086357195   0.07021581593672677   0.041785732359306854
0.08866873086357195   0.07021581593672677   0.041785732359306854
-0.02411276002694186   0.015406157052150255   0.005786291837781134
-0.02411276002694186   0.015406157052150255   0.005786291837781134
-0.02411276002694186   0.015406157052150255   0.005786291837781134
-0.02411276002694186   0.015406157052150255   0.005786291837781134
0.04991509419338066   -0.022374768100028745   -0.059391866954894075
0.04991509419338066   -0.022374768100028745   -0.059391866954894075
0.04991509419338066   -0.022374768100028745   -0.059391866954894075
0.04991509419338066   -0.022374768100028745   -0.059391866954894075
-0.12726157382059988   0.02637229144421381   0.03849841458091388
-0.12726157382059988   0.02637229144421381   0.03849841458091388
-0.12726157382059988   0.02637229144421381   0.03849841458091388
-0.12726157382059988   0.02637229144421381   0.03849841458091388
-0.1815543744115671   -0.07552526013527759   -0.04533723919541448
-0.1815543744115671   -0.07552526013527759   -0.04533723919541448
-0.1815543744115671   -0.07552526013527759   -0.04533723919541448
-0.1815543744115671   -0.07552526013527759   -0.04533723919541448
0.05193214051153115   0.05445216557295286   0.05729233170180929
0.05193214051153115   0.05445216557295286   0.05729233170180929
0.05193214051153115   0.05445216557295286   0.05729233170180929
0.05193214051153115   0.05445216557295286   0.05729233170180929
-0.05313101557058594   -0.001973032417373989   -0.007623222931946897
-0.05313101557058594   -0.001973032417373989   -0.007623222931946897
-0.05313101557058594   -0.001973032417373989   -0.007623222931946897
-0.05313101557058594   -0.001973032417373989   -0.007623222931946897
0.012287455223672927   -0.037487693501715526   -0.04899123566281347
0.012287455223672927   -0.037487693501715526   -0.04899123566281347
0.012287455223672927   -0.037487693501715526   -0.04899123566281347
0.012287455223672927   -0.037487693501715526   -0.04899123566281347
-0.14509194247006424   0.013232345593029972   0.048217314783790266
-0.14509194247006424   0.013232345593029972   0.048217314783790266
-0.14509194247006424   0.013232345593029972   0.048217314783790266
-0.14509194247006424   0.013232345593029972   0.048217314783790266
-0.1978895231289241   -0.09338385486981288   -0.037570929722188416
-0.1978895231289241   -0.09338385486981288   -0.037570929722188416
-0.1978895231289241   -0.09338385486981288   -0.037570929722188416
-0.1978895231289241   -0.09338385486981288   -0.037570929722188416
0.0009144129719160861   0.02139171754478987   0.0653023958921585
0.0009144129719160861   0.02139171754478987   0.0653023958921585
0.0009144129719160861   0.02139171754478987   0.0653023958921585
0.0009144129719160861   0.02139171754478987   0.0653023958921585
-0.08423441472385537   -0.019482315395233252   -0.023073815381609922
-0.08423441472385537   -0.019482315395233252   -0.023073815381609922
-0.08423441472385537   -0.019482315395233252   -0.023073815381609922
-0.08423441472385537   -0.019482315395233252   -0.023073815381609922
-0.12511809458771628   0.032627035884589775   -0.026470644323057065
-0.12511809458771628   0.032627035884589775   -0.026470644323057065
-0.12511809458771628   0.032627035884589775   -0.026470644323057065
-0.12511809458771628   0.032627035884589775   -0.026470644323057065
-0.3185834637924979   0.013395918128681628   0.008892148624572837
-0.3185834637924979   0.013395918128681628   0.008892148624572837
-0.3185834637924979   0.013395918128681628   0.008892148624572837
-0.3185834637924979   0.013395918128681628   0.008892148624572837
-0.346503774576514   -0.037226450387832996   -0.027807941514451765
-0.346503774576514   -0.037226450387832996   -0.027807941514451765
-0.346503774576514   -0.037226450387832996   -0.027807941514451765
-0.346503774576514   -0.037226450387832996   -0.027807941514451765
-0.1286036762766703   0.03160507156102612   0.026555122183749464
-0.1286036762766703   0.03160507156102612   0.026555122183749464
-0.1286036762766703   0.03160507156102612   0.026555122183749464
-0.1286036762766703   0.03160507156102612   0.026555122183749464
-0.22922705886985503   0.009455323325430705   0.005027287691210016
-0.22922705886985503   0.009455323325430705   0.005027287691210016
-0.22922705886985503   0.009455323325430705   0.005027287691210016
-0.22922705886985503   0.009455323325430705   0.005027287691210016
-0.1436745220994964   0.004551817780491574   -0.02174585314984651
-0.1436745220994964   0.004551817780491574   -0.02174585314984651
-0.1436745220994964   0.004551817780491574   -0.02174585314984651
-0.1436745220994964   0.004551817780491574   -0.02174585314984651
-0.33331415049277135   -0.012054418346381907   0.01296814686281041
-0.33331415049277135   -0.012054418346381907   0.01296814686281041
-0.33331415049277135   -0.012054418346381907   0.01296814686281041
-0.33331415049277135   -0.012054418346381907   0.01296814686281041
-0.36038396951640617   -0.06001373686084814   -0.0205106336570209
-0.36038396951640617   -0.06001373686084814   -0.0205106336570209
-0.36038396951640617   -0.06001373686084814   -0.0205106336570209
-0.36038396951640617   -0.06001373686084814   -0.0205106336570209
-0.15010868003665104   0.006426197912521185   0.029939774631365126
-0.15010868003665104   0.006426197912521185   0.029939774631365126
-0.15010868003665104   0.006426197912521185   0.029939774631365126
-0.15010868003665104   0.006426197912521185   0.029939774631365126
-0.24676233011747556   -0.01340324358153984   -0.006437679070058502
-0.24676233011747556   -0.01340324358153984   -0.006437679070058502
-0.24676233011747556   -0.01340324358153984   -0.006437679070058502
-0.24676233011747556   -0.01340324358153984   -0.006437679070058502
-0.1646329357028663   -0.020010387103478012   -0.016244918683710075
-0.1646329357028663   -0.020010387103478012   -0.016244918683710075
-0.1646329357028663   -0.020010387103478012   -0.016244918683710075
-0.1646329357028663   -0.020010387103478012   -0.016244918683710075
-0.3478785749956859   -0.035596012990343595   0.017598615076076077
-0.3478785749956859   -0.035596012990343595   0.017598615076076077
-0.3478785749956859   -0.035596012990343595   0.017598615076076077
-0.3478785749956859   -0.035596012990343595   0.017598615076076077
-0.3743556918134154   -0.08348313348243691   -0.014047603436760281
-0.3743556918134154   -0.08348313348243691   -0.014047603436760281
-0.3743556918134154   -0.08348313348243691   -0.014047603436760281
-0.3743556918134154   -0.08348313348243691   -0.014047603436760281
-0.16809105063069768   -0.019111205111605627   0.03714878301073646
-0.16809105063069768   -0.019111205111605627   0.03714878301073646
-0.16809105063069768   -0.019111205111605627   0.03714878301073646
-0.16809105063069768   -0.019111205111605627   0.03714878301073646
-0.2642909389481924   -0.03603618221079965   -0.01810393862394393
-0.2642909389481924   -0.03603618221079965   -0.01810393862394393
-0.2642909389481924   -0.03603618221079965   -0.01810393862394393
-0.2642909389481924   -0.03603618221079965   -0.01810393862394393
-0.31279352318235953   0.054048642468333824   -0.0028108726643875093
-0.31279352318235953   0.054048642468333824   -0.0028108726643875093
-0.31279352318235953   0.054048642468333824   -0.0028108726643875093
-0.31279352318235953   0.054048642468333824   -0.0028108726643875093
-0.5257811529282975   -0.017972997070166155   -0.014833874499203762
-0.5257811529282975   -0.017972997070166155   -0.014833874499203762
-0.5257811529282975   -0.017972997070166155   -0.014833874499203762
-0.5257811529282975   -0.017972997070166155   -0.014833874499203762
-0.5312923275635653   -0.01306515390259061   -0.003106289691646162
-0.5312923275635653   -0.01306515390259061   -0.003106289691646162
-0.5312923275635653   -0.01306515390259061   -0.003106289691646162
-0.5312923275635653   -0.01306515390259061   -0.003106289691646162
-0.3320946678509465   0.0029170146153384285   0.004094127110214486
-0.3320946678509465   0.0029170146153384285   0.004094127110214486
-0.3320946678509465   0.0029170146153384285   0.004094127110214486
-0.3320946678509465   0.0029170146153384285   0.004094127110214486
-0.42460377836641494   0.0060712681520095485   0.0016923052992956072
-0.42460377836641494   0.0060712681520095485   0.0016923052992956072
-0.42460377836641494   0.0060712681520095485   0.0016923052992956072
-0.42460377836641494   0.0060712681520095485   0.0016923052992956072
-0.32683447433815177   0.029258413782272147   0.004053695507254228
-0.32683447433815177   0.029258413782272147   0.004053695507254228
-0.32683447433815177   0.029258413782272147   0.004053695507254228
-0.32683447433815177   0.029258413782272147   0.004053695507254228
-0.5383612583451546   -0.04121529033831908   -0.010300807163864924
-0.5383612583451546   -0.04121529033831908   -0.010300807163864924
-0.5383612583451546   -0.04121529033831908   -0.010300807163864924
-0.5383612583451546   -0.04121529033831908   -0.010300807163864924
-0.544304633820046   -0.037544934450673834   0.0036871837768096757
-0.544304633820046   -0.037544934450673834   0.0036871837768096757
-0.544304633820046   -0.037544934450673834   0.0036871837768096757
-0.544304633820046   -0.037544934450673834   0.0036871837768096757
-0.34681841970487337   -0.02114566512489271   0.008449043664687851
-0.34681841970487337   -0.02114566512489271   0.008449043664687851
-0.34681841970487337   -0.02114566512489271   0.008449043664687851
-0.34681841970487337   -0.02114566512489271   0.008449043664687851
-0.43871322946464164   -0.016192077109173558   -0.008837981056417012
-0.43871322946464164   -0.016192077109173558   -0.008837981056417012
-0.43871322946464164   -0.016192077109173558   -0.008837981056417012
-0.43871322946464164   -0.016192077109173558   -0.008837981056417012
-0.34139379568637396   0.004320913455964276   0.010105585176328057
-0.34139379568637396   0.004320913455964276   0.010105585176328057
-0.34139379568637396   0.004320913455964276   0.010105585176328057
-0.34139379568637396   0.004320913455964276   0.010105585176328057
-0.5519094501964614   -0.06519170538944802   -0.006690127166500566
-0.5519094501964614   -0.06519170538944802   -0.006690127166500566
-0.5519094501964614   -0.06519170538944802   -0.006690127166500566
-0.5519094501964614   -0.06519170538944802   -0.006690127166500566
-0.5569788138207225   -0.06103228743387397   0.010199344235397857
-0.5569788138207225   -0.06103228743387397   0.010199344235397857
-0.5569788138207225   -0.06103228743387397   0.010199344235397857
-0.5569788138207225   -0.06103228743387397   0.010199344235397857
-0.3609536990457762   -0.043852971620940054   0.013332198539938726
-0.3609536990457762   -0.043852971620940054   0.013332198539938726
-0.3609536990457762   -0.043852971620940054   0.013332198539938726
-0.3609536990457762   -0.043852971620940054   0.013332198539938726
-0.45389623202288354   -0.03859621441722862   -0.020279755273927724
-0.45389623202288354   -0.03859621441722862   -0.020279755273927724
-0.45389623202288354   -0.03859621441722862   -0.020279755273927724
-0.45389623202288354   -0.03859621441722862   -0.020279755273927724
-0.4992281974577961   0.07836528222759923   0.02159262355554562
-0.4992281974577961   0.07836528222759923   0.02159262355554562
-0.4992281974577961   0.07836528222759923   0.02159262355554562
-0.4992281974577961   0.07836528222759923   0.02159262355554562
-0.7247221885773643   -0.029852817900686085   -0.033294320862823835
-0.7247221885773643   -0.029852817900686085   -0.033294320862823835
-0.7247221885773643   -0.029852817900686085   -0.033294320862823835
-0.7247221885773643   -0.029852817900686085   -0.033294320862823835
-0.714958061821626   0.011816230258024085   0.02239490200774965
-0.714958061821626   0.011816230258024085   0.02239490200774965
-0.714958061821626   0.011816230258024085   0.02239490200774965
-0.714958061821626   0.011816230258024085   0.02239490200774965
-0.5331464216633922   -0.010607987717652465   -0.0148339263757198
-0.5331464216633922   -0.010607987717652465   -0.0148339263757198
-0.5331464216633922   -0.010607987717652465   -0.0148339263757198
-0.5331464216633922   -0.010607987717652465   -0.0148339263757198
-0.6158871941276423   0.01252186762383356   0.0029389660835438883
-0.6158871941276423   0.01252186762383356   0.0029389660835438883
-0.6158871941276423   0.01252186762383356   0.0029389660835438883
-0.6158871941276423   0.01252186762383356   0.0029389660835438883
-0.5116239432575329   0.053698474297064785   0.028472003638860037
-0.5116239432575329   0.053698474297064785   0.028472003638860037
-0.5116239432575329   0.053698474297064785   0.028472003638860037
-0.5116239432575329   0.053698474297064785   0.028472003638860037
-0.7391214781505036   -0.055131169679713904   -0.031474779698915795
-0.7391214781505036   -0.055131169679713904   -0.031474779698915795
-0.7391214781505036   -0.055131169679713904   -0.031474779698915795
-0.7391214781505036   -0.055131169679713904   -0.031474779698915795
-0.7324024845266142   -0.01226992417884501   0.02644659930281544
-0.7324024845266142   -0.01226992417884501   0.02644659930281544
-0.7324024845266142   -0.01226992417884501   0.02644659930281544
-0.7324024845266142   -0.01226992417884501   0.02644659930281544
-0.546046641343431   -0.0324774688291105   -0.010090319461678678
-0.546046641343431   -0.0324774688291105   -0.010090319461678678
-0.546046641343431   -0.0324774688291105   -0.010090319461678678
-0.546046641343431   -0.0324774688291105   -0.010090319461678678
-0.6277398640907916   -0.008933520985988708   -0.008476333892489245
-0.6277398640907916   -0.008933520985988708   -0.008476333892489245
-0.6277398640907916   -0.008933520985988708   -0.008476333892489245
-0.6277398640907916   -0.008933520985988708   -0.008476333892489245
-0.5242804214969042   0.031098192295751143   0.03516511864608636
-0.5242804214969042   0.031098192295751143   0.03516511864608636
-0.5242804214969042   0.031098192295751143   0.03516511864608636
-0.5242804214969042   0.031098192295751143   0.03516511864608636
-0.7562541376882436   -0.0779310186188132   -0.027150572065379627
-0.7562541376882436   -0.0779310186188132   -0.027150572065379627
-0.7562541376882436   -0.0779310186188132   -0.027150572065379627
-0.7562541376882436   -0.0779310186188132   -0.027150572065379627
-0.7465847031955405   -0.03652160097621364   0.03367543215136533
-0.7465847031955405   -0.03652160097621364   0.03367543215136533
-0.7465847031955405   -0.03652160097621364   0.03367543215136533
-0.7465847031955405   -0.03652160097621364   0.03367543215136533
-0.5589924215076678   -0.0548605010686256   -0.00604048056457716
-0.5589924215076678   -0.0548605010686256   -0.00604048056457716
-0.5589924215076678   -0.0548605010686256   -0.00604048056457716
-0.5589924215076678   -0.0548605010686256   -0.00604048056457716
-0.6455696729109978   -0.03080111250277473   -0.020169593927081494
-0.6455696729109978   -0.03080111250277473   -0.020169593927081494
-0.6455696729109978   -0.03080111250277473   -0.020169593927081494
-0.6455696729109978   -0.03080111250277473   -0.020169593927081494
-0.6865731963389813   0.08490766114644277   0.042690161281962326
-0.6865731963389813   0.08490766114644277   0.042690161281962326
-0.6865731963389813   0.08490766114644277   0.042690161281962326
-0.6865731963389813   0.08490766114644277   0.042690161281962326
-0.8828950518946763   -0.04410197788063297   -0.05576555701313493
-0.8828950518946763   -0.04410197788063297   -0.05576555701313493
-0.8828950518946763   -0.04410197788063297   -0.05576555701313493
-0.8828950518946763   -0.04410197788063297   -0.05576555701313493
-0.8835653040721432   0.034277492423703926   0.04705887844338607
-0.8835653040721432   0.034277492423703926   0.04705887844338607
-0.8835653040721432   0.034277492423703926   0.04705887844338607
-0.8835653040721432   0.034277492423703926   0.04705887844338607
-0.7336389753421216   -0.02507193391756149   -0.03412150141915058
-0.7336389753421216   -0.02507193391756149   -0.03412150141915058
-0.7336389753421216   -0.02507193391756149   -0.03412150141915058
-0.7336389753421216   -0.02507193391756149   -0.03412150141915058
-0.7644609137212065   0.020207600652891122   0.014728642361408938
-0.7644609137212065   0.020207600652891122   0.014728642361408938
-0.7644609137212065   0.020207600652891122   0.014728642361408938
-0.7644609137212065   0.020207600652891122   0.014728642361408938
-0.6972892484738207   0.07219330637970806   0.05036189262508436
-0.6972892484738207   0.07219330637970806   0.05036189262508436
-0.6972892484738207   0.07219330637970806   0.05036189262508436
-0.6972892484738207   0.07219330637970806   0.05036189262508436
-0.9226559512309465   -0.0657286681640655   -0.04838819676284587
-0.9226559512309465   -0.0657286681640655   -0.04838819676284587
-0.9226559512309465   -0.0657286681640655   -0.04838819676284587
-0.9226559512309465   -0.0657286681640655   -0.04838819676284587
-0.9152966947741397   0.020566434675127254   0.060645342205026515
-0.9152966947741397   0.020566434675127254   0.060645342205026515
-0.9152966947741397   0.020566434675127254   0.060645342205026515
-0.9152966947741397   0.020566434675127254   0.060645342205026515
-0.748746583778515   -0.03764187853914519   -0.029901942596404343
-0.748746583778515   -0.03764187853914519   -0.029901942596404343
-0.748746583778515   -0.03764187853914519   -0.029901942596404343
-0.748746583778515   -0.03764187853914519   -0.029901942596404343
-0.802206931345667   0.0035289786903644482   -0.0010899420788870462
-0.802206931345667   0.0035289786903644482   -0.0010899420788870462
-0.802206931345667   0.0035289786903644482   -0.0010899420788870462
-0.802206931345667   0.0035289786903644482   -0.0010899420788870462
-0.7108771888974874   0.061401581719475046   0.060401571550113275
-0.7108771888974874   0.061401581719475046   0.060401571550113275
-0.7108771888974874   0.061401581719475046   0.060401571550113275
-0.7108771888974874   0.061401581719475046   0.060401571550113275
-0.9559623319181403   -0.0812732678464636   -0.04084314099337098
-0.9559623319181403   -0.0812732678464636   -0.04084314099337098
-0.9559623319181403   -0.0812732678464636   -0.04084314099337098
-0.9559623319181403   -0.0812732678464636   -0.04084314099337098
-0.9622196956313175   -0.015489496260648578   0.06413648636196193
-0.9622196956313175   -0.015489496260648578   0.06413648636196193
-0.9622196956313175   -0.015489496260648578   0.06413648636196193
-0.9622196956313175   -0.015489496260648578   0.06413648636196193
-0.7639141665821699   -0.06366425969800069   -0.025829226060002382
-0.7639141665821699   -0.06366425969800069   -0.025829226060002382
-0.7639141665821699   -0.06366425969800069   -0.025829226060002382
-0.7639141665821699   -0.06366425969800069   -0.025829226060002382
-0.8167385239518464   -0.012981821542097927   -0.012331656719960699
-0.8167385239518464   -0.012981821542097927   -0.012331656719960699
-0.8167385239518464   -0.012981821542097927   -0.012331656719960699
-0.8167385239518464   -0.012981821542097927   -0.012331656719960699
-0.3779287779237804   -0.02469772526056023   -0.070516477637621
-0.3779287779237804   -0.02469772526056023   -0.070516477637621
-0.3779287779237804   -0.02469772526056023   -0.070516477637621
-0.3779287779237804   -0.02469772526056023   -0.070516477637621
-0.37285354926896663   0.054085147717925885   0.03174255270070046
-0.37285354926896663   0.054085147717925885   0.03174255270070046
-0.37285354926896663   0.054085147717925885   0.03174255270070046
-0.37285354926896663   0.054085147717925885   0.03174255270070046
-0.41934030776198494   -0.049297689526405945   -0.04777275633079987
-0.41934030776198494   -0.049297689526405945   -0.04777275633079987
-0.41934030776198494   -0.049297689526405945   -0.04777275633079987
-0.41934030776198494   -0.049297689526405945   -0.04777275633079987
-0.3856595733957254   0.028062005014521857   0.047750430631594315
-0.3856595733957254   0.028062005014521857   0.047750430631594315
-0.3856595733957254   0.028062005014521857   0.047750430631594315
-0.3856595733957254   0.028062005014521857   0.047750430631594315
-0.36942741443714494   0.009064271516077083   0.032382915920414465
-0.36942741443714494   0.009064271516077083   0.032382915920414465
-0.36942741443714494   0.009064271516077083   0.032382915920414465
-0.36942741443714494   0.009064271516077083   0.032382915920414465
-0.423096624534094   -0.05230747135318248   -0.05906534869254275
-0.423096624534094   -0.05230747135318248   -0.05906534869254275
-0.423096624534094   -0.05230747135318248   -0.05906534869254275
-0.423096624534094   -0.05230747135318248   -0.05906534869254275
-0.38656669776978264   0.02640834569512722   0.04038925840867842
-0.38656669776978264   0.02640834569512722   0.04038925840867842
-0.38656669776978264   0.02640834569512722   0.04038925840867842
-0.38656669776978264   0.02640834569512722   0.04038925840867842
-0.4332983857226644   -0.062134465866586025   -0.040410299261658976
-0.4332983857226644   -0.062134465866586025   -0.040410299261658976
-0.4332983857226644   -0.062134465866586025   -0.040410299261658976
-0.4332983857226644   -0.062134465866586025   -0.040410299261658976
-0.4217238531547826   0.01057332067322192   0.08870902973698148
-0.4217238531547826   0.01057332067322192   0.08870902973698148
-0.4217238531547826   0.01057332067322192   0.08870902973698148
-0.4217238531547826   0.01057332067322192   0.08870902973698148
-0.4027060126765593   -0.012994867210927144   0.012921174464035238
-0.4027060126765593   -0.012994867210927144   0.012921174464035238
-0.4027060126765593   -0.012994867210927144   0.012921174464035238
-0.4027060126765593   -0.012994867210927144   0.012921174464035238
-0.464686903341165   -0.06953057470190765   -0.04600232581979713
-0.464686903341165   -0.06953057470190765   -0.04600232581979713
-0.464686903341165   -0.06953057470190765   -0.04600232581979713
-0.464686903341165   -0.06953057470190765   -0.04600232581979713
-0.40135414342744835   0.006950621617382899   0.050225824730452076
-0.40135414342744835   0.006950621617382899   0.050225824730452076
-0.40135414342744835   0.006950621617382899   0.050225824730452076
-0.40135414342744835   0.006950621617382899   0.050225824730452076
-0.44471914753222225   -0.08715249250407586   -0.031785093848062496
-0.44471914753222225   -0.08715249250407586   -0.031785093848062496
-0.44471914753222225   -0.08715249250407586   -0.031785093848062496
-0.44471914753222225   -0.08715249250407586   -0.031785093848062496
-0.4777969510979893   -0.047219553080817184   0.08302799286180698
-0.4777969510979893   -0.047219553080817184   0.08302799286180698
-0.4777969510979893   -0.047219553080817184   0.08302799286180698
-0.4777969510979893   -0.047219553080817184   0.08302799286180698
-0.4314683524523025   -0.03907956005979956   -0.01788208626498919
-0.4314683524523025   -0.03907956005979956   -0.01788208626498919
-0.4314683524523025   -0.03907956005979956   -0.01788208626498919
-0.4314683524523025   -0.03907956005979956   -0.01788208626498919
-0.3996631480893405   -0.011868755993547461   -0.036351537689699384
-0.3996631480893405   -0.011868755993547461   -0.036351537689699384
-0.3996631480893405   -0.011868755993547461   -0.036351537689699384
-0.3996631480893405   -0.011868755993547461   -0.036351537689699384
-0.40418239153616425   -0.0496229805667806   -0.0021089879648034503
-0.40418239153616425   -0.0496229805667806   -0.0021089879648034503
-0.40418239153616425   -0.0496229805667806   -0.0021089879648034503
-0.40418239153616425   -0.0496229805667806   -0.0021089879648034503
-0.4070511043589966   -0.03301203241154342   -0.01808296959677191
-0.4070511043589966   -0.03301203241154342   -0.01808296959677191
-0.4070511043589966   -0.03301203241154342   -0.01808296959677191
-0.4070511043589966   -0.03301203241154342   -0.01808296959677191
-0.413605455686427   -0.06764277279419945   -0.0007534126852166683
-0.413605455686427   -0.06764277279419945   -0.0007534126852166683
-0.413605455686427   -0.06764277279419945   -0.0007534126852166683
-0.413605455686427   -0.06764277279419945   -0.0007534126852166683
-0.4026695407892845   -0.04229503352047543   -0.0014987622069036702
-0.4026695407892845   -0.04229503352047543   -0.0014987622069036702
-0.4026695407892845   -0.04229503352047543   -0.0014987622069036702
-0.4026695407892845   -0.04229503352047543   -0.0014987622069036702
-0.41361495025732575   -0.036997449448864225   -0.03144620888504682
-0.41361495025732575   -0.036997449448864225   -0.03144620888504682
-0.41361495025732575   -0.036997449448864225   -0.03144620888504682
-0.41361495025732575   -0.036997449448864225   -0.03144620888504682
-0.4096363138900754   -0.06625205985885702   0.002231010195143922
-0.4096363138900754   -0.06625205985885702   0.002231010195143922
-0.4096363138900754   -0.06625205985885702   0.002231010195143922
-0.4096363138900754   -0.06625205985885702   0.002231010195143922
-0.413813202749389   -0.054632101604319555   -0.01164720024010064
-0.413813202749389   -0.054632101604319555   -0.01164720024010064
-0.413813202749389   -0.054632101604319555   -0.01164720024010064
-0.413813202749389   -0.054632101604319555   -0.01164720024010064
-0.42849644586691793   -0.08771392124978232   0.009178855400269453
-0.42849644586691793   -0.08771392124978232   0.009178855400269453
-0.42849644586691793   -0.08771392124978232   0.009178855400269453
-0.42849644586691793   -0.08771392124978232   0.009178855400269453
-0.4118454832894215   -0.05974941795918821   -0.011495294978235376
-0.4118454832894215   -0.05974941795918821   -0.011495294978235376
-0.4118454832894215   -0.05974941795918821   -0.011495294978235376
-0.4118454832894215   -0.05974941795918821   -0.011495294978235376
-0.4294745882320239   -0.060100078489862416   -0.02332569918518008
-0.4294745882320239   -0.060100078489862416   -0.02332569918518008
-0.4294745882320239   -0.060100078489862416   -0.02332569918518008
-0.4294745882320239   -0.060100078489862416   -0.02332569918518008
-0.4161543353437448   -0.085565219323705   0.007580254507498182
-0.4161543353437448   -0.085565219323705   0.007580254507498182
-0.4161543353437448   -0.085565219323705   0.007580254507498182
-0.4161543353437448   -0.085565219323705   0.007580254507498182
-0.4198744409043456   -0.07795199048958322   -0.005271753605503594
-0.4198744409043456   -0.07795199048958322   -0.005271753605503594
-0.4198744409043456   -0.07795199048958322   -0.005271753605503594
-0.4198744409043456   -0.07795199048958322   -0.005271753605503594
-0.43988229441612947   -0.11323615915076303   0.018482838379086673
-0.43988229441612947   -0.11323615915076303   0.018482838379086673
-0.43988229441612947   -0.11323615915076303   0.018482838379086673
-0.43988229441612947   -0.11323615915076303   0.018482838379086673
-0.4245015367928093   -0.08086511262187544   -0.024224339538482714
-0.4245015367928093   -0.08086511262187544   -0.024224339538482714
-0.4245015367928093   -0.08086511262187544   -0.024224339538482714
-0.4245015367928093   -0.08086511262187544   -0.024224339538482714
-0.3931289792074237   0.01019269266356218   -0.006657599551435817
-0.3931289792074237   0.01019269266356218   -0.006657599551435817
-0.3931289792074237   0.01019269266356218   -0.006657599551435817
-0.3931289792074237   0.01019269266356218   -0.006657599551435817
-0.444027114983608   -0.08428852076446346   -0.021262025721439353
-0.444027114983608   -0.08428852076446346   -0.021262025721439353
-0.444027114983608   -0.08428852076446346   -0.021262025721439353
-0.444027114983608   -0.08428852076446346   -0.021262025721439353
-0.42583020898486856   -0.015519516971651867   0.005647010309185067
-0.42583020898486856   -0.015519516971651867   0.005647010309185067
-0.42583020898486856   -0.015519516971651867   0.005647010309185067
-0.42583020898486856   -0.015519516971651867   0.005647010309185067
-0.4177221265942134   -0.09129814526778847   -0.013151967916614802
-0.4177221265942134   -0.09129814526778847   -0.013151967916614802
-0.4177221265942134   -0.09129814526778847   -0.013151967916614802
-0.4177221265942134   -0.09129814526778847   -0.013151967916614802
-0.41988400896141415   -0.04665822759504037   -0.009541775249295734
-0.41988400896141415   -0.04665822759504037   -0.009541775249295734
-0.41988400896141415   -0.04665822759504037   -0.009541775249295734
-0.41988400896141415   -0.04665822759504037   -0.009541775249295734
-0.3991026201208912   -0.011311597853542549   -4.0982964245685205e-05
-0.3991026201208912   -0.011311597853542549   -4.0982964245685205e-05
-0.3991026201208912   -0.011311597853542549   -4.0982964245685205e-05
-0.3991026201208912   -0.011311597853542549   -4.0982964245685205e-05
-0.4468040707453141   -0.09786041967302045   -0.016881395791674043
-0.4468040707453141   -0.09786041967302045   -0.016881395791674043
-0.4468040707453141   -0.09786041967302045   -0.016881395791674043
-0.4468040707453141   -0.09786041967302045   -0.016881395791674043
-0.4306719861191222   -0.037198089657165555   0.012040487417572467
-0.4306719861191222   -0.037198089657165555   0.012040487417572467
-0.4306719861191222   -0.037198089657165555   0.012040487417572467
-0.4306719861191222   -0.037198089657165555   0.012040487417572467
-0.4240507180143076   -0.10838784959257157   -0.009079028576445585
-0.4240507180143076   -0.10838784959257157   -0.009079028576445585
-0.4240507180143076   -0.10838784959257157   -0.009079028576445585
-0.4240507180143076   -0.10838784959257157   -0.009079028576445585
-0.4250330695891301   -0.06317740748993383   -0.01811326287063792
-0.4250330695891301   -0.06317740748993383   -0.01811326287063792
-0.4250330695891301   -0.06317740748993383   -0.01811326287063792
-0.4250330695891301   -0.06317740748993383   -0.01811326287063792
-0.4059465629904425   -0.03337526927073472   0.006429166221046919
-0.4059465629904425   -0.03337526927073472   0.006429166221046919
-0.4059465629904425   -0.03337526927073472   0.006429166221046919
-0.4059465629904425   -0.03337526927073472   0.006429166221046919
-0.45140604046068744   -0.11484056929670318   -0.013987304650723866
-0.45140604046068744   -0.11484056929670318   -0.013987304650723866
-0.45140604046068744   -0.11484056929670318   -0.013987304650723866
-0.45140604046068744   -0.11484056929670318   -0.013987304650723866
-0.43460331726062196   -0.05759109049185348   0.01829122240018663
-0.43460331726062196   -0.05759109049185348   0.01829122240018663
-0.43460331726062196   -0.05759109049185348   0.01829122240018663
-0.43460331726062196   -0.05759109049185348   0.01829122240018663
-0.4287460084977423   -0.12479712150292513   -0.0027844605591452846
-0.4287460084977423   -0.12479712150292513   -0.0027844605591452846
-0.4287460084977423   -0.12479712150292513   -0.0027844605591452846
-0.4287460084977423   -0.12479712150292513   -0.0027844605591452846
-0.43117778421359865   -0.08045670233789166   -0.027531883536985106
-0.43117778421359865   -0.08045670233789166   -0.027531883536985106
-0.43117778421359865   -0.08045670233789166   -0.027531883536985106
-0.43117778421359865   -0.08045670233789166   -0.027531883536985106
-0.4100001620160748   0.043889412712074374   0.02069480563968907
-0.4100001620160748   0.043889412712074374   0.02069480563968907
-0.4100001620160748   0.043889412712074374   0.02069480563968907
-0.4100001620160748   0.043889412712074374   0.02069480563968907
-0.48394348359307726   -0.06278701178763828   -0.029600224917896194
-0.48394348359307726   -0.06278701178763828   -0.029600224917896194
-0.48394348359307726   -0.06278701178763828   -0.029600224917896194
-0.48394348359307726   -0.06278701178763828   -0.029600224917896194
-0.45775183996558233   0.013178933734361922   0.028706099186542156
-0.45775183996558233   0.013178933734361922   0.028706099186542156
-0.45775183996558233   0.013178933734361922   0.028706099186542156
-0.45775183996558233   0.013178933734361922   0.028706099186542156
-0.44149765012211095   -0.07025940312702628   -0.01795030922165259
-0.44149765012211095   -0.07025940312702628   -0.01795030922165259
-0.44149765012211095   -0.07025940312702628   -0.01795030922165259
-0.44149765012211095   -0.07025940312702628   -0.01795030922165259
-0.4482707922156187   -0.018520010803830395   -0.00569951451165145
-0.4482707922156187   -0.018520010803830395   -0.00569951451165145
-0.4482707922156187   -0.018520010803830395   -0.00569951451165145
-0.4482707922156187   -0.018520010803830395   -0.00569951451165145
-0.4141167350406948   0.02158642291142618   0.027108440146975915
-0.4141167350406948   0.02158642291142618   0.027108440146975915
-0.4141167350406948   0.02158642291142618   0.027108440146975915
-0.4141167350406948   0.02158642291142618   0.027108440146975915
-0.4882572430437716   -0.08179138030086364   -0.02885060216917875
-0.4882572430437716   -0.08179138030086364   -0.02885060216917875
-0.4882572430437716   -0.08179138030086364   -0.02885060216917875
-0.4882572430437716   -0.08179138030086364   -0.02885060216917875
-0.4661882195018879   -0.007979270182412554   0.0325422519302678
-0.4661882195018879   -0.007979270182412554   0.0325422519302678
-0.4661882195018879   -0.007979270182412554   0.0325422519302678
-0.4661882195018879   -0.007979270182412554   0.0325422519302678
-0.44570447420415477   -0.08602554176327143   -0.01429450090149238
-0.44570447420415477   -0.08602554176327143   -0.01429450090149238
-0.44570447420415477   -0.08602554176327143   -0.01429450090149238
-0.44570447420415477   -0.08602554176327143   -0.01429450090149238
-0.45250353420350564   -0.03642015619995892   -0.015750170382646117
-0.45250353420350564   -0.03642015619995892   -0.015750170382646117
-0.45250353420350564   -0.03642015619995892   -0.015750170382646117
-0.45250353420350564   -0.03642015619995892   -0.015750170382646117
-0.4186338431672837   0.0016914810019788146   0.03334163151762054
-0.4186338431672837   0.0016914810019788146   0.03334163151762054
-0.4186338431672837   0.0016914810019788146   0.03334163151762054
-0.4186338431672837   0.0016914810019788146   0.03334163151762054
-0.4959667553137388   -0.09840419772264136   -0.025925499588758033
-0.4959667553137388   -0.09840419772264136   -0.025925499588758033
-0.4959667553137388   -0.09840419772264136   -0.025925499588758033
-0.4959667553137388   -0.09840419772264136   -0.025925499588758033
-0.47175441096486387   -0.028268424423482957   0.03968189211836277
-0.47175441096486387   -0.028268424423482957   0.03968189211836277
-0.47175441096486387   -0.028268424423482957   0.03968189211836277
-0.47175441096486387   -0.028268424423482957   0.03968189211836277
-0.4493096829847437   -0.10185981451340745   -0.010971882198875973
-0.4493096829847437   -0.10185981451340745   -0.010971882198875973
-0.4493096829847437   -0.10185981451340745   -0.010971882198875973
-0.4493096829847437   -0.10185981451340745   -0.010971882198875973
-0.4599425306236957   -0.05328167863764425   -0.025484502749181563
-0.4599425306236957   -0.05328167863764425   -0.025484502749181563
-0.4599425306236957   -0.05328167863764425   -0.025484502749181563
-0.4599425306236957   -0.05328167863764425   -0.025484502749181563
-0.4446148112983777   0.06296533882903736   0.04129078593891816
-0.4446148112983777   0.06296533882903736   0.04129078593891816
-0.4446148112983777   0.06296533882903736   0.04129078593891816
-0.4446148112983777   0.06296533882903736   0.04129078593891816
-0.47443275176322247   -0.03784008919615607   -0.04291975980199427
-0.47443275176322247   -0.03784008919615607   -0.04291975980199427
-0.47443275176322247   -0.03784008919615607   -0.04291975980199427
-0.47443275176322247   -0.03784008919615607   -0.04291975980199427
-0.46367888190618056   0.04492083288082806   0.04588223913685604
-0.46367888190618056   0.04492083288082806   0.04588223913685604
-0.46367888190618056   0.04492083288082806   0.04588223913685604
-0.46367888190618056   0.04492083288082806   0.04588223913685604
-0.4811285371618097   -0.04876551648843758   -0.02623293657180254
-0.4811285371618097   -0.04876551648843758   -0.02623293657180254
-0.4811285371618097   -0.04876551648843758   -0.02623293657180254
-0.4811285371618097   -0.04876551648843758   -0.02623293657180254
-0.45014323103672665   0.011296450403629837   0.0016874544605458737
-0.45014323103672665   0.011296450403629837   0.0016874544605458737
-0.45014323103672665   0.011296450403629837   0.0016874544605458737
-0.45014323103672665   0.011296450403629837   0.0016874544605458737
-0.44684985413811995   0.04865765251559345   0.04773730954262239
-0.44684985413811995   0.04865765251559345   0.04773730954262239
-0.44684985413811995   0.04865765251559345   0.04773730954262239
-0.44684985413811995   0.04865765251559345   0.04773730954262239
-0.5004991581034357   -0.05504392929676723   -0.03825437967182465
-0.5004991581034357   -0.05504392929676723   -0.03825437967182465
-0.5004991581034357   -0.05504392929676723   -0.03825437967182465
-0.5004991581034357   -0.05504392929676723   -0.03825437967182465
-0.48410313836055846   0.03308418640889155   0.05908493672582292
-0.48410313836055846   0.03308418640889155   0.05908493672582292
-0.48410313836055846   0.03308418640889155   0.05908493672582292
-0.48410313836055846   0.03308418640889155   0.05908493672582292
-0.48749810144134376   -0.058038275134086124   -0.02394815281533786
-0.48749810144134376   -0.058038275134086124   -0.02394815281533786
-0.48749810144134376   -0.058038275134086124   -0.02394815281533786
-0.48749810144134376   -0.058038275134086124   -0.02394815281533786
-0.4721338161170166   -0.0030516979548965567   -0.010155159939632494
-0.4721338161170166   -0.0030516979548965567   -0.010155159939632494
-0.4721338161170166   -0.0030516979548965567   -0.010155159939632494
-0.4721338161170166   -0.0030516979548965567   -0.010155159939632494
-0.45184138263165535   0.03914915285775805   0.05714801324125228
-0.45184138263165535   0.03914915285775805   0.05714801324125228
-0.45184138263165535   0.03914915285775805   0.05714801324125228
-0.45184138263165535   0.03914915285775805   0.05714801324125228
-0.5230764037547745   -0.06741978816748154   -0.035277415668884184
-0.5230764037547745   -0.06741978816748154   -0.035277415668884184
-0.5230764037547745   -0.06741978816748154   -0.035277415668884184
-0.5230764037547745   -0.06741978816748154   -0.035277415668884184
-0.5201950003118583   0.00287334848697679   0.06313964859457333
-0.5201950003118583   0.00287334848697679   0.06313964859457333
-0.5201950003118583   0.00287334848697679   0.06313964859457333
-0.5201950003118583   0.00287334848697679   0.06313964859457333
-0.4933038161655496   -0.07551790507830398   -0.02081565323025251
-0.4933038161655496   -0.07551790507830398   -0.02081565323025251
-0.4933038161655496   -0.07551790507830398   -0.02081565323025251
-0.4933038161655496   -0.07551790507830398   -0.02081565323025251
-0.4825662435192979   -0.016242705350702116   -0.02084963075140288
-0.4825662435192979   -0.016242705350702116   -0.02084963075140288
-0.4825662435192979   -0.016242705350702116   -0.02084963075140288
-0.4825662435192979   -0.016242705350702116   -0.02084963075140288
-0.9594384275643445   -0.08760821533572241   -0.09013938427217849
-0.9594384275643445   -0.08760821533572241   -0.09013938427217849
-0.9594384275643445   -0.08760821533572241   -0.09013938427217849
-0.9594384275643445   -0.08760821533572241   -0.09013938427217849
-0.6077776755795086   0.05221104318288902   0.021276627738618402
-0.6077776755795086   0.05221104318288902   0.021276627738618402
-0.6077776755795086   0.05221104318288902   0.021276627738618402
-0.6077776755795086   0.05221104318288902   0.021276627738618402
-0.6381156869287209   -0.040004879888920056   -0.04012788035261959
-0.6381156869287209   -0.040004879888920056   -0.04012788035261959
-0.6381156869287209   -0.040004879888920056   -0.04012788035261959
-0.6381156869287209   -0.040004879888920056   -0.04012788035261959
-1.0195848450065985   -0.11435768861933948   0.10121854031330281
-1.0195848450065985   -0.11435768861933948   0.10121854031330281
-1.0195848450065985   -0.11435768861933948   0.10121854031330281
-1.0195848450065985   -0.11435768861933948   0.10121854031330281
-0.741282560944284   -0.028045161273487718   0.0980588477881337
-0.741282560944284   -0.028045161273487718   0.0980588477881337
-0.741282560944284   -0.028045161273487718   0.0980588477881337
-0.741282560944284   -0.028045161273487718   0.0980588477881337
-1.0559014143280359   -0.1287340402340852   -0.06598795467913045
-1.0559014143280359   -0.1287340402340852   -0.06598795467913045
-1.0559014143280359   -0.1287340402340852   -0.06598795467913045
-1.0559014143280359   -0.1287340402340852   -0.06598795467913045
-0.6273271822315621   -0.051156592898451564   0.02496635614270605
-0.6273271822315621   -0.051156592898451564   0.02496635614270605
-0.6273271822315621   -0.051156592898451564   0.02496635614270605
-0.6273271822315621   -0.051156592898451564   0.02496635614270605
-0.6477234675738415   -0.05811787614189362   -0.028747339919537318
-0.6477234675738415   -0.05811787614189362   -0.028747339919537318
-0.6477234675738415   -0.05811787614189362   -0.028747339919537318
-0.6477234675738415   -0.05811787614189362   -0.028747339919537318
-1.051776378239163   -0.15985898236356652   0.0026386615294034157
-1.051776378239163   -0.15985898236356652   0.0026386615294034157
-1.051776378239163   -0.15985898236356652   0.0026386615294034157
-1.051776378239163   -0.15985898236356652   0.0026386615294034157
-0.820362932717725   -0.09646444801517873   0.02260839976140879
-0.820362932717725   -0.09646444801517873   0.02260839976140879
-0.820362932717725   -0.09646444801517873   0.02260839976140879
-0.820362932717725   -0.09646444801517873   0.02260839976140879
-1.0600337992319389   -0.14544329970767647   -0.05306412609035445
-1.0600337992319389   -0.14544329970767647   -0.05306412609035445
-1.0600337992319389   -0.14544329970767647   -0.05306412609035445
-1.0600337992319389   -0.14544329970767647   -0.05306412609035445
-0.6472175314369936   -0.08028504365371048   -0.004050491723485991
-0.6472175314369936   -0.08028504365371048   -0.004050491723485991
-0.6472175314369936   -0.08028504365371048   -0.004050491723485991
-0.6472175314369936   -0.08028504365371048   -0.004050491723485991
-0.6479887883267899   -0.10204350501408041   -0.02089992957570866
-0.6479887883267899   -0.10204350501408041   -0.02089992957570866
-0.6479887883267899   -0.10204350501408041   -0.02089992957570866
-0.6479887883267899   -0.10204350501408041   -0.02089992957570866
-1.0766270454365952   -0.24425053022791343   0.01623244813225418
-1.0766270454365952   -0.24425053022791343   0.01623244813225418
-1.0766270454365952   -0.24425053022791343   0.01623244813225418
-1.0766270454365952   -0.24425053022791343   0.01623244813225418
-0.8192700525569883   -0.13264706681603114   0.0016377792927175974
-0.8192700525569883   -0.13264706681603114   0.0016377792927175974
-0.8192700525569883   -0.13264706681603114   0.0016377792927175974
-0.8192700525569883   -0.13264706681603114   0.0016377792927175974
-0.656324808530811   -0.1112327209497884   -0.05801527288521107
-0.656324808530811   -0.1112327209497884   -0.05801527288521107
-0.656324808530811   -0.1112327209497884   -0.05801527288521107
-0.656324808530811   -0.1112327209497884   -0.05801527288521107
-0.45029068208558276   -0.29028941067414377   -0.054459182119853705
-0.45029068208558276   -0.29028941067414377   -0.054459182119853705
-0.45029068208558276   -0.29028941067414377   -0.054459182119853705
-0.45029068208558276   -0.29028941067414377   -0.054459182119853705
-0.39555742767493557   -0.06455662965697723   -0.003370725010596985
-0.39555742767493557   -0.06455662965697723   -0.003370725010596985
-0.39555742767493557   -0.06455662965697723   -0.003370725010596985
-0.39555742767493557   -0.06455662965697723   -0.003370725010596985
-0.6974535834652908   -0.3081012337077276   -0.06872100921666136
-0.6974535834652908   -0.3081012337077276   -0.06872100921666136
-0.6974535834652908   -0.3081012337077276   -0.06872100921666136
-0.6974535834652908   -0.3081012337077276   -0.06872100921666136
-0.5435100671372113   -0.20546024633237747   -0.015823805922539527
-0.5435100671372113   -0.20546024633237747   -0.015823805922539527
-0.5435100671372113   -0.20546024633237747   -0.015823805922539527
-0.5435100671372113   -0.20546024633237747   -0.015823805922539527
-0.6557518360605316   -0.1246533895934129   -0.0436601163071792
-0.6557518360605316   -0.1246533895934129   -0.0436601163071792
-0.6557518360605316   -0.1246533895934129   -0.0436601163071792
-0.6557518360605316   -0.1246533895934129   -0.0436601163071792
-0.4399212532964848   -0.2506665519880824   -0.03907993078724164
-0.4399212532964848   -0.2506665519880824   -0.03907993078724164
-0.4399212532964848   -0.2506665519880824   -0.03907993078724164
-0.4399212532964848   -0.2506665519880824   -0.03907993078724164
-0.3998687645543068   -0.08368455172968771   0.0006980216881313478
-0.3998687645543068   -0.08368455172968771   0.0006980216881313478
-0.3998687645543068   -0.08368455172968771   0.0006980216881313478
-0.3998687645543068   -0.08368455172968771   0.0006980216881313478
-0.6997704881378144   -0.3065077770187056   -0.0405925418625952
-0.6997704881378144   -0.3065077770187056   -0.0405925418625952
-0.6997704881378144   -0.3065077770187056   -0.0405925418625952
-0.6997704881378144   -0.3065077770187056   -0.0405925418625952
-0.5373467543616467   -0.19259382623101934   -0.01680960013737825
-0.5373467543616467   -0.19259382623101934   -0.01680960013737825
-0.5373467543616467   -0.19259382623101934   -0.01680960013737825
-0.5373467543616467   -0.19259382623101934   -0.01680960013737825
-0.665595992086169   -0.14351264108191678   -0.03271519754115178
-0.665595992086169   -0.14351264108191678   -0.03271519754115178
-0.665595992086169   -0.14351264108191678   -0.03271519754115178
-0.665595992086169   -0.14351264108191678   -0.03271519754115178
-0.43954058074792496   -0.25217700780844904   -0.029168603201202042
-0.43954058074792496   -0.25217700780844904   -0.029168603201202042
-0.43954058074792496   -0.25217700780844904   -0.029168603201202042
-0.43954058074792496   -0.25217700780844904   -0.029168603201202042
-0.39949699424740237   -0.10755282653597228   0.0065142012843132854
-0.39949699424740237   -0.10755282653597228   0.0065142012843132854
-0.39949699424740237   -0.10755282653597228   0.0065142012843132854
-0.39949699424740237   -0.10755282653597228   0.0065142012843132854
-0.697828567314195   -0.31168886613219837   -0.060453463394623846
-0.697828567314195   -0.31168886613219837   -0.060453463394623846
-0.697828567314195   -0.31168886613219837   -0.060453463394623846
-0.697828567314195   -0.31168886613219837   -0.060453463394623846
-0.545240591960839   -0.20720262253594188   -0.0312053031737517
-0.545240591960839   -0.20720262253594188   -0.0312053031737517
-0.545240591960839   -0.20720262253594188   -0.0312053031737517
-0.545240591960839   -0.20720262253594188   -0.0312053031737517
-0.396650683409667   -0.07155879099022597   -0.004989808424192898
-0.396650683409667   -0.07155879099022597   -0.004989808424192898
-0.396650683409667   -0.07155879099022597   -0.004989808424192898
-0.396650683409667   -0.07155879099022597   -0.004989808424192898
-0.3319888633113028   -0.22195369259811587   -0.03831724109841791
-0.3319888633113028   -0.22195369259811587   -0.03831724109841791
-0.3319888633113028   -0.22195369259811587   -0.03831724109841791
-0.3319888633113028   -0.22195369259811587   -0.03831724109841791
-0.28606848459304124   -0.05927035664824765   0.015333333179917082
-0.28606848459304124   -0.05927035664824765   0.015333333179917082
-0.28606848459304124   -0.05927035664824765   0.015333333179917082
-0.28606848459304124   -0.05927035664824765   0.015333333179917082
-0.43874385319873244   -0.2414729567324227   -0.04238652555413969
-0.43874385319873244   -0.2414729567324227   -0.04238652555413969
-0.43874385319873244   -0.2414729567324227   -0.04238652555413969
-0.43874385319873244   -0.2414729567324227   -0.04238652555413969
-0.36175205444647407   -0.1506658584155301   -0.017692037398109973
-0.36175205444647407   -0.1506658584155301   -0.017692037398109973
-0.36175205444647407   -0.1506658584155301   -0.017692037398109973
-0.36175205444647407   -0.1506658584155301   -0.017692037398109973
-0.39877846344065904   -0.08473793812749474   0.000705404631299502
-0.39877846344065904   -0.08473793812749474   0.000705404631299502
-0.39877846344065904   -0.08473793812749474   0.000705404631299502
-0.39877846344065904   -0.08473793812749474   0.000705404631299502
-0.32838744841964507   -0.21835894932170602   -0.03717289327964378
-0.32838744841964507   -0.21835894932170602   -0.03717289327964378
-0.32838744841964507   -0.21835894932170602   -0.03717289327964378
-0.32838744841964507   -0.21835894932170602   -0.03717289327964378
-0.2859790057626217   -0.074986001249012   0.019858500889666304
-0.2859790057626217   -0.074986001249012   0.019858500889666304
-0.2859790057626217   -0.074986001249012   0.019858500889666304
-0.2859790057626217   -0.074986001249012   0.019858500889666304
-0.4399341076825994   -0.24530337868014596   -0.03800986700287736
-0.4399341076825994   -0.24530337868014596   -0.03800986700287736
-0.4399341076825994   -0.24530337868014596   -0.03800986700287736
-0.4399341076825994   -0.24530337868014596   -0.03800986700287736
-0.36094239062149136   -0.15660239854231728   -0.02295384598182566
-0.36094239062149136   -0.15660239854231728   -0.02295384598182566
-0.36094239062149136   -0.15660239854231728   -0.02295384598182566
-0.36094239062149136   -0.15660239854231728   -0.02295384598182566
-0.4019232136159476   -0.10066524838963616   0.007406473039871468
-0.4019232136159476   -0.10066524838963616   0.007406473039871468
-0.4019232136159476   -0.10066524838963616   0.007406473039871468
-0.4019232136159476   -0.10066524838963616   0.007406473039871468
-0.32528142839824925   -0.2209156601084989   -0.030723953428984513
-0.32528142839824925   -0.2209156601084989   -0.030723953428984513
-0.32528142839824925   -0.2209156601084989   -0.030723953428984513
-0.32528142839824925   -0.2209156601084989   -0.030723953428984513
-0.2823950729311914   -0.09001400180716948   0.024780202353082082
-0.2823950729311914   -0.09001400180716948   0.024780202353082082
-0.2823950729311914   -0.09001400180716948   0.024780202353082082
-0.2823950729311914   -0.09001400180716948   0.024780202353082082
-0.4344664834530163   -0.24847307424933524   -0.02741299703039768
-0.4344664834530163   -0.24847307424933524   -0.02741299703039768
-0.4344664834530163   -0.24847307424933524   -0.02741299703039768
-0.4344664834530163   -0.24847307424933524   -0.02741299703039768
-0.3596489996191569   -0.16439265735917938   -0.02657797096888704
-0.3596489996191569   -0.16439265735917938   -0.02657797096888704
-0.3596489996191569   -0.16439265735917938   -0.02657797096888704
-0.3596489996191569   -0.16439265735917938   -0.02657797096888704
-0.2765044097070146   -0.009957404301554298   0.027108738626461158
-0.2765044097070146   -0.009957404301554298   0.027108738626461158
-0.2765044097070146   -0.009957404301554298   0.027108738626461158
-0.2765044097070146   -0.009957404301554298   0.027108738626461158
-0.2607114891012532   -0.11733945944193458   -0.022870243222847475
-0.2607114891012532   -0.11733945944193458   -0.022870243222847475
-0.2607114891012532   -0.11733945944193458   -0.022870243222847475
-0.2607114891012532   -0.11733945944193458   -0.022870243222847475
-0.2246139548433755   -0.017008318321910774   0.03142141952518946
-0.2246139548433755   -0.017008318321910774   0.03142141952518946
-0.2246139548433755   -0.017008318321910774   0.03142141952518946
-0.2246139548433755   -0.017008318321910774   0.03142141952518946
-0.30768788263964875   -0.1358064227140866   -0.016227590987281482
-0.30768788263964875   -0.1358064227140866   -0.016227590987281482
-0.30768788263964875   -0.1358064227140866   -0.016227590987281482
-0.30768788263964875   -0.1358064227140866   -0.016227590987281482
-0.2682778303639918   -0.06939307954267727   -0.009587867135454061
-0.2682778303639918   -0.06939307954267727   -0.009587867135454061
-0.2682778303639918   -0.06939307954267727   -0.009587867135454061
-0.2682778303639918   -0.06939307954267727   -0.009587867135454061
-0.27651184126771694   -0.027419117400132354   0.031265310558423
-0.27651184126771694   -0.027419117400132354   0.031265310558423
-0.27651184126771694   -0.027419117400132354   0.031265310558423
-0.27651184126771694   -0.027419117400132354   0.031265310558423
-0.25828579741702873   -0.12789142483758648   -0.02605468682740079
-0.25828579741702873   -0.12789142483758648   -0.02605468682740079
-0.25828579741702873   -0.12789142483758648   -0.02605468682740079
-0.25828579741702873   -0.12789142483758648   -0.02605468682740079
-0.2247572428614828   -0.03222464638431785   0.03376274465058817
-0.2247572428614828   -0.03222464638431785   0.03376274465058817
-0.2247572428614828   -0.03222464638431785   0.03376274465058817
-0.2247572428614828   -0.03222464638431785   0.03376274465058817
-0.3073911473858051   -0.1440719710556065   -0.018116237419656032
-0.3073911473858051   -0.1440719710556065   -0.018116237419656032
-0.3073911473858051   -0.1440719710556065   -0.018116237419656032
-0.3073911473858051   -0.1440719710556065   -0.018116237419656032
-0.266935049033714   -0.08162765677234526   -0.01625866847843085
-0.266935049033714   -0.08162765677234526   -0.01625866847843085
-0.266935049033714   -0.08162765677234526   -0.01625866847843085
-0.266935049033714   -0.08162765677234526   -0.01625866847843085
-0.2762715978345525   -0.04216513204404237   0.035574671325035286
-0.2762715978345525   -0.04216513204404237   0.035574671325035286
-0.2762715978345525   -0.04216513204404237   0.035574671325035286
-0.2762715978345525   -0.04216513204404237   0.035574671325035286
-0.2573873755236451   -0.135642068506793   -0.025970496537748355
-0.2573873755236451   -0.135642068506793   -0.025970496537748355
-0.2573873755236451   -0.135642068506793   -0.025970496537748355
-0.2573873755236451   -0.135642068506793   -0.025970496537748355
-0.22263689204656073   -0.04650689308765771   0.039119933991674315
-0.22263689204656073   -0.04650689308765771   0.039119933991674315
-0.22263689204656073   -0.04650689308765771   0.039119933991674315
-0.22263689204656073   -0.04650689308765771   0.039119933991674315
-0.30230158528730167   -0.15235125704128594   -0.012415104193352691
-0.30230158528730167   -0.15235125704128594   -0.012415104193352691
-0.30230158528730167   -0.15235125704128594   -0.012415104193352691
-0.30230158528730167   -0.15235125704128594   -0.012415104193352691
-0.2659225937830111   -0.09212057120751521   -0.020873809914964885
-0.2659225937830111   -0.09212057120751521   -0.020873809914964885
-0.2659225937830111   -0.09212057120751521   -0.020873809914964885
-0.2659225937830111   -0.09212057120751521   -0.020873809914964885
-0.21813941861057035   0.030443882793749724   0.04220676699488259
-0.21813941861057035   0.030443882793749724   0.04220676699488259
-0.21813941861057035   0.030443882793749724   0.04220676699488259
-0.21813941861057035   0.030443882793749724   0.04220676699488259
-0.1439390751371344   -0.03847694107974051   -0.01401691340287461
-0.1439390751371344   -0.03847694107974051   -0.01401691340287461
-0.1439390751371344   -0.03847694107974051   -0.01401691340287461
-0.1439390751371344   -0.03847694107974051   -0.01401691340287461
-0.12535713727832987   0.03596669478068955   0.04165671989035336
-0.12535713727832987   0.03596669478068955   0.04165671989035336
-0.12535713727832987   0.03596669478068955   0.04165671989035336
-0.12535713727832987   0.03596669478068955   0.04165671989035336
-0.2407789217753921   -0.059163246322929755   -0.007248487133874376
-0.2407789217753921   -0.059163246322929755   -0.007248487133874376
-0.2407789217753921   -0.059163246322929755   -0.007248487133874376
-0.2407789217753921   -0.059163246322929755   -0.007248487133874376
-0.1795957557168408   -0.003742648628415897   -0.007681719239283631
-0.1795957557168408   -0.003742648628415897   -0.007681719239283631
-0.1795957557168408   -0.003742648628415897   -0.007681719239283631
-0.1795957557168408   -0.003742648628415897   -0.007681719239283631
-0.2144778887716922   0.019024905680237902   0.04606852588145744
-0.2144778887716922   0.019024905680237902   0.04606852588145744
-0.2144778887716922   0.019024905680237902   0.04606852588145744
-0.2144778887716922   0.019024905680237902   0.04606852588145744
-0.15190059599532652   -0.042463882935772274   -0.012629995978152536
-0.15190059599532652   -0.042463882935772274   -0.012629995978152536
-0.15190059599532652   -0.042463882935772274   -0.012629995978152536
-0.15190059599532652   -0.042463882935772274   -0.012629995978152536
-0.1307674759345173   0.028580863598551286   0.05241691534102274
-0.1307674759345173   0.028580863598551286   0.05241691534102274
-0.1307674759345173   0.028580863598551286   0.05241691534102274
-0.1307674759345173   0.028580863598551286   0.05241691534102274
-0.2395188459866128   -0.06295575482131602   -0.009314162538063806
-0.2395188459866128   -0.06295575482131602   -0.009314162538063806
-0.2395188459866128   -0.06295575482131602   -0.009314162538063806
-0.2395188459866128   -0.06295575482131602   -0.009314162538063806
-0.18477009317520154   -0.011812986069190144   -0.010767020503038438
-0.18477009317520154   -0.011812986069190144   -0.010767020503038438
-0.18477009317520154   -0.011812986069190144   -0.010767020503038438
-0.18477009317520154   -0.011812986069190144   -0.010767020503038438
-0.21196105092310533   0.012468814270217211   0.053050243687940375
-0.21196105092310533   0.012468814270217211   0.053050243687940375
-0.21196105092310533   0.012468814270217211   0.053050243687940375
-0.21196105092310533   0.012468814270217211   0.053050243687940375
-0.16021177652325047   -0.0487302110182102   -0.017493512985897068
-0.16021177652325047   -0.0487302110182102   -0.017493512985897068
-0.16021177652325047   -0.0487302110182102   -0.017493512985897068
-0.16021177652325047   -0.0487302110182102   -0.017493512985897068
-0.14967789421941113   0.008278811178449138   0.05454200610737464
-0.14967789421941113   0.008278811178449138   0.05454200610737464
-0.14967789421941113   0.008278811178449138   0.05454200610737464
-0.14967789421941113   0.008278811178449138   0.05454200610737464
-0.23598619880754115   -0.06630970450643038   -0.007823788394455237
-0.23598619880754115   -0.06630970450643038   -0.007823788394455237
-0.23598619880754115   -0.06630970450643038   -0.007823788394455237
-0.23598619880754115   -0.06630970450643038   -0.007823788394455237
-0.18720155098659313   -0.01762526407646395   -0.015811477612184117
-0.18720155098659313   -0.01762526407646395   -0.015811477612184117
-0.18720155098659313   -0.01762526407646395   -0.015811477612184117
-0.18720155098659313   -0.01762526407646395   -0.015811477612184117
-2.258571628283049   -0.3197338839887134   -0.18765405541586092
-2.258571628283049   -0.3197338839887134   -0.18765405541586092
-2.258571628283049   -0.3197338839887134   -0.18765405541586092
-2.258571628283049   -0.3197338839887134   -0.18765405541586092
-0.7834054323149915   -1.2295733402431734   -0.14694265979359145
-0.7834054323149915   -1.2295733402431734   -0.14694265979359145
-0.7834054323149915   -1.2295733402431734   -0.14694265979359145
-0.7834054323149915   -1.2295733402431734   -0.14694265979359145
-0.6058631991548754   -0.051680838160689524   0.0008811467548294621
-0.6058631991548754   -0.051680838160689524   0.0008811467548294621
-0.6058631991548754   -0.051680838160689524   0.0008811467548294621
-0.6058631991548754   -0.051680838160689524   0.0008811467548294621
-2.4107687099652515   -1.4458864907780338   -0.771331040148657
-2.4107687099652515   -1.4458864907780338   -0.771331040148657
-2.4107687099652515   -1.4458864907780338   -0.771331040148657
-2.4107687099652515   -1.4458864907780338   -0.771331040148657
-1.4768083943642083   -0.7193881197010156   -0.10481467046738499
-1.4768083943642083   -0.7193881197010156   -0.10481467046738499
-1.4768083943642083   -0.7193881197010156   -0.10481467046738499
-1.4768083943642083   -0.7193881197010156   -0.10481467046738499
-2.098616530319547   -0.40141588357018937   -0.2550407491279976
-2.098616530319547   -0.40141588357018937   -0.2550407491279976
-2.098616530319547   -0.40141588357018937   -0.2550407491279976
-2.098616530319547   -0.40141588357018937   -0.2550407491279976
-0.8458766022781937   -1.02401266884615   -0.22685403817629587
-0.8458766022781937   -1.02401266884615   -0.22685403817629587
-0.8458766022781937   -1.02401266884615   -0.22685403817629587
-0.8458766022781937   -1.02401266884615   -0.22685403817629587
-0.617973296387693   -0.06897125825095743   0.023274200240978753
-0.617973296387693   -0.06897125825095743   0.023274200240978753
-0.617973296387693   -0.06897125825095743   0.023274200240978753
-0.617973296387693   -0.06897125825095743   0.023274200240978753
-2.2558570838412115   -1.2894659073425718   -0.7090645982367566
-2.2558570838412115   -1.2894659073425718   -0.7090645982367566
-2.2558570838412115   -1.2894659073425718   -0.7090645982367566
-2.2558570838412115   -1.2894659073425718   -0.7090645982367566
-1.3909055093521707   -0.6485984671744697   0.05637363478062174
-1.3909055093521707   -0.6485984671744697   0.05637363478062174
-1.3909055093521707   -0.6485984671744697   0.05637363478062174
-1.3909055093521707   -0.6485984671744697   0.05637363478062174
-1.9706187240716189   -0.382185770985179   -0.19015293574620304
-1.9706187240716189   -0.382185770985179   -0.19015293574620304
-1.9706187240716189   -0.382185770985179   -0.19015293574620304
-1.9706187240716189   -0.382185770985179   -0.19015293574620304
-0.8230639663345474   -0.8961037047856139   -0.1750467029586309
-0.8230639663345474   -0.8961037047856139   -0.1750467029586309
-0.8230639663345474   -0.8961037047856139   -0.1750467029586309
-0.8230639663345474   -0.8961037047856139   -0.1750467029586309
-0.7098862291675183   -0.18151489698783027   -0.03683020193641473
-0.7098862291675183   -0.18151489698783027   -0.03683020193641473
-0.7098862291675183   -0.18151489698783027   -0.03683020193641473
-0.7098862291675183   -0.18151489698783027   -0.03683020193641473
-2.056000916704541   -1.0833489969860055   -0.6278699827381093
-2.056000916704541   -1.0833489969860055   -0.6278699827381093
-2.056000916704541   -1.0833489969860055   -0.6278699827381093
-2.056000916704541   -1.0833489969860055   -0.6278699827381093
-1.2883283361261042   -0.5622412192400568   0.23842636069364198
-1.2883283361261042   -0.5622412192400568   0.23842636069364198
-1.2883283361261042   -0.5622412192400568   0.23842636069364198
-1.2883283361261042   -0.5622412192400568   0.23842636069364198
-0.5803773369015737   -0.3147416748394225   -0.0466338481302568
-0.5803773369015737   -0.3147416748394225   -0.0466338481302568
-0.5803773369015737   -0.3147416748394225   -0.0466338481302568
-0.5803773369015737   -0.3147416748394225   -0.0466338481302568
-0.2680053949674112   -0.3874068862653467   -0.0662034059684453
-0.2680053949674112   -0.3874068862653467   -0.0662034059684453
-0.2680053949674112   -0.3874068862653467   -0.0662034059684453
-0.2680053949674112   -0.3874068862653467   -0.0662034059684453
-0.23660761808188072   -0.20095914190059397   0.006143484435596501
-0.23660761808188072   -0.20095914190059397   0.006143484435596501
-0.23660761808188072   -0.20095914190059397   0.006143484435596501
-0.23660761808188072   -0.20095914190059397   0.006143484435596501
-0.7092761148825243   -0.568051784821363   0.00018751477726397514
-0.7092761148825243   -0.568051784821363   0.00018751477726397514
-0.7092761148825243   -0.568051784821363   0.00018751477726397514
-0.7092761148825243   -0.568051784821363   0.00018751477726397514
-0.38112901427313783   -0.27558286124765774   0.12199562453641247
-0.38112901427313783   -0.27558286124765774   0.12199562453641247
-0.38112901427313783   -0.27558286124765774   0.12199562453641247
-0.38112901427313783   -0.27558286124765774   0.12199562453641247
-0.6602822909715113   -0.292918169552873   -0.029976980936167998
-0.6602822909715113   -0.292918169552873   -0.029976980936167998
-0.6602822909715113   -0.292918169552873   -0.029976980936167998
-0.6602822909715113   -0.292918169552873   -0.029976980936167998
-0.30558311358826573   -0.4960744287644565   -0.04361870623246228
-0.30558311358826573   -0.4960744287644565   -0.04361870623246228
-0.30558311358826573   -0.4960744287644565   -0.04361870623246228
-0.30558311358826573   -0.4960744287644565   -0.04361870623246228
-0.25545294783836864   -0.20826703379781014   0.006293633942436011
-0.25545294783836864   -0.20826703379781014   0.006293633942436011
-0.25545294783836864   -0.20826703379781014   0.006293633942436011
-0.25545294783836864   -0.20826703379781014   0.006293633942436011
-0.7437104205813907   -0.560637009092297   -0.1137456698861645
-0.7437104205813907   -0.560637009092297   -0.1137456698861645
-0.7437104205813907   -0.560637009092297   -0.1137456698861645
-0.7437104205813907   -0.560637009092297   -0.1137456698861645
-0.4542557600877216   -0.3536420205458972   0.05579143464217724
-0.4542557600877216   -0.3536420205458972   0.05579143464217724
-0.4542557600877216   -0.3536420205458972   0.05579143464217724
-0.4542557600877216   -0.3536420205458972   0.05579143464217724
-0.6812001907963217   -0.3058679293237602   -0.05596360072936138
-0.6812001907963217   -0.3058679293237602   -0.05596360072936138
-0.6812001907963217   -0.3058679293237602   -0.05596360072936138
-0.6812001907963217   -0.3058679293237602   -0.05596360072936138
-0.3160937706428133   -0.46116670658572345   -0.04401080729187405
-0.3160937706428133   -0.46116670658572345   -0.04401080729187405
-0.3160937706428133   -0.46116670658572345   -0.04401080729187405
-0.3160937706428133   -0.46116670658572345   -0.04401080729187405
-0.28448041338357577   -0.21507580864633144   0.009263670104091501
-0.28448041338357577   -0.21507580864633144   0.009263670104091501
-0.28448041338357577   -0.21507580864633144   0.009263670104091501
-0.28448041338357577   -0.21507580864633144   0.009263670104091501
-0.7949741043922783   -0.544647071195824   -0.09913740385221882
-0.7949741043922783   -0.544647071195824   -0.09913740385221882
-0.7949741043922783   -0.544647071195824   -0.09913740385221882
-0.7949741043922783   -0.544647071195824   -0.09913740385221882
-0.4751458134841391   -0.3332833480819958   0.059050091020795836
-0.4751458134841391   -0.3332833480819958   0.059050091020795836
-0.4751458134841391   -0.3332833480819958   0.059050091020795836
-0.4751458134841391   -0.3332833480819958   0.059050091020795836
-0.21204693926852536   -0.1875545519314578   0.013736538192094964
-0.21204693926852536   -0.1875545519314578   0.013736538192094964
-0.21204693926852536   -0.1875545519314578   0.013736538192094964
-0.21204693926852536   -0.1875545519314578   0.013736538192094964
-0.1292315499031179   -0.1202133988575608   -0.032288380289054355
-0.1292315499031179   -0.1202133988575608   -0.032288380289054355
-0.1292315499031179   -0.1202133988575608   -0.032288380289054355
-0.1292315499031179   -0.1202133988575608   -0.032288380289054355
-0.12543162754649695   -0.16755855997532748   0.013873232579100885
-0.12543162754649695   -0.16755855997532748   0.013873232579100885
-0.12543162754649695   -0.16755855997532748   0.013873232579100885
-0.12543162754649695   -0.16755855997532748   0.013873232579100885
-0.23369743964437634   -0.16533693968891897   -0.014927825588552657
-0.23369743964437634   -0.16533693968891897   -0.014927825588552657
-0.23369743964437634   -0.16533693968891897   -0.014927825588552657
-0.23369743964437634   -0.16533693968891897   -0.014927825588552657
-0.1479154085300445   -0.1351458534748943   0.06114935042961916
-0.1479154085300445   -0.1351458534748943   0.06114935042961916
-0.1479154085300445   -0.1351458534748943   0.06114935042961916
-0.1479154085300445   -0.1351458534748943   0.06114935042961916
-0.23244088807436156   -0.18877621673516742   0.014794209307765815
-0.23244088807436156   -0.18877621673516742   0.014794209307765815
-0.23244088807436156   -0.18877621673516742   0.014794209307765815
-0.23244088807436156   -0.18877621673516742   0.014794209307765815
-0.12869141680973759   -0.14612252062230555   -0.023861753090124227
-0.12869141680973759   -0.14612252062230555   -0.023861753090124227
-0.12869141680973759   -0.14612252062230555   -0.023861753090124227
-0.12869141680973759   -0.14612252062230555   -0.023861753090124227
-0.12671372195229863   -0.1725943747477901   0.01231476692860873
-0.12671372195229863   -0.1725943747477901   0.01231476692860873
-0.12671372195229863   -0.1725943747477901   0.01231476692860873
-0.12671372195229863   -0.1725943747477901   0.01231476692860873
-0.24795821537978846   -0.19301741393716493   0.02851767637469168
-0.24795821537978846   -0.19301741393716493   0.02851767637469168
-0.24795821537978846   -0.19301741393716493   0.02851767637469168
-0.24795821537978846   -0.19301741393716493   0.02851767637469168
-0.16063081112614322   -0.15054465706253348   0.0519206813450637
-0.16063081112614322   -0.15054465706253348   0.0519206813450637
-0.16063081112614322   -0.15054465706253348   0.0519206813450637
-0.16063081112614322   -0.15054465706253348   0.0519206813450637
-0.25021465019504296   -0.19576158009150824   0.019979668452762486
-0.25021465019504296   -0.19576158009150824   0.019979668452762486
-0.25021465019504296   -0.19576158009150824   0.019979668452762486
-0.25021465019504296   -0.19576158009150824   0.019979668452762486
-0.13517006844999133   -0.18056298990639402   -0.021998350401250928
-0.13517006844999133   -0.18056298990639402   -0.021998350401250928
-0.13517006844999133   -0.18056298990639402   -0.021998350401250928
-0.13517006844999133   -0.18056298990639402   -0.021998350401250928
-0.12793083342759204   -0.17822654720916983   0.017283988145012648
-0.12793083342759204   -0.17822654720916983   0.017283988145012648
-0.12793083342759204   -0.17822654720916983   0.017283988145012648
-0.12793083342759204   -0.17822654720916983   0.017283988145012648
-0.2896787436405893   -0.23775777437751955   0.005953984550211726
-0.2896787436405893   -0.23775777437751955   0.005953984550211726
-0.2896787436405893   -0.23775777437751955   0.005953984550211726
-0.2896787436405893   -0.23775777437751955   0.005953984550211726
-0.1791392048969747   -0.17172670489306363   0.024699586661486583
-0.1791392048969747   -0.17172670489306363   0.024699586661486583
-0.1791392048969747   -0.17172670489306363   0.024699586661486583
-0.1791392048969747   -0.17172670489306363   0.024699586661486583
-0.10641017199689673   -0.07465343774966304   0.03625854813415373
-0.10641017199689673   -0.07465343774966304   0.03625854813415373
-0.10641017199689673   -0.07465343774966304   0.03625854813415373
-0.10641017199689673   -0.07465343774966304   0.03625854813415373
-0.07424280663329702   0.0007181701115570802   -0.007225516159165948
-0.07424280663329702   0.0007181701115570802   -0.007225516159165948
-0.07424280663329702   0.0007181701115570802   -0.007225516159165948
-0.07424280663329702   0.0007181701115570802   -0.007225516159165948
-0.07048397433671692   -0.08061613805453606   0.02251992400753949
-0.07048397433671692   -0.08061613805453606   0.02251992400753949
-0.07048397433671692   -0.08061613805453606   0.02251992400753949
-0.07048397433671692   -0.08061613805453606   0.02251992400753949
-0.09831938999745442   -0.013384059262170388   -0.004740080388843581
-0.09831938999745442   -0.013384059262170388   -0.004740080388843581
-0.09831938999745442   -0.013384059262170388   -0.004740080388843581
-0.09831938999745442   -0.013384059262170388   -0.004740080388843581
-0.08080184546859157   -0.04047504916880019   0.017987269801267643
-0.08080184546859157   -0.04047504916880019   0.017987269801267643
-0.08080184546859157   -0.04047504916880019   0.017987269801267643
-0.08080184546859157   -0.04047504916880019   0.017987269801267643
-0.10489588610807794   -0.08516985770928541   0.034163237505153765
-0.10489588610807794   -0.08516985770928541   0.034163237505153765
-0.10489588610807794   -0.08516985770928541   0.034163237505153765
-0.10489588610807794   -0.08516985770928541   0.034163237505153765
-0.062039165329709815   -0.006962026711037463   -0.008910142300923555
-0.062039165329709815   -0.006962026711037463   -0.008910142300923555
-0.062039165329709815   -0.006962026711037463   -0.008910142300923555
-0.062039165329709815   -0.006962026711037463   -0.008910142300923555
-0.06446873237455648   -0.08771545660385774   0.020743919827839206
-0.06446873237455648   -0.08771545660385774   0.020743919827839206
-0.06446873237455648   -0.08771545660385774   0.020743919827839206
-0.06446873237455648   -0.08771545660385774   0.020743919827839206
-0.09888156595193993   -0.02703629085273697   0.005917463035349014
-0.09888156595193993   -0.02703629085273697   0.005917463035349014
-0.09888156595193993   -0.02703629085273697   0.005917463035349014
-0.09888156595193993   -0.02703629085273697   0.005917463035349014
-0.07398225879397739   -0.04636189037999201   0.02153678210744262
-0.07398225879397739   -0.04636189037999201   0.02153678210744262
-0.07398225879397739   -0.04636189037999201   0.02153678210744262
-0.07398225879397739   -0.04636189037999201   0.02153678210744262
-0.1053017309377757   -0.09222897569282028   0.03900932294624577
-0.1053017309377757   -0.09222897569282028   0.03900932294624577
-0.1053017309377757   -0.09222897569282028   0.03900932294624577
-0.1053017309377757   -0.09222897569282028   0.03900932294624577
-0.05857927564079601   -0.02305348001585101   -0.014470773091365123
-0.05857927564079601   -0.02305348001585101   -0.014470773091365123
-0.05857927564079601   -0.02305348001585101   -0.014470773091365123
-0.05857927564079601   -0.02305348001585101   -0.014470773091365123
-0.05367624589806495   -0.09558660386148052   0.022782822316430074
-0.05367624589806495   -0.09558660386148052   0.022782822316430074
-0.05367624589806495   -0.09558660386148052   0.022782822316430074
-0.05367624589806495   -0.09558660386148052   0.022782822316430074
-0.10629254221522147   -0.06053404652440513   0.007782943522100847
-0.10629254221522147   -0.06053404652440513   0.007782943522100847
-0.10629254221522147   -0.06053404652440513   0.007782943522100847
-0.10629254221522147   -0.06053404652440513   0.007782943522100847
-0.07096989209224577   -0.05857245440224153   0.018741867789600443
-0.07096989209224577   -0.05857245440224153   0.018741867789600443
-0.07096989209224577   -0.05857245440224153   0.018741867789600443
-0.07096989209224577   -0.05857245440224153   0.018741867789600443
-0.06830865182806976   -0.013262323451373927   0.03642575142990134
-0.06830865182806976   -0.013262323451373927   0.03642575142990134
-0.06830865182806976   -0.013262323451373927   0.03642575142990134
-0.06830865182806976   -0.013262323451373927   0.03642575142990134
-0.011693417145737302   0.008118530735207748   -0.0007352769508032755
-0.011693417145737302   0.008118530735207748   -0.0007352769508032755
-0.011693417145737302   0.008118530735207748   -0.0007352769508032755
-0.011693417145737302   0.008118530735207748   -0.0007352769508032755
0.0043273347349532185   -0.00419369399644703   0.02249301798820161
0.0043273347349532185   -0.00419369399644703   0.02249301798820161
0.0043273347349532185   -0.00419369399644703   0.02249301798820161
0.0043273347349532185   -0.00419369399644703   0.02249301798820161
-0.05821404401024736   0.006180696035182256   -0.002927258449830981
-0.05821404401024736   0.006180696035182256   -0.002927258449830981
-0.05821404401024736   0.006180696035182256   -0.002927258449830981
-0.05821404401024736   0.006180696035182256   -0.002927258449830981
-0.03405595419848619   -0.002527124676582072   -0.0028557651930186073
-0.03405595419848619   -0.002527124676582072   -0.0028557651930186073
-0.03405595419848619   -0.002527124676582072   -0.0028557651930186073
-0.03405595419848619   -0.002527124676582072   -0.0028557651930186073
-0.05384331472967354   -0.012754175574472585   0.03786125956269292
-0.05384331472967354   -0.012754175574472585   0.03786125956269292
-0.05384331472967354   -0.012754175574472585   0.03786125956269292
-0.05384331472967354   -0.012754175574472585   0.03786125956269292
0.0020042162672655062   0.016788788426095193   -0.010105056772779172
0.0020042162672655062   0.016788788426095193   -0.010105056772779172
0.0020042162672655062   0.016788788426095193   -0.010105056772779172
0.0020042162672655062   0.016788788426095193   -0.010105056772779172
0.012498139475045432   -0.005146895500787854   0.027713148602918732
0.012498139475045432   -0.005146895500787854   0.027713148602918732
0.012498139475045432   -0.005146895500787854   0.027713148602918732
0.012498139475045432   -0.005146895500787854   0.027713148602918732
-0.050966024860204164   0.004870924717131589   -0.004328923921388517
-0.050966024860204164   0.004870924717131589   -0.004328923921388517
-0.050966024860204164   0.004870924717131589   -0.004328923921388517
-0.050966024860204164   0.004870924717131589   -0.004328923921388517
-0.02209764659040706   -0.0005099120931720399   0.0036250383084733924
-0.02209764659040706   -0.0005099120931720399   0.0036250383084733924
-0.02209764659040706   -0.0005099120931720399   0.0036250383084733924
-0.02209764659040706   -0.0005099120931720399   0.0036250383084733924
-0.04579207247929237   -0.01422101256014896   0.040632775260451
-0.04579207247929237   -0.01422101256014896   0.040632775260451
-0.04579207247929237   -0.01422101256014896   0.040632775260451
-0.04579207247929237   -0.01422101256014896   0.040632775260451
0.00918090420209449   0.015801758884453548   -0.009821682147077376
0.00918090420209449   0.015801758884453548   -0.009821682147077376
0.00918090420209449   0.015801758884453548   -0.009821682147077376
0.00918090420209449   0.015801758884453548   -0.009821682147077376
0.020914221120065416   -0.007988871971602035   0.026879954352087555
0.020914221120065416   -0.007988871971602035   0.026879954352087555
0.020914221120065416   -0.007988871971602035   0.026879954352087555
0.020914221120065416   -0.007988871971602035   0.026879954352087555
-0.03906234676662587   0.005185337854588272   -0.0049196237424433365
-0.03906234676662587   0.005185337854588272   -0.0049196237424433365
-0.03906234676662587   0.005185337854588272   -0.0049196237424433365
-0.03906234676662587   0.005185337854588272   -0.0049196237424433365
-0.01138800333931177   0.0007913978667212268   0.009369319745000637
-0.01138800333931177   0.0007913978667212268   0.009369319745000637
-0.01138800333931177   0.0007913978667212268   0.009369319745000637
-0.01138800333931177   0.0007913978667212268   0.009369319745000637
              </DataArray>   
             <DataArray type="Float64" NumberOfComponents="3" Name="Displacements" format="ascii">   
0.0   0.0   0.0
-0.006283313862668967   -0.0041194364926830295   -0.0021046589055699295
0.0   0.0   0.0
0.0   0.0   0.0
-0.006283313862668967   -0.0041194364926830295   -0.0021046589055699295
-0.003998621041038967   -0.003701450665894534   -0.0015462695827691754
0.0   0.0   0.0
-0.003919847921212252   -0.003887367262656982   -0.0012953571749367754
0.0   0.0   0.0
0.0   0.0   0.0
-0.003919847921212252   -0.003887367262656982   -0.0012953571749367754
0.0   0.0   0.0
0.0   0.0   0.0
-0.003919847921212252   -0.003887367262656982   -0.0012953571749367754
-0.006576164546350518   -0.004388807695126692   -0.0016896178275340001
-0.006283313862668967   -0.0041194364926830295   -0.0021046589055699295
0.0   0.0   0.0
-0.003919847921212252   -0.003887367262656982   -0.0012953571749367754
-0.006283313862668967   -0.0041194364926830295   -0.0021046589055699295
0.0   0.0   0.0
0.0   0.0   0.0
-0.006576164546350518   -0.004388807695126692   -0.0016896178275340001
0.0   0.0   0.0
0.0   0.0   0.0
-0.006576164546350518   -0.004388807695126692   -0.0016896178275340001
-0.003919847921212252   -0.003887367262656982   -0.0012953571749367754
0.0   0.0   0.0
-0.0039312341906465945   -0.003982605609615177   -0.0010447683963699555
0.0   0.0   0.0
0.0   0.0   0.0
-0.0039312341906465945   -0.003982605609615177   -0.0010447683963699555
0.0   0.0   0.0
0.0   0.0   0.0
-0.0039312341906465945   -0.003982605609615177   -0.0010447683963699555
-0.006781982945178622   -0.004519778807406735   -0.0012918721919029563
-0.006576164546350518   -0.004388807695126692   -0.0016896178275340001
0.0   0.0   0.0
-0.0039312341906465945   -0.003982605609615177   -0.0010447683963699555
-0.006576164546350518   -0.004388807695126692   -0.0016896178275340001
0.0   0.0   0.0
0.0   0.0   0.0
-0.006781982945178622   -0.004519778807406735   -0.0012918721919029563
0.0   0.0   0.0
0.0   0.0   0.0
-0.006781982945178622   -0.004519778807406735   -0.0012918721919029563
-0.0039312341906465945   -0.003982605609615177   -0.0010447683963699555
0.0   0.0   0.0
-0.00392954165819542   -0.004007025775844236   -0.0007856091420165243
0.0   0.0   0.0
0.0   0.0   0.0
-0.00392954165819542   -0.004007025775844236   -0.0007856091420165243
0.0   0.0   0.0
0.0   0.0   0.0
-0.00392954165819542   -0.004007025775844236   -0.0007856091420165243
-0.007225043396320515   -0.004618836715819802   -0.0008303839878926109
-0.006781982945178622   -0.004519778807406735   -0.0012918721919029563
0.0   0.0   0.0
-0.00392954165819542   -0.004007025775844236   -0.0007856091420165243
-0.006781982945178622   -0.004519778807406735   -0.0012918721919029563
0.0   0.0   0.0
0.0   0.0   0.0
-0.003998621041038967   -0.003701450665894534   -0.0015462695827691754
0.0   0.0   0.0
0.0   0.0   0.0
-0.003998621041038967   -0.003701450665894534   -0.0015462695827691754
-0.0018206101683570697   -0.0035480836406446897   -0.0011759822786905011
0.0   0.0   0.0
-0.0017513602979145498   -0.00366913325694962   -0.0010575689211671257
0.0   0.0   0.0
0.0   0.0   0.0
-0.0017513602979145498   -0.00366913325694962   -0.0010575689211671257
0.0   0.0   0.0
0.0   0.0   0.0
-0.0017513602979145498   -0.00366913325694962   -0.0010575689211671257
-0.003919847921212252   -0.003887367262656982   -0.0012953571749367754
-0.003998621041038967   -0.003701450665894534   -0.0015462695827691754
0.0   0.0   0.0
-0.0017513602979145498   -0.00366913325694962   -0.0010575689211671257
-0.003998621041038967   -0.003701450665894534   -0.0015462695827691754
0.0   0.0   0.0
0.0   0.0   0.0
-0.003919847921212252   -0.003887367262656982   -0.0012953571749367754
0.0   0.0   0.0
0.0   0.0   0.0
-0.003919847921212252   -0.003887367262656982   -0.0012953571749367754
-0.0017513602979145498   -0.00366913325694962   -0.0010575689211671257
0.0   0.0   0.0
-0.0017126029901399396   -0.00371525935446839   -0.0009422106242231742
0.0   0.0   0.0
0.0   0.0   0.0
-0.0017126029901399396   -0.00371525935446839   -0.0009422106242231742
0.0   0.0   0.0
0.0   0.0   0.0
-0.0017126029901399396   -0.00371525935446839   -0.0009422106242231742
-0.0039312341906465945   -0.003982605609615177   -0.0010447683963699555
-0.003919847921212252   -0.003887367262656982   -0.0012953571749367754
0.0   0.0   0.0
-0.0017126029901399396   -0.00371525935446839   -0.0009422106242231742
-0.003919847921212252   -0.003887367262656982   -0.0012953571749367754
0.0   0.0   0.0
0.0   0.0   0.0
-0.0039312341906465945   -0.003982605609615177   -0.0010447683963699555
0.0   0.0   0.0
0.0   0.0   0.0
-0.0039312341906465945   -0.003982605609615177   -0.0010447683963699555
-0.0017126029901399396   -0.00371525935446839   -0.0009422106242231742
0.0   0.0   0.0
-0.001677366204845925   -0.003695984399620415   -0.0008229122367392801
0.0   0.0   0.0
0.0   0.0   0.0
-0.001677366204845925   -0.003695984399620415   -0.0008229122367392801
0.0   0.0   0.0
0.0   0.0   0.0
-0.001677366204845925   -0.003695984399620415   -0.0008229122367392801
-0.00392954165819542   -0.004007025775844236   -0.0007856091420165243
-0.0039312341906465945   -0.003982605609615177   -0.0010447683963699555
0.0   0.0   0.0
-0.001677366204845925   -0.003695984399620415   -0.0008229122367392801
-0.0039312341906465945   -0.003982605609615177   -0.0010447683963699555
0.0   0.0   0.0
0.0   0.0   0.0
-0.0018206101683570697   -0.0035480836406446897   -0.0011759822786905011
0.0   0.0   0.0
0.0   0.0   0.0
-0.0018206101683570697   -0.0035480836406446897   -0.0011759822786905011
0.00023748435499720122   -0.0035676823396399186   -0.0009399425342335345
0.0   0.0   0.0
0.00028153271579632095   -0.0036304653700204377   -0.0009564229580366487
0.0   0.0   0.0
0.0   0.0   0.0
0.00028153271579632095   -0.0036304653700204377   -0.0009564229580366487
0.0   0.0   0.0
0.0   0.0   0.0
0.00028153271579632095   -0.0036304653700204377   -0.0009564229580366487
-0.0017513602979145498   -0.00366913325694962   -0.0010575689211671257
-0.0018206101683570697   -0.0035480836406446897   -0.0011759822786905011
0.0   0.0   0.0
0.00028153271579632095   -0.0036304653700204377   -0.0009564229580366487
-0.0018206101683570697   -0.0035480836406446897   -0.0011759822786905011
0.0   0.0   0.0
0.0   0.0   0.0
-0.0017513602979145498   -0.00366913325694962   -0.0010575689211671257
0.0   0.0   0.0
0.0   0.0   0.0
-0.0017513602979145498   -0.00366913325694962   -0.0010575689211671257
0.00028153271579632095   -0.0036304653700204377   -0.0009564229580366487
0.0   0.0   0.0
0.000316254644643092   -0.003625296906741647   -0.0009712774981966846
0.0   0.0   0.0
0.0   0.0   0.0
0.000316254644643092   -0.003625296906741647   -0.0009712774981966846
0.0   0.0   0.0
0.0   0.0   0.0
0.000316254644643092   -0.003625296906741647   -0.0009712774981966846
-0.0017126029901399396   -0.00371525935446839   -0.0009422106242231742
-0.0017513602979145498   -0.00366913325694962   -0.0010575689211671257
0.0   0.0   0.0
0.000316254644643092   -0.003625296906741647   -0.0009712774981966846
-0.0017513602979145498   -0.00366913325694962   -0.0010575689211671257
0.0   0.0   0.0
0.0   0.0   0.0
-0.0017126029901399396   -0.00371525935446839   -0.0009422106242231742
0.0   0.0   0.0
0.0   0.0   0.0
-0.0017126029901399396   -0.00371525935446839   -0.0009422106242231742
0.000316254644643092   -0.003625296906741647   -0.0009712774981966846
0.0   0.0   0.0
0.00036308324399043657   -0.0035465979479010487   -0.0009865057932116703
0.0   0.0   0.0
0.0   0.0   0.0
0.00036308324399043657   -0.0035465979479010487   -0.0009865057932116703
0.0   0.0   0.0
0.0   0.0   0.0
0.00036308324399043657   -0.0035465979479010487   -0.0009865057932116703
-0.001677366204845925   -0.003695984399620415   -0.0008229122367392801
-0.0017126029901399396   -0.00371525935446839   -0.0009422106242231742
0.0   0.0   0.0
0.00036308324399043657   -0.0035465979479010487   -0.0009865057932116703
-0.0017126029901399396   -0.00371525935446839   -0.0009422106242231742
0.0   0.0   0.0
0.0   0.0   0.0
0.00023748435499720122   -0.0035676823396399186   -0.0009399425342335345
0.0   0.0   0.0
0.0   0.0   0.0
0.00023748435499720122   -0.0035676823396399186   -0.0009399425342335345
0.0024712326984884314   -0.0037415915038024   -0.0008231076275050865
0.0   0.0   0.0
0.0024751726407191725   -0.0037616259478493327   -0.0009815234977756401
0.0   0.0   0.0
0.0   0.0   0.0
0.0024751726407191725   -0.0037616259478493327   -0.0009815234977756401
0.0   0.0   0.0
0.0   0.0   0.0
0.0024751726407191725   -0.0037616259478493327   -0.0009815234977756401
0.00028153271579632095   -0.0036304653700204377   -0.0009564229580366487
0.00023748435499720122   -0.0035676823396399186   -0.0009399425342335345
0.0   0.0   0.0
0.0024751726407191725   -0.0037616259478493327   -0.0009815234977756401
0.00023748435499720122   -0.0035676823396399186   -0.0009399425342335345
0.0   0.0   0.0
0.0   0.0   0.0
0.00028153271579632095   -0.0036304653700204377   -0.0009564229580366487
0.0   0.0   0.0
0.0   0.0   0.0
0.00028153271579632095   -0.0036304653700204377   -0.0009564229580366487
0.0024751726407191725   -0.0037616259478493327   -0.0009815234977756401
0.0   0.0   0.0
0.0024641803063742483   -0.0037079080947297676   -0.0011334550364600381
0.0   0.0   0.0
0.0   0.0   0.0
0.0024641803063742483   -0.0037079080947297676   -0.0011334550364600381
0.0   0.0   0.0
0.0   0.0   0.0
0.0024641803063742483   -0.0037079080947297676   -0.0011334550364600381
0.000316254644643092   -0.003625296906741647   -0.0009712774981966846
0.00028153271579632095   -0.0036304653700204377   -0.0009564229580366487
0.0   0.0   0.0
0.0024641803063742483   -0.0037079080947297676   -0.0011334550364600381
0.00028153271579632095   -0.0036304653700204377   -0.0009564229580366487
0.0   0.0   0.0
0.0   0.0   0.0
0.000316254644643092   -0.003625296906741647   -0.0009712774981966846
0.0   0.0   0.0
0.0   0.0   0.0
0.000316254644643092   -0.003625296906741647   -0.0009712774981966846
0.0024641803063742483   -0.0037079080947297676   -0.0011334550364600381
0.0   0.0   0.0
0.0025115278568158092   -0.0035639552806200725   -0.0012824619227766703
0.0   0.0   0.0
0.0   0.0   0.0
0.0025115278568158092   -0.0035639552806200725   -0.0012824619227766703
0.0   0.0   0.0
0.0   0.0   0.0
0.0025115278568158092   -0.0035639552806200725   -0.0012824619227766703
0.00036308324399043657   -0.0035465979479010487   -0.0009865057932116703
0.000316254644643092   -0.003625296906741647   -0.0009712774981966846
0.0   0.0   0.0
0.0025115278568158092   -0.0035639552806200725   -0.0012824619227766703
0.000316254644643092   -0.003625296906741647   -0.0009712774981966846
0.0   0.0   0.0
0.0   0.0   0.0
0.0024712326984884314   -0.0037415915038024   -0.0008231076275050865
0.0   0.0   0.0
0.0   0.0   0.0
0.0024712326984884314   -0.0037415915038024   -0.0008231076275050865
0.005576758508883059   -0.004182267046973302   -0.0007763962944612964
0.0   0.0   0.0
0.005236886073537434   -0.0041367146894282295   -0.0011354401688837693
0.0   0.0   0.0
0.0   0.0   0.0
0.005236886073537434   -0.0041367146894282295   -0.0011354401688837693
0.0   0.0   0.0
0.0   0.0   0.0
0.005236886073537434   -0.0041367146894282295   -0.0011354401688837693
0.0024751726407191725   -0.0037616259478493327   -0.0009815234977756401
0.0024712326984884314   -0.0037415915038024   -0.0008231076275050865
0.0   0.0   0.0
0.005236886073537434   -0.0041367146894282295   -0.0011354401688837693
0.0024712326984884314   -0.0037415915038024   -0.0008231076275050865
0.0   0.0   0.0
0.0   0.0   0.0
0.0024751726407191725   -0.0037616259478493327   -0.0009815234977756401
0.0   0.0   0.0
0.0   0.0   0.0
0.0024751726407191725   -0.0037616259478493327   -0.0009815234977756401
0.005236886073537434   -0.0041367146894282295   -0.0011354401688837693
0.0   0.0   0.0
0.0050799804543150955   -0.004050705835234078   -0.0014390263842115909
0.0   0.0   0.0
0.0   0.0   0.0
0.0050799804543150955   -0.004050705835234078   -0.0014390263842115909
0.0   0.0   0.0
0.0   0.0   0.0
0.0050799804543150955   -0.004050705835234078   -0.0014390263842115909
0.0024641803063742483   -0.0037079080947297676   -0.0011334550364600381
0.0024751726407191725   -0.0037616259478493327   -0.0009815234977756401
0.0   0.0   0.0
0.0050799804543150955   -0.004050705835234078   -0.0014390263842115909
0.0024751726407191725   -0.0037616259478493327   -0.0009815234977756401
0.0   0.0   0.0
0.0   0.0   0.0
0.0024641803063742483   -0.0037079080947297676   -0.0011334550364600381
0.0   0.0   0.0
0.0   0.0   0.0
0.0024641803063742483   -0.0037079080947297676   -0.0011334550364600381
0.0050799804543150955   -0.004050705835234078   -0.0014390263842115909
0.0   0.0   0.0
0.004846665778337938   -0.003830555176941899   -0.0017602173512787115
0.0   0.0   0.0
0.0   0.0   0.0
0.004846665778337938   -0.003830555176941899   -0.0017602173512787115
0.0   0.0   0.0
0.0   0.0   0.0
0.004846665778337938   -0.003830555176941899   -0.0017602173512787115
0.0025115278568158092   -0.0035639552806200725   -0.0012824619227766703
0.0024641803063742483   -0.0037079080947297676   -0.0011334550364600381
0.0   0.0   0.0
0.004846665778337938   -0.003830555176941899   -0.0017602173512787115
0.0024641803063742483   -0.0037079080947297676   -0.0011334550364600381
0.0   0.0   0.0
-0.006283313862668967   -0.0041194364926830295   -0.0021046589055699295
-0.011738174951866437   -0.011503482726857242   -0.0028354177589977
-0.003998621041038967   -0.003701450665894534   -0.0015462695827691754
-0.006576164546350518   -0.004388807695126692   -0.0016896178275340001
-0.011738174951866437   -0.011503482726857242   -0.0028354177589977
-0.007492127915141167   -0.011127479239735472   -0.0023336471756330475
-0.003998621041038967   -0.003701450665894534   -0.0015462695827691754
-0.00750144488002792   -0.011317743860466432   -0.0021015185417737575
-0.006576164546350518   -0.004388807695126692   -0.0016896178275340001
-0.003919847921212252   -0.003887367262656982   -0.0012953571749367754
-0.00750144488002792   -0.011317743860466432   -0.0021015185417737575
-0.003998621041038967   -0.003701450665894534   -0.0015462695827691754
-0.006576164546350518   -0.004388807695126692   -0.0016896178275340001
-0.00750144488002792   -0.011317743860466432   -0.0021015185417737575
-0.012090477128265139   -0.01176892796181127   -0.002458408196649233
-0.011738174951866437   -0.011503482726857242   -0.0028354177589977
-0.006576164546350518   -0.004388807695126692   -0.0016896178275340001
-0.00750144488002792   -0.011317743860466432   -0.0021015185417737575
-0.011738174951866437   -0.011503482726857242   -0.0028354177589977
-0.003998621041038967   -0.003701450665894534   -0.0015462695827691754
-0.006576164546350518   -0.004388807695126692   -0.0016896178275340001
-0.012090477128265139   -0.01176892796181127   -0.002458408196649233
-0.003919847921212252   -0.003887367262656982   -0.0012953571749367754
-0.006781982945178622   -0.004519778807406735   -0.0012918721919029563
-0.012090477128265139   -0.01176892796181127   -0.002458408196649233
-0.00750144488002792   -0.011317743860466432   -0.0021015185417737575
-0.003919847921212252   -0.003887367262656982   -0.0012953571749367754
-0.007531488929063471   -0.011433688536513633   -0.0018784223020597674
-0.006781982945178622   -0.004519778807406735   -0.0012918721919029563
-0.0039312341906465945   -0.003982605609615177   -0.0010447683963699555
-0.007531488929063471   -0.011433688536513633   -0.0018784223020597674
-0.003919847921212252   -0.003887367262656982   -0.0012953571749367754
-0.006781982945178622   -0.004519778807406735   -0.0012918721919029563
-0.007531488929063471   -0.011433688536513633   -0.0018784223020597674
-0.012335450401938348   -0.011918799628591058   -0.002089209821620418
-0.012090477128265139   -0.01176892796181127   -0.002458408196649233
-0.006781982945178622   -0.004519778807406735   -0.0012918721919029563
-0.007531488929063471   -0.011433688536513633   -0.0018784223020597674
-0.012090477128265139   -0.01176892796181127   -0.002458408196649233
-0.003919847921212252   -0.003887367262656982   -0.0012953571749367754
-0.006781982945178622   -0.004519778807406735   -0.0012918721919029563
-0.012335450401938348   -0.011918799628591058   -0.002089209821620418
-0.0039312341906465945   -0.003982605609615177   -0.0010447683963699555
-0.007225043396320515   -0.004618836715819802   -0.0008303839878926109
-0.012335450401938348   -0.011918799628591058   -0.002089209821620418
-0.007531488929063471   -0.011433688536513633   -0.0018784223020597674
-0.0039312341906465945   -0.003982605609615177   -0.0010447683963699555
-0.007509569581949728   -0.011493786076910824   -0.0016695665301954508
-0.007225043396320515   -0.004618836715819802   -0.0008303839878926109
-0.00392954165819542   -0.004007025775844236   -0.0007856091420165243
-0.007509569581949728   -0.011493786076910824   -0.0016695665301954508
-0.0039312341906465945   -0.003982605609615177   -0.0010447683963699555
-0.007225043396320515   -0.004618836715819802   -0.0008303839878926109
-0.007509569581949728   -0.011493786076910824   -0.0016695665301954508
-0.012625020389782969   -0.012005818285154245   -0.0017532411588705081
-0.012335450401938348   -0.011918799628591058   -0.002089209821620418
-0.007225043396320515   -0.004618836715819802   -0.0008303839878926109
-0.007509569581949728   -0.011493786076910824   -0.0016695665301954508
-0.012335450401938348   -0.011918799628591058   -0.002089209821620418
-0.0039312341906465945   -0.003982605609615177   -0.0010447683963699555
-0.003998621041038967   -0.003701450665894534   -0.0015462695827691754
-0.007492127915141167   -0.011127479239735472   -0.0023336471756330475
-0.0018206101683570697   -0.0035480836406446897   -0.0011759822786905011
-0.003919847921212252   -0.003887367262656982   -0.0012953571749367754
-0.007492127915141167   -0.011127479239735472   -0.0023336471756330475
-0.0034755193648459103   -0.010952522666222115   -0.001991080407923523
-0.0018206101683570697   -0.0035480836406446897   -0.0011759822786905011
-0.003446012925884911   -0.011073651346487117   -0.0018721703820606841
-0.003919847921212252   -0.003887367262656982   -0.0012953571749367754
-0.0017513602979145498   -0.00366913325694962   -0.0010575689211671257
-0.003446012925884911   -0.011073651346487117   -0.0018721703820606841
-0.0018206101683570697   -0.0035480836406446897   -0.0011759822786905011
-0.003919847921212252   -0.003887367262656982   -0.0012953571749367754
-0.003446012925884911   -0.011073651346487117   -0.0018721703820606841
-0.00750144488002792   -0.011317743860466432   -0.0021015185417737575
-0.007492127915141167   -0.011127479239735472   -0.0023336471756330475
-0.003919847921212252   -0.003887367262656982   -0.0012953571749367754
-0.003446012925884911   -0.011073651346487117   -0.0018721703820606841
-0.007492127915141167   -0.011127479239735472   -0.0023336471756330475
-0.0018206101683570697   -0.0035480836406446897   -0.0011759822786905011
-0.003919847921212252   -0.003887367262656982   -0.0012953571749367754
-0.00750144488002792   -0.011317743860466432   -0.0021015185417737575
-0.0017513602979145498   -0.00366913325694962   -0.0010575689211671257
-0.0039312341906465945   -0.003982605609615177   -0.0010447683963699555
-0.00750144488002792   -0.011317743860466432   -0.0021015185417737575
-0.003446012925884911   -0.011073651346487117   -0.0018721703820606841
-0.0017513602979145498   -0.00366913325694962   -0.0010575689211671257
-0.003419919302754137   -0.011132383235493775   -0.0017643561464989758
-0.0039312341906465945   -0.003982605609615177   -0.0010447683963699555
-0.0017126029901399396   -0.00371525935446839   -0.0009422106242231742
-0.003419919302754137   -0.011132383235493775   -0.0017643561464989758
-0.0017513602979145498   -0.00366913325694962   -0.0010575689211671257
-0.0039312341906465945   -0.003982605609615177   -0.0010447683963699555
-0.003419919302754137   -0.011132383235493775   -0.0017643561464989758
-0.007531488929063471   -0.011433688536513633   -0.0018784223020597674
-0.00750144488002792   -0.011317743860466432   -0.0021015185417737575
-0.0039312341906465945   -0.003982605609615177   -0.0010447683963699555
-0.003419919302754137   -0.011132383235493775   -0.0017643561464989758
-0.00750144488002792   -0.011317743860466432   -0.0021015185417737575
-0.0017513602979145498   -0.00366913325694962   -0.0010575689211671257
-0.0039312341906465945   -0.003982605609615177   -0.0010447683963699555
-0.007531488929063471   -0.011433688536513633   -0.0018784223020597674
-0.0017126029901399396   -0.00371525935446839   -0.0009422106242231742
-0.00392954165819542   -0.004007025775844236   -0.0007856091420165243
-0.007531488929063471   -0.011433688536513633   -0.0018784223020597674
-0.003419919302754137   -0.011132383235493775   -0.0017643561464989758
-0.0017126029901399396   -0.00371525935446839   -0.0009422106242231742
-0.0033807568046448247   -0.011130933408957176   -0.00167046749225215
-0.00392954165819542   -0.004007025775844236   -0.0007856091420165243
-0.001677366204845925   -0.003695984399620415   -0.0008229122367392801
-0.0033807568046448247   -0.011130933408957176   -0.00167046749225215
-0.0017126029901399396   -0.00371525935446839   -0.0009422106242231742
-0.00392954165819542   -0.004007025775844236   -0.0007856091420165243
-0.0033807568046448247   -0.011130933408957176   -0.00167046749225215
-0.007509569581949728   -0.011493786076910824   -0.0016695665301954508
-0.007531488929063471   -0.011433688536513633   -0.0018784223020597674
-0.00392954165819542   -0.004007025775844236   -0.0007856091420165243
-0.0033807568046448247   -0.011130933408957176   -0.00167046749225215
-0.007531488929063471   -0.011433688536513633   -0.0018784223020597674
-0.0017126029901399396   -0.00371525935446839   -0.0009422106242231742
-0.0018206101683570697   -0.0035480836406446897   -0.0011759822786905011
-0.0034755193648459103   -0.010952522666222115   -0.001991080407923523
0.00023748435499720122   -0.0035676823396399186   -0.0009399425342335345
-0.0017513602979145498   -0.00366913325694962   -0.0010575689211671257
-0.0034755193648459103   -0.010952522666222115   -0.001991080407923523
0.00039801525241013136   -0.010957703114182019   -0.0017744166526299653
0.00023748435499720122   -0.0035676823396399186   -0.0009399425342335345
0.00043436594412164277   -0.011015138996181156   -0.0017666314908512965
-0.0017513602979145498   -0.00366913325694962   -0.0010575689211671257
0.00028153271579632095   -0.0036304653700204377   -0.0009564229580366487
0.00043436594412164277   -0.011015138996181156   -0.0017666314908512965
0.00023748435499720122   -0.0035676823396399186   -0.0009399425342335345
-0.0017513602979145498   -0.00366913325694962   -0.0010575689211671257
0.00043436594412164277   -0.011015138996181156   -0.0017666314908512965
-0.003446012925884911   -0.011073651346487117   -0.0018721703820606841
-0.0034755193648459103   -0.010952522666222115   -0.001991080407923523
-0.0017513602979145498   -0.00366913325694962   -0.0010575689211671257
0.00043436594412164277   -0.011015138996181156   -0.0017666314908512965
-0.0034755193648459103   -0.010952522666222115   -0.001991080407923523
0.00023748435499720122   -0.0035676823396399186   -0.0009399425342335345
-0.0017513602979145498   -0.00366913325694962   -0.0010575689211671257
-0.003446012925884911   -0.011073651346487117   -0.0018721703820606841
0.00028153271579632095   -0.0036304653700204377   -0.0009564229580366487
-0.0017126029901399396   -0.00371525935446839   -0.0009422106242231742
-0.003446012925884911   -0.011073651346487117   -0.0018721703820606841
0.00043436594412164277   -0.011015138996181156   -0.0017666314908512965
0.00028153271579632095   -0.0036304653700204377   -0.0009564229580366487
0.00045867284454680714   -0.011011642433772307   -0.0017714416935142377
-0.0017126029901399396   -0.00371525935446839   -0.0009422106242231742
0.000316254644643092   -0.003625296906741647   -0.0009712774981966846
0.00045867284454680714   -0.011011642433772307   -0.0017714416935142377
0.00028153271579632095   -0.0036304653700204377   -0.0009564229580366487
-0.0017126029901399396   -0.00371525935446839   -0.0009422106242231742
0.00045867284454680714   -0.011011642433772307   -0.0017714416935142377
-0.003419919302754137   -0.011132383235493775   -0.0017643561464989758
-0.003446012925884911   -0.011073651346487117   -0.0018721703820606841
-0.0017126029901399396   -0.00371525935446839   -0.0009422106242231742
0.00045867284454680714   -0.011011642433772307   -0.0017714416935142377
-0.003446012925884911   -0.011073651346487117   -0.0018721703820606841
0.00028153271579632095   -0.0036304653700204377   -0.0009564229580366487
-0.0017126029901399396   -0.00371525935446839   -0.0009422106242231742
-0.003419919302754137   -0.011132383235493775   -0.0017643561464989758
0.000316254644643092   -0.003625296906741647   -0.0009712774981966846
-0.001677366204845925   -0.003695984399620415   -0.0008229122367392801
-0.003419919302754137   -0.011132383235493775   -0.0017643561464989758
0.00045867284454680714   -0.011011642433772307   -0.0017714416935142377
0.000316254644643092   -0.003625296906741647   -0.0009712774981966846
0.0004847861522390905   -0.010945351721983501   -0.001789047023392557
-0.001677366204845925   -0.003695984399620415   -0.0008229122367392801
0.00036308324399043657   -0.0035465979479010487   -0.0009865057932116703
0.0004847861522390905   -0.010945351721983501   -0.001789047023392557
0.000316254644643092   -0.003625296906741647   -0.0009712774981966846
-0.001677366204845925   -0.003695984399620415   -0.0008229122367392801
0.0004847861522390905   -0.010945351721983501   -0.001789047023392557
-0.0033807568046448247   -0.011130933408957176   -0.00167046749225215
-0.003419919302754137   -0.011132383235493775   -0.0017643561464989758
-0.001677366204845925   -0.003695984399620415   -0.0008229122367392801
0.0004847861522390905   -0.010945351721983501   -0.001789047023392557
-0.003419919302754137   -0.011132383235493775   -0.0017643561464989758
0.000316254644643092   -0.003625296906741647   -0.0009712774981966846
0.00023748435499720122   -0.0035676823396399186   -0.0009399425342335345
0.00039801525241013136   -0.010957703114182019   -0.0017744166526299653
0.0024712326984884314   -0.0037415915038024   -0.0008231076275050865
0.00028153271579632095   -0.0036304653700204377   -0.0009564229580366487
0.00039801525241013136   -0.010957703114182019   -0.0017744166526299653
0.004502612190269646   -0.011136509061786835   -0.0016732205172403558
0.0024712326984884314   -0.0037415915038024   -0.0008231076275050865
0.004522927611294852   -0.01113609405662905   -0.001780167137739668
0.00028153271579632095   -0.0036304653700204377   -0.0009564229580366487
0.0024751726407191725   -0.0037616259478493327   -0.0009815234977756401
0.004522927611294852   -0.01113609405662905   -0.001780167137739668
0.0024712326984884314   -0.0037415915038024   -0.0008231076275050865
0.00028153271579632095   -0.0036304653700204377   -0.0009564229580366487
0.004522927611294852   -0.01113609405662905   -0.001780167137739668
0.00043436594412164277   -0.011015138996181156   -0.0017666314908512965
0.00039801525241013136   -0.010957703114182019   -0.0017744166526299653
0.00028153271579632095   -0.0036304653700204377   -0.0009564229580366487
0.004522927611294852   -0.01113609405662905   -0.001780167137739668
0.00039801525241013136   -0.010957703114182019   -0.0017744166526299653
0.0024712326984884314   -0.0037415915038024   -0.0008231076275050865
0.00028153271579632095   -0.0036304653700204377   -0.0009564229580366487
0.00043436594412164277   -0.011015138996181156   -0.0017666314908512965
0.0024751726407191725   -0.0037616259478493327   -0.0009815234977756401
0.000316254644643092   -0.003625296906741647   -0.0009712774981966846
0.00043436594412164277   -0.011015138996181156   -0.0017666314908512965
0.004522927611294852   -0.01113609405662905   -0.001780167137739668
0.0024751726407191725   -0.0037616259478493327   -0.0009815234977756401
0.004501523036459151   -0.01107591698947569   -0.001901364422308595
0.000316254644643092   -0.003625296906741647   -0.0009712774981966846
0.0024641803063742483   -0.0037079080947297676   -0.0011334550364600381
0.004501523036459151   -0.01107591698947569   -0.001901364422308595
0.0024751726407191725   -0.0037616259478493327   -0.0009815234977756401
0.000316254644643092   -0.003625296906741647   -0.0009712774981966846
0.004501523036459151   -0.01107591698947569   -0.001901364422308595
0.00045867284454680714   -0.011011642433772307   -0.0017714416935142377
0.00043436594412164277   -0.011015138996181156   -0.0017666314908512965
0.000316254644643092   -0.003625296906741647   -0.0009712774981966846
0.004501523036459151   -0.01107591698947569   -0.001901364422308595
0.00043436594412164277   -0.011015138996181156   -0.0017666314908512965
0.0024751726407191725   -0.0037616259478493327   -0.0009815234977756401
0.000316254644643092   -0.003625296906741647   -0.0009712774981966846
0.00045867284454680714   -0.011011642433772307   -0.0017714416935142377
0.0024641803063742483   -0.0037079080947297676   -0.0011334550364600381
0.00036308324399043657   -0.0035465979479010487   -0.0009865057932116703
0.00045867284454680714   -0.011011642433772307   -0.0017714416935142377
0.004501523036459151   -0.01107591698947569   -0.001901364422308595
0.0024641803063742483   -0.0037079080947297676   -0.0011334550364600381
0.0044890740059906   -0.010939503609826956   -0.0020323299946703377
0.00036308324399043657   -0.0035465979479010487   -0.0009865057932116703
0.0025115278568158092   -0.0035639552806200725   -0.0012824619227766703
0.0044890740059906   -0.010939503609826956   -0.0020323299946703377
0.0024641803063742483   -0.0037079080947297676   -0.0011334550364600381
0.00036308324399043657   -0.0035465979479010487   -0.0009865057932116703
0.0044890740059906   -0.010939503609826956   -0.0020323299946703377
0.0004847861522390905   -0.010945351721983501   -0.001789047023392557
0.00045867284454680714   -0.011011642433772307   -0.0017714416935142377
0.00036308324399043657   -0.0035465979479010487   -0.0009865057932116703
0.0044890740059906   -0.010939503609826956   -0.0020323299946703377
0.00045867284454680714   -0.011011642433772307   -0.0017714416935142377
0.0024641803063742483   -0.0037079080947297676   -0.0011334550364600381
0.0024712326984884314   -0.0037415915038024   -0.0008231076275050865
0.004502612190269646   -0.011136509061786835   -0.0016732205172403558
0.005576758508883059   -0.004182267046973302   -0.0007763962944612964
0.0024751726407191725   -0.0037616259478493327   -0.0009815234977756401
0.004502612190269646   -0.011136509061786835   -0.0016732205172403558
0.009455037094240422   -0.011468953909542657   -0.0016457685221534343
0.005576758508883059   -0.004182267046973302   -0.0007763962944612964
0.009261952664164656   -0.011437792522108095   -0.0018863044287246494
0.0024751726407191725   -0.0037616259478493327   -0.0009815234977756401
0.005236886073537434   -0.0041367146894282295   -0.0011354401688837693
0.009261952664164656   -0.011437792522108095   -0.0018863044287246494
0.005576758508883059   -0.004182267046973302   -0.0007763962944612964
0.0024751726407191725   -0.0037616259478493327   -0.0009815234977756401
0.009261952664164656   -0.011437792522108095   -0.0018863044287246494
0.004522927611294852   -0.01113609405662905   -0.001780167137739668
0.004502612190269646   -0.011136509061786835   -0.0016732205172403558
0.0024751726407191725   -0.0037616259478493327   -0.0009815234977756401
0.009261952664164656   -0.011437792522108095   -0.0018863044287246494
0.004502612190269646   -0.011136509061786835   -0.0016732205172403558
0.005576758508883059   -0.004182267046973302   -0.0007763962944612964
0.0024751726407191725   -0.0037616259478493327   -0.0009815234977756401
0.004522927611294852   -0.01113609405662905   -0.001780167137739668
0.005236886073537434   -0.0041367146894282295   -0.0011354401688837693
0.0024641803063742483   -0.0037079080947297676   -0.0011334550364600381
0.004522927611294852   -0.01113609405662905   -0.001780167137739668
0.009261952664164656   -0.011437792522108095   -0.0018863044287246494
0.005236886073537434   -0.0041367146894282295   -0.0011354401688837693
0.009089458358342397   -0.011344994395080183   -0.00215683049316421
0.0024641803063742483   -0.0037079080947297676   -0.0011334550364600381
0.0050799804543150955   -0.004050705835234078   -0.0014390263842115909
0.009089458358342397   -0.011344994395080183   -0.00215683049316421
0.005236886073537434   -0.0041367146894282295   -0.0011354401688837693
0.0024641803063742483   -0.0037079080947297676   -0.0011334550364600381
0.009089458358342397   -0.011344994395080183   -0.00215683049316421
0.004501523036459151   -0.01107591698947569   -0.001901364422308595
0.004522927611294852   -0.01113609405662905   -0.001780167137739668
0.0024641803063742483   -0.0037079080947297676   -0.0011334550364600381
0.009089458358342397   -0.011344994395080183   -0.00215683049316421
0.004522927611294852   -0.01113609405662905   -0.001780167137739668
0.005236886073537434   -0.0041367146894282295   -0.0011354401688837693
0.0024641803063742483   -0.0037079080947297676   -0.0011334550364600381
0.004501523036459151   -0.01107591698947569   -0.001901364422308595
0.0050799804543150955   -0.004050705835234078   -0.0014390263842115909
0.0025115278568158092   -0.0035639552806200725   -0.0012824619227766703
0.004501523036459151   -0.01107591698947569   -0.001901364422308595
0.009089458358342397   -0.011344994395080183   -0.00215683049316421
0.0050799804543150955   -0.004050705835234078   -0.0014390263842115909
0.008831290254140242   -0.011138372183828312   -0.0024383945559809704
0.0025115278568158092   -0.0035639552806200725   -0.0012824619227766703
0.004846665778337938   -0.003830555176941899   -0.0017602173512787115
0.008831290254140242   -0.011138372183828312   -0.0024383945559809704
0.0050799804543150955   -0.004050705835234078   -0.0014390263842115909
0.0025115278568158092   -0.0035639552806200725   -0.0012824619227766703
0.008831290254140242   -0.011138372183828312   -0.0024383945559809704
0.0044890740059906   -0.010939503609826956   -0.0020323299946703377
0.004501523036459151   -0.01107591698947569   -0.001901364422308595
0.0025115278568158092   -0.0035639552806200725   -0.0012824619227766703
0.008831290254140242   -0.011138372183828312   -0.0024383945559809704
0.004501523036459151   -0.01107591698947569   -0.001901364422308595
0.0050799804543150955   -0.004050705835234078   -0.0014390263842115909
-0.011738174951866437   -0.011503482726857242   -0.0028354177589977
-0.016086092719078283   -0.021579351437397976   -0.0032292131560491357
-0.007492127915141167   -0.011127479239735472   -0.0023336471756330475
-0.012090477128265139   -0.01176892796181127   -0.002458408196649233
-0.016086092719078283   -0.021579351437397976   -0.0032292131560491357
-0.0103419509330574   -0.021291910589727202   -0.0028220807679443234
-0.007492127915141167   -0.011127479239735472   -0.0023336471756330475
-0.01036517289955327   -0.021456193287789877   -0.002641927073121271
-0.012090477128265139   -0.01176892796181127   -0.002458408196649233
-0.00750144488002792   -0.011317743860466432   -0.0021015185417737575
-0.01036517289955327   -0.021456193287789877   -0.002641927073121271
-0.007492127915141167   -0.011127479239735472   -0.0023336471756330475
-0.012090477128265139   -0.01176892796181127   -0.002458408196649233
-0.01036517289955327   -0.021456193287789877   -0.002641927073121271
-0.016372886730327316   -0.021803840553269404   -0.002947918902397257
-0.016086092719078283   -0.021579351437397976   -0.0032292131560491357
-0.012090477128265139   -0.01176892796181127   -0.002458408196649233
-0.01036517289955327   -0.021456193287789877   -0.002641927073121271
-0.016086092719078283   -0.021579351437397976   -0.0032292131560491357
-0.007492127915141167   -0.011127479239735472   -0.0023336471756330475
-0.012090477128265139   -0.01176892796181127   -0.002458408196649233
-0.016372886730327316   -0.021803840553269404   -0.002947918902397257
-0.00750144488002792   -0.011317743860466432   -0.0021015185417737575
-0.012335450401938348   -0.011918799628591058   -0.002089209821620418
-0.016372886730327316   -0.021803840553269404   -0.002947918902397257
-0.01036517289955327   -0.021456193287789877   -0.002641927073121271
-0.00750144488002792   -0.011317743860466432   -0.0021015185417737575
-0.010392451937609149   -0.021570482974013126   -0.0024747916825968146
-0.012335450401938348   -0.011918799628591058   -0.002089209821620418
-0.007531488929063471   -0.011433688536513633   -0.0018784223020597674
-0.010392451937609149   -0.021570482974013126   -0.0024747916825968146
-0.00750144488002792   -0.011317743860466432   -0.0021015185417737575
-0.012335450401938348   -0.011918799628591058   -0.002089209821620418
-0.010392451937609149   -0.021570482974013126   -0.0024747916825968146
-0.016553935928780635   -0.021944569728211325   -0.002685709524135804
-0.016372886730327316   -0.021803840553269404   -0.002947918902397257
-0.012335450401938348   -0.011918799628591058   -0.002089209821620418
-0.010392451937609149   -0.021570482974013126   -0.0024747916825968146
-0.016372886730327316   -0.021803840553269404   -0.002947918902397257
-0.00750144488002792   -0.011317743860466432   -0.0021015185417737575
-0.012335450401938348   -0.011918799628591058   -0.002089209821620418
-0.016553935928780635   -0.021944569728211325   -0.002685709524135804
-0.007531488929063471   -0.011433688536513633   -0.0018784223020597674
-0.012625020389782969   -0.012005818285154245   -0.0017532411588705081
-0.016553935928780635   -0.021944569728211325   -0.002685709524135804
-0.010392451937609149   -0.021570482974013126   -0.0024747916825968146
-0.007531488929063471   -0.011433688536513633   -0.0018784223020597674
-0.010373548824630176   -0.021645618932042157   -0.002317902420203357
-0.012625020389782969   -0.012005818285154245   -0.0017532411588705081
-0.007509569581949728   -0.011493786076910824   -0.0016695665301954508
-0.010373548824630176   -0.021645618932042157   -0.002317902420203357
-0.007531488929063471   -0.011433688536513633   -0.0018784223020597674
-0.012625020389782969   -0.012005818285154245   -0.0017532411588705081
-0.010373548824630176   -0.021645618932042157   -0.002317902420203357
-0.016759933654173793   -0.022045688541386676   -0.002444369312523095
-0.016553935928780635   -0.021944569728211325   -0.002685709524135804
-0.012625020389782969   -0.012005818285154245   -0.0017532411588705081
-0.010373548824630176   -0.021645618932042157   -0.002317902420203357
-0.016553935928780635   -0.021944569728211325   -0.002685709524135804
-0.007531488929063471   -0.011433688536513633   -0.0018784223020597674
-0.007492127915141167   -0.011127479239735472   -0.0023336471756330475
-0.0103419509330574   -0.021291910589727202   -0.0028220807679443234
-0.0034755193648459103   -0.010952522666222115   -0.001991080407923523
-0.00750144488002792   -0.011317743860466432   -0.0021015185417737575
-0.0103419509330574   -0.021291910589727202   -0.0028220807679443234
-0.004925287601805469   -0.021148635133396695   -0.002539202622977784
-0.0034755193648459103   -0.010952522666222115   -0.001991080407923523
-0.004913498836423316   -0.021253716245567985   -0.002437437262847999
-0.00750144488002792   -0.011317743860466432   -0.0021015185417737575
-0.003446012925884911   -0.011073651346487117   -0.0018721703820606841
-0.004913498836423316   -0.021253716245567985   -0.002437437262847999
-0.0034755193648459103   -0.010952522666222115   -0.001991080407923523
-0.00750144488002792   -0.011317743860466432   -0.0021015185417737575
-0.004913498836423316   -0.021253716245567985   -0.002437437262847999
-0.01036517289955327   -0.021456193287789877   -0.002641927073121271
-0.0103419509330574   -0.021291910589727202   -0.0028220807679443234
-0.00750144488002792   -0.011317743860466432   -0.0021015185417737575
-0.004913498836423316   -0.021253716245567985   -0.002437437262847999
-0.0103419509330574   -0.021291910589727202   -0.0028220807679443234
-0.0034755193648459103   -0.010952522666222115   -0.001991080407923523
-0.00750144488002792   -0.011317743860466432   -0.0021015185417737575
-0.01036517289955327   -0.021456193287789877   -0.002641927073121271
-0.003446012925884911   -0.011073651346487117   -0.0018721703820606841
-0.007531488929063471   -0.011433688536513633   -0.0018784223020597674
-0.01036517289955327   -0.021456193287789877   -0.002641927073121271
-0.004913498836423316   -0.021253716245567985   -0.002437437262847999
-0.003446012925884911   -0.011073651346487117   -0.0018721703820606841
-0.004898932418926511   -0.021315426208608226   -0.0023480715457505075
-0.007531488929063471   -0.011433688536513633   -0.0018784223020597674
-0.003419919302754137   -0.011132383235493775   -0.0017643561464989758
-0.004898932418926511   -0.021315426208608226   -0.0023480715457505075
-0.003446012925884911   -0.011073651346487117   -0.0018721703820606841
-0.007531488929063471   -0.011433688536513633   -0.0018784223020597674
-0.004898932418926511   -0.021315426208608226   -0.0023480715457505075
-0.010392451937609149   -0.021570482974013126   -0.0024747916825968146
-0.01036517289955327   -0.021456193287789877   -0.002641927073121271
-0.007531488929063471   -0.011433688536513633   -0.0018784223020597674
-0.004898932418926511   -0.021315426208608226   -0.0023480715457505075
-0.01036517289955327   -0.021456193287789877   -0.002641927073121271
-0.003446012925884911   -0.011073651346487117   -0.0018721703820606841
-0.007531488929063471   -0.011433688536513633   -0.0018784223020597674
-0.010392451937609149   -0.021570482974013126   -0.0024747916825968146
-0.003419919302754137   -0.011132383235493775   -0.0017643561464989758
-0.007509569581949728   -0.011493786076910824   -0.0016695665301954508
-0.010392451937609149   -0.021570482974013126   -0.0024747916825968146
-0.004898932418926511   -0.021315426208608226   -0.0023480715457505075
-0.003419919302754137   -0.011132383235493775   -0.0017643561464989758
-0.00487464549248657   -0.021334647336942538   -0.00227106704038084
-0.007509569581949728   -0.011493786076910824   -0.0016695665301954508
-0.0033807568046448247   -0.011130933408957176   -0.00167046749225215
-0.00487464549248657   -0.021334647336942538   -0.00227106704038084
-0.003419919302754137   -0.011132383235493775   -0.0017643561464989758
-0.007509569581949728   -0.011493786076910824   -0.0016695665301954508
-0.00487464549248657   -0.021334647336942538   -0.00227106704038084
-0.010373548824630176   -0.021645618932042157   -0.002317902420203357
-0.010392451937609149   -0.021570482974013126   -0.0024747916825968146
-0.007509569581949728   -0.011493786076910824   -0.0016695665301954508
-0.00487464549248657   -0.021334647336942538   -0.00227106704038084
-0.010392451937609149   -0.021570482974013126   -0.0024747916825968146
-0.003419919302754137   -0.011132383235493775   -0.0017643561464989758
-0.0034755193648459103   -0.010952522666222115   -0.001991080407923523
-0.004925287601805469   -0.021148635133396695   -0.002539202622977784
0.00039801525241013136   -0.010957703114182019   -0.0017744166526299653
-0.003446012925884911   -0.011073651346487117   -0.0018721703820606841
-0.004925287601805469   -0.021148635133396695   -0.002539202622977784
0.0003325226859607331   -0.02114101721387334   -0.0023637306239570853
0.00039801525241013136   -0.010957703114182019   -0.0017744166526299653
0.0003546435075698431   -0.021187837516883946   -0.0023399302660182617
-0.003446012925884911   -0.011073651346487117   -0.0018721703820606841
0.00043436594412164277   -0.011015138996181156   -0.0017666314908512965
0.0003546435075698431   -0.021187837516883946   -0.0023399302660182617
0.00039801525241013136   -0.010957703114182019   -0.0017744166526299653
-0.003446012925884911   -0.011073651346487117   -0.0018721703820606841
0.0003546435075698431   -0.021187837516883946   -0.0023399302660182617
-0.004913498836423316   -0.021253716245567985   -0.002437437262847999
-0.004925287601805469   -0.021148635133396695   -0.002539202622977784
-0.003446012925884911   -0.011073651346487117   -0.0018721703820606841
0.0003546435075698431   -0.021187837516883946   -0.0023399302660182617
-0.004925287601805469   -0.021148635133396695   -0.002539202622977784
0.00039801525241013136   -0.010957703114182019   -0.0017744166526299653
-0.003446012925884911   -0.011073651346487117   -0.0018721703820606841
-0.004913498836423316   -0.021253716245567985   -0.002437437262847999
0.00043436594412164277   -0.011015138996181156   -0.0017666314908512965
-0.003419919302754137   -0.011132383235493775   -0.0017643561464989758
-0.004913498836423316   -0.021253716245567985   -0.002437437262847999
0.0003546435075698431   -0.021187837516883946   -0.0023399302660182617
0.00043436594412164277   -0.011015138996181156   -0.0017666314908512965
0.0003686301296534102   -0.02119146179062246   -0.0023282038809386207
-0.003419919302754137   -0.011132383235493775   -0.0017643561464989758
0.00045867284454680714   -0.011011642433772307   -0.0017714416935142377
0.0003686301296534102   -0.02119146179062246   -0.0023282038809386207
0.00043436594412164277   -0.011015138996181156   -0.0017666314908512965
-0.003419919302754137   -0.011132383235493775   -0.0017643561464989758
0.0003686301296534102   -0.02119146179062246   -0.0023282038809386207
-0.004898932418926511   -0.021315426208608226   -0.0023480715457505075
-0.004913498836423316   -0.021253716245567985   -0.002437437262847999
-0.003419919302754137   -0.011132383235493775   -0.0017643561464989758
0.0003686301296534102   -0.02119146179062246   -0.0023282038809386207
-0.004913498836423316   -0.021253716245567985   -0.002437437262847999
0.00043436594412164277   -0.011015138996181156   -0.0017666314908512965
-0.003419919302754137   -0.011132383235493775   -0.0017643561464989758
-0.004898932418926511   -0.021315426208608226   -0.0023480715457505075
0.00045867284454680714   -0.011011642433772307   -0.0017714416935142377
-0.0033807568046448247   -0.011130933408957176   -0.00167046749225215
-0.004898932418926511   -0.021315426208608226   -0.0023480715457505075
0.0003686301296534102   -0.02119146179062246   -0.0023282038809386207
0.00045867284454680714   -0.011011642433772307   -0.0017714416935142377
0.00037859041997565147   -0.021151245319945344   -0.0023292872051899668
-0.0033807568046448247   -0.011130933408957176   -0.00167046749225215
0.0004847861522390905   -0.010945351721983501   -0.001789047023392557
0.00037859041997565147   -0.021151245319945344   -0.0023292872051899668
0.00045867284454680714   -0.011011642433772307   -0.0017714416935142377
-0.0033807568046448247   -0.011130933408957176   -0.00167046749225215
0.00037859041997565147   -0.021151245319945344   -0.0023292872051899668
-0.00487464549248657   -0.021334647336942538   -0.00227106704038084
-0.004898932418926511   -0.021315426208608226   -0.0023480715457505075
-0.0033807568046448247   -0.011130933408957176   -0.00167046749225215
0.00037859041997565147   -0.021151245319945344   -0.0023292872051899668
-0.004898932418926511   -0.021315426208608226   -0.0023480715457505075
0.00045867284454680714   -0.011011642433772307   -0.0017714416935142377
0.00039801525241013136   -0.010957703114182019   -0.0017744166526299653
0.0003325226859607331   -0.02114101721387334   -0.0023637306239570853
0.004502612190269646   -0.011136509061786835   -0.0016732205172403558
0.00043436594412164277   -0.011015138996181156   -0.0017666314908512965
0.0003325226859607331   -0.02114101721387334   -0.0023637306239570853
0.005814588910568398   -0.021260997799846842   -0.002292651566782329
0.004502612190269646   -0.011136509061786835   -0.0016732205172403558
0.0058337890726421066   -0.021254434862754704   -0.0023484395351742997
0.00043436594412164277   -0.011015138996181156   -0.0017666314908512965
0.004522927611294852   -0.01113609405662905   -0.001780167137739668
0.0058337890726421066   -0.021254434862754704   -0.0023484395351742997
0.004502612190269646   -0.011136509061786835   -0.0016732205172403558
0.00043436594412164277   -0.011015138996181156   -0.0017666314908512965
0.0058337890726421066   -0.021254434862754704   -0.0023484395351742997
0.0003546435075698431   -0.021187837516883946   -0.0023399302660182617
0.0003325226859607331   -0.02114101721387334   -0.0023637306239570853
0.00043436594412164277   -0.011015138996181156   -0.0017666314908512965
0.0058337890726421066   -0.021254434862754704   -0.0023484395351742997
0.0003325226859607331   -0.02114101721387334   -0.0023637306239570853
0.004502612190269646   -0.011136509061786835   -0.0016732205172403558
0.00043436594412164277   -0.011015138996181156   -0.0017666314908512965
0.0003546435075698431   -0.021187837516883946   -0.0023399302660182617
0.004522927611294852   -0.01113609405662905   -0.001780167137739668
0.00045867284454680714   -0.011011642433772307   -0.0017714416935142377
0.0003546435075698431   -0.021187837516883946   -0.0023399302660182617
0.0058337890726421066   -0.021254434862754704   -0.0023484395351742997
0.004522927611294852   -0.01113609405662905   -0.001780167137739668
0.005818425318661703   -0.021205586090140945   -0.0024154142797239934
0.00045867284454680714   -0.011011642433772307   -0.0017714416935142377
0.004501523036459151   -0.01107591698947569   -0.001901364422308595
0.005818425318661703   -0.021205586090140945   -0.0024154142797239934
0.004522927611294852   -0.01113609405662905   -0.001780167137739668
0.00045867284454680714   -0.011011642433772307   -0.0017714416935142377
0.005818425318661703   -0.021205586090140945   -0.0024154142797239934
0.0003686301296534102   -0.02119146179062246   -0.0023282038809386207
0.0003546435075698431   -0.021187837516883946   -0.0023399302660182617
0.00045867284454680714   -0.011011642433772307   -0.0017714416935142377
0.005818425318661703   -0.021205586090140945   -0.0024154142797239934
0.0003546435075698431   -0.021187837516883946   -0.0023399302660182617
0.004522927611294852   -0.01113609405662905   -0.001780167137739668
0.00045867284454680714   -0.011011642433772307   -0.0017714416935142377
0.0003686301296534102   -0.02119146179062246   -0.0023282038809386207
0.004501523036459151   -0.01107591698947569   -0.001901364422308595
0.0004847861522390905   -0.010945351721983501   -0.001789047023392557
0.0003686301296534102   -0.02119146179062246   -0.0023282038809386207
0.005818425318661703   -0.021205586090140945   -0.0024154142797239934
0.004501523036459151   -0.01107591698947569   -0.001901364422308595
0.00579574198231236   -0.02110399873634885   -0.002494899599449544
0.0004847861522390905   -0.010945351721983501   -0.001789047023392557
0.0044890740059906   -0.010939503609826956   -0.0020323299946703377
0.00579574198231236   -0.02110399873634885   -0.002494899599449544
0.004501523036459151   -0.01107591698947569   -0.001901364422308595
0.0004847861522390905   -0.010945351721983501   -0.001789047023392557
0.00579574198231236   -0.02110399873634885   -0.002494899599449544
0.00037859041997565147   -0.021151245319945344   -0.0023292872051899668
0.0003686301296534102   -0.02119146179062246   -0.0023282038809386207
0.0004847861522390905   -0.010945351721983501   -0.001789047023392557
0.00579574198231236   -0.02110399873634885   -0.002494899599449544
0.0003686301296534102   -0.02119146179062246   -0.0023282038809386207
0.004501523036459151   -0.01107591698947569   -0.001901364422308595
0.004502612190269646   -0.011136509061786835   -0.0016732205172403558
0.005814588910568398   -0.021260997799846842   -0.002292651566782329
0.009455037094240422   -0.011468953909542657   -0.0016457685221534343
0.004522927611294852   -0.01113609405662905   -0.001780167137739668
0.005814588910568398   -0.021260997799846842   -0.002292651566782329
0.012057536517447408   -0.021478729588411533   -0.0022937140321151617
0.009455037094240422   -0.011468953909542657   -0.0016457685221534343
0.011951826821838278   -0.021441435387579432   -0.0024393865952444214
0.004522927611294852   -0.01113609405662905   -0.001780167137739668
0.009261952664164656   -0.011437792522108095   -0.0018863044287246494
0.011951826821838278   -0.021441435387579432   -0.0024393865952444214
0.009455037094240422   -0.011468953909542657   -0.0016457685221534343
0.004522927611294852   -0.01113609405662905   -0.001780167137739668
0.011951826821838278   -0.021441435387579432   -0.0024393865952444214
0.0058337890726421066   -0.021254434862754704   -0.0023484395351742997
0.005814588910568398   -0.021260997799846842   -0.002292651566782329
0.004522927611294852   -0.01113609405662905   -0.001780167137739668
0.011951826821838278   -0.021441435387579432   -0.0024393865952444214
0.005814588910568398   -0.021260997799846842   -0.002292651566782329
0.009455037094240422   -0.011468953909542657   -0.0016457685221534343
0.004522927611294852   -0.01113609405662905   -0.001780167137739668
0.0058337890726421066   -0.021254434862754704   -0.0023484395351742997
0.009261952664164656   -0.011437792522108095   -0.0018863044287246494
0.004501523036459151   -0.01107591698947569   -0.001901364422308595
0.0058337890726421066   -0.021254434862754704   -0.0023484395351742997
0.011951826821838278   -0.021441435387579432   -0.0024393865952444214
0.009261952664164656   -0.011437792522108095   -0.0018863044287246494
0.011846421421259024   -0.021366194741373808   -0.0026052312964324536
0.004501523036459151   -0.01107591698947569   -0.001901364422308595
0.009089458358342397   -0.011344994395080183   -0.00215683049316421
0.011846421421259024   -0.021366194741373808   -0.0026052312964324536
0.009261952664164656   -0.011437792522108095   -0.0018863044287246494
0.004501523036459151   -0.01107591698947569   -0.001901364422308595
0.011846421421259024   -0.021366194741373808   -0.0026052312964324536
0.005818425318661703   -0.021205586090140945   -0.0024154142797239934
0.0058337890726421066   -0.021254434862754704   -0.0023484395351742997
0.004501523036459151   -0.01107591698947569   -0.001901364422308595
0.011846421421259024   -0.021366194741373808   -0.0026052312964324536
0.0058337890726421066   -0.021254434862754704   -0.0023484395351742997
0.009261952664164656   -0.011437792522108095   -0.0018863044287246494
0.004501523036459151   -0.01107591698947569   -0.001901364422308595
0.005818425318661703   -0.021205586090140945   -0.0024154142797239934
0.009089458358342397   -0.011344994395080183   -0.00215683049316421
0.0044890740059906   -0.010939503609826956   -0.0020323299946703377
0.005818425318661703   -0.021205586090140945   -0.0024154142797239934
0.011846421421259024   -0.021366194741373808   -0.0026052312964324536
0.009089458358342397   -0.011344994395080183   -0.00215683049316421
0.011659687416017361   -0.02120820192815525   -0.0027912694000115173
0.0044890740059906   -0.010939503609826956   -0.0020323299946703377
0.008831290254140242   -0.011138372183828312   -0.0024383945559809704
0.011659687416017361   -0.02120820192815525   -0.0027912694000115173
0.009089458358342397   -0.011344994395080183   -0.00215683049316421
0.0044890740059906   -0.010939503609826956   -0.0020323299946703377
0.011659687416017361   -0.02120820192815525   -0.0027912694000115173
0.00579574198231236   -0.02110399873634885   -0.002494899599449544
0.005818425318661703   -0.021205586090140945   -0.0024154142797239934
0.0044890740059906   -0.010939503609826956   -0.0020323299946703377
0.011659687416017361   -0.02120820192815525   -0.0027912694000115173
0.005818425318661703   -0.021205586090140945   -0.0024154142797239934
0.009089458358342397   -0.011344994395080183   -0.00215683049316421
-0.016086092719078283   -0.021579351437397976   -0.0032292131560491357
-0.019212711513581577   -0.03353025167563848   -0.0034434476913496395
-0.0103419509330574   -0.021291910589727202   -0.0028220807679443234
-0.016372886730327316   -0.021803840553269404   -0.002947918902397257
-0.019212711513581577   -0.03353025167563848   -0.0034434476913496395
-0.012470042383608382   -0.0333472775484321   -0.0031113573937218116
-0.0103419509330574   -0.021291910589727202   -0.0028220807679443234
-0.012485534012123952   -0.03348865046668438   -0.0029823639022079442
-0.016372886730327316   -0.021803840553269404   -0.002947918902397257
-0.01036517289955327   -0.021456193287789877   -0.002641927073121271
-0.012485534012123952   -0.03348865046668438   -0.0029823639022079442
-0.0103419509330574   -0.021291910589727202   -0.0028220807679443234
-0.016372886730327316   -0.021803840553269404   -0.002947918902397257
-0.012485534012123952   -0.03348865046668438   -0.0029823639022079442
-0.019406183272878415   -0.033721487240006905   -0.0032565543455447183
-0.019212711513581577   -0.03353025167563848   -0.0034434476913496395
-0.016372886730327316   -0.021803840553269404   -0.002947918902397257
-0.012485534012123952   -0.03348865046668438   -0.0029823639022079442
-0.019212711513581577   -0.03353025167563848   -0.0034434476913496395
-0.0103419509330574   -0.021291910589727202   -0.0028220807679443234
-0.016372886730327316   -0.021803840553269404   -0.002947918902397257
-0.019406183272878415   -0.033721487240006905   -0.0032565543455447183
-0.01036517289955327   -0.021456193287789877   -0.002641927073121271
-0.016553935928780635   -0.021944569728211325   -0.002685709524135804
-0.019406183272878415   -0.033721487240006905   -0.0032565543455447183
-0.012485534012123952   -0.03348865046668438   -0.0029823639022079442
-0.01036517289955327   -0.021456193287789877   -0.002641927073121271
-0.012496743549194304   -0.033600692486286575   -0.0028662161530632092
-0.016553935928780635   -0.021944569728211325   -0.002685709524135804
-0.010392451937609149   -0.021570482974013126   -0.0024747916825968146
-0.012496743549194304   -0.033600692486286575   -0.0028662161530632092
-0.01036517289955327   -0.021456193287789877   -0.002641927073121271
-0.016553935928780635   -0.021944569728211325   -0.002685709524135804
-0.012496743549194304   -0.033600692486286575   -0.0028662161530632092
-0.01951743792371341   -0.03385674584693736   -0.003087574190935544
-0.019406183272878415   -0.033721487240006905   -0.0032565543455447183
-0.016553935928780635   -0.021944569728211325   -0.002685709524135804
-0.012496743549194304   -0.033600692486286575   -0.0028662161530632092
-0.019406183272878415   -0.033721487240006905   -0.0032565543455447183
-0.01036517289955327   -0.021456193287789877   -0.002641927073121271
-0.016553935928780635   -0.021944569728211325   -0.002685709524135804
-0.01951743792371341   -0.03385674584693736   -0.003087574190935544
-0.010392451937609149   -0.021570482974013126   -0.0024747916825968146
-0.016759933654173793   -0.022045688541386676   -0.002444369312523095
-0.01951743792371341   -0.03385674584693736   -0.003087574190935544
-0.012496743549194304   -0.033600692486286575   -0.0028662161530632092
-0.010392451937609149   -0.021570482974013126   -0.0024747916825968146
-0.012471385787323317   -0.03369269115663332   -0.002761209590733312
-0.016759933654173793   -0.022045688541386676   -0.002444369312523095
-0.010373548824630176   -0.021645618932042157   -0.002317902420203357
-0.012471385787323317   -0.03369269115663332   -0.002761209590733312
-0.010392451937609149   -0.021570482974013126   -0.0024747916825968146
-0.016759933654173793   -0.022045688541386676   -0.002444369312523095
-0.012471385787323317   -0.03369269115663332   -0.002761209590733312
-0.01963207615883238   -0.03397791484190229   -0.00293863370873993
-0.01951743792371341   -0.03385674584693736   -0.003087574190935544
-0.016759933654173793   -0.022045688541386676   -0.002444369312523095
-0.012471385787323317   -0.03369269115663332   -0.002761209590733312
-0.01951743792371341   -0.03385674584693736   -0.003087574190935544
-0.010392451937609149   -0.021570482974013126   -0.0024747916825968146
-0.0103419509330574   -0.021291910589727202   -0.0028220807679443234
-0.012470042383608382   -0.0333472775484321   -0.0031113573937218116
-0.004925287601805469   -0.021148635133396695   -0.002539202622977784
-0.01036517289955327   -0.021456193287789877   -0.002641927073121271
-0.012470042383608382   -0.0333472775484321   -0.0031113573937218116
-0.00614855916241237   -0.03325275850458165   -0.002881389698000526
-0.004925287601805469   -0.021148635133396695   -0.002539202622977784
-0.006137356768132565   -0.03334150079866028   -0.002796278213715561
-0.01036517289955327   -0.021456193287789877   -0.002641927073121271
-0.004913498836423316   -0.021253716245567985   -0.002437437262847999
-0.006137356768132565   -0.03334150079866028   -0.002796278213715561
-0.004925287601805469   -0.021148635133396695   -0.002539202622977784
-0.01036517289955327   -0.021456193287789877   -0.002641927073121271
-0.006137356768132565   -0.03334150079866028   -0.002796278213715561
-0.012485534012123952   -0.03348865046668438   -0.0029823639022079442
-0.012470042383608382   -0.0333472775484321   -0.0031113573937218116
-0.01036517289955327   -0.021456193287789877   -0.002641927073121271
-0.006137356768132565   -0.03334150079866028   -0.002796278213715561
-0.012470042383608382   -0.0333472775484321   -0.0031113573937218116
-0.004925287601805469   -0.021148635133396695   -0.002539202622977784
-0.01036517289955327   -0.021456193287789877   -0.002641927073121271
-0.012485534012123952   -0.03348865046668438   -0.0029823639022079442
-0.004913498836423316   -0.021253716245567985   -0.002437437262847999
-0.010392451937609149   -0.021570482974013126   -0.0024747916825968146
-0.012485534012123952   -0.03348865046668438   -0.0029823639022079442
-0.006137356768132565   -0.03334150079866028   -0.002796278213715561
-0.004913498836423316   -0.021253716245567985   -0.002437437262847999
-0.006121872571554554   -0.033405668176385434   -0.0027238217809602274
-0.010392451937609149   -0.021570482974013126   -0.0024747916825968146
-0.004898932418926511   -0.021315426208608226   -0.0023480715457505075
-0.006121872571554554   -0.033405668176385434   -0.0027238217809602274
-0.004913498836423316   -0.021253716245567985   -0.002437437262847999
-0.010392451937609149   -0.021570482974013126   -0.0024747916825968146
-0.006121872571554554   -0.033405668176385434   -0.0027238217809602274
-0.012496743549194304   -0.033600692486286575   -0.0028662161530632092
-0.012485534012123952   -0.03348865046668438   -0.0029823639022079442
-0.010392451937609149   -0.021570482974013126   -0.0024747916825968146
-0.006121872571554554   -0.033405668176385434   -0.0027238217809602274
-0.012485534012123952   -0.03348865046668438   -0.0029823639022079442
-0.004913498836423316   -0.021253716245567985   -0.002437437262847999
-0.010392451937609149   -0.021570482974013126   -0.0024747916825968146
-0.012496743549194304   -0.033600692486286575   -0.0028662161530632092
-0.004898932418926511   -0.021315426208608226   -0.0023480715457505075
-0.010373548824630176   -0.021645618932042157   -0.002317902420203357
-0.012496743549194304   -0.033600692486286575   -0.0028662161530632092
-0.006121872571554554   -0.033405668176385434   -0.0027238217809602274
-0.004898932418926511   -0.021315426208608226   -0.0023480715457505075
-0.006098544904472087   -0.03344568075873204   -0.002664228378136902
-0.010373548824630176   -0.021645618932042157   -0.002317902420203357
-0.00487464549248657   -0.021334647336942538   -0.00227106704038084
-0.006098544904472087   -0.03344568075873204   -0.002664228378136902
-0.004898932418926511   -0.021315426208608226   -0.0023480715457505075
-0.010373548824630176   -0.021645618932042157   -0.002317902420203357
-0.006098544904472087   -0.03344568075873204   -0.002664228378136902
-0.012471385787323317   -0.03369269115663332   -0.002761209590733312
-0.012496743549194304   -0.033600692486286575   -0.0028662161530632092
-0.010373548824630176   -0.021645618932042157   -0.002317902420203357
-0.006098544904472087   -0.03344568075873204   -0.002664228378136902
-0.012496743549194304   -0.033600692486286575   -0.0028662161530632092
-0.004898932418926511   -0.021315426208608226   -0.0023480715457505075
-0.004925287601805469   -0.021148635133396695   -0.002539202622977784
-0.00614855916241237   -0.03325275850458165   -0.002881389698000526
0.0003325226859607331   -0.02114101721387334   -0.0023637306239570853
-0.004913498836423316   -0.021253716245567985   -0.002437437262847999
-0.00614855916241237   -0.03325275850458165   -0.002881389698000526
1.3772403401006099e-06   -0.03323653496640963   -0.0027473687057005093
0.0003325226859607331   -0.02114101721387334   -0.0023637306239570853
2.2882610722127176e-05   -0.0332723774716551   -0.0027064746200860614
-0.004913498836423316   -0.021253716245567985   -0.002437437262847999
0.0003546435075698431   -0.021187837516883946   -0.0023399302660182617
2.2882610722127176e-05   -0.0332723774716551   -0.0027064746200860614
0.0003325226859607331   -0.02114101721387334   -0.0023637306239570853
-0.004913498836423316   -0.021253716245567985   -0.002437437262847999
2.2882610722127176e-05   -0.0332723774716551   -0.0027064746200860614
-0.006137356768132565   -0.03334150079866028   -0.002796278213715561
-0.00614855916241237   -0.03325275850458165   -0.002881389698000526
-0.004913498836423316   -0.021253716245567985   -0.002437437262847999
2.2882610722127176e-05   -0.0332723774716551   -0.0027064746200860614
-0.00614855916241237   -0.03325275850458165   -0.002881389698000526
0.0003325226859607331   -0.02114101721387334   -0.0023637306239570853
-0.004913498836423316   -0.021253716245567985   -0.002437437262847999
-0.006137356768132565   -0.03334150079866028   -0.002796278213715561
0.0003546435075698431   -0.021187837516883946   -0.0023399302660182617
-0.004898932418926511   -0.021315426208608226   -0.0023480715457505075
-0.006137356768132565   -0.03334150079866028   -0.002796278213715561
2.2882610722127176e-05   -0.0332723774716551   -0.0027064746200860614
0.0003546435075698431   -0.021187837516883946   -0.0023399302660182617
3.80531958835109e-05   -0.03328347620564928   -0.0026780735228678493
-0.004898932418926511   -0.021315426208608226   -0.0023480715457505075
0.0003686301296534102   -0.02119146179062246   -0.0023282038809386207
3.80531958835109e-05   -0.03328347620564928   -0.0026780735228678493
0.0003546435075698431   -0.021187837516883946   -0.0023399302660182617
-0.004898932418926511   -0.021315426208608226   -0.0023480715457505075
3.80531958835109e-05   -0.03328347620564928   -0.0026780735228678493
-0.006121872571554554   -0.033405668176385434   -0.0027238217809602274
-0.006137356768132565   -0.03334150079866028   -0.002796278213715561
-0.004898932418926511   -0.021315426208608226   -0.0023480715457505075
3.80531958835109e-05   -0.03328347620564928   -0.0026780735228678493
-0.006137356768132565   -0.03334150079866028   -0.002796278213715561
0.0003546435075698431   -0.021187837516883946   -0.0023399302660182617
-0.004898932418926511   -0.021315426208608226   -0.0023480715457505075
-0.006121872571554554   -0.033405668176385434   -0.0027238217809602274
0.0003686301296534102   -0.02119146179062246   -0.0023282038809386207
-0.00487464549248657   -0.021334647336942538   -0.00227106704038084
-0.006121872571554554   -0.033405668176385434   -0.0027238217809602274
3.80531958835109e-05   -0.03328347620564928   -0.0026780735228678493
0.0003686301296534102   -0.02119146179062246   -0.0023282038809386207
4.749955155598021e-05   -0.03326949228246218   -0.0026627196675667415
-0.00487464549248657   -0.021334647336942538   -0.00227106704038084
0.00037859041997565147   -0.021151245319945344   -0.0023292872051899668
4.749955155598021e-05   -0.03326949228246218   -0.0026627196675667415
0.0003686301296534102   -0.02119146179062246   -0.0023282038809386207
-0.00487464549248657   -0.021334647336942538   -0.00227106704038084
4.749955155598021e-05   -0.03326949228246218   -0.0026627196675667415
-0.006098544904472087   -0.03344568075873204   -0.002664228378136902
-0.006121872571554554   -0.033405668176385434   -0.0027238217809602274
-0.00487464549248657   -0.021334647336942538   -0.00227106704038084
4.749955155598021e-05   -0.03326949228246218   -0.0026627196675667415
-0.006121872571554554   -0.033405668176385434   -0.0027238217809602274
0.0003686301296534102   -0.02119146179062246   -0.0023282038809386207
0.0003325226859607331   -0.02114101721387334   -0.0023637306239570853
1.3772403401006099e-06   -0.03323653496640963   -0.0027473687057005093
0.005814588910568398   -0.021260997799846842   -0.002292651566782329
0.0003546435075698431   -0.021187837516883946   -0.0023399302660182617
1.3772403401006099e-06   -0.03323653496640963   -0.0027473687057005093
0.006362770168693029   -0.03329193002643377   -0.0027087362372278777
0.005814588910568398   -0.021260997799846842   -0.002292651566782329
0.006389156583850932   -0.033277962889704284   -0.0027129952551400555
0.0003546435075698431   -0.021187837516883946   -0.0023399302660182617
0.0058337890726421066   -0.021254434862754704   -0.0023484395351742997
0.006389156583850932   -0.033277962889704284   -0.0027129952551400555
0.005814588910568398   -0.021260997799846842   -0.002292651566782329
0.0003546435075698431   -0.021187837516883946   -0.0023399302660182617
0.006389156583850932   -0.033277962889704284   -0.0027129952551400555
2.2882610722127176e-05   -0.0332723774716551   -0.0027064746200860614
1.3772403401006099e-06   -0.03323653496640963   -0.0027473687057005093
0.0003546435075698431   -0.021187837516883946   -0.0023399302660182617
0.006389156583850932   -0.033277962889704284   -0.0027129952551400555
1.3772403401006099e-06   -0.03323653496640963   -0.0027473687057005093
0.005814588910568398   -0.021260997799846842   -0.002292651566782329
0.0003546435075698431   -0.021187837516883946   -0.0023399302660182617
2.2882610722127176e-05   -0.0332723774716551   -0.0027064746200860614
0.0058337890726421066   -0.021254434862754704   -0.0023484395351742997
0.0003686301296534102   -0.02119146179062246   -0.0023282038809386207
2.2882610722127176e-05   -0.0332723774716551   -0.0027064746200860614
0.006389156583850932   -0.033277962889704284   -0.0027129952551400555
0.0058337890726421066   -0.021254434862754704   -0.0023484395351742997
0.006390683979898043   -0.03324112756393699   -0.0027290759848627925
0.0003686301296534102   -0.02119146179062246   -0.0023282038809386207
0.005818425318661703   -0.021205586090140945   -0.0024154142797239934
0.006390683979898043   -0.03324112756393699   -0.0027290759848627925
0.0058337890726421066   -0.021254434862754704   -0.0023484395351742997
0.0003686301296534102   -0.02119146179062246   -0.0023282038809386207
0.006390683979898043   -0.03324112756393699   -0.0027290759848627925
3.80531958835109e-05   -0.03328347620564928   -0.0026780735228678493
2.2882610722127176e-05   -0.0332723774716551   -0.0027064746200860614
0.0003686301296534102   -0.02119146179062246   -0.0023282038809386207
0.006390683979898043   -0.03324112756393699   -0.0027290759848627925
2.2882610722127176e-05   -0.0332723774716551   -0.0027064746200860614
0.0058337890726421066   -0.021254434862754704   -0.0023484395351742997
0.0003686301296534102   -0.02119146179062246   -0.0023282038809386207
3.80531958835109e-05   -0.03328347620564928   -0.0026780735228678493
0.005818425318661703   -0.021205586090140945   -0.0024154142797239934
0.00037859041997565147   -0.021151245319945344   -0.0023292872051899668
3.80531958835109e-05   -0.03328347620564928   -0.0026780735228678493
0.006390683979898043   -0.03324112756393699   -0.0027290759848627925
0.005818425318661703   -0.021205586090140945   -0.0024154142797239934
0.0063762558567270105   -0.033172187224080225   -0.002757426981076492
0.00037859041997565147   -0.021151245319945344   -0.0023292872051899668
0.00579574198231236   -0.02110399873634885   -0.002494899599449544
0.0063762558567270105   -0.033172187224080225   -0.002757426981076492
0.005818425318661703   -0.021205586090140945   -0.0024154142797239934
0.00037859041997565147   -0.021151245319945344   -0.0023292872051899668
0.0063762558567270105   -0.033172187224080225   -0.002757426981076492
4.749955155598021e-05   -0.03326949228246218   -0.0026627196675667415
3.80531958835109e-05   -0.03328347620564928   -0.0026780735228678493
0.00037859041997565147   -0.021151245319945344   -0.0023292872051899668
0.0063762558567270105   -0.033172187224080225   -0.002757426981076492
3.80531958835109e-05   -0.03328347620564928   -0.0026780735228678493
0.005818425318661703   -0.021205586090140945   -0.0024154142797239934
0.005814588910568398   -0.021260997799846842   -0.002292651566782329
0.006362770168693029   -0.03329193002643377   -0.0027087362372278777
0.012057536517447408   -0.021478729588411533   -0.0022937140321151617
0.0058337890726421066   -0.021254434862754704   -0.0023484395351742997
0.006362770168693029   -0.03329193002643377   -0.0027087362372278777
0.013387363724103393   -0.03339381759995355   -0.0027445761094538335
0.012057536517447408   -0.021478729588411533   -0.0022937140321151617
0.01337425263141741   -0.03334613491219139   -0.002797610503342708
0.0058337890726421066   -0.021254434862754704   -0.0023484395351742997
0.011951826821838278   -0.021441435387579432   -0.0024393865952444214
0.01337425263141741   -0.03334613491219139   -0.002797610503342708
0.012057536517447408   -0.021478729588411533   -0.0022937140321151617
0.0058337890726421066   -0.021254434862754704   -0.0023484395351742997
0.01337425263141741   -0.03334613491219139   -0.002797610503342708
0.006389156583850932   -0.033277962889704284   -0.0027129952551400555
0.006362770168693029   -0.03329193002643377   -0.0027087362372278777
0.0058337890726421066   -0.021254434862754704   -0.0023484395351742997
0.01337425263141741   -0.03334613491219139   -0.002797610503342708
0.006362770168693029   -0.03329193002643377   -0.0027087362372278777
0.012057536517447408   -0.021478729588411533   -0.0022937140321151617
0.0058337890726421066   -0.021254434862754704   -0.0023484395351742997
0.006389156583850932   -0.033277962889704284   -0.0027129952551400555
0.011951826821838278   -0.021441435387579432   -0.0024393865952444214
0.005818425318661703   -0.021205586090140945   -0.0024154142797239934
0.006389156583850932   -0.033277962889704284   -0.0027129952551400555
0.01337425263141741   -0.03334613491219139   -0.002797610503342708
0.011951826821838278   -0.021441435387579432   -0.0024393865952444214
0.01334009398998389   -0.033286004196233024   -0.0028698214280318893
0.005818425318661703   -0.021205586090140945   -0.0024154142797239934
0.011846421421259024   -0.021366194741373808   -0.0026052312964324536
0.01334009398998389   -0.033286004196233024   -0.0028698214280318893
0.011951826821838278   -0.021441435387579432   -0.0024393865952444214
0.005818425318661703   -0.021205586090140945   -0.0024154142797239934
0.01334009398998389   -0.033286004196233024   -0.0028698214280318893
0.006390683979898043   -0.03324112756393699   -0.0027290759848627925
0.006389156583850932   -0.033277962889704284   -0.0027129952551400555
0.005818425318661703   -0.021205586090140945   -0.0024154142797239934
0.01334009398998389   -0.033286004196233024   -0.0028698214280318893
0.006389156583850932   -0.033277962889704284   -0.0027129952551400555
0.011951826821838278   -0.021441435387579432   -0.0024393865952444214
0.005818425318661703   -0.021205586090140945   -0.0024154142797239934
0.006390683979898043   -0.03324112756393699   -0.0027290759848627925
0.011846421421259024   -0.021366194741373808   -0.0026052312964324536
0.00579574198231236   -0.02110399873634885   -0.002494899599449544
0.006390683979898043   -0.03324112756393699   -0.0027290759848627925
0.01334009398998389   -0.033286004196233024   -0.0028698214280318893
0.011846421421259024   -0.021366194741373808   -0.0026052312964324536
0.013248003640493647   -0.033171232119237365   -0.0029610699047441925
0.00579574198231236   -0.02110399873634885   -0.002494899599449544
0.011659687416017361   -0.02120820192815525   -0.0027912694000115173
0.013248003640493647   -0.033171232119237365   -0.0029610699047441925
0.011846421421259024   -0.021366194741373808   -0.0026052312964324536
0.00579574198231236   -0.02110399873634885   -0.002494899599449544
0.013248003640493647   -0.033171232119237365   -0.0029610699047441925
0.0063762558567270105   -0.033172187224080225   -0.002757426981076492
0.006390683979898043   -0.03324112756393699   -0.0027290759848627925
0.00579574198231236   -0.02110399873634885   -0.002494899599449544
0.013248003640493647   -0.033171232119237365   -0.0029610699047441925
0.006390683979898043   -0.03324112756393699   -0.0027290759848627925
0.011846421421259024   -0.021366194741373808   -0.0026052312964324536
-0.019212711513581577   -0.03353025167563848   -0.0034434476913496395
-0.021107119786360602   -0.04654222575788457   -0.00350604277569482
-0.012470042383608382   -0.0333472775484321   -0.0031113573937218116
-0.019406183272878415   -0.033721487240006905   -0.0032565543455447183
-0.021107119786360602   -0.04654222575788457   -0.00350604277569482
-0.013867884583604885   -0.04646758089846109   -0.0032413956408115087
-0.012470042383608382   -0.0333472775484321   -0.0031113573937218116
-0.013862764179851819   -0.04658821796662814   -0.003162247823995632
-0.019406183272878415   -0.033721487240006905   -0.0032565543455447183
-0.012485534012123952   -0.03348865046668438   -0.0029823639022079442
-0.013862764179851819   -0.04658821796662814   -0.003162247823995632
-0.012470042383608382   -0.0333472775484321   -0.0031113573937218116
-0.019406183272878415   -0.033721487240006905   -0.0032565543455447183
-0.013862764179851819   -0.04658821796662814   -0.003162247823995632
-0.021197771947691842   -0.04670437407578165   -0.003409572627951864
-0.021107119786360602   -0.04654222575788457   -0.00350604277569482
-0.019406183272878415   -0.033721487240006905   -0.0032565543455447183
-0.013862764179851819   -0.04658821796662814   -0.003162247823995632
-0.021107119786360602   -0.04654222575788457   -0.00350604277569482
-0.012470042383608382   -0.0333472775484321   -0.0031113573937218116
-0.019406183272878415   -0.033721487240006905   -0.0032565543455447183
-0.021197771947691842   -0.04670437407578165   -0.003409572627951864
-0.012485534012123952   -0.03348865046668438   -0.0029823639022079442
-0.01951743792371341   -0.03385674584693736   -0.003087574190935544
-0.021197771947691842   -0.04670437407578165   -0.003409572627951864
-0.013862764179851819   -0.04658821796662814   -0.003162247823995632
-0.012485534012123952   -0.03348865046668438   -0.0029823639022079442
-0.0138445716691973   -0.04669946790484757   -0.003096240969821131
-0.01951743792371341   -0.03385674584693736   -0.003087574190935544
-0.012496743549194304   -0.033600692486286575   -0.0028662161530632092
-0.0138445716691973   -0.04669946790484757   -0.003096240969821131
-0.012485534012123952   -0.03348865046668438   -0.0029823639022079442
-0.01951743792371341   -0.03385674584693736   -0.003087574190935544
-0.0138445716691973   -0.04669946790484757   -0.003096240969821131
-0.0212269640783826   -0.046836580247079186   -0.003332017794925088
-0.021197771947691842   -0.04670437407578165   -0.003409572627951864
-0.01951743792371341   -0.03385674584693736   -0.003087574190935544
-0.0138445716691973   -0.04669946790484757   -0.003096240969821131
-0.021197771947691842   -0.04670437407578165   -0.003409572627951864
-0.012485534012123952   -0.03348865046668438   -0.0029823639022079442
-0.01951743792371341   -0.03385674584693736   -0.003087574190935544
-0.0212269640783826   -0.046836580247079186   -0.003332017794925088
-0.012496743549194304   -0.033600692486286575   -0.0028662161530632092
-0.01963207615883238   -0.03397791484190229   -0.00293863370873993
-0.0212269640783826   -0.046836580247079186   -0.003332017794925088
-0.0138445716691973   -0.04669946790484757   -0.003096240969821131
-0.012496743549194304   -0.033600692486286575   -0.0028662161530632092
-0.01379914045981721   -0.0468098072914942   -0.003042457492325609
-0.01963207615883238   -0.03397791484190229   -0.00293863370873993
-0.012471385787323317   -0.03369269115663332   -0.002761209590733312
-0.01379914045981721   -0.0468098072914942   -0.003042457492325609
-0.012496743549194304   -0.033600692486286575   -0.0028662161530632092
-0.01963207615883238   -0.03397791484190229   -0.00293863370873993
-0.01379914045981721   -0.0468098072914942   -0.003042457492325609
-0.02123709600023258   -0.04698010673390439   -0.0032749992906264094
-0.0212269640783826   -0.046836580247079186   -0.003332017794925088
-0.01963207615883238   -0.03397791484190229   -0.00293863370873993
-0.01379914045981721   -0.0468098072914942   -0.003042457492325609
-0.0212269640783826   -0.046836580247079186   -0.003332017794925088
-0.012496743549194304   -0.033600692486286575   -0.0028662161530632092
-0.012470042383608382   -0.0333472775484321   -0.0031113573937218116
-0.013867884583604885   -0.04646758089846109   -0.0032413956408115087
-0.00614855916241237   -0.03325275850458165   -0.002881389698000526
-0.012485534012123952   -0.03348865046668438   -0.0029823639022079442
-0.013867884583604885   -0.04646758089846109   -0.0032413956408115087
-0.007143049391399902   -0.04642481955274982   -0.003061213209331926
-0.00614855916241237   -0.03325275850458165   -0.002881389698000526
-0.007118315074426569   -0.04649786698986406   -0.002992266452303961
-0.012485534012123952   -0.03348865046668438   -0.0029823639022079442
-0.006137356768132565   -0.03334150079866028   -0.002796278213715561
-0.007118315074426569   -0.04649786698986406   -0.002992266452303961
-0.00614855916241237   -0.03325275850458165   -0.002881389698000526
-0.012485534012123952   -0.03348865046668438   -0.0029823639022079442
-0.007118315074426569   -0.04649786698986406   -0.002992266452303961
-0.013862764179851819   -0.04658821796662814   -0.003162247823995632
-0.013867884583604885   -0.04646758089846109   -0.0032413956408115087
-0.012485534012123952   -0.03348865046668438   -0.0029823639022079442
-0.007118315074426569   -0.04649786698986406   -0.002992266452303961
-0.013867884583604885   -0.04646758089846109   -0.0032413956408115087
-0.00614855916241237   -0.03325275850458165   -0.002881389698000526
-0.012485534012123952   -0.03348865046668438   -0.0029823639022079442
-0.013862764179851819   -0.04658821796662814   -0.003162247823995632
-0.006137356768132565   -0.03334150079866028   -0.002796278213715561
-0.012496743549194304   -0.033600692486286575   -0.0028662161530632092
-0.013862764179851819   -0.04658821796662814   -0.003162247823995632
-0.007118315074426569   -0.04649786698986406   -0.002992266452303961
-0.006137356768132565   -0.03334150079866028   -0.002796278213715561
-0.007087891014548188   -0.0465648806110185   -0.0029364732950011335
-0.012496743549194304   -0.033600692486286575   -0.0028662161530632092
-0.006121872571554554   -0.033405668176385434   -0.0027238217809602274
-0.007087891014548188   -0.0465648806110185   -0.0029364732950011335
-0.006137356768132565   -0.03334150079866028   -0.002796278213715561
-0.012496743549194304   -0.033600692486286575   -0.0028662161530632092
-0.007087891014548188   -0.0465648806110185   -0.0029364732950011335
-0.0138445716691973   -0.04669946790484757   -0.003096240969821131
-0.013862764179851819   -0.04658821796662814   -0.003162247823995632
-0.012496743549194304   -0.033600692486286575   -0.0028662161530632092
-0.007087891014548188   -0.0465648806110185   -0.0029364732950011335
-0.013862764179851819   -0.04658821796662814   -0.003162247823995632
-0.006137356768132565   -0.03334150079866028   -0.002796278213715561
-0.012496743549194304   -0.033600692486286575   -0.0028662161530632092
-0.0138445716691973   -0.04669946790484757   -0.003096240969821131
-0.006121872571554554   -0.033405668176385434   -0.0027238217809602274
-0.012471385787323317   -0.03369269115663332   -0.002761209590733312
-0.0138445716691973   -0.04669946790484757   -0.003096240969821131
-0.007087891014548188   -0.0465648806110185   -0.0029364732950011335
-0.006121872571554554   -0.033405668176385434   -0.0027238217809602274
-0.007051263079708279   -0.046626080101953765   -0.00289414820756129
-0.012471385787323317   -0.03369269115663332   -0.002761209590733312
-0.006098544904472087   -0.03344568075873204   -0.002664228378136902
-0.007051263079708279   -0.046626080101953765   -0.00289414820756129
-0.006121872571554554   -0.033405668176385434   -0.0027238217809602274
-0.012471385787323317   -0.03369269115663332   -0.002761209590733312
-0.007051263079708279   -0.046626080101953765   -0.00289414820756129
-0.01379914045981721   -0.0468098072914942   -0.003042457492325609
-0.0138445716691973   -0.04669946790484757   -0.003096240969821131
-0.012471385787323317   -0.03369269115663332   -0.002761209590733312
-0.007051263079708279   -0.046626080101953765   -0.00289414820756129
-0.0138445716691973   -0.04669946790484757   -0.003096240969821131
-0.006121872571554554   -0.033405668176385434   -0.0027238217809602274
-0.00614855916241237   -0.03325275850458165   -0.002881389698000526
-0.007143049391399902   -0.04642481955274982   -0.003061213209331926
1.3772403401006099e-06   -0.03323653496640963   -0.0027473687057005093
-0.006137356768132565   -0.03334150079866028   -0.002796278213715561
-0.007143049391399902   -0.04642481955274982   -0.003061213209331926
-0.0006001628599423049   -0.046400374156965976   -0.002967923358565118
1.3772403401006099e-06   -0.03323653496640963   -0.0027473687057005093
-0.0005654611022263193   -0.046424967035174125   -0.0029098625441433467
-0.006137356768132565   -0.03334150079866028   -0.002796278213715561
2.2882610722127176e-05   -0.0332723774716551   -0.0027064746200860614
-0.0005654611022263193   -0.046424967035174125   -0.0029098625441433467
1.3772403401006099e-06   -0.03323653496640963   -0.0027473687057005093
-0.006137356768132565   -0.03334150079866028   -0.002796278213715561
-0.0005654611022263193   -0.046424967035174125   -0.0029098625441433467
-0.007118315074426569   -0.04649786698986406   -0.002992266452303961
-0.007143049391399902   -0.04642481955274982   -0.003061213209331926
-0.006137356768132565   -0.03334150079866028   -0.002796278213715561
-0.0005654611022263193   -0.046424967035174125   -0.0029098625441433467
-0.007143049391399902   -0.04642481955274982   -0.003061213209331926
1.3772403401006099e-06   -0.03323653496640963   -0.0027473687057005093
-0.006137356768132565   -0.03334150079866028   -0.002796278213715561
-0.007118315074426569   -0.04649786698986406   -0.002992266452303961
2.2882610722127176e-05   -0.0332723774716551   -0.0027064746200860614
-0.006121872571554554   -0.033405668176385434   -0.0027238217809602274
-0.007118315074426569   -0.04649786698986406   -0.002992266452303961
-0.0005654611022263193   -0.046424967035174125   -0.0029098625441433467
2.2882610722127176e-05   -0.0332723774716551   -0.0027064746200860614
-0.0005354586968873555   -0.04644310086463527   -0.0028648403700880683
-0.006121872571554554   -0.033405668176385434   -0.0027238217809602274
3.80531958835109e-05   -0.03328347620564928   -0.0026780735228678493
-0.0005354586968873555   -0.04644310086463527   -0.0028648403700880683
2.2882610722127176e-05   -0.0332723774716551   -0.0027064746200860614
-0.006121872571554554   -0.033405668176385434   -0.0027238217809602274
-0.0005354586968873555   -0.04644310086463527   -0.0028648403700880683
-0.007087891014548188   -0.0465648806110185   -0.0029364732950011335
-0.007118315074426569   -0.04649786698986406   -0.002992266452303961
-0.006121872571554554   -0.033405668176385434   -0.0027238217809602274
-0.0005354586968873555   -0.04644310086463527   -0.0028648403700880683
-0.007118315074426569   -0.04649786698986406   -0.002992266452303961
2.2882610722127176e-05   -0.0332723774716551   -0.0027064746200860614
-0.006121872571554554   -0.033405668176385434   -0.0027238217809602274
-0.007087891014548188   -0.0465648806110185   -0.0029364732950011335
3.80531958835109e-05   -0.03328347620564928   -0.0026780735228678493
-0.006098544904472087   -0.03344568075873204   -0.002664228378136902
-0.007087891014548188   -0.0465648806110185   -0.0029364732950011335
-0.0005354586968873555   -0.04644310086463527   -0.0028648403700880683
3.80531958835109e-05   -0.03328347620564928   -0.0026780735228678493
-0.0005126827277210368   -0.04645468375802351   -0.0028333331575201934
-0.006098544904472087   -0.03344568075873204   -0.002664228378136902
4.749955155598021e-05   -0.03326949228246218   -0.0026627196675667415
-0.0005126827277210368   -0.04645468375802351   -0.0028333331575201934
3.80531958835109e-05   -0.03328347620564928   -0.0026780735228678493
-0.006098544904472087   -0.03344568075873204   -0.002664228378136902
-0.0005126827277210368   -0.04645468375802351   -0.0028333331575201934
-0.007051263079708279   -0.046626080101953765   -0.00289414820756129
-0.007087891014548188   -0.0465648806110185   -0.0029364732950011335
-0.006098544904472087   -0.03344568075873204   -0.002664228378136902
-0.0005126827277210368   -0.04645468375802351   -0.0028333331575201934
-0.007087891014548188   -0.0465648806110185   -0.0029364732950011335
3.80531958835109e-05   -0.03328347620564928   -0.0026780735228678493
1.3772403401006099e-06   -0.03323653496640963   -0.0027473687057005093
-0.0006001628599423049   -0.046400374156965976   -0.002967923358565118
0.006362770168693029   -0.03329193002643377   -0.0027087362372278777
2.2882610722127176e-05   -0.0332723774716551   -0.0027064746200860614
-0.0006001628599423049   -0.046400374156965976   -0.002967923358565118
0.006142501436150873   -0.046390036274600484   -0.0029623300571388306
0.006362770168693029   -0.03329193002643377   -0.0027087362372278777
0.006188568969855753   -0.04636770563652263   -0.002915702972410063
2.2882610722127176e-05   -0.0332723774716551   -0.0027064746200860614
0.006389156583850932   -0.033277962889704284   -0.0027129952551400555
0.006188568969855753   -0.04636770563652263   -0.002915702972410063
0.006362770168693029   -0.03329193002643377   -0.0027087362372278777
2.2882610722127176e-05   -0.0332723774716551   -0.0027064746200860614
0.006188568969855753   -0.04636770563652263   -0.002915702972410063
-0.0005654611022263193   -0.046424967035174125   -0.0029098625441433467
-0.0006001628599423049   -0.046400374156965976   -0.002967923358565118
2.2882610722127176e-05   -0.0332723774716551   -0.0027064746200860614
0.006188568969855753   -0.04636770563652263   -0.002915702972410063
-0.0006001628599423049   -0.046400374156965976   -0.002967923358565118
0.006362770168693029   -0.03329193002643377   -0.0027087362372278777
2.2882610722127176e-05   -0.0332723774716551   -0.0027064746200860614
-0.0005654611022263193   -0.046424967035174125   -0.0029098625441433467
0.006389156583850932   -0.033277962889704284   -0.0027129952551400555
3.80531958835109e-05   -0.03328347620564928   -0.0026780735228678493
-0.0005654611022263193   -0.046424967035174125   -0.0029098625441433467
0.006188568969855753   -0.04636770563652263   -0.002915702972410063
0.006389156583850932   -0.033277962889704284   -0.0027129952551400555
0.00621925862738121   -0.04634160849837206   -0.002881742016347308
3.80531958835109e-05   -0.03328347620564928   -0.0026780735228678493
0.006390683979898043   -0.03324112756393699   -0.0027290759848627925
0.00621925862738121   -0.04634160849837206   -0.002881742016347308
0.006389156583850932   -0.033277962889704284   -0.0027129952551400555
3.80531958835109e-05   -0.03328347620564928   -0.0026780735228678493
0.00621925862738121   -0.04634160849837206   -0.002881742016347308
-0.0005354586968873555   -0.04644310086463527   -0.0028648403700880683
-0.0005654611022263193   -0.046424967035174125   -0.0029098625441433467
3.80531958835109e-05   -0.03328347620564928   -0.0026780735228678493
0.00621925862738121   -0.04634160849837206   -0.002881742016347308
-0.0005654611022263193   -0.046424967035174125   -0.0029098625441433467
0.006389156583850932   -0.033277962889704284   -0.0027129952551400555
3.80531958835109e-05   -0.03328347620564928   -0.0026780735228678493
-0.0005354586968873555   -0.04644310086463527   -0.0028648403700880683
0.006390683979898043   -0.03324112756393699   -0.0027290759848627925
4.749955155598021e-05   -0.03326949228246218   -0.0026627196675667415
-0.0005354586968873555   -0.04644310086463527   -0.0028648403700880683
0.00621925862738121   -0.04634160849837206   -0.002881742016347308
0.006390683979898043   -0.03324112756393699   -0.0027290759848627925
0.006225201493899171   -0.04630316187594232   -0.002860186554955763
4.749955155598021e-05   -0.03326949228246218   -0.0026627196675667415
0.0063762558567270105   -0.033172187224080225   -0.002757426981076492
0.006225201493899171   -0.04630316187594232   -0.002860186554955763
0.006390683979898043   -0.03324112756393699   -0.0027290759848627925
4.749955155598021e-05   -0.03326949228246218   -0.0026627196675667415
0.006225201493899171   -0.04630316187594232   -0.002860186554955763
-0.0005126827277210368   -0.04645468375802351   -0.0028333331575201934
-0.0005354586968873555   -0.04644310086463527   -0.0028648403700880683
4.749955155598021e-05   -0.03326949228246218   -0.0026627196675667415
0.006225201493899171   -0.04630316187594232   -0.002860186554955763
-0.0005354586968873555   -0.04644310086463527   -0.0028648403700880683
0.006390683979898043   -0.03324112756393699   -0.0027290759848627925
0.006362770168693029   -0.03329193002643377   -0.0027087362372278777
0.006142501436150873   -0.046390036274600484   -0.0029623300571388306
0.013387363724103393   -0.03339381759995355   -0.0027445761094538335
0.006389156583850932   -0.033277962889704284   -0.0027129952551400555
0.006142501436150873   -0.046390036274600484   -0.0029623300571388306
0.013449860831173803   -0.046375825076561725   -0.0030355774009610194
0.013387363724103393   -0.03339381759995355   -0.0027445761094538335
0.013540217341087478   -0.04631642251485089   -0.002997508313049542
0.006389156583850932   -0.033277962889704284   -0.0027129952551400555
0.01337425263141741   -0.03334613491219139   -0.002797610503342708
0.013540217341087478   -0.04631642251485089   -0.002997508313049542
0.013387363724103393   -0.03339381759995355   -0.0027445761094538335
0.006389156583850932   -0.033277962889704284   -0.0027129952551400555
0.013540217341087478   -0.04631642251485089   -0.002997508313049542
0.006188568969855753   -0.04636770563652263   -0.002915702972410063
0.006142501436150873   -0.046390036274600484   -0.0029623300571388306
0.006389156583850932   -0.033277962889704284   -0.0027129952551400555
0.013540217341087478   -0.04631642251485089   -0.002997508313049542
0.006142501436150873   -0.046390036274600484   -0.0029623300571388306
0.013387363724103393   -0.03339381759995355   -0.0027445761094538335
0.006389156583850932   -0.033277962889704284   -0.0027129952551400555
0.006188568969855753   -0.04636770563652263   -0.002915702972410063
0.01337425263141741   -0.03334613491219139   -0.002797610503342708
0.006390683979898043   -0.03324112756393699   -0.0027290759848627925
0.006188568969855753   -0.04636770563652263   -0.002915702972410063
0.013540217341087478   -0.04631642251485089   -0.002997508313049542
0.01337425263141741   -0.03334613491219139   -0.002797610503342708
0.013587747577086333   -0.04626946773651853   -0.0029786802636489005
0.006390683979898043   -0.03324112756393699   -0.0027290759848627925
0.01334009398998389   -0.033286004196233024   -0.0028698214280318893
0.013587747577086333   -0.04626946773651853   -0.0029786802636489005
0.01337425263141741   -0.03334613491219139   -0.002797610503342708
0.006390683979898043   -0.03324112756393699   -0.0027290759848627925
0.013587747577086333   -0.04626946773651853   -0.0029786802636489005
0.00621925862738121   -0.04634160849837206   -0.002881742016347308
0.006188568969855753   -0.04636770563652263   -0.002915702972410063
0.006390683979898043   -0.03324112756393699   -0.0027290759848627925
0.013587747577086333   -0.04626946773651853   -0.0029786802636489005
0.006188568969855753   -0.04636770563652263   -0.002915702972410063
0.01337425263141741   -0.03334613491219139   -0.002797610503342708
0.006390683979898043   -0.03324112756393699   -0.0027290759848627925
0.00621925862738121   -0.04634160849837206   -0.002881742016347308
0.01334009398998389   -0.033286004196233024   -0.0028698214280318893
0.0063762558567270105   -0.033172187224080225   -0.002757426981076492
0.00621925862738121   -0.04634160849837206   -0.002881742016347308
0.013587747577086333   -0.04626946773651853   -0.0029786802636489005
0.01334009398998389   -0.033286004196233024   -0.0028698214280318893
0.013598678122097892   -0.04619399321621159   -0.0029794209190032927
0.0063762558567270105   -0.033172187224080225   -0.002757426981076492
0.013248003640493647   -0.033171232119237365   -0.0029610699047441925
0.013598678122097892   -0.04619399321621159   -0.0029794209190032927
0.01334009398998389   -0.033286004196233024   -0.0028698214280318893
0.0063762558567270105   -0.033172187224080225   -0.002757426981076492
0.013598678122097892   -0.04619399321621159   -0.0029794209190032927
0.006225201493899171   -0.04630316187594232   -0.002860186554955763
0.00621925862738121   -0.04634160849837206   -0.002881742016347308
0.0063762558567270105   -0.033172187224080225   -0.002757426981076492
0.013598678122097892   -0.04619399321621159   -0.0029794209190032927
0.00621925862738121   -0.04634160849837206   -0.002881742016347308
0.01334009398998389   -0.033286004196233024   -0.0028698214280318893
-0.021107119786360602   -0.04654222575788457   -0.00350604277569482
-0.0217688703041835   -0.059791574880671945   -0.0034463883710162168
-0.013867884583604885   -0.04646758089846109   -0.0032413956408115087
-0.021197771947691842   -0.04670437407578165   -0.003409572627951864
-0.0217688703041835   -0.059791574880671945   -0.0034463883710162168
-0.014536818794775457   -0.059826135481094146   -0.003250600290321567
-0.013867884583604885   -0.04646758089846109   -0.0032413956408115087
-0.014498092979481127   -0.05992560280051002   -0.0032205654965198403
-0.021197771947691842   -0.04670437407578165   -0.003409572627951864
-0.013862764179851819   -0.04658821796662814   -0.003162247823995632
-0.014498092979481127   -0.05992560280051002   -0.0032205654965198403
-0.013867884583604885   -0.04646758089846109   -0.0032413956408115087
-0.021197771947691842   -0.04670437407578165   -0.003409572627951864
-0.014498092979481127   -0.05992560280051002   -0.0032205654965198403
-0.02174421810349709   -0.05992464335924139   -0.003440013256414736
-0.0217688703041835   -0.059791574880671945   -0.0034463883710162168
-0.021197771947691842   -0.04670437407578165   -0.003409572627951864
-0.014498092979481127   -0.05992560280051002   -0.0032205654965198403
-0.0217688703041835   -0.059791574880671945   -0.0034463883710162168
-0.013867884583604885   -0.04646758089846109   -0.0032413956408115087
-0.021197771947691842   -0.04670437407578165   -0.003409572627951864
-0.02174421810349709   -0.05992464335924139   -0.003440013256414736
-0.013862764179851819   -0.04658821796662814   -0.003162247823995632
-0.0212269640783826   -0.046836580247079186   -0.003332017794925088
-0.02174421810349709   -0.05992464335924139   -0.003440013256414736
-0.014498092979481127   -0.05992560280051002   -0.0032205654965198403
-0.013862764179851819   -0.04658821796662814   -0.003162247823995632
-0.014437529824938055   -0.060035760221254404   -0.00320408589367752
-0.0212269640783826   -0.046836580247079186   -0.003332017794925088
-0.0138445716691973   -0.04669946790484757   -0.003096240969821131
-0.014437529824938055   -0.060035760221254404   -0.00320408589367752
-0.013862764179851819   -0.04658821796662814   -0.003162247823995632
-0.0212269640783826   -0.046836580247079186   -0.003332017794925088
-0.014437529824938055   -0.060035760221254404   -0.00320408589367752
-0.021678001706838087   -0.060053788510923314   -0.003453896016818694
-0.02174421810349709   -0.05992464335924139   -0.003440013256414736
-0.0212269640783826   -0.046836580247079186   -0.003332017794925088
-0.014437529824938055   -0.060035760221254404   -0.00320408589367752
-0.02174421810349709   -0.05992464335924139   -0.003440013256414736
-0.013862764179851819   -0.04658821796662814   -0.003162247823995632
-0.0212269640783826   -0.046836580247079186   -0.003332017794925088
-0.021678001706838087   -0.060053788510923314   -0.003453896016818694
-0.0138445716691973   -0.04669946790484757   -0.003096240969821131
-0.02123709600023258   -0.04698010673390439   -0.0032749992906264094
-0.021678001706838087   -0.060053788510923314   -0.003453896016818694
-0.014437529824938055   -0.060035760221254404   -0.00320408589367752
-0.0138445716691973   -0.04669946790484757   -0.003096240969821131
-0.014359003162981821   -0.06016418926688454   -0.0032009451732191905
-0.02123709600023258   -0.04698010673390439   -0.0032749992906264094
-0.01379914045981721   -0.0468098072914942   -0.003042457492325609
-0.014359003162981821   -0.06016418926688454   -0.0032009451732191905
-0.0138445716691973   -0.04669946790484757   -0.003096240969821131
-0.02123709600023258   -0.04698010673390439   -0.0032749992906264094
-0.014359003162981821   -0.06016418926688454   -0.0032009451732191905
-0.021570334817759503   -0.060220094274358316   -0.0034890563605548515
-0.021678001706838087   -0.060053788510923314   -0.003453896016818694
-0.02123709600023258   -0.04698010673390439   -0.0032749992906264094
-0.014359003162981821   -0.06016418926688454   -0.0032009451732191905
-0.021678001706838087   -0.060053788510923314   -0.003453896016818694
-0.0138445716691973   -0.04669946790484757   -0.003096240969821131
-0.013867884583604885   -0.04646758089846109   -0.0032413956408115087
-0.014536818794775457   -0.059826135481094146   -0.003250600290321567
-0.007143049391399902   -0.04642481955274982   -0.003061213209331926
-0.013862764179851819   -0.04658821796662814   -0.003162247823995632
-0.014536818794775457   -0.059826135481094146   -0.003250600290321567
-0.007912472627859749   -0.05983368747841178   -0.0031204528239785617
-0.007143049391399902   -0.04642481955274982   -0.003061213209331926
-0.007860548462065462   -0.05989077167990341   -0.003067206926447607
-0.013862764179851819   -0.04658821796662814   -0.003162247823995632
-0.007118315074426569   -0.04649786698986406   -0.002992266452303961
-0.007860548462065462   -0.05989077167990341   -0.003067206926447607
-0.007143049391399902   -0.04642481955274982   -0.003061213209331926
-0.013862764179851819   -0.04658821796662814   -0.003162247823995632
-0.007860548462065462   -0.05989077167990341   -0.003067206926447607
-0.014498092979481127   -0.05992560280051002   -0.0032205654965198403
-0.014536818794775457   -0.059826135481094146   -0.003250600290321567
-0.013862764179851819   -0.04658821796662814   -0.003162247823995632
-0.007860548462065462   -0.05989077167990341   -0.003067206926447607
-0.014536818794775457   -0.059826135481094146   -0.003250600290321567
-0.007143049391399902   -0.04642481955274982   -0.003061213209331926
-0.013862764179851819   -0.04658821796662814   -0.003162247823995632
-0.014498092979481127   -0.05992560280051002   -0.0032205654965198403
-0.007118315074426569   -0.04649786698986406   -0.002992266452303961
-0.0138445716691973   -0.04669946790484757   -0.003096240969821131
-0.014498092979481127   -0.05992560280051002   -0.0032205654965198403
-0.007860548462065462   -0.05989077167990341   -0.003067206926447607
-0.007118315074426569   -0.04649786698986406   -0.002992266452303961
-0.007801849024647977   -0.059960136812817935   -0.003027568821869695
-0.0138445716691973   -0.04669946790484757   -0.003096240969821131
-0.007087891014548188   -0.0465648806110185   -0.0029364732950011335
-0.007801849024647977   -0.059960136812817935   -0.003027568821869695
-0.007118315074426569   -0.04649786698986406   -0.002992266452303961
-0.0138445716691973   -0.04669946790484757   -0.003096240969821131
-0.007801849024647977   -0.059960136812817935   -0.003027568821869695
-0.014437529824938055   -0.060035760221254404   -0.00320408589367752
-0.014498092979481127   -0.05992560280051002   -0.0032205654965198403
-0.0138445716691973   -0.04669946790484757   -0.003096240969821131
-0.007801849024647977   -0.059960136812817935   -0.003027568821869695
-0.014498092979481127   -0.05992560280051002   -0.0032205654965198403
-0.007118315074426569   -0.04649786698986406   -0.002992266452303961
-0.0138445716691973   -0.04669946790484757   -0.003096240969821131
-0.014437529824938055   -0.060035760221254404   -0.00320408589367752
-0.007087891014548188   -0.0465648806110185   -0.0029364732950011335
-0.01379914045981721   -0.0468098072914942   -0.003042457492325609
-0.014437529824938055   -0.060035760221254404   -0.00320408589367752
-0.007801849024647977   -0.059960136812817935   -0.003027568821869695
-0.007087891014548188   -0.0465648806110185   -0.0029364732950011335
-0.007738577748278998   -0.060041999026837156   -0.0030019780049391842
-0.01379914045981721   -0.0468098072914942   -0.003042457492325609
-0.007051263079708279   -0.046626080101953765   -0.00289414820756129
-0.007738577748278998   -0.060041999026837156   -0.0030019780049391842
-0.007087891014548188   -0.0465648806110185   -0.0029364732950011335
-0.01379914045981721   -0.0468098072914942   -0.003042457492325609
-0.007738577748278998   -0.060041999026837156   -0.0030019780049391842
-0.014359003162981821   -0.06016418926688454   -0.0032009451732191905
-0.014437529824938055   -0.060035760221254404   -0.00320408589367752
-0.01379914045981721   -0.0468098072914942   -0.003042457492325609
-0.007738577748278998   -0.060041999026837156   -0.0030019780049391842
-0.014437529824938055   -0.060035760221254404   -0.00320408589367752
-0.007087891014548188   -0.0465648806110185   -0.0029364732950011335
-0.007143049391399902   -0.04642481955274982   -0.003061213209331926
-0.007912472627859749   -0.05983368747841178   -0.0031204528239785617
-0.0006001628599423049   -0.046400374156965976   -0.002967923358565118
-0.007118315074426569   -0.04649786698986406   -0.002992266452303961
-0.007912472627859749   -0.05983368747841178   -0.0031204528239785617
-0.0014755820769343747   -0.05979863063341163   -0.003067144397751775
-0.0006001628599423049   -0.046400374156965976   -0.002967923358565118
-0.0014141503853093613   -0.05981192540797474   -0.002991842028950157
-0.007118315074426569   -0.04649786698986406   -0.002992266452303961
-0.0005654611022263193   -0.046424967035174125   -0.0029098625441433467
-0.0014141503853093613   -0.05981192540797474   -0.002991842028950157
-0.0006001628599423049   -0.046400374156965976   -0.002967923358565118
-0.007118315074426569   -0.04649786698986406   -0.002992266452303961
-0.0014141503853093613   -0.05981192540797474   -0.002991842028950157
-0.007860548462065462   -0.05989077167990341   -0.003067206926447607
-0.007912472627859749   -0.05983368747841178   -0.0031204528239785617
-0.007118315074426569   -0.04649786698986406   -0.002992266452303961
-0.0014141503853093613   -0.05981192540797474   -0.002991842028950157
-0.007912472627859749   -0.05983368747841178   -0.0031204528239785617
-0.0006001628599423049   -0.046400374156965976   -0.002967923358565118
-0.007118315074426569   -0.04649786698986406   -0.002992266452303961
-0.007860548462065462   -0.05989077167990341   -0.003067206926447607
-0.0005654611022263193   -0.046424967035174125   -0.0029098625441433467
-0.007087891014548188   -0.0465648806110185   -0.0029364732950011335
-0.007860548462065462   -0.05989077167990341   -0.003067206926447607
-0.0014141503853093613   -0.05981192540797474   -0.002991842028950157
-0.0005654611022263193   -0.046424967035174125   -0.0029098625441433467
-0.0013560472684728921   -0.05983653578359165   -0.002930049788928134
-0.007087891014548188   -0.0465648806110185   -0.0029364732950011335
-0.0005354586968873555   -0.04644310086463527   -0.0028648403700880683
-0.0013560472684728921   -0.05983653578359165   -0.002930049788928134
-0.0005654611022263193   -0.046424967035174125   -0.0029098625441433467
-0.007087891014548188   -0.0465648806110185   -0.0029364732950011335
-0.0013560472684728921   -0.05983653578359165   -0.002930049788928134
-0.007801849024647977   -0.059960136812817935   -0.003027568821869695
-0.007860548462065462   -0.05989077167990341   -0.003067206926447607
-0.007087891014548188   -0.0465648806110185   -0.0029364732950011335
-0.0013560472684728921   -0.05983653578359165   -0.002930049788928134
-0.007860548462065462   -0.05989077167990341   -0.003067206926447607
-0.0005654611022263193   -0.046424967035174125   -0.0029098625441433467
-0.007087891014548188   -0.0465648806110185   -0.0029364732950011335
-0.007801849024647977   -0.059960136812817935   -0.003027568821869695
-0.0005354586968873555   -0.04644310086463527   -0.0028648403700880683
-0.007051263079708279   -0.046626080101953765   -0.00289414820756129
-0.007801849024647977   -0.059960136812817935   -0.003027568821869695
-0.0013560472684728921   -0.05983653578359165   -0.002930049788928134
-0.0005354586968873555   -0.04644310086463527   -0.0028648403700880683
-0.0013067650866955183   -0.05987302516570739   -0.002882240300246321
-0.007051263079708279   -0.046626080101953765   -0.00289414820756129
-0.0005126827277210368   -0.04645468375802351   -0.0028333331575201934
-0.0013067650866955183   -0.05987302516570739   -0.002882240300246321
-0.0005354586968873555   -0.04644310086463527   -0.0028648403700880683
-0.007051263079708279   -0.046626080101953765   -0.00289414820756129
-0.0013067650866955183   -0.05987302516570739   -0.002882240300246321
-0.007738577748278998   -0.060041999026837156   -0.0030019780049391842
-0.007801849024647977   -0.059960136812817935   -0.003027568821869695
-0.007051263079708279   -0.046626080101953765   -0.00289414820756129
-0.0013067650866955183   -0.05987302516570739   -0.002882240300246321
-0.007801849024647977   -0.059960136812817935   -0.003027568821869695
-0.0005354586968873555   -0.04644310086463527   -0.0028648403700880683
-0.0006001628599423049   -0.046400374156965976   -0.002967923358565118
-0.0014755820769343747   -0.05979863063341163   -0.003067144397751775
0.006142501436150873   -0.046390036274600484   -0.0029623300571388306
-0.0005654611022263193   -0.046424967035174125   -0.0029098625441433467
-0.0014755820769343747   -0.05979863063341163   -0.003067144397751775
0.005155282683449904   -0.059720676105472346   -0.0030932053342101144
0.006142501436150873   -0.046390036274600484   -0.0029623300571388306
0.005233667271931709   -0.0596900426309952   -0.0029962432276782807
-0.0005654611022263193   -0.046424967035174125   -0.0029098625441433467
0.006188568969855753   -0.04636770563652263   -0.002915702972410063
0.005233667271931709   -0.0596900426309952   -0.0029962432276782807
0.006142501436150873   -0.046390036274600484   -0.0029623300571388306
-0.0005654611022263193   -0.046424967035174125   -0.0029098625441433467
0.005233667271931709   -0.0596900426309952   -0.0029962432276782807
-0.0014141503853093613   -0.05981192540797474   -0.002991842028950157
-0.0014755820769343747   -0.05979863063341163   -0.003067144397751775
-0.0005654611022263193   -0.046424967035174125   -0.0029098625441433467
0.005233667271931709   -0.0596900426309952   -0.0029962432276782807
-0.0014755820769343747   -0.05979863063341163   -0.003067144397751775
0.006142501436150873   -0.046390036274600484   -0.0029623300571388306
-0.0005654611022263193   -0.046424967035174125   -0.0029098625441433467
-0.0014141503853093613   -0.05981192540797474   -0.002991842028950157
0.006188568969855753   -0.04636770563652263   -0.002915702972410063
-0.0005354586968873555   -0.04644310086463527   -0.0028648403700880683
-0.0014141503853093613   -0.05981192540797474   -0.002991842028950157
0.005233667271931709   -0.0596900426309952   -0.0029962432276782807
0.006188568969855753   -0.04636770563652263   -0.002915702972410063
0.005306061885182845   -0.05967411752865413   -0.0029127517092463013
-0.0005354586968873555   -0.04644310086463527   -0.0028648403700880683
0.00621925862738121   -0.04634160849837206   -0.002881742016347308
0.005306061885182845   -0.05967411752865413   -0.0029127517092463013
0.006188568969855753   -0.04636770563652263   -0.002915702972410063
-0.0005354586968873555   -0.04644310086463527   -0.0028648403700880683
0.005306061885182845   -0.05967411752865413   -0.0029127517092463013
-0.0013560472684728921   -0.05983653578359165   -0.002930049788928134
-0.0014141503853093613   -0.05981192540797474   -0.002991842028950157
-0.0005354586968873555   -0.04644310086463527   -0.0028648403700880683
0.005306061885182845   -0.05967411752865413   -0.0029127517092463013
-0.0014141503853093613   -0.05981192540797474   -0.002991842028950157
0.006188568969855753   -0.04636770563652263   -0.002915702972410063
-0.0005354586968873555   -0.04644310086463527   -0.0028648403700880683
-0.0013560472684728921   -0.05983653578359165   -0.002930049788928134
0.00621925862738121   -0.04634160849837206   -0.002881742016347308
-0.0005126827277210368   -0.04645468375802351   -0.0028333331575201934
-0.0013560472684728921   -0.05983653578359165   -0.002930049788928134
0.005306061885182845   -0.05967411752865413   -0.0029127517092463013
0.00621925862738121   -0.04634160849837206   -0.002881742016347308
0.005344782734854995   -0.05966516181670295   -0.0028418513745338504
-0.0005126827277210368   -0.04645468375802351   -0.0028333331575201934
0.006225201493899171   -0.04630316187594232   -0.002860186554955763
0.005344782734854995   -0.05966516181670295   -0.0028418513745338504
0.00621925862738121   -0.04634160849837206   -0.002881742016347308
-0.0005126827277210368   -0.04645468375802351   -0.0028333331575201934
0.005344782734854995   -0.05966516181670295   -0.0028418513745338504
-0.0013067650866955183   -0.05987302516570739   -0.002882240300246321
-0.0013560472684728921   -0.05983653578359165   -0.002930049788928134
-0.0005126827277210368   -0.04645468375802351   -0.0028333331575201934
0.005344782734854995   -0.05966516181670295   -0.0028418513745338504
-0.0013560472684728921   -0.05983653578359165   -0.002930049788928134
0.00621925862738121   -0.04634160849837206   -0.002881742016347308
0.006142501436150873   -0.046390036274600484   -0.0029623300571388306
0.005155282683449904   -0.059720676105472346   -0.0030932053342101144
0.013449860831173803   -0.046375825076561725   -0.0030355774009610194
0.006188568969855753   -0.04636770563652263   -0.002915702972410063
0.005155282683449904   -0.059720676105472346   -0.0030932053342101144
0.012255328534352352   -0.05958974644320981   -0.003202747390910185
0.013449860831173803   -0.046375825076561725   -0.0030355774009610194
0.012460090587094167   -0.0595193030219521   -0.0030755364289830884
0.006188568969855753   -0.04636770563652263   -0.002915702972410063
0.013540217341087478   -0.04631642251485089   -0.002997508313049542
0.012460090587094167   -0.0595193030219521   -0.0030755364289830884
0.013449860831173803   -0.046375825076561725   -0.0030355774009610194
0.006188568969855753   -0.04636770563652263   -0.002915702972410063
0.012460090587094167   -0.0595193030219521   -0.0030755364289830884
0.005233667271931709   -0.0596900426309952   -0.0029962432276782807
0.005155282683449904   -0.059720676105472346   -0.0030932053342101144
0.006188568969855753   -0.04636770563652263   -0.002915702972410063
0.012460090587094167   -0.0595193030219521   -0.0030755364289830884
0.005155282683449904   -0.059720676105472346   -0.0030932053342101144
0.013449860831173803   -0.046375825076561725   -0.0030355774009610194
0.006188568969855753   -0.04636770563652263   -0.002915702972410063
0.005233667271931709   -0.0596900426309952   -0.0029962432276782807
0.013540217341087478   -0.04631642251485089   -0.002997508313049542
0.00621925862738121   -0.04634160849837206   -0.002881742016347308
0.005233667271931709   -0.0596900426309952   -0.0029962432276782807
0.012460090587094167   -0.0595193030219521   -0.0030755364289830884
0.013540217341087478   -0.04631642251485089   -0.002997508313049542
0.012600673767837767   -0.059485148713563696   -0.0029675046979542197
0.00621925862738121   -0.04634160849837206   -0.002881742016347308
0.013587747577086333   -0.04626946773651853   -0.0029786802636489005
0.012600673767837767   -0.059485148713563696   -0.0029675046979542197
0.013540217341087478   -0.04631642251485089   -0.002997508313049542
0.00621925862738121   -0.04634160849837206   -0.002881742016347308
0.012600673767837767   -0.059485148713563696   -0.0029675046979542197
0.005306061885182845   -0.05967411752865413   -0.0029127517092463013
0.005233667271931709   -0.0596900426309952   -0.0029962432276782807
0.00621925862738121   -0.04634160849837206   -0.002881742016347308
0.012600673767837767   -0.059485148713563696   -0.0029675046979542197
0.005233667271931709   -0.0596900426309952   -0.0029962432276782807
0.013540217341087478   -0.04631642251485089   -0.002997508313049542
0.00621925862738121   -0.04634160849837206   -0.002881742016347308
0.005306061885182845   -0.05967411752865413   -0.0029127517092463013
0.013587747577086333   -0.04626946773651853   -0.0029786802636489005
0.006225201493899171   -0.04630316187594232   -0.002860186554955763
0.005306061885182845   -0.05967411752865413   -0.0029127517092463013
0.012600673767837767   -0.059485148713563696   -0.0029675046979542197
0.013587747577086333   -0.04626946773651853   -0.0029786802636489005
0.012725349882244724   -0.05944790429950609   -0.002879447235814443
0.006225201493899171   -0.04630316187594232   -0.002860186554955763
0.013598678122097892   -0.04619399321621159   -0.0029794209190032927
0.012725349882244724   -0.05944790429950609   -0.002879447235814443
0.013587747577086333   -0.04626946773651853   -0.0029786802636489005
0.006225201493899171   -0.04630316187594232   -0.002860186554955763
0.012725349882244724   -0.05944790429950609   -0.002879447235814443
0.005344782734854995   -0.05966516181670295   -0.0028418513745338504
0.005306061885182845   -0.05967411752865413   -0.0029127517092463013
0.006225201493899171   -0.04630316187594232   -0.002860186554955763
0.012725349882244724   -0.05944790429950609   -0.002879447235814443
0.005306061885182845   -0.05967411752865413   -0.0029127517092463013
0.013587747577086333   -0.04626946773651853   -0.0029786802636489005
-0.0217688703041835   -0.059791574880671945   -0.0034463883710162168
-0.021186980969429267   -0.0724460502479314   -0.0032947178123376455
-0.014536818794775457   -0.059826135481094146   -0.003250600290321567
-0.02174421810349709   -0.05992464335924139   -0.003440013256414736
-0.021186980969429267   -0.0724460502479314   -0.0032947178123376455
-0.014477429967498678   -0.07259185735039199   -0.003176710859828668
-0.014536818794775457   -0.059826135481094146   -0.003250600290321567
-0.014392608345314526   -0.07266614393120187   -0.003194512699209492
-0.02174421810349709   -0.05992464335924139   -0.003440013256414736
-0.014498092979481127   -0.05992560280051002   -0.0032205654965198403
-0.014392608345314526   -0.07266614393120187   -0.003194512699209492
-0.014536818794775457   -0.059826135481094146   -0.003250600290321567
-0.02174421810349709   -0.05992464335924139   -0.003440013256414736
-0.014392608345314526   -0.07266614393120187   -0.003194512699209492
-0.02103388126356106   -0.07254634717712215   -0.0033786868287881836
-0.021186980969429267   -0.0724460502479314   -0.0032947178123376455
-0.02174421810349709   -0.05992464335924139   -0.003440013256414736
-0.014392608345314526   -0.07266614393120187   -0.003194512699209492
-0.021186980969429267   -0.0724460502479314   -0.0032947178123376455
-0.014536818794775457   -0.059826135481094146   -0.003250600290321567
-0.02174421810349709   -0.05992464335924139   -0.003440013256414736
-0.02103388126356106   -0.07254634717712215   -0.0033786868287881836
-0.014498092979481127   -0.05992560280051002   -0.0032205654965198403
-0.021678001706838087   -0.060053788510923314   -0.003453896016818694
-0.02103388126356106   -0.07254634717712215   -0.0033786868287881836
-0.014392608345314526   -0.07266614393120187   -0.003194512699209492
-0.014498092979481127   -0.05992560280051002   -0.0032205654965198403
-0.014277723960191351   -0.07277184015389707   -0.003226223170125841
-0.021678001706838087   -0.060053788510923314   -0.003453896016818694
-0.014437529824938055   -0.060035760221254404   -0.00320408589367752
-0.014277723960191351   -0.07277184015389707   -0.003226223170125841
-0.014498092979481127   -0.05992560280051002   -0.0032205654965198403
-0.021678001706838087   -0.060053788510923314   -0.003453896016818694
-0.014277723960191351   -0.07277184015389707   -0.003226223170125841
-0.0208590332594865   -0.07266936046523163   -0.0034845320524681707
-0.02103388126356106   -0.07254634717712215   -0.0033786868287881836
-0.021678001706838087   -0.060053788510923314   -0.003453896016818694
-0.014277723960191351   -0.07277184015389707   -0.003226223170125841
-0.02103388126356106   -0.07254634717712215   -0.0033786868287881836
-0.014498092979481127   -0.05992560280051002   -0.0032205654965198403
-0.021678001706838087   -0.060053788510923314   -0.003453896016818694
-0.0208590332594865   -0.07266936046523163   -0.0034845320524681707
-0.014437529824938055   -0.060035760221254404   -0.00320408589367752
-0.021570334817759503   -0.060220094274358316   -0.0034890563605548515
-0.0208590332594865   -0.07266936046523163   -0.0034845320524681707
-0.014277723960191351   -0.07277184015389707   -0.003226223170125841
-0.014437529824938055   -0.060035760221254404   -0.00320408589367752
-0.014154434099105799   -0.07291539049314542   -0.003272255580876344
-0.021570334817759503   -0.060220094274358316   -0.0034890563605548515
-0.014359003162981821   -0.06016418926688454   -0.0032009451732191905
-0.014154434099105799   -0.07291539049314542   -0.003272255580876344
-0.014437529824938055   -0.060035760221254404   -0.00320408589367752
-0.021570334817759503   -0.060220094274358316   -0.0034890563605548515
-0.014154434099105799   -0.07291539049314542   -0.003272255580876344
-0.02062087769822556   -0.07285656849633526   -0.0036126524161187957
-0.0208590332594865   -0.07266936046523163   -0.0034845320524681707
-0.021570334817759503   -0.060220094274358316   -0.0034890563605548515
-0.014154434099105799   -0.07291539049314542   -0.003272255580876344
-0.0208590332594865   -0.07266936046523163   -0.0034845320524681707
-0.014437529824938055   -0.060035760221254404   -0.00320408589367752
-0.014536818794775457   -0.059826135481094146   -0.003250600290321567
-0.014477429967498678   -0.07259185735039199   -0.003176710859828668
-0.007912472627859749   -0.05983368747841178   -0.0031204528239785617
-0.014498092979481127   -0.05992560280051002   -0.0032205654965198403
-0.014477429967498678   -0.07259185735039199   -0.003176710859828668
-0.008463570761704002   -0.07264962826309147   -0.003101162066183875
-0.007912472627859749   -0.05983368747841178   -0.0031204528239785617
-0.008371178142431449   -0.07268827973307714   -0.0030623955296945776
-0.014498092979481127   -0.05992560280051002   -0.0032205654965198403
-0.007860548462065462   -0.05989077167990341   -0.003067206926447607
-0.008371178142431449   -0.07268827973307714   -0.0030623955296945776
-0.007912472627859749   -0.05983368747841178   -0.0031204528239785617
-0.014498092979481127   -0.05992560280051002   -0.0032205654965198403
-0.008371178142431449   -0.07268827973307714   -0.0030623955296945776
-0.014392608345314526   -0.07266614393120187   -0.003194512699209492
-0.014477429967498678   -0.07259185735039199   -0.003176710859828668
-0.014498092979481127   -0.05992560280051002   -0.0032205654965198403
-0.008371178142431449   -0.07268827973307714   -0.0030623955296945776
-0.014477429967498678   -0.07259185735039199   -0.003176710859828668
-0.007912472627859749   -0.05983368747841178   -0.0031204528239785617
-0.014498092979481127   -0.05992560280051002   -0.0032205654965198403
-0.014392608345314526   -0.07266614393120187   -0.003194512699209492
-0.007860548462065462   -0.05989077167990341   -0.003067206926447607
-0.014437529824938055   -0.060035760221254404   -0.00320408589367752
-0.014392608345314526   -0.07266614393120187   -0.003194512699209492
-0.008371178142431449   -0.07268827973307714   -0.0030623955296945776
-0.007860548462065462   -0.05989077167990341   -0.003067206926447607
-0.008271780884237597   -0.07275713674542271   -0.0030373687510238776
-0.014437529824938055   -0.060035760221254404   -0.00320408589367752
-0.007801849024647977   -0.059960136812817935   -0.003027568821869695
-0.008271780884237597   -0.07275713674542271   -0.0030373687510238776
-0.007860548462065462   -0.05989077167990341   -0.003067206926447607
-0.014437529824938055   -0.060035760221254404   -0.00320408589367752
-0.008271780884237597   -0.07275713674542271   -0.0030373687510238776
-0.014277723960191351   -0.07277184015389707   -0.003226223170125841
-0.014392608345314526   -0.07266614393120187   -0.003194512699209492
-0.014437529824938055   -0.060035760221254404   -0.00320408589367752
-0.008271780884237597   -0.07275713674542271   -0.0030373687510238776
-0.014392608345314526   -0.07266614393120187   -0.003194512699209492
-0.007860548462065462   -0.05989077167990341   -0.003067206926447607
-0.014437529824938055   -0.060035760221254404   -0.00320408589367752
-0.014277723960191351   -0.07277184015389707   -0.003226223170125841
-0.007801849024647977   -0.059960136812817935   -0.003027568821869695
-0.014359003162981821   -0.06016418926688454   -0.0032009451732191905
-0.014277723960191351   -0.07277184015389707   -0.003226223170125841
-0.008271780884237597   -0.07275713674542271   -0.0030373687510238776
-0.007801849024647977   -0.059960136812817935   -0.003027568821869695
-0.008169611795061971   -0.07285707282860406   -0.0030267517743491437
-0.014359003162981821   -0.06016418926688454   -0.0032009451732191905
-0.007738577748278998   -0.060041999026837156   -0.0030019780049391842
-0.008169611795061971   -0.07285707282860406   -0.0030267517743491437
-0.007801849024647977   -0.059960136812817935   -0.003027568821869695
-0.014359003162981821   -0.06016418926688454   -0.0032009451732191905
-0.008169611795061971   -0.07285707282860406   -0.0030267517743491437
-0.014154434099105799   -0.07291539049314542   -0.003272255580876344
-0.014277723960191351   -0.07277184015389707   -0.003226223170125841
-0.014359003162981821   -0.06016418926688454   -0.0032009451732191905
-0.008169611795061971   -0.07285707282860406   -0.0030267517743491437
-0.014277723960191351   -0.07277184015389707   -0.003226223170125841
-0.007801849024647977   -0.059960136812817935   -0.003027568821869695
-0.007912472627859749   -0.05983368747841178   -0.0031204528239785617
-0.008463570761704002   -0.07264962826309147   -0.003101162066183875
-0.0014755820769343747   -0.05979863063341163   -0.003067144397751775
-0.007860548462065462   -0.05989077167990341   -0.003067206926447607
-0.008463570761704002   -0.07264962826309147   -0.003101162066183875
-0.002631929346099517   -0.07260543053747458   -0.0030885226641364314
-0.0014755820769343747   -0.05979863063341163   -0.003067144397751775
-0.002529734037514298   -0.07260639586009317   -0.002995128118002821
-0.007860548462065462   -0.05989077167990341   -0.003067206926447607
-0.0014141503853093613   -0.05981192540797474   -0.002991842028950157
-0.002529734037514298   -0.07260639586009317   -0.002995128118002821
-0.0014755820769343747   -0.05979863063341163   -0.003067144397751775
-0.007860548462065462   -0.05989077167990341   -0.003067206926447607
-0.002529734037514298   -0.07260639586009317   -0.002995128118002821
-0.008371178142431449   -0.07268827973307714   -0.0030623955296945776
-0.008463570761704002   -0.07264962826309147   -0.003101162066183875
-0.007860548462065462   -0.05989077167990341   -0.003067206926447607
-0.002529734037514298   -0.07260639586009317   -0.002995128118002821
-0.008463570761704002   -0.07264962826309147   -0.003101162066183875
-0.0014755820769343747   -0.05979863063341163   -0.003067144397751775
-0.007860548462065462   -0.05989077167990341   -0.003067206926447607
-0.008371178142431449   -0.07268827973307714   -0.0030623955296945776
-0.0014141503853093613   -0.05981192540797474   -0.002991842028950157
-0.007801849024647977   -0.059960136812817935   -0.003027568821869695
-0.008371178142431449   -0.07268827973307714   -0.0030623955296945776
-0.002529734037514298   -0.07260639586009317   -0.002995128118002821
-0.0014141503853093613   -0.05981192540797474   -0.002991842028950157
-0.002430223114090607   -0.07263534610321523   -0.00291550603579049
-0.007801849024647977   -0.059960136812817935   -0.003027568821869695
-0.0013560472684728921   -0.05983653578359165   -0.002930049788928134
-0.002430223114090607   -0.07263534610321523   -0.00291550603579049
-0.0014141503853093613   -0.05981192540797474   -0.002991842028950157
-0.007801849024647977   -0.059960136812817935   -0.003027568821869695
-0.002430223114090607   -0.07263534610321523   -0.00291550603579049
-0.008271780884237597   -0.07275713674542271   -0.0030373687510238776
-0.008371178142431449   -0.07268827973307714   -0.0030623955296945776
-0.007801849024647977   -0.059960136812817935   -0.003027568821869695
-0.002430223114090607   -0.07263534610321523   -0.00291550603579049
-0.008371178142431449   -0.07268827973307714   -0.0030623955296945776
-0.0014141503853093613   -0.05981192540797474   -0.002991842028950157
-0.007801849024647977   -0.059960136812817935   -0.003027568821869695
-0.008271780884237597   -0.07275713674542271   -0.0030373687510238776
-0.0013560472684728921   -0.05983653578359165   -0.002930049788928134
-0.007738577748278998   -0.060041999026837156   -0.0030019780049391842
-0.008271780884237597   -0.07275713674542271   -0.0030373687510238776
-0.002430223114090607   -0.07263534610321523   -0.00291550603579049
-0.0013560472684728921   -0.05983653578359165   -0.002930049788928134
-0.0023414540708662822   -0.07269468649137466   -0.002850135790666564
-0.007738577748278998   -0.060041999026837156   -0.0030019780049391842
-0.0013067650866955183   -0.05987302516570739   -0.002882240300246321
-0.0023414540708662822   -0.07269468649137466   -0.002850135790666564
-0.0013560472684728921   -0.05983653578359165   -0.002930049788928134
-0.007738577748278998   -0.060041999026837156   -0.0030019780049391842
-0.0023414540708662822   -0.07269468649137466   -0.002850135790666564
-0.008169611795061971   -0.07285707282860406   -0.0030267517743491437
-0.008271780884237597   -0.07275713674542271   -0.0030373687510238776
-0.007738577748278998   -0.060041999026837156   -0.0030019780049391842
-0.0023414540708662822   -0.07269468649137466   -0.002850135790666564
-0.008271780884237597   -0.07275713674542271   -0.0030373687510238776
-0.0013560472684728921   -0.05983653578359165   -0.002930049788928134
-0.0014755820769343747   -0.05979863063341163   -0.003067144397751775
-0.002631929346099517   -0.07260543053747458   -0.0030885226641364314
0.005155282683449904   -0.059720676105472346   -0.0030932053342101144
-0.0014141503853093613   -0.05981192540797474   -0.002991842028950157
-0.002631929346099517   -0.07260543053747458   -0.0030885226641364314
0.0034011307191481465   -0.07246230504301542   -0.0031437335455142996
0.005155282683449904   -0.059720676105472346   -0.0030932053342101144
0.0035260729444592546   -0.0724230453820044   -0.002996232811998156
-0.0014141503853093613   -0.05981192540797474   -0.002991842028950157
0.005233667271931709   -0.0596900426309952   -0.0029962432276782807
0.0035260729444592546   -0.0724230453820044   -0.002996232811998156
0.005155282683449904   -0.059720676105472346   -0.0030932053342101144
-0.0014141503853093613   -0.05981192540797474   -0.002991842028950157
0.0035260729444592546   -0.0724230453820044   -0.002996232811998156
-0.002529734037514298   -0.07260639586009317   -0.002995128118002821
-0.002631929346099517   -0.07260543053747458   -0.0030885226641364314
-0.0014141503853093613   -0.05981192540797474   -0.002991842028950157
0.0035260729444592546   -0.0724230453820044   -0.002996232811998156
-0.002631929346099517   -0.07260543053747458   -0.0030885226641364314
0.005155282683449904   -0.059720676105472346   -0.0030932053342101144
-0.0014141503853093613   -0.05981192540797474   -0.002991842028950157
-0.002529734037514298   -0.07260639586009317   -0.002995128118002821
0.005233667271931709   -0.0596900426309952   -0.0029962432276782807
-0.0013560472684728921   -0.05983653578359165   -0.002930049788928134
-0.002529734037514298   -0.07260639586009317   -0.002995128118002821
0.0035260729444592546   -0.0724230453820044   -0.002996232811998156
0.005233667271931709   -0.0596900426309952   -0.0029962432276782807
0.003654158604445447   -0.07241575387672963   -0.0028633885936702546
-0.0013560472684728921   -0.05983653578359165   -0.002930049788928134
0.005306061885182845   -0.05967411752865413   -0.0029127517092463013
0.003654158604445447   -0.07241575387672963   -0.0028633885936702546
0.005233667271931709   -0.0596900426309952   -0.0029962432276782807
-0.0013560472684728921   -0.05983653578359165   -0.002930049788928134
0.003654158604445447   -0.07241575387672963   -0.0028633885936702546
-0.002430223114090607   -0.07263534610321523   -0.00291550603579049
-0.002529734037514298   -0.07260639586009317   -0.002995128118002821
-0.0013560472684728921   -0.05983653578359165   -0.002930049788928134
0.003654158604445447   -0.07241575387672963   -0.0028633885936702546
-0.002529734037514298   -0.07260639586009317   -0.002995128118002821
0.005233667271931709   -0.0596900426309952   -0.0029962432276782807
-0.0013560472684728921   -0.05983653578359165   -0.002930049788928134
-0.002430223114090607   -0.07263534610321523   -0.00291550603579049
0.005306061885182845   -0.05967411752865413   -0.0029127517092463013
-0.0013067650866955183   -0.05987302516570739   -0.002882240300246321
-0.002430223114090607   -0.07263534610321523   -0.00291550603579049
0.003654158604445447   -0.07241575387672963   -0.0028633885936702546
0.005306061885182845   -0.05967411752865413   -0.0029127517092463013
0.003739290710961851   -0.07243452601110027   -0.002743268736101394
-0.0013067650866955183   -0.05987302516570739   -0.002882240300246321
0.005344782734854995   -0.05966516181670295   -0.0028418513745338504
0.003739290710961851   -0.07243452601110027   -0.002743268736101394
0.005306061885182845   -0.05967411752865413   -0.0029127517092463013
-0.0013067650866955183   -0.05987302516570739   -0.002882240300246321
0.003739290710961851   -0.07243452601110027   -0.002743268736101394
-0.0023414540708662822   -0.07269468649137466   -0.002850135790666564
-0.002430223114090607   -0.07263534610321523   -0.00291550603579049
-0.0013067650866955183   -0.05987302516570739   -0.002882240300246321
0.003739290710961851   -0.07243452601110027   -0.002743268736101394
-0.002430223114090607   -0.07263534610321523   -0.00291550603579049
0.005306061885182845   -0.05967411752865413   -0.0029127517092463013
0.005155282683449904   -0.059720676105472346   -0.0030932053342101144
0.0034011307191481465   -0.07246230504301542   -0.0031437335455142996
0.012255328534352352   -0.05958974644320981   -0.003202747390910185
0.005233667271931709   -0.0596900426309952   -0.0029962432276782807
0.0034011307191481465   -0.07246230504301542   -0.0031437335455142996
0.00982012291998029   -0.07221626489148829   -0.0032865049343601504
0.012255328534352352   -0.05958974644320981   -0.003202747390910185
0.0101525034099701   -0.07213525881951614   -0.0030719218716130795
0.005233667271931709   -0.0596900426309952   -0.0029962432276782807
0.012460090587094167   -0.0595193030219521   -0.0030755364289830884
0.0101525034099701   -0.07213525881951614   -0.0030719218716130795
0.012255328534352352   -0.05958974644320981   -0.003202747390910185
0.005233667271931709   -0.0596900426309952   -0.0029962432276782807
0.0101525034099701   -0.07213525881951614   -0.0030719218716130795
0.0035260729444592546   -0.0724230453820044   -0.002996232811998156
0.0034011307191481465   -0.07246230504301542   -0.0031437335455142996
0.005233667271931709   -0.0596900426309952   -0.0029962432276782807
0.0101525034099701   -0.07213525881951614   -0.0030719218716130795
0.0034011307191481465   -0.07246230504301542   -0.0031437335455142996
0.012255328534352352   -0.05958974644320981   -0.003202747390910185
0.005233667271931709   -0.0596900426309952   -0.0029962432276782807
0.0035260729444592546   -0.0724230453820044   -0.002996232811998156
0.012460090587094167   -0.0595193030219521   -0.0030755364289830884
0.005306061885182845   -0.05967411752865413   -0.0029127517092463013
0.0035260729444592546   -0.0724230453820044   -0.002996232811998156
0.0101525034099701   -0.07213525881951614   -0.0030719218716130795
0.012460090587094167   -0.0595193030219521   -0.0030755364289830884
0.010398566507013558   -0.07211301425072425   -0.0028768257816531822
0.005306061885182845   -0.05967411752865413   -0.0029127517092463013
0.012600673767837767   -0.059485148713563696   -0.0029675046979542197
0.010398566507013558   -0.07211301425072425   -0.0028768257816531822
0.012460090587094167   -0.0595193030219521   -0.0030755364289830884
0.005306061885182845   -0.05967411752865413   -0.0029127517092463013
0.010398566507013558   -0.07211301425072425   -0.0028768257816531822
0.003654158604445447   -0.07241575387672963   -0.0028633885936702546
0.0035260729444592546   -0.0724230453820044   -0.002996232811998156
0.005306061885182845   -0.05967411752865413   -0.0029127517092463013
0.010398566507013558   -0.07211301425072425   -0.0028768257816531822
0.0035260729444592546   -0.0724230453820044   -0.002996232811998156
0.012460090587094167   -0.0595193030219521   -0.0030755364289830884
0.005306061885182845   -0.05967411752865413   -0.0029127517092463013
0.003654158604445447   -0.07241575387672963   -0.0028633885936702546
0.012600673767837767   -0.059485148713563696   -0.0029675046979542197
0.005344782734854995   -0.05966516181670295   -0.0028418513745338504
0.003654158604445447   -0.07241575387672963   -0.0028633885936702546
0.010398566507013558   -0.07211301425072425   -0.0028768257816531822
0.012600673767837767   -0.059485148713563696   -0.0029675046979542197
0.010647914716063783   -0.07211277732513927   -0.002702101541481081
0.005344782734854995   -0.05966516181670295   -0.0028418513745338504
0.012725349882244724   -0.05944790429950609   -0.002879447235814443
0.010647914716063783   -0.07211277732513927   -0.002702101541481081
0.012600673767837767   -0.059485148713563696   -0.0029675046979542197
0.005344782734854995   -0.05966516181670295   -0.0028418513745338504
0.010647914716063783   -0.07211277732513927   -0.002702101541481081
0.003739290710961851   -0.07243452601110027   -0.002743268736101394
0.003654158604445447   -0.07241575387672963   -0.0028633885936702546
0.005344782734854995   -0.05966516181670295   -0.0028418513745338504
0.010647914716063783   -0.07211277732513927   -0.002702101541481081
0.003654158604445447   -0.07241575387672963   -0.0028633885936702546
0.012600673767837767   -0.059485148713563696   -0.0029675046979542197
-0.021186980969429267   -0.0724460502479314   -0.0032947178123376455
-0.01933528512566211   -0.08364545638091239   -0.003072175066552642
-0.014477429967498678   -0.07259185735039199   -0.003176710859828668
-0.02103388126356106   -0.07254634717712215   -0.0033786868287881836
-0.01933528512566211   -0.08364545638091239   -0.003072175066552642
-0.013687774018713248   -0.08390869994709849   -0.0030530858131024943
-0.014477429967498678   -0.07259185735039199   -0.003176710859828668
-0.013546712029690315   -0.08394678851072221   -0.0031153048074512965
-0.02103388126356106   -0.07254634717712215   -0.0033786868287881836
-0.014392608345314526   -0.07266614393120187   -0.003194512699209492
-0.013546712029690315   -0.08394678851072221   -0.0031153048074512965
-0.014477429967498678   -0.07259185735039199   -0.003176710859828668
-0.02103388126356106   -0.07254634717712215   -0.0033786868287881836
-0.013546712029690315   -0.08394678851072221   -0.0031153048074512965
-0.019041625863506686   -0.08370199694612623   -0.0032462885898713436
-0.01933528512566211   -0.08364545638091239   -0.003072175066552642
-0.02103388126356106   -0.07254634717712215   -0.0033786868287881836
-0.013546712029690315   -0.08394678851072221   -0.0031153048074512965
-0.01933528512566211   -0.08364545638091239   -0.003072175066552642
-0.014477429967498678   -0.07259185735039199   -0.003176710859828668
-0.02103388126356106   -0.07254634717712215   -0.0033786868287881836
-0.019041625863506686   -0.08370199694612623   -0.0032462885898713436
-0.014392608345314526   -0.07266614393120187   -0.003194512699209492
-0.0208590332594865   -0.07266936046523163   -0.0034845320524681707
-0.019041625863506686   -0.08370199694612623   -0.0032462885898713436
-0.013546712029690315   -0.08394678851072221   -0.0031153048074512965
-0.014392608345314526   -0.07266614393120187   -0.003194512699209492
-0.013369540968471294   -0.08403797311497267   -0.003191648854176802
-0.0208590332594865   -0.07266936046523163   -0.0034845320524681707
-0.014277723960191351   -0.07277184015389707   -0.003226223170125841
-0.013369540968471294   -0.08403797311497267   -0.003191648854176802
-0.014392608345314526   -0.07266614393120187   -0.003194512699209492
-0.0208590332594865   -0.07266936046523163   -0.0034845320524681707
-0.013369540968471294   -0.08403797311497267   -0.003191648854176802
-0.018748636926365542   -0.08380900547386258   -0.003443402868784076
-0.019041625863506686   -0.08370199694612623   -0.0032462885898713436
-0.0208590332594865   -0.07266936046523163   -0.0034845320524681707
-0.013369540968471294   -0.08403797311497267   -0.003191648854176802
-0.019041625863506686   -0.08370199694612623   -0.0032462885898713436
-0.014392608345314526   -0.07266614393120187   -0.003194512699209492
-0.0208590332594865   -0.07266936046523163   -0.0034845320524681707
-0.018748636926365542   -0.08380900547386258   -0.003443402868784076
-0.014277723960191351   -0.07277184015389707   -0.003226223170125841
-0.02062087769822556   -0.07285656849633526   -0.0036126524161187957
-0.018748636926365542   -0.08380900547386258   -0.003443402868784076
-0.013369540968471294   -0.08403797311497267   -0.003191648854176802
-0.014277723960191351   -0.07277184015389707   -0.003226223170125841
-0.013194715160822712   -0.08418743160333084   -0.0032819855589414125
-0.02062087769822556   -0.07285656849633526   -0.0036126524161187957
-0.014154434099105799   -0.07291539049314542   -0.003272255580876344
-0.013194715160822712   -0.08418743160333084   -0.0032819855589414125
-0.014277723960191351   -0.07277184015389707   -0.003226223170125841
-0.02062087769822556   -0.07285656849633526   -0.0036126524161187957
-0.013194715160822712   -0.08418743160333084   -0.0032819855589414125
-0.01837331548837884   -0.08400854382111038   -0.003663088023327947
-0.018748636926365542   -0.08380900547386258   -0.003443402868784076
-0.02062087769822556   -0.07285656849633526   -0.0036126524161187957
-0.013194715160822712   -0.08418743160333084   -0.0032819855589414125
-0.018748636926365542   -0.08380900547386258   -0.003443402868784076
-0.014277723960191351   -0.07277184015389707   -0.003226223170125841
-0.014477429967498678   -0.07259185735039199   -0.003176710859828668
-0.013687774018713248   -0.08390869994709849   -0.0030530858131024943
-0.008463570761704002   -0.07264962826309147   -0.003101162066183875
-0.014392608345314526   -0.07266614393120187   -0.003194512699209492
-0.013687774018713248   -0.08390869994709849   -0.0030530858131024943
-0.008798669638733249   -0.08403215530779826   -0.0030454664293637977
-0.008463570761704002   -0.07264962826309147   -0.003101162066183875
-0.00865391450098499   -0.08404466847154168   -0.003017660007759616
-0.014392608345314526   -0.07266614393120187   -0.003194512699209492
-0.008371178142431449   -0.07268827973307714   -0.0030623955296945776
-0.00865391450098499   -0.08404466847154168   -0.003017660007759616
-0.008463570761704002   -0.07264962826309147   -0.003101162066183875
-0.014392608345314526   -0.07266614393120187   -0.003194512699209492
-0.00865391450098499   -0.08404466847154168   -0.003017660007759616
-0.013546712029690315   -0.08394678851072221   -0.0031153048074512965
-0.013687774018713248   -0.08390869994709849   -0.0030530858131024943
-0.014392608345314526   -0.07266614393120187   -0.003194512699209492
-0.00865391450098499   -0.08404466847154168   -0.003017660007759616
-0.013687774018713248   -0.08390869994709849   -0.0030530858131024943
-0.008463570761704002   -0.07264962826309147   -0.003101162066183875
-0.014392608345314526   -0.07266614393120187   -0.003194512699209492
-0.013546712029690315   -0.08394678851072221   -0.0031153048074512965
-0.008371178142431449   -0.07268827973307714   -0.0030623955296945776
-0.014277723960191351   -0.07277184015389707   -0.003226223170125841
-0.013546712029690315   -0.08394678851072221   -0.0031153048074512965
-0.00865391450098499   -0.08404466847154168   -0.003017660007759616
-0.008371178142431449   -0.07268827973307714   -0.0030623955296945776
-0.00850452056782893   -0.08410458565729723   -0.0030035605911557257
-0.014277723960191351   -0.07277184015389707   -0.003226223170125841
-0.008271780884237597   -0.07275713674542271   -0.0030373687510238776
-0.00850452056782893   -0.08410458565729723   -0.0030035605911557257
-0.008371178142431449   -0.07268827973307714   -0.0030623955296945776
-0.014277723960191351   -0.07277184015389707   -0.003226223170125841
-0.00850452056782893   -0.08410458565729723   -0.0030035605911557257
-0.013369540968471294   -0.08403797311497267   -0.003191648854176802
-0.013546712029690315   -0.08394678851072221   -0.0031153048074512965
-0.014277723960191351   -0.07277184015389707   -0.003226223170125841
-0.00850452056782893   -0.08410458565729723   -0.0030035605911557257
-0.013546712029690315   -0.08394678851072221   -0.0031153048074512965
-0.008371178142431449   -0.07268827973307714   -0.0030623955296945776
-0.014277723960191351   -0.07277184015389707   -0.003226223170125841
-0.013369540968471294   -0.08403797311497267   -0.003191648854176802
-0.008271780884237597   -0.07275713674542271   -0.0030373687510238776
-0.014154434099105799   -0.07291539049314542   -0.003272255580876344
-0.013369540968471294   -0.08403797311497267   -0.003191648854176802
-0.00850452056782893   -0.08410458565729723   -0.0030035605911557257
-0.008271780884237597   -0.07275713674542271   -0.0030373687510238776
-0.0083553767063711   -0.08421471406533744   -0.0030029880213960324
-0.014154434099105799   -0.07291539049314542   -0.003272255580876344
-0.008169611795061971   -0.07285707282860406   -0.0030267517743491437
-0.0083553767063711   -0.08421471406533744   -0.0030029880213960324
-0.008271780884237597   -0.07275713674542271   -0.0030373687510238776
-0.014154434099105799   -0.07291539049314542   -0.003272255580876344
-0.0083553767063711   -0.08421471406533744   -0.0030029880213960324
-0.013194715160822712   -0.08418743160333084   -0.0032819855589414125
-0.013369540968471294   -0.08403797311497267   -0.003191648854176802
-0.014154434099105799   -0.07291539049314542   -0.003272255580876344
-0.0083553767063711   -0.08421471406533744   -0.0030029880213960324
-0.013369540968471294   -0.08403797311497267   -0.003191648854176802
-0.008271780884237597   -0.07275713674542271   -0.0030373687510238776
-0.008463570761704002   -0.07264962826309147   -0.003101162066183875
-0.008798669638733249   -0.08403215530779826   -0.0030454664293637977
-0.002631929346099517   -0.07260543053747458   -0.0030885226641364314
-0.008371178142431449   -0.07268827973307714   -0.0030623955296945776
-0.008798669638733249   -0.08403215530779826   -0.0030454664293637977
-0.004071974102933473   -0.08401003332787489   -0.0030804233017245703
-0.002631929346099517   -0.07260543053747458   -0.0030885226641364314
-0.00391341383773441   -0.08399383388265022   -0.0029657531348575316
-0.008371178142431449   -0.07268827973307714   -0.0030623955296945776
-0.002529734037514298   -0.07260639586009317   -0.002995128118002821
-0.00391341383773441   -0.08399383388265022   -0.0029657531348575316
-0.002631929346099517   -0.07260543053747458   -0.0030885226641364314
-0.008371178142431449   -0.07268827973307714   -0.0030623955296945776
-0.00391341383773441   -0.08399383388265022   -0.0029657531348575316
-0.00865391450098499   -0.08404466847154168   -0.003017660007759616
-0.008798669638733249   -0.08403215530779826   -0.0030454664293637977
-0.008371178142431449   -0.07268827973307714   -0.0030623955296945776
-0.00391341383773441   -0.08399383388265022   -0.0029657531348575316
-0.008798669638733249   -0.08403215530779826   -0.0030454664293637977
-0.002631929346099517   -0.07260543053747458   -0.0030885226641364314
-0.008371178142431449   -0.07268827973307714   -0.0030623955296945776
-0.00865391450098499   -0.08404466847154168   -0.003017660007759616
-0.002529734037514298   -0.07260639586009317   -0.002995128118002821
-0.008271780884237597   -0.07275713674542271   -0.0030373687510238776
-0.00865391450098499   -0.08404466847154168   -0.003017660007759616
-0.00391341383773441   -0.08399383388265022   -0.0029657531348575316
-0.002529734037514298   -0.07260639586009317   -0.002995128118002821
-0.0037595454237809045   -0.08402048311910099   -0.0028656933581549266
-0.008271780884237597   -0.07275713674542271   -0.0030373687510238776
-0.002430223114090607   -0.07263534610321523   -0.00291550603579049
-0.0037595454237809045   -0.08402048311910099   -0.0028656933581549266
-0.002529734037514298   -0.07260639586009317   -0.002995128118002821
-0.008271780884237597   -0.07275713674542271   -0.0030373687510238776
-0.0037595454237809045   -0.08402048311910099   -0.0028656933581549266
-0.00850452056782893   -0.08410458565729723   -0.0030035605911557257
-0.00865391450098499   -0.08404466847154168   -0.003017660007759616
-0.008271780884237597   -0.07275713674542271   -0.0030373687510238776
-0.0037595454237809045   -0.08402048311910099   -0.0028656933581549266
-0.00865391450098499   -0.08404466847154168   -0.003017660007759616
-0.002529734037514298   -0.07260639586009317   -0.002995128118002821
-0.008271780884237597   -0.07275713674542271   -0.0030373687510238776
-0.00850452056782893   -0.08410458565729723   -0.0030035605911557257
-0.002430223114090607   -0.07263534610321523   -0.00291550603579049
-0.008169611795061971   -0.07285707282860406   -0.0030267517743491437
-0.00850452056782893   -0.08410458565729723   -0.0030035605911557257
-0.0037595454237809045   -0.08402048311910099   -0.0028656933581549266
-0.002430223114090607   -0.07263534610321523   -0.00291550603579049
-0.003620545841926287   -0.0840962267631196   -0.002778976388015412
-0.008169611795061971   -0.07285707282860406   -0.0030267517743491437
-0.0023414540708662822   -0.07269468649137466   -0.002850135790666564
-0.003620545841926287   -0.0840962267631196   -0.002778976388015412
-0.002430223114090607   -0.07263534610321523   -0.00291550603579049
-0.008169611795061971   -0.07285707282860406   -0.0030267517743491437
-0.003620545841926287   -0.0840962267631196   -0.002778976388015412
-0.0083553767063711   -0.08421471406533744   -0.0030029880213960324
-0.00850452056782893   -0.08410458565729723   -0.0030035605911557257
-0.008169611795061971   -0.07285707282860406   -0.0030267517743491437
-0.003620545841926287   -0.0840962267631196   -0.002778976388015412
-0.00850452056782893   -0.08410458565729723   -0.0030035605911557257
-0.002430223114090607   -0.07263534610321523   -0.00291550603579049
-0.002631929346099517   -0.07260543053747458   -0.0030885226641364314
-0.004071974102933473   -0.08401003332787489   -0.0030804233017245703
0.0034011307191481465   -0.07246230504301542   -0.0031437335455142996
-0.002529734037514298   -0.07260639586009317   -0.002995128118002821
-0.004071974102933473   -0.08401003332787489   -0.0030804233017245703
0.0008769380350044621   -0.08383713198753252   -0.0031656761334806437
0.0034011307191481465   -0.07246230504301542   -0.0031437335455142996
0.0010697968969301537   -0.08378444794733278   -0.002964449129398762
-0.002529734037514298   -0.07260639586009317   -0.002995128118002821
0.0035260729444592546   -0.0724230453820044   -0.002996232811998156
0.0010697968969301537   -0.08378444794733278   -0.002964449129398762
0.0034011307191481465   -0.07246230504301542   -0.0031437335455142996
-0.002529734037514298   -0.07260639586009317   -0.002995128118002821
0.0010697968969301537   -0.08378444794733278   -0.002964449129398762
-0.00391341383773441   -0.08399383388265022   -0.0029657531348575316
-0.004071974102933473   -0.08401003332787489   -0.0030804233017245703
-0.002529734037514298   -0.07260639586009317   -0.002995128118002821
0.0010697968969301537   -0.08378444794733278   -0.002964449129398762
-0.004071974102933473   -0.08401003332787489   -0.0030804233017245703
0.0034011307191481465   -0.07246230504301542   -0.0031437335455142996
-0.002529734037514298   -0.07260639586009317   -0.002995128118002821
-0.00391341383773441   -0.08399383388265022   -0.0029657531348575316
0.0035260729444592546   -0.0724230453820044   -0.002996232811998156
-0.002430223114090607   -0.07263534610321523   -0.00291550603579049
-0.00391341383773441   -0.08399383388265022   -0.0029657531348575316
0.0010697968969301537   -0.08378444794733278   -0.002964449129398762
0.0035260729444592546   -0.0724230453820044   -0.002996232811998156
0.001272989677114045   -0.08377967323418929   -0.0027817467618608477
-0.002430223114090607   -0.07263534610321523   -0.00291550603579049
0.003654158604445447   -0.07241575387672963   -0.0028633885936702546
0.001272989677114045   -0.08377967323418929   -0.0027817467618608477
0.0035260729444592546   -0.0724230453820044   -0.002996232811998156
-0.002430223114090607   -0.07263534610321523   -0.00291550603579049
0.001272989677114045   -0.08377967323418929   -0.0027817467618608477
-0.0037595454237809045   -0.08402048311910099   -0.0028656933581549266
-0.00391341383773441   -0.08399383388265022   -0.0029657531348575316
-0.002430223114090607   -0.07263534610321523   -0.00291550603579049
0.001272989677114045   -0.08377967323418929   -0.0027817467618608477
-0.00391341383773441   -0.08399383388265022   -0.0029657531348575316
0.0035260729444592546   -0.0724230453820044   -0.002996232811998156
-0.002430223114090607   -0.07263534610321523   -0.00291550603579049
-0.0037595454237809045   -0.08402048311910099   -0.0028656933581549266
0.003654158604445447   -0.07241575387672963   -0.0028633885936702546
-0.0023414540708662822   -0.07269468649137466   -0.002850135790666564
-0.0037595454237809045   -0.08402048311910099   -0.0028656933581549266
0.001272989677114045   -0.08377967323418929   -0.0027817467618608477
0.003654158604445447   -0.07241575387672963   -0.0028633885936702546
0.001421599209139112   -0.08382063516865132   -0.0026118015380389953
-0.0023414540708662822   -0.07269468649137466   -0.002850135790666564
0.003739290710961851   -0.07243452601110027   -0.002743268736101394
0.001421599209139112   -0.08382063516865132   -0.0026118015380389953
0.003654158604445447   -0.07241575387672963   -0.0028633885936702546
-0.0023414540708662822   -0.07269468649137466   -0.002850135790666564
0.001421599209139112   -0.08382063516865132   -0.0026118015380389953
-0.003620545841926287   -0.0840962267631196   -0.002778976388015412
-0.0037595454237809045   -0.08402048311910099   -0.0028656933581549266
-0.0023414540708662822   -0.07269468649137466   -0.002850135790666564
0.001421599209139112   -0.08382063516865132   -0.0026118015380389953
-0.0037595454237809045   -0.08402048311910099   -0.0028656933581549266
0.003654158604445447   -0.07241575387672963   -0.0028633885936702546
0.0034011307191481465   -0.07246230504301542   -0.0031437335455142996
0.0008769380350044621   -0.08383713198753252   -0.0031656761334806437
0.00982012291998029   -0.07221626489148829   -0.0032865049343601504
0.0035260729444592546   -0.0724230453820044   -0.002996232811998156
0.0008769380350044621   -0.08383713198753252   -0.0031656761334806437
0.006154429664492316   -0.08349703522620297   -0.0033481984561139913
0.00982012291998029   -0.07221626489148829   -0.0032865049343601504
0.006642487436633289   -0.08339587828847404   -0.0030402498333845715
0.0035260729444592546   -0.0724230453820044   -0.002996232811998156
0.0101525034099701   -0.07213525881951614   -0.0030719218716130795
0.006642487436633289   -0.08339587828847404   -0.0030402498333845715
0.00982012291998029   -0.07221626489148829   -0.0032865049343601504
0.0035260729444592546   -0.0724230453820044   -0.002996232811998156
0.006642487436633289   -0.08339587828847404   -0.0030402498333845715
0.0010697968969301537   -0.08378444794733278   -0.002964449129398762
0.0008769380350044621   -0.08383713198753252   -0.0031656761334806437
0.0035260729444592546   -0.0724230453820044   -0.002996232811998156
0.006642487436633289   -0.08339587828847404   -0.0030402498333845715
0.0008769380350044621   -0.08383713198753252   -0.0031656761334806437
0.00982012291998029   -0.07221626489148829   -0.0032865049343601504
0.0035260729444592546   -0.0724230453820044   -0.002996232811998156
0.0010697968969301537   -0.08378444794733278   -0.002964449129398762
0.0101525034099701   -0.07213525881951614   -0.0030719218716130795
0.003654158604445447   -0.07241575387672963   -0.0028633885936702546
0.0010697968969301537   -0.08378444794733278   -0.002964449129398762
0.006642487436633289   -0.08339587828847404   -0.0030402498333845715
0.0101525034099701   -0.07213525881951614   -0.0030719218716130795
0.007016662414420582   -0.08337836391654851   -0.002755271792972966
0.003654158604445447   -0.07241575387672963   -0.0028633885936702546
0.010398566507013558   -0.07211301425072425   -0.0028768257816531822
0.007016662414420582   -0.08337836391654851   -0.002755271792972966
0.0101525034099701   -0.07213525881951614   -0.0030719218716130795
0.003654158604445447   -0.07241575387672963   -0.0028633885936702546
0.007016662414420582   -0.08337836391654851   -0.002755271792972966
0.001272989677114045   -0.08377967323418929   -0.0027817467618608477
0.0010697968969301537   -0.08378444794733278   -0.002964449129398762
0.003654158604445447   -0.07241575387672963   -0.0028633885936702546
0.007016662414420582   -0.08337836391654851   -0.002755271792972966
0.0010697968969301537   -0.08378444794733278   -0.002964449129398762
0.0101525034099701   -0.07213525881951614   -0.0030719218716130795
0.003654158604445447   -0.07241575387672963   -0.0028633885936702546
0.001272989677114045   -0.08377967323418929   -0.0027817467618608477
0.010398566507013558   -0.07211301425072425   -0.0028768257816531822
0.003739290710961851   -0.07243452601110027   -0.002743268736101394
0.001272989677114045   -0.08377967323418929   -0.0027817467618608477
0.007016662414420582   -0.08337836391654851   -0.002755271792972966
0.010398566507013558   -0.07211301425072425   -0.0028768257816531822
0.007404141870180134   -0.08340829689102948   -0.00249559593610712
0.003739290710961851   -0.07243452601110027   -0.002743268736101394
0.010647914716063783   -0.07211277732513927   -0.002702101541481081
0.007404141870180134   -0.08340829689102948   -0.00249559593610712
0.010398566507013558   -0.07211301425072425   -0.0028768257816531822
0.003739290710961851   -0.07243452601110027   -0.002743268736101394
0.007404141870180134   -0.08340829689102948   -0.00249559593610712
0.001421599209139112   -0.08382063516865132   -0.0026118015380389953
0.001272989677114045   -0.08377967323418929   -0.0027817467618608477
0.003739290710961851   -0.07243452601110027   -0.002743268736101394
0.007404141870180134   -0.08340829689102948   -0.00249559593610712
0.001272989677114045   -0.08377967323418929   -0.0027817467618608477
0.010398566507013558   -0.07211301425072425   -0.0028768257816531822
-0.01933528512566211   -0.08364545638091239   -0.003072175066552642
-0.016190107825314135   -0.09243734439365163   -0.002787080914016043
-0.013687774018713248   -0.08390869994709849   -0.0030530858131024943
-0.019041625863506686   -0.08370199694612623   -0.0032462885898713436
-0.016190107825314135   -0.09243734439365163   -0.002787080914016043
-0.012171411643819852   -0.09282739660734615   -0.0029041252799186326
-0.013687774018713248   -0.08390869994709849   -0.0030530858131024943
-0.011968002797388796   -0.09280722265283024   -0.002999891733348078
-0.019041625863506686   -0.08370199694612623   -0.0032462885898713436
-0.013546712029690315   -0.08394678851072221   -0.0031153048074512965
-0.011968002797388796   -0.09280722265283024   -0.002999891733348078
-0.013687774018713248   -0.08390869994709849   -0.0030530858131024943
-0.019041625863506686   -0.08370199694612623   -0.0032462885898713436
-0.011968002797388796   -0.09280722265283024   -0.002999891733348078
-0.015751967284634637   -0.09242631090023136   -0.0030453060868396507
-0.016190107825314135   -0.09243734439365163   -0.002787080914016043
-0.019041625863506686   -0.08370199694612623   -0.0032462885898713436
-0.011968002797388796   -0.09280722265283024   -0.002999891733348078
-0.016190107825314135   -0.09243734439365163   -0.002787080914016043
-0.013687774018713248   -0.08390869994709849   -0.0030530858131024943
-0.019041625863506686   -0.08370199694612623   -0.0032462885898713436
-0.015751967284634637   -0.09242631090023136   -0.0030453060868396507
-0.013546712029690315   -0.08394678851072221   -0.0031153048074512965
-0.018748636926365542   -0.08380900547386258   -0.003443402868784076
-0.015751967284634637   -0.09242631090023136   -0.0030453060868396507
-0.011968002797388796   -0.09280722265283024   -0.002999891733348078
-0.013546712029690315   -0.08394678851072221   -0.0031153048074512965
-0.01172881722017507   -0.0928632184507101   -0.0031100998027057676
-0.018748636926365542   -0.08380900547386258   -0.003443402868784076
-0.013369540968471294   -0.08403797311497267   -0.003191648854176802
-0.01172881722017507   -0.0928632184507101   -0.0031100998027057676
-0.013546712029690315   -0.08394678851072221   -0.0031153048074512965
-0.018748636926365542   -0.08380900547386258   -0.003443402868784076
-0.01172881722017507   -0.0928632184507101   -0.0031100998027057676
-0.015348037815988685   -0.09249552031419082   -0.003323866113888786
-0.015751967284634637   -0.09242631090023136   -0.0030453060868396507
-0.018748636926365542   -0.08380900547386258   -0.003443402868784076
-0.01172881722017507   -0.0928632184507101   -0.0031100998027057676
-0.015751967284634637   -0.09242631090023136   -0.0030453060868396507
-0.013546712029690315   -0.08394678851072221   -0.0031153048074512965
-0.018748636926365542   -0.08380900547386258   -0.003443402868784076
-0.015348037815988685   -0.09249552031419082   -0.003323866113888786
-0.013369540968471294   -0.08403797311497267   -0.003191648854176802
-0.01837331548837884   -0.08400854382111038   -0.003663088023327947
-0.015348037815988685   -0.09249552031419082   -0.003323866113888786
-0.01172881722017507   -0.0928632184507101   -0.0031100998027057676
-0.013369540968471294   -0.08403797311497267   -0.003191648854176802
-0.01151182594190261   -0.0929966514765247   -0.003233824651890296
-0.01837331548837884   -0.08400854382111038   -0.003663088023327947
-0.013194715160822712   -0.08418743160333084   -0.0032819855589414125
-0.01151182594190261   -0.0929966514765247   -0.003233824651890296
-0.013369540968471294   -0.08403797311497267   -0.003191648854176802
-0.01837331548837884   -0.08400854382111038   -0.003663088023327947
-0.01151182594190261   -0.0929966514765247   -0.003233824651890296
-0.014855418826750724   -0.09268053097613105   -0.003621556714695065
-0.015348037815988685   -0.09249552031419082   -0.003323866113888786
-0.01837331548837884   -0.08400854382111038   -0.003663088023327947
-0.01151182594190261   -0.0929966514765247   -0.003233824651890296
-0.015348037815988685   -0.09249552031419082   -0.003323866113888786
-0.013369540968471294   -0.08403797311497267   -0.003191648854176802
-0.013687774018713248   -0.08390869994709849   -0.0030530858131024943
-0.012171411643819852   -0.09282739660734615   -0.0029041252799186326
-0.008798669638733249   -0.08403215530779826   -0.0030454664293637977
-0.013546712029690315   -0.08394678851072221   -0.0031153048074512965
-0.012171411643819852   -0.09282739660734615   -0.0029041252799186326
-0.008889230640867772   -0.09308061303707836   -0.002995710253669487
-0.008798669638733249   -0.08403215530779826   -0.0030454664293637977
-0.008680450306849675   -0.09304837882564757   -0.0029664061146362337
-0.013546712029690315   -0.08394678851072221   -0.0031153048074512965
-0.00865391450098499   -0.08404466847154168   -0.003017660007759616
-0.008680450306849675   -0.09304837882564757   -0.0029664061146362337
-0.008798669638733249   -0.08403215530779826   -0.0030454664293637977
-0.013546712029690315   -0.08394678851072221   -0.0031153048074512965
-0.008680450306849675   -0.09304837882564757   -0.0029664061146362337
-0.011968002797388796   -0.09280722265283024   -0.002999891733348078
-0.012171411643819852   -0.09282739660734615   -0.0029041252799186326
-0.013546712029690315   -0.08394678851072221   -0.0031153048074512965
-0.008680450306849675   -0.09304837882564757   -0.0029664061146362337
-0.012171411643819852   -0.09282739660734615   -0.0029041252799186326
-0.008798669638733249   -0.08403215530779826   -0.0030454664293637977
-0.013546712029690315   -0.08394678851072221   -0.0031153048074512965
-0.011968002797388796   -0.09280722265283024   -0.002999891733348078
-0.00865391450098499   -0.08404466847154168   -0.003017660007759616
-0.013369540968471294   -0.08403797311497267   -0.003191648854176802
-0.011968002797388796   -0.09280722265283024   -0.002999891733348078
-0.008680450306849675   -0.09304837882564757   -0.0029664061146362337
-0.00865391450098499   -0.08404466847154168   -0.003017660007759616
-0.008474638776525703   -0.0930818753702991   -0.00295112488452326
-0.013369540968471294   -0.08403797311497267   -0.003191648854176802
-0.00850452056782893   -0.08410458565729723   -0.0030035605911557257
-0.008474638776525703   -0.0930818753702991   -0.00295112488452326
-0.00865391450098499   -0.08404466847154168   -0.003017660007759616
-0.013369540968471294   -0.08403797311497267   -0.003191648854176802
-0.008474638776525703   -0.0930818753702991   -0.00295112488452326
-0.01172881722017507   -0.0928632184507101   -0.0031100998027057676
-0.011968002797388796   -0.09280722265283024   -0.002999891733348078
-0.013369540968471294   -0.08403797311497267   -0.003191648854176802
-0.008474638776525703   -0.0930818753702991   -0.00295112488452326
-0.011968002797388796   -0.09280722265283024   -0.002999891733348078
-0.00865391450098499   -0.08404466847154168   -0.003017660007759616
-0.013369540968471294   -0.08403797311497267   -0.003191648854176802
-0.01172881722017507   -0.0928632184507101   -0.0031100998027057676
-0.00850452056782893   -0.08410458565729723   -0.0030035605911557257
-0.013194715160822712   -0.08418743160333084   -0.0032819855589414125
-0.01172881722017507   -0.0928632184507101   -0.0031100998027057676
-0.008474638776525703   -0.0930818753702991   -0.00295112488452326
-0.00850452056782893   -0.08410458565729723   -0.0030035605911557257
-0.008285302043855953   -0.0931833006020638   -0.002952809866222512
-0.013194715160822712   -0.08418743160333084   -0.0032819855589414125
-0.0083553767063711   -0.08421471406533744   -0.0030029880213960324
-0.008285302043855953   -0.0931833006020638   -0.002952809866222512
-0.00850452056782893   -0.08410458565729723   -0.0030035605911557257
-0.013194715160822712   -0.08418743160333084   -0.0032819855589414125
-0.008285302043855953   -0.0931833006020638   -0.002952809866222512
-0.01151182594190261   -0.0929966514765247   -0.003233824651890296
-0.01172881722017507   -0.0928632184507101   -0.0031100998027057676
-0.013194715160822712   -0.08418743160333084   -0.0032819855589414125
-0.008285302043855953   -0.0931833006020638   -0.002952809866222512
-0.01172881722017507   -0.0928632184507101   -0.0031100998027057676
-0.00850452056782893   -0.08410458565729723   -0.0030035605911557257
-0.008798669638733249   -0.08403215530779826   -0.0030454664293637977
-0.008889230640867772   -0.09308061303707836   -0.002995710253669487
-0.004071974102933473   -0.08401003332787489   -0.0030804233017245703
-0.00865391450098499   -0.08404466847154168   -0.003017660007759616
-0.008889230640867772   -0.09308061303707836   -0.002995710253669487
-0.005745716925321908   -0.0932142734438072   -0.0031037994684428075
-0.004071974102933473   -0.08401003332787489   -0.0030804233017245703
-0.005510348412429457   -0.09316784876927345   -0.00295656994893808
-0.00865391450098499   -0.08404466847154168   -0.003017660007759616
-0.00391341383773441   -0.08399383388265022   -0.0029657531348575316
-0.005510348412429457   -0.09316784876927345   -0.00295656994893808
-0.004071974102933473   -0.08401003332787489   -0.0030804233017245703
-0.00865391450098499   -0.08404466847154168   -0.003017660007759616
-0.005510348412429457   -0.09316784876927345   -0.00295656994893808
-0.008680450306849675   -0.09304837882564757   -0.0029664061146362337
-0.008889230640867772   -0.09308061303707836   -0.002995710253669487
-0.00865391450098499   -0.08404466847154168   -0.003017660007759616
-0.005510348412429457   -0.09316784876927345   -0.00295656994893808
-0.008889230640867772   -0.09308061303707836   -0.002995710253669487
-0.004071974102933473   -0.08401003332787489   -0.0030804233017245703
-0.00865391450098499   -0.08404466847154168   -0.003017660007759616
-0.008680450306849675   -0.09304837882564757   -0.0029664061146362337
-0.00391341383773441   -0.08399383388265022   -0.0029657531348575316
-0.00850452056782893   -0.08410458565729723   -0.0030035605911557257
-0.008680450306849675   -0.09304837882564757   -0.0029664061146362337
-0.005510348412429457   -0.09316784876927345   -0.00295656994893808
-0.00391341383773441   -0.08399383388265022   -0.0029657531348575316
-0.005286011148789211   -0.09317918830632901   -0.002821720923390752
-0.00850452056782893   -0.08410458565729723   -0.0030035605911557257
-0.0037595454237809045   -0.08402048311910099   -0.0028656933581549266
-0.005286011148789211   -0.09317918830632901   -0.002821720923390752
-0.00391341383773441   -0.08399383388265022   -0.0029657531348575316
-0.00850452056782893   -0.08410458565729723   -0.0030035605911557257
-0.005286011148789211   -0.09317918830632901   -0.002821720923390752
-0.008474638776525703   -0.0930818753702991   -0.00295112488452326
-0.008680450306849675   -0.09304837882564757   -0.0029664061146362337
-0.00850452056782893   -0.08410458565729723   -0.0030035605911557257
-0.005286011148789211   -0.09317918830632901   -0.002821720923390752
-0.008680450306849675   -0.09304837882564757   -0.0029664061146362337
-0.00391341383773441   -0.08399383388265022   -0.0029657531348575316
-0.00850452056782893   -0.08410458565729723   -0.0030035605911557257
-0.008474638776525703   -0.0930818753702991   -0.00295112488452326
-0.0037595454237809045   -0.08402048311910099   -0.0028656933581549266
-0.0083553767063711   -0.08421471406533744   -0.0030029880213960324
-0.008474638776525703   -0.0930818753702991   -0.00295112488452326
-0.005286011148789211   -0.09317918830632901   -0.002821720923390752
-0.0037595454237809045   -0.08402048311910099   -0.0028656933581549266
-0.005099488317516754   -0.0932596115450484   -0.0027070223274267557
-0.0083553767063711   -0.08421471406533744   -0.0030029880213960324
-0.003620545841926287   -0.0840962267631196   -0.002778976388015412
-0.005099488317516754   -0.0932596115450484   -0.0027070223274267557
-0.0037595454237809045   -0.08402048311910099   -0.0028656933581549266
-0.0083553767063711   -0.08421471406533744   -0.0030029880213960324
-0.005099488317516754   -0.0932596115450484   -0.0027070223274267557
-0.008285302043855953   -0.0931833006020638   -0.002952809866222512
-0.008474638776525703   -0.0930818753702991   -0.00295112488452326
-0.0083553767063711   -0.08421471406533744   -0.0030029880213960324
-0.005099488317516754   -0.0932596115450484   -0.0027070223274267557
-0.008474638776525703   -0.0930818753702991   -0.00295112488452326
-0.0037595454237809045   -0.08402048311910099   -0.0028656933581549266
-0.004071974102933473   -0.08401003332787489   -0.0030804233017245703
-0.005745716925321908   -0.0932142734438072   -0.0031037994684428075
0.0008769380350044621   -0.08383713198753252   -0.0031656761334806437
-0.00391341383773441   -0.08399383388265022   -0.0029657531348575316
-0.005745716925321908   -0.0932142734438072   -0.0031037994684428075
-0.002401907242896465   -0.09318184354529205   -0.0032310053675091745
0.0008769380350044621   -0.08383713198753252   -0.0031656761334806437
-0.0020997155160023314   -0.09310908577423242   -0.002970994216286067
-0.00391341383773441   -0.08399383388265022   -0.0029657531348575316
0.0010697968969301537   -0.08378444794733278   -0.002964449129398762
-0.0020997155160023314   -0.09310908577423242   -0.002970994216286067
0.0008769380350044621   -0.08383713198753252   -0.0031656761334806437
-0.00391341383773441   -0.08399383388265022   -0.0029657531348575316
-0.0020997155160023314   -0.09310908577423242   -0.002970994216286067
-0.005510348412429457   -0.09316784876927345   -0.00295656994893808
-0.005745716925321908   -0.0932142734438072   -0.0031037994684428075
-0.00391341383773441   -0.08399383388265022   -0.0029657531348575316
-0.0020997155160023314   -0.09310908577423242   -0.002970994216286067
-0.005745716925321908   -0.0932142734438072   -0.0031037994684428075
0.0008769380350044621   -0.08383713198753252   -0.0031656761334806437
-0.00391341383773441   -0.08399383388265022   -0.0029657531348575316
-0.005510348412429457   -0.09316784876927345   -0.00295656994893808
0.0010697968969301537   -0.08378444794733278   -0.002964449129398762
-0.0037595454237809045   -0.08402048311910099   -0.0028656933581549266
-0.005510348412429457   -0.09316784876927345   -0.00295656994893808
-0.0020997155160023314   -0.09310908577423242   -0.002970994216286067
0.0010697968969301537   -0.08378444794733278   -0.002964449129398762
-0.00179088323698647   -0.09309617423139656   -0.0027242362637757305
-0.0037595454237809045   -0.08402048311910099   -0.0028656933581549266
0.001272989677114045   -0.08377967323418929   -0.0027817467618608477
-0.00179088323698647   -0.09309617423139656   -0.0027242362637757305
0.0010697968969301537   -0.08378444794733278   -0.002964449129398762
-0.0037595454237809045   -0.08402048311910099   -0.0028656933581549266
-0.00179088323698647   -0.09309617423139656   -0.0027242362637757305
-0.005286011148789211   -0.09317918830632901   -0.002821720923390752
-0.005510348412429457   -0.09316784876927345   -0.00295656994893808
-0.0037595454237809045   -0.08402048311910099   -0.0028656933581549266
-0.00179088323698647   -0.09309617423139656   -0.0027242362637757305
-0.005510348412429457   -0.09316784876927345   -0.00295656994893808
0.0010697968969301537   -0.08378444794733278   -0.002964449129398762
-0.0037595454237809045   -0.08402048311910099   -0.0028656933581549266
-0.005286011148789211   -0.09317918830632901   -0.002821720923390752
0.001272989677114045   -0.08377967323418929   -0.0027817467618608477
-0.003620545841926287   -0.0840962267631196   -0.002778976388015412
-0.005286011148789211   -0.09317918830632901   -0.002821720923390752
-0.00179088323698647   -0.09309617423139656   -0.0027242362637757305
0.001272989677114045   -0.08377967323418929   -0.0027817467618608477
-0.0015620632390252616   -0.09315606260918809   -0.002500190685543353
-0.003620545841926287   -0.0840962267631196   -0.002778976388015412
0.001421599209139112   -0.08382063516865132   -0.0026118015380389953
-0.0015620632390252616   -0.09315606260918809   -0.002500190685543353
0.001272989677114045   -0.08377967323418929   -0.0027817467618608477
-0.003620545841926287   -0.0840962267631196   -0.002778976388015412
-0.0015620632390252616   -0.09315606260918809   -0.002500190685543353
-0.005099488317516754   -0.0932596115450484   -0.0027070223274267557
-0.005286011148789211   -0.09317918830632901   -0.002821720923390752
-0.003620545841926287   -0.0840962267631196   -0.002778976388015412
-0.0015620632390252616   -0.09315606260918809   -0.002500190685543353
-0.005286011148789211   -0.09317918830632901   -0.002821720923390752
0.001272989677114045   -0.08377967323418929   -0.0027817467618608477
0.0008769380350044621   -0.08383713198753252   -0.0031656761334806437
-0.002401907242896465   -0.09318184354529205   -0.0032310053675091745
0.006154429664492316   -0.08349703522620297   -0.0033481984561139913
0.0010697968969301537   -0.08378444794733278   -0.002964449129398762
-0.002401907242896465   -0.09318184354529205   -0.0032310053675091745
0.0011990403978713652   -0.09286105525001533   -0.0034920942752646113
0.006154429664492316   -0.08349703522620297   -0.0033481984561139913
0.0019023710642233173   -0.0927025984184482   -0.0030667022907612212
0.0010697968969301537   -0.08378444794733278   -0.002964449129398762
0.006642487436633289   -0.08339587828847404   -0.0030402498333845715
0.0019023710642233173   -0.0927025984184482   -0.0030667022907612212
0.006154429664492316   -0.08349703522620297   -0.0033481984561139913
0.0010697968969301537   -0.08378444794733278   -0.002964449129398762
0.0019023710642233173   -0.0927025984184482   -0.0030667022907612212
-0.0020997155160023314   -0.09310908577423242   -0.002970994216286067
-0.002401907242896465   -0.09318184354529205   -0.0032310053675091745
0.0010697968969301537   -0.08378444794733278   -0.002964449129398762
0.0019023710642233173   -0.0927025984184482   -0.0030667022907612212
-0.002401907242896465   -0.09318184354529205   -0.0032310053675091745
0.006154429664492316   -0.08349703522620297   -0.0033481984561139913
0.0010697968969301537   -0.08378444794733278   -0.002964449129398762
-0.0020997155160023314   -0.09310908577423242   -0.002970994216286067
0.006642487436633289   -0.08339587828847404   -0.0030402498333845715
0.001272989677114045   -0.08377967323418929   -0.0027817467618608477
-0.0020997155160023314   -0.09310908577423242   -0.002970994216286067
0.0019023710642233173   -0.0927025984184482   -0.0030667022907612212
0.006642487436633289   -0.08339587828847404   -0.0030402498333845715
0.0024551544044212562   -0.09267044466620888   -0.0026673669794582385
0.001272989677114045   -0.08377967323418929   -0.0027817467618608477
0.007016662414420582   -0.08337836391654851   -0.002755271792972966
0.0024551544044212562   -0.09267044466620888   -0.0026673669794582385
0.006642487436633289   -0.08339587828847404   -0.0030402498333845715
0.001272989677114045   -0.08377967323418929   -0.0027817467618608477
0.0024551544044212562   -0.09267044466620888   -0.0026673669794582385
-0.00179088323698647   -0.09309617423139656   -0.0027242362637757305
-0.0020997155160023314   -0.09310908577423242   -0.002970994216286067
0.001272989677114045   -0.08377967323418929   -0.0027817467618608477
0.0024551544044212562   -0.09267044466620888   -0.0026673669794582385
-0.0020997155160023314   -0.09310908577423242   -0.002970994216286067
0.006642487436633289   -0.08339587828847404   -0.0030402498333845715
0.001272989677114045   -0.08377967323418929   -0.0027817467618608477
-0.00179088323698647   -0.09309617423139656   -0.0027242362637757305
0.007016662414420582   -0.08337836391654851   -0.002755271792972966
0.001421599209139112   -0.08382063516865132   -0.0026118015380389953
-0.00179088323698647   -0.09309617423139656   -0.0027242362637757305
0.0024551544044212562   -0.09267044466620888   -0.0026673669794582385
0.007016662414420582   -0.08337836391654851   -0.002755271792972966
0.0030293663532897554   -0.09269716834758938   -0.0023027613176195174
0.001421599209139112   -0.08382063516865132   -0.0026118015380389953
0.007404141870180134   -0.08340829689102948   -0.00249559593610712
0.0030293663532897554   -0.09269716834758938   -0.0023027613176195174
0.007016662414420582   -0.08337836391654851   -0.002755271792972966
0.001421599209139112   -0.08382063516865132   -0.0026118015380389953
0.0030293663532897554   -0.09269716834758938   -0.0023027613176195174
-0.0015620632390252616   -0.09315606260918809   -0.002500190685543353
-0.00179088323698647   -0.09309617423139656   -0.0027242362637757305
0.001421599209139112   -0.08382063516865132   -0.0026118015380389953
0.0030293663532897554   -0.09269716834758938   -0.0023027613176195174
-0.00179088323698647   -0.09309617423139656   -0.0027242362637757305
0.007016662414420582   -0.08337836391654851   -0.002755271792972966
-0.016190107825314135   -0.09243734439365163   -0.002787080914016043
-0.011864054594668483   -0.09766165523468641   -0.0024523619442742813
-0.012171411643819852   -0.09282739660734615   -0.0029041252799186326
-0.015751967284634637   -0.09242631090023136   -0.0030453060868396507
-0.011864054594668483   -0.09766165523468641   -0.0024523619442742813
-0.009996166096146595   -0.0981551476245138   -0.002749184146054608
-0.012171411643819852   -0.09282739660734615   -0.0029041252799186326
-0.009739372447409793   -0.09805744129336104   -0.002851014013838954
-0.015751967284634637   -0.09242631090023136   -0.0030453060868396507
-0.011968002797388796   -0.09280722265283024   -0.002999891733348078
-0.009739372447409793   -0.09805744129336104   -0.002851014013838954
-0.012171411643819852   -0.09282739660734615   -0.0029041252799186326
-0.015751967284634637   -0.09242631090023136   -0.0030453060868396507
-0.009739372447409793   -0.09805744129336104   -0.002851014013838954
-0.011317806460286624   -0.09755160511406641   -0.0027622096849580784
-0.011864054594668483   -0.09766165523468641   -0.0024523619442742813
-0.015751967284634637   -0.09242631090023136   -0.0030453060868396507
-0.009739372447409793   -0.09805744129336104   -0.002851014013838954
-0.011864054594668483   -0.09766165523468641   -0.0024523619442742813
-0.012171411643819852   -0.09282739660734615   -0.0029041252799186326
-0.015751967284634637   -0.09242631090023136   -0.0030453060868396507
-0.011317806460286624   -0.09755160511406641   -0.0027622096849580784
-0.011968002797388796   -0.09280722265283024   -0.002999891733348078
-0.015348037815988685   -0.09249552031419082   -0.003323866113888786
-0.011317806460286624   -0.09755160511406641   -0.0027622096849580784
-0.009739372447409793   -0.09805744129336104   -0.002851014013838954
-0.011968002797388796   -0.09280722265283024   -0.002999891733348078
-0.009455057978238715   -0.09806201258209847   -0.002953871437279126
-0.015348037815988685   -0.09249552031419082   -0.003323866113888786
-0.01172881722017507   -0.0928632184507101   -0.0031100998027057676
-0.009455057978238715   -0.09806201258209847   -0.002953871437279126
-0.011968002797388796   -0.09280722265283024   -0.002999891733348078
-0.015348037815988685   -0.09249552031419082   -0.003323866113888786
-0.009455057978238715   -0.09806201258209847   -0.002953871437279126
-0.010846479111713372   -0.09756073122009119   -0.0030708414266815416
-0.011317806460286624   -0.09755160511406641   -0.0027622096849580784
-0.015348037815988685   -0.09249552031419082   -0.003323866113888786
-0.009455057978238715   -0.09806201258209847   -0.002953871437279126
-0.011317806460286624   -0.09755160511406641   -0.0027622096849580784
-0.011968002797388796   -0.09280722265283024   -0.002999891733348078
-0.015348037815988685   -0.09249552031419082   -0.003323866113888786
-0.010846479111713372   -0.09756073122009119   -0.0030708414266815416
-0.01172881722017507   -0.0928632184507101   -0.0031100998027057676
-0.014855418826750724   -0.09268053097613105   -0.003621556714695065
-0.010846479111713372   -0.09756073122009119   -0.0030708414266815416
-0.009455057978238715   -0.09806201258209847   -0.002953871437279126
-0.01172881722017507   -0.0928632184507101   -0.0031100998027057676
-0.009190882532605296   -0.09816932444578216   -0.0030581876822295575
-0.014855418826750724   -0.09268053097613105   -0.003621556714695065
-0.01151182594190261   -0.0929966514765247   -0.003233824651890296
-0.009190882532605296   -0.09816932444578216   -0.0030581876822295575
-0.01172881722017507   -0.0928632184507101   -0.0031100998027057676
-0.014855418826750724   -0.09268053097613105   -0.003621556714695065
-0.009190882532605296   -0.09816932444578216   -0.0030581876822295575
-0.010287499250013082   -0.09769584912527594   -0.003386128191028567
-0.010846479111713372   -0.09756073122009119   -0.0030708414266815416
-0.014855418826750724   -0.09268053097613105   -0.003621556714695065
-0.009190882532605296   -0.09816932444578216   -0.0030581876822295575
-0.010846479111713372   -0.09756073122009119   -0.0030708414266815416
-0.01172881722017507   -0.0928632184507101   -0.0031100998027057676
-0.012171411643819852   -0.09282739660734615   -0.0029041252799186326
-0.009996166096146595   -0.0981551476245138   -0.002749184146054608
-0.008889230640867772   -0.09308061303707836   -0.002995710253669487
-0.011968002797388796   -0.09280722265283024   -0.002999891733348078
-0.009996166096146595   -0.0981551476245138   -0.002749184146054608
-0.008629211159268605   -0.09865133089382708   -0.0030115796946436338
-0.008889230640867772   -0.09308061303707836   -0.002995710253669487
-0.008358188260114679   -0.09855112906452289   -0.0029399721406801966
-0.011968002797388796   -0.09280722265283024   -0.002999891733348078
-0.008680450306849675   -0.09304837882564757   -0.0029664061146362337
-0.008358188260114679   -0.09855112906452289   -0.0029399721406801966
-0.008889230640867772   -0.09308061303707836   -0.002995710253669487
-0.011968002797388796   -0.09280722265283024   -0.002999891733348078
-0.008358188260114679   -0.09855112906452289   -0.0029399721406801966
-0.009739372447409793   -0.09805744129336104   -0.002851014013838954
-0.009996166096146595   -0.0981551476245138   -0.002749184146054608
-0.011968002797388796   -0.09280722265283024   -0.002999891733348078
-0.008358188260114679   -0.09855112906452289   -0.0029399721406801966
-0.009996166096146595   -0.0981551476245138   -0.002749184146054608
-0.008889230640867772   -0.09308061303707836   -0.002995710253669487
-0.011968002797388796   -0.09280722265283024   -0.002999891733348078
-0.009739372447409793   -0.09805744129336104   -0.002851014013838954
-0.008680450306849675   -0.09304837882564757   -0.0029664061146362337
-0.01172881722017507   -0.0928632184507101   -0.0031100998027057676
-0.009739372447409793   -0.09805744129336104   -0.002851014013838954
-0.008358188260114679   -0.09855112906452289   -0.0029399721406801966
-0.008680450306849675   -0.09304837882564757   -0.0029664061146362337
-0.008096189687345188   -0.09854914079806502   -0.0028674679319563557
-0.01172881722017507   -0.0928632184507101   -0.0031100998027057676
-0.008474638776525703   -0.0930818753702991   -0.00295112488452326
-0.008096189687345188   -0.09854914079806502   -0.0028674679319563557
-0.008680450306849675   -0.09304837882564757   -0.0029664061146362337
-0.01172881722017507   -0.0928632184507101   -0.0031100998027057676
-0.008096189687345188   -0.09854914079806502   -0.0028674679319563557
-0.009455057978238715   -0.09806201258209847   -0.002953871437279126
-0.009739372447409793   -0.09805744129336104   -0.002851014013838954
-0.01172881722017507   -0.0928632184507101   -0.0031100998027057676
-0.008096189687345188   -0.09854914079806502   -0.0028674679319563557
-0.009739372447409793   -0.09805744129336104   -0.002851014013838954
-0.008680450306849675   -0.09304837882564757   -0.0029664061146362337
-0.01172881722017507   -0.0928632184507101   -0.0031100998027057676
-0.009455057978238715   -0.09806201258209847   -0.002953871437279126
-0.008474638776525703   -0.0930818753702991   -0.00295112488452326
-0.01151182594190261   -0.0929966514765247   -0.003233824651890296
-0.009455057978238715   -0.09806201258209847   -0.002953871437279126
-0.008096189687345188   -0.09854914079806502   -0.0028674679319563557
-0.008474638776525703   -0.0930818753702991   -0.00295112488452326
-0.007823014465195049   -0.09864330409499741   -0.0027978120086586196
-0.01151182594190261   -0.0929966514765247   -0.003233824651890296
-0.008285302043855953   -0.0931833006020638   -0.002952809866222512
-0.007823014465195049   -0.09864330409499741   -0.0027978120086586196
-0.008474638776525703   -0.0930818753702991   -0.00295112488452326
-0.01151182594190261   -0.0929966514765247   -0.003233824651890296
-0.007823014465195049   -0.09864330409499741   -0.0027978120086586196
-0.009190882532605296   -0.09816932444578216   -0.0030581876822295575
-0.009455057978238715   -0.09806201258209847   -0.002953871437279126
-0.01151182594190261   -0.0929966514765247   -0.003233824651890296
-0.007823014465195049   -0.09864330409499741   -0.0027978120086586196
-0.009455057978238715   -0.09806201258209847   -0.002953871437279126
-0.008474638776525703   -0.0930818753702991   -0.00295112488452326
-0.008889230640867772   -0.09308061303707836   -0.002995710253669487
-0.008629211159268605   -0.09865133089382708   -0.0030115796946436338
-0.005745716925321908   -0.0932142734438072   -0.0031037994684428075
-0.008680450306849675   -0.09304837882564757   -0.0029664061146362337
-0.008629211159268605   -0.09865133089382708   -0.0030115796946436338
-0.0073812006242753555   -0.09925107163766222   -0.003300405265805063
-0.005745716925321908   -0.0932142734438072   -0.0031037994684428075
-0.007048898287095718   -0.09916421278507431   -0.003045612119370948
-0.008680450306849675   -0.09304837882564757   -0.0029664061146362337
-0.005510348412429457   -0.09316784876927345   -0.00295656994893808
-0.007048898287095718   -0.09916421278507431   -0.003045612119370948
-0.005745716925321908   -0.0932142734438072   -0.0031037994684428075
-0.008680450306849675   -0.09304837882564757   -0.0029664061146362337
-0.007048898287095718   -0.09916421278507431   -0.003045612119370948
-0.008358188260114679   -0.09855112906452289   -0.0029399721406801966
-0.008629211159268605   -0.09865133089382708   -0.0030115796946436338
-0.008680450306849675   -0.09304837882564757   -0.0029664061146362337
-0.007048898287095718   -0.09916421278507431   -0.003045612119370948
-0.008629211159268605   -0.09865133089382708   -0.0030115796946436338
-0.005745716925321908   -0.0932142734438072   -0.0031037994684428075
-0.008680450306849675   -0.09304837882564757   -0.0029664061146362337
-0.008358188260114679   -0.09855112906452289   -0.0029399721406801966
-0.005510348412429457   -0.09316784876927345   -0.00295656994893808
-0.008474638776525703   -0.0930818753702991   -0.00295112488452326
-0.008358188260114679   -0.09855112906452289   -0.0029399721406801966
-0.007048898287095718   -0.09916421278507431   -0.003045612119370948
-0.005510348412429457   -0.09316784876927345   -0.00295656994893808
-0.006741054922090769   -0.09915945234461469   -0.0027917183684397235
-0.008474638776525703   -0.0930818753702991   -0.00295112488452326
-0.005286011148789211   -0.09317918830632901   -0.002821720923390752
-0.006741054922090769   -0.09915945234461469   -0.0027917183684397235
-0.005510348412429457   -0.09316784876927345   -0.00295656994893808
-0.008474638776525703   -0.0930818753702991   -0.00295112488452326
-0.006741054922090769   -0.09915945234461469   -0.0027917183684397235
-0.008096189687345188   -0.09854914079806502   -0.0028674679319563557
-0.008358188260114679   -0.09855112906452289   -0.0029399721406801966
-0.008474638776525703   -0.0930818753702991   -0.00295112488452326
-0.006741054922090769   -0.09915945234461469   -0.0027917183684397235
-0.008358188260114679   -0.09855112906452289   -0.0029399721406801966
-0.005510348412429457   -0.09316784876927345   -0.00295656994893808
-0.008474638776525703   -0.0930818753702991   -0.00295112488452326
-0.008096189687345188   -0.09854914079806502   -0.0028674679319563557
-0.005286011148789211   -0.09317918830632901   -0.002821720923390752
-0.008285302043855953   -0.0931833006020638   -0.002952809866222512
-0.008096189687345188   -0.09854914079806502   -0.0028674679319563557
-0.006741054922090769   -0.09915945234461469   -0.0027917183684397235
-0.005286011148789211   -0.09317918830632901   -0.002821720923390752
-0.006410468414819947   -0.09923232726953388   -0.0025371936820802643
-0.008285302043855953   -0.0931833006020638   -0.002952809866222512
-0.005099488317516754   -0.0932596115450484   -0.0027070223274267557
-0.006410468414819947   -0.09923232726953388   -0.0025371936820802643
-0.005286011148789211   -0.09317918830632901   -0.002821720923390752
-0.008285302043855953   -0.0931833006020638   -0.002952809866222512
-0.006410468414819947   -0.09923232726953388   -0.0025371936820802643
-0.007823014465195049   -0.09864330409499741   -0.0027978120086586196
-0.008096189687345188   -0.09854914079806502   -0.0028674679319563557
-0.008285302043855953   -0.0931833006020638   -0.002952809866222512
-0.006410468414819947   -0.09923232726953388   -0.0025371936820802643
-0.008096189687345188   -0.09854914079806502   -0.0028674679319563557
-0.005286011148789211   -0.09317918830632901   -0.002821720923390752
-0.005745716925321908   -0.0932142734438072   -0.0031037994684428075
-0.0073812006242753555   -0.09925107163766222   -0.003300405265805063
-0.002401907242896465   -0.09318184354529205   -0.0032310053675091745
-0.005510348412429457   -0.09316784876927345   -0.00295656994893808
-0.0073812006242753555   -0.09925107163766222   -0.003300405265805063
-0.0061529414505822645   -0.1   -0.0035217850809891723
-0.002401907242896465   -0.09318184354529205   -0.0032310053675091745
-0.005735135306632455   -0.1   -0.00313520012573472
-0.005510348412429457   -0.09316784876927345   -0.00295656994893808
-0.0020997155160023314   -0.09310908577423242   -0.002970994216286067
-0.005735135306632455   -0.1   -0.00313520012573472
-0.002401907242896465   -0.09318184354529205   -0.0032310053675091745
-0.005510348412429457   -0.09316784876927345   -0.00295656994893808
-0.005735135306632455   -0.1   -0.00313520012573472
-0.007048898287095718   -0.09916421278507431   -0.003045612119370948
-0.0073812006242753555   -0.09925107163766222   -0.003300405265805063
-0.005510348412429457   -0.09316784876927345   -0.00295656994893808
-0.005735135306632455   -0.1   -0.00313520012573472
-0.0073812006242753555   -0.09925107163766222   -0.003300405265805063
-0.002401907242896465   -0.09318184354529205   -0.0032310053675091745
-0.005510348412429457   -0.09316784876927345   -0.00295656994893808
-0.007048898287095718   -0.09916421278507431   -0.003045612119370948
-0.0020997155160023314   -0.09310908577423242   -0.002970994216286067
-0.005286011148789211   -0.09317918830632901   -0.002821720923390752
-0.007048898287095718   -0.09916421278507431   -0.003045612119370948
-0.005735135306632455   -0.1   -0.00313520012573472
-0.0020997155160023314   -0.09310908577423242   -0.002970994216286067
-0.0053154594447729535   -0.1   -0.002744026640936885
-0.005286011148789211   -0.09317918830632901   -0.002821720923390752
-0.00179088323698647   -0.09309617423139656   -0.0027242362637757305
-0.0053154594447729535   -0.1   -0.002744026640936885
-0.0020997155160023314   -0.09310908577423242   -0.002970994216286067
-0.005286011148789211   -0.09317918830632901   -0.002821720923390752
-0.0053154594447729535   -0.1   -0.002744026640936885
-0.006741054922090769   -0.09915945234461469   -0.0027917183684397235
-0.007048898287095718   -0.09916421278507431   -0.003045612119370948
-0.005286011148789211   -0.09317918830632901   -0.002821720923390752
-0.0053154594447729535   -0.1   -0.002744026640936885
-0.007048898287095718   -0.09916421278507431   -0.003045612119370948
-0.0020997155160023314   -0.09310908577423242   -0.002970994216286067
-0.005286011148789211   -0.09317918830632901   -0.002821720923390752
-0.006741054922090769   -0.09915945234461469   -0.0027917183684397235
-0.00179088323698647   -0.09309617423139656   -0.0027242362637757305
-0.005099488317516754   -0.0932596115450484   -0.0027070223274267557
-0.006741054922090769   -0.09915945234461469   -0.0027917183684397235
-0.0053154594447729535   -0.1   -0.002744026640936885
-0.00179088323698647   -0.09309617423139656   -0.0027242362637757305
-0.0049050706640078766   -0.1   -0.002358014632974915
-0.005099488317516754   -0.0932596115450484   -0.0027070223274267557
-0.0015620632390252616   -0.09315606260918809   -0.002500190685543353
-0.0049050706640078766   -0.1   -0.002358014632974915
-0.00179088323698647   -0.09309617423139656   -0.0027242362637757305
-0.005099488317516754   -0.0932596115450484   -0.0027070223274267557
-0.0049050706640078766   -0.1   -0.002358014632974915
-0.006410468414819947   -0.09923232726953388   -0.0025371936820802643
-0.006741054922090769   -0.09915945234461469   -0.0027917183684397235
-0.005099488317516754   -0.0932596115450484   -0.0027070223274267557
-0.0049050706640078766   -0.1   -0.002358014632974915
-0.006741054922090769   -0.09915945234461469   -0.0027917183684397235
-0.00179088323698647   -0.09309617423139656   -0.0027242362637757305
-0.002401907242896465   -0.09318184354529205   -0.0032310053675091745
-0.0061529414505822645   -0.1   -0.0035217850809891723
0.0011990403978713652   -0.09286105525001533   -0.0034920942752646113
-0.0020997155160023314   -0.09310908577423242   -0.002970994216286067
-0.0061529414505822645   -0.1   -0.0035217850809891723
-0.005263253417689847   -0.1   -0.0037899016957270394
0.0011990403978713652   -0.09286105525001533   -0.0034920942752646113
-0.004390626558328442   -0.1   -0.003230842764393621
-0.0020997155160023314   -0.09310908577423242   -0.002970994216286067
0.0019023710642233173   -0.0927025984184482   -0.0030667022907612212
-0.004390626558328442   -0.1   -0.003230842764393621
0.0011990403978713652   -0.09286105525001533   -0.0034920942752646113
-0.0020997155160023314   -0.09310908577423242   -0.002970994216286067
-0.004390626558328442   -0.1   -0.003230842764393621
-0.005735135306632455   -0.1   -0.00313520012573472
-0.0061529414505822645   -0.1   -0.0035217850809891723
-0.0020997155160023314   -0.09310908577423242   -0.002970994216286067
-0.004390626558328442   -0.1   -0.003230842764393621
-0.0061529414505822645   -0.1   -0.0035217850809891723
0.0011990403978713652   -0.09286105525001533   -0.0034920942752646113
-0.0020997155160023314   -0.09310908577423242   -0.002970994216286067
-0.005735135306632455   -0.1   -0.00313520012573472
0.0019023710642233173   -0.0927025984184482   -0.0030667022907612212
-0.00179088323698647   -0.09309617423139656   -0.0027242362637757305
-0.005735135306632455   -0.1   -0.00313520012573472
-0.004390626558328442   -0.1   -0.003230842764393621
0.0019023710642233173   -0.0927025984184482   -0.0030667022907612212
-0.0036947099341393423   -0.1   -0.0026960209898364952
-0.00179088323698647   -0.09309617423139656   -0.0027242362637757305
0.0024551544044212562   -0.09267044466620888   -0.0026673669794582385
-0.0036947099341393423   -0.1   -0.0026960209898364952
0.0019023710642233173   -0.0927025984184482   -0.0030667022907612212
-0.00179088323698647   -0.09309617423139656   -0.0027242362637757305
-0.0036947099341393423   -0.1   -0.0026960209898364952
-0.0053154594447729535   -0.1   -0.002744026640936885
-0.005735135306632455   -0.1   -0.00313520012573472
-0.00179088323698647   -0.09309617423139656   -0.0027242362637757305
-0.0036947099341393423   -0.1   -0.0026960209898364952
-0.005735135306632455   -0.1   -0.00313520012573472
0.0019023710642233173   -0.0927025984184482   -0.0030667022907612212
-0.00179088323698647   -0.09309617423139656   -0.0027242362637757305
-0.0053154594447729535   -0.1   -0.002744026640936885
0.0024551544044212562   -0.09267044466620888   -0.0026673669794582385
-0.0015620632390252616   -0.09315606260918809   -0.002500190685543353
-0.0053154594447729535   -0.1   -0.002744026640936885
-0.0036947099341393423   -0.1   -0.0026960209898364952
0.0024551544044212562   -0.09267044466620888   -0.0026673669794582385
-0.002835002528100051   -0.1   -0.002140826453816336
-0.0015620632390252616   -0.09315606260918809   -0.002500190685543353
0.0030293663532897554   -0.09269716834758938   -0.0023027613176195174
-0.002835002528100051   -0.1   -0.002140826453816336
0.0024551544044212562   -0.09267044466620888   -0.0026673669794582385
-0.0015620632390252616   -0.09315606260918809   -0.002500190685543353
-0.002835002528100051   -0.1   -0.002140826453816336
-0.0049050706640078766   -0.1   -0.002358014632974915
-0.0053154594447729535   -0.1   -0.002744026640936885
-0.0015620632390252616   -0.09315606260918809   -0.002500190685543353
-0.002835002528100051   -0.1   -0.002140826453816336
-0.0053154594447729535   -0.1   -0.002744026640936885
0.0024551544044212562   -0.09267044466620888   -0.0026673669794582385
-0.011864054594668483   -0.09766165523468641   -0.0024523619442742813
-0.007077913418855385   -0.09791667929618801   -0.0020988234396005956
-0.009996166096146595   -0.0981551476245138   -0.002749184146054608
-0.011317806460286624   -0.09755160511406641   -0.0027622096849580784
-0.007077913418855385   -0.09791667929618801   -0.0020988234396005956
-0.007512160621322344   -0.09829659047059228   -0.0024809798642898206
-0.009996166096146595   -0.0981551476245138   -0.002749184146054608
-0.00731802008304178   -0.09816320430582044   -0.0026200482157945513
-0.011317806460286624   -0.09755160511406641   -0.0027622096849580784
-0.009739372447409793   -0.09805744129336104   -0.002851014013838954
-0.00731802008304178   -0.09816320430582044   -0.0026200482157945513
-0.009996166096146595   -0.0981551476245138   -0.002749184146054608
-0.011317806460286624   -0.09755160511406641   -0.0027622096849580784
-0.00731802008304178   -0.09816320430582044   -0.0026200482157945513
-0.006583078486741221   -0.09774543792917319   -0.0024243434305988277
-0.007077913418855385   -0.09791667929618801   -0.0020988234396005956
-0.011317806460286624   -0.09755160511406641   -0.0027622096849580784
-0.00731802008304178   -0.09816320430582044   -0.0026200482157945513
-0.007077913418855385   -0.09791667929618801   -0.0020988234396005956
-0.009996166096146595   -0.0981551476245138   -0.002749184146054608
-0.011317806460286624   -0.09755160511406641   -0.0027622096849580784
-0.006583078486741221   -0.09774543792917319   -0.0024243434305988277
-0.009739372447409793   -0.09805744129336104   -0.002851014013838954
-0.010846479111713372   -0.09756073122009119   -0.0030708414266815416
-0.006583078486741221   -0.09774543792917319   -0.0024243434305988277
-0.00731802008304178   -0.09816320430582044   -0.0026200482157945513
-0.009739372447409793   -0.09805744129336104   -0.002851014013838954
-0.007090368122631025   -0.09811370203689462   -0.002748309199514387
-0.010846479111713372   -0.09756073122009119   -0.0030708414266815416
-0.009455057978238715   -0.09806201258209847   -0.002953871437279126
-0.007090368122631025   -0.09811370203689462   -0.002748309199514387
-0.009739372447409793   -0.09805744129336104   -0.002851014013838954
-0.010846479111713372   -0.09756073122009119   -0.0030708414266815416
-0.007090368122631025   -0.09811370203689462   -0.002748309199514387
-0.006171154308591896   -0.09769242563551978   -0.0027364497221127214
-0.006583078486741221   -0.09774543792917319   -0.0024243434305988277
-0.010846479111713372   -0.09756073122009119   -0.0030708414266815416
-0.007090368122631025   -0.09811370203689462   -0.002748309199514387
-0.006583078486741221   -0.09774543792917319   -0.0024243434305988277
-0.009739372447409793   -0.09805744129336104   -0.002851014013838954
-0.010846479111713372   -0.09756073122009119   -0.0030708414266815416
-0.006171154308591896   -0.09769242563551978   -0.0027364497221127214
-0.009455057978238715   -0.09806201258209847   -0.002953871437279126
-0.010287499250013082   -0.09769584912527594   -0.003386128191028567
-0.006171154308591896   -0.09769242563551978   -0.0027364497221127214
-0.007090368122631025   -0.09811370203689462   -0.002748309199514387
-0.009455057978238715   -0.09806201258209847   -0.002953871437279126
-0.006895314357908029   -0.09814878727001122   -0.002865087265385368
-0.010287499250013082   -0.09769584912527594   -0.003386128191028567
-0.009190882532605296   -0.09816932444578216   -0.0030581876822295575
-0.006895314357908029   -0.09814878727001122   -0.002865087265385368
-0.009455057978238715   -0.09806201258209847   -0.002953871437279126
-0.010287499250013082   -0.09769584912527594   -0.003386128191028567
-0.006895314357908029   -0.09814878727001122   -0.002865087265385368
-0.005705243428105684   -0.09773621031133983   -0.003033745862762366
-0.006171154308591896   -0.09769242563551978   -0.0027364497221127214
-0.010287499250013082   -0.09769584912527594   -0.003386128191028567
-0.006895314357908029   -0.09814878727001122   -0.002865087265385368
-0.006171154308591896   -0.09769242563551978   -0.0027364497221127214
-0.009455057978238715   -0.09806201258209847   -0.002953871437279126
-0.009996166096146595   -0.0981551476245138   -0.002749184146054608
-0.007512160621322344   -0.09829659047059228   -0.0024809798642898206
-0.008629211159268605   -0.09865133089382708   -0.0030115796946436338
-0.009739372447409793   -0.09805744129336104   -0.002851014013838954
-0.007512160621322344   -0.09829659047059228   -0.0024809798642898206
-0.00809787342264889   -0.09853191452942896   -0.002786600993011384
-0.008629211159268605   -0.09865133089382708   -0.0030115796946436338
-0.007926011170074456   -0.09841282748357655   -0.002790306363783198
-0.009739372447409793   -0.09805744129336104   -0.002851014013838954
-0.008358188260114679   -0.09855112906452289   -0.0029399721406801966
-0.007926011170074456   -0.09841282748357655   -0.002790306363783198
-0.008629211159268605   -0.09865133089382708   -0.0030115796946436338
-0.009739372447409793   -0.09805744129336104   -0.002851014013838954
-0.007926011170074456   -0.09841282748357655   -0.002790306363783198
-0.00731802008304178   -0.09816320430582044   -0.0026200482157945513
-0.007512160621322344   -0.09829659047059228   -0.0024809798642898206
-0.009739372447409793   -0.09805744129336104   -0.002851014013838954
-0.007926011170074456   -0.09841282748357655   -0.002790306363783198
-0.007512160621322344   -0.09829659047059228   -0.0024809798642898206
-0.008629211159268605   -0.09865133089382708   -0.0030115796946436338
-0.009739372447409793   -0.09805744129336104   -0.002851014013838954
-0.00731802008304178   -0.09816320430582044   -0.0026200482157945513
-0.008358188260114679   -0.09855112906452289   -0.0029399721406801966
-0.009455057978238715   -0.09806201258209847   -0.002953871437279126
-0.00731802008304178   -0.09816320430582044   -0.0026200482157945513
-0.007926011170074456   -0.09841282748357655   -0.002790306363783198
-0.008358188260114679   -0.09855112906452289   -0.0029399721406801966
-0.007734700701021251   -0.09836971847455415   -0.0027799996482542064
-0.009455057978238715   -0.09806201258209847   -0.002953871437279126
-0.008096189687345188   -0.09854914079806502   -0.0028674679319563557
-0.007734700701021251   -0.09836971847455415   -0.0027799996482542064
-0.008358188260114679   -0.09855112906452289   -0.0029399721406801966
-0.009455057978238715   -0.09806201258209847   -0.002953871437279126
-0.007734700701021251   -0.09836971847455415   -0.0027799996482542064
-0.007090368122631025   -0.09811370203689462   -0.002748309199514387
-0.00731802008304178   -0.09816320430582044   -0.0026200482157945513
-0.009455057978238715   -0.09806201258209847   -0.002953871437279126
-0.007734700701021251   -0.09836971847455415   -0.0027799996482542064
-0.00731802008304178   -0.09816320430582044   -0.0026200482157945513
-0.008358188260114679   -0.09855112906452289   -0.0029399721406801966
-0.009455057978238715   -0.09806201258209847   -0.002953871437279126
-0.007090368122631025   -0.09811370203689462   -0.002748309199514387
-0.008096189687345188   -0.09854914079806502   -0.0028674679319563557
-0.009190882532605296   -0.09816932444578216   -0.0030581876822295575
-0.007090368122631025   -0.09811370203689462   -0.002748309199514387
-0.007734700701021251   -0.09836971847455415   -0.0027799996482542064
-0.008096189687345188   -0.09854914079806502   -0.0028674679319563557
-0.007540169252931383   -0.09839909304456353   -0.0027586988252820683
-0.009190882532605296   -0.09816932444578216   -0.0030581876822295575
-0.007823014465195049   -0.09864330409499741   -0.0027978120086586196
-0.007540169252931383   -0.09839909304456353   -0.0027586988252820683
-0.008096189687345188   -0.09854914079806502   -0.0028674679319563557
-0.009190882532605296   -0.09816932444578216   -0.0030581876822295575
-0.007540169252931383   -0.09839909304456353   -0.0027586988252820683
-0.006895314357908029   -0.09814878727001122   -0.002865087265385368
-0.007090368122631025   -0.09811370203689462   -0.002748309199514387
-0.009190882532605296   -0.09816932444578216   -0.0030581876822295575
-0.007540169252931383   -0.09839909304456353   -0.0027586988252820683
-0.007090368122631025   -0.09811370203689462   -0.002748309199514387
-0.008096189687345188   -0.09854914079806502   -0.0028674679319563557
-0.008629211159268605   -0.09865133089382708   -0.0030115796946436338
-0.00809787342264889   -0.09853191452942896   -0.002786600993011384
-0.0073812006242753555   -0.09925107163766222   -0.003300405265805063
-0.008358188260114679   -0.09855112906452289   -0.0029399721406801966
-0.00809787342264889   -0.09853191452942896   -0.002786600993011384
-0.008725486789540186   -0.09863151148539183   -0.0030873306983702853
-0.0073812006242753555   -0.09925107163766222   -0.003300405265805063
-0.008547458752190311   -0.09851801685253658   -0.0029608820530217855
-0.008358188260114679   -0.09855112906452289   -0.0029399721406801966
-0.007048898287095718   -0.09916421278507431   -0.003045612119370948
-0.008547458752190311   -0.09851801685253658   -0.0029608820530217855
-0.0073812006242753555   -0.09925107163766222   -0.003300405265805063
-0.008358188260114679   -0.09855112906452289   -0.0029399721406801966
-0.008547458752190311   -0.09851801685253658   -0.0029608820530217855
-0.007926011170074456   -0.09841282748357655   -0.002790306363783198
-0.00809787342264889   -0.09853191452942896   -0.002786600993011384
-0.008358188260114679   -0.09855112906452289   -0.0029399721406801966
-0.008547458752190311   -0.09851801685253658   -0.0029608820530217855
-0.00809787342264889   -0.09853191452942896   -0.002786600993011384
-0.0073812006242753555   -0.09925107163766222   -0.003300405265805063
-0.008358188260114679   -0.09855112906452289   -0.0029399721406801966
-0.007926011170074456   -0.09841282748357655   -0.002790306363783198
-0.007048898287095718   -0.09916421278507431   -0.003045612119370948
-0.008096189687345188   -0.09854914079806502   -0.0028674679319563557
-0.007926011170074456   -0.09841282748357655   -0.002790306363783198
-0.008547458752190311   -0.09851801685253658   -0.0029608820530217855
-0.007048898287095718   -0.09916421278507431   -0.003045612119370948
-0.0083338685917917   -0.09848174808838993   -0.002817369721023326
-0.008096189687345188   -0.09854914079806502   -0.0028674679319563557
-0.006741054922090769   -0.09915945234461469   -0.0027917183684397235
-0.0083338685917917   -0.09848174808838993   -0.002817369721023326
-0.007048898287095718   -0.09916421278507431   -0.003045612119370948
-0.008096189687345188   -0.09854914079806502   -0.0028674679319563557
-0.0083338685917917   -0.09848174808838993   -0.002817369721023326
-0.007734700701021251   -0.09836971847455415   -0.0027799996482542064
-0.007926011170074456   -0.09841282748357655   -0.002790306363783198
-0.008096189687345188   -0.09854914079806502   -0.0028674679319563557
-0.0083338685917917   -0.09848174808838993   -0.002817369721023326
-0.007926011170074456   -0.09841282748357655   -0.002790306363783198
-0.007048898287095718   -0.09916421278507431   -0.003045612119370948
-0.008096189687345188   -0.09854914079806502   -0.0028674679319563557
-0.007734700701021251   -0.09836971847455415   -0.0027799996482542064
-0.006741054922090769   -0.09915945234461469   -0.0027917183684397235
-0.007823014465195049   -0.09864330409499741   -0.0027978120086586196
-0.007734700701021251   -0.09836971847455415   -0.0027799996482542064
-0.0083338685917917   -0.09848174808838993   -0.002817369721023326
-0.006741054922090769   -0.09915945234461469   -0.0027917183684397235
-0.008114184854988847   -0.09851051222098475   -0.0026644812053101498
-0.007823014465195049   -0.09864330409499741   -0.0027978120086586196
-0.006410468414819947   -0.09923232726953388   -0.0025371936820802643
-0.008114184854988847   -0.09851051222098475   -0.0026644812053101498
-0.006741054922090769   -0.09915945234461469   -0.0027917183684397235
-0.007823014465195049   -0.09864330409499741   -0.0027978120086586196
-0.008114184854988847   -0.09851051222098475   -0.0026644812053101498
-0.007540169252931383   -0.09839909304456353   -0.0027586988252820683
-0.007734700701021251   -0.09836971847455415   -0.0027799996482542064
-0.007823014465195049   -0.09864330409499741   -0.0027978120086586196
-0.008114184854988847   -0.09851051222098475   -0.0026644812053101498
-0.007734700701021251   -0.09836971847455415   -0.0027799996482542064
-0.006741054922090769   -0.09915945234461469   -0.0027917183684397235
-0.0073812006242753555   -0.09925107163766222   -0.003300405265805063
-0.008725486789540186   -0.09863151148539183   -0.0030873306983702853
-0.0061529414505822645   -0.1   -0.0035217850809891723
-0.007048898287095718   -0.09916421278507431   -0.003045612119370948
-0.008725486789540186   -0.09863151148539183   -0.0030873306983702853
-0.00963425779873037   -0.09852624403985963   -0.0033728637586441096
-0.0061529414505822645   -0.1   -0.0035217850809891723
-0.009401691761894837   -0.09841920127021016   -0.003122541508888743
-0.007048898287095718   -0.09916421278507431   -0.003045612119370948
-0.005735135306632455   -0.1   -0.00313520012573472
-0.009401691761894837   -0.09841920127021016   -0.003122541508888743
-0.0061529414505822645   -0.1   -0.0035217850809891723
-0.007048898287095718   -0.09916421278507431   -0.003045612119370948
-0.009401691761894837   -0.09841920127021016   -0.003122541508888743
-0.008547458752190311   -0.09851801685253658   -0.0029608820530217855
-0.008725486789540186   -0.09863151148539183   -0.0030873306983702853
-0.007048898287095718   -0.09916421278507431   -0.003045612119370948
-0.009401691761894837   -0.09841920127021016   -0.003122541508888743
-0.008725486789540186   -0.09863151148539183   -0.0030873306983702853
-0.0061529414505822645   -0.1   -0.0035217850809891723
-0.007048898287095718   -0.09916421278507431   -0.003045612119370948
-0.008547458752190311   -0.09851801685253658   -0.0029608820530217855
-0.005735135306632455   -0.1   -0.00313520012573472
-0.006741054922090769   -0.09915945234461469   -0.0027917183684397235
-0.008547458752190311   -0.09851801685253658   -0.0029608820530217855
-0.009401691761894837   -0.09841920127021016   -0.003122541508888743
-0.005735135306632455   -0.1   -0.00313520012573472
-0.00909495143555174   -0.09839470974126745   -0.002853236497387587
-0.006741054922090769   -0.09915945234461469   -0.0027917183684397235
-0.0053154594447729535   -0.1   -0.002744026640936885
-0.00909495143555174   -0.09839470974126745   -0.002853236497387587
-0.005735135306632455   -0.1   -0.00313520012573472
-0.006741054922090769   -0.09915945234461469   -0.0027917183684397235
-0.00909495143555174   -0.09839470974126745   -0.002853236497387587
-0.0083338685917917   -0.09848174808838993   -0.002817369721023326
-0.008547458752190311   -0.09851801685253658   -0.0029608820530217855
-0.006741054922090769   -0.09915945234461469   -0.0027917183684397235
-0.00909495143555174   -0.09839470974126745   -0.002853236497387587
-0.008547458752190311   -0.09851801685253658   -0.0029608820530217855
-0.005735135306632455   -0.1   -0.00313520012573472
-0.006741054922090769   -0.09915945234461469   -0.0027917183684397235
-0.0083338685917917   -0.09848174808838993   -0.002817369721023326
-0.0053154594447729535   -0.1   -0.002744026640936885
-0.006410468414819947   -0.09923232726953388   -0.0025371936820802643
-0.0083338685917917   -0.09848174808838993   -0.002817369721023326
-0.00909495143555174   -0.09839470974126745   -0.002853236497387587
-0.0053154594447729535   -0.1   -0.002744026640936885
-0.008806211367015206   -0.09843679327209381   -0.0025734917029758718
-0.006410468414819947   -0.09923232726953388   -0.0025371936820802643
-0.0049050706640078766   -0.1   -0.002358014632974915
-0.008806211367015206   -0.09843679327209381   -0.0025734917029758718
-0.0053154594447729535   -0.1   -0.002744026640936885
-0.006410468414819947   -0.09923232726953388   -0.0025371936820802643
-0.008806211367015206   -0.09843679327209381   -0.0025734917029758718
-0.008114184854988847   -0.09851051222098475   -0.0026644812053101498
-0.0083338685917917   -0.09848174808838993   -0.002817369721023326
-0.006410468414819947   -0.09923232726953388   -0.0025371936820802643
-0.008806211367015206   -0.09843679327209381   -0.0025734917029758718
-0.0083338685917917   -0.09848174808838993   -0.002817369721023326
-0.0053154594447729535   -0.1   -0.002744026640936885
-0.0061529414505822645   -0.1   -0.0035217850809891723
-0.00963425779873037   -0.09852624403985963   -0.0033728637586441096
-0.005263253417689847   -0.1   -0.0037899016957270394
-0.005735135306632455   -0.1   -0.00313520012573472
-0.00963425779873037   -0.09852624403985963   -0.0033728637586441096
-0.011398168059914351   -0.09804384312905631   -0.0036752643351247584
-0.005263253417689847   -0.1   -0.0037899016957270394
-0.010781288631802662   -0.09795380723450782   -0.003264549877301652
-0.005735135306632455   -0.1   -0.00313520012573472
-0.004390626558328442   -0.1   -0.003230842764393621
-0.010781288631802662   -0.09795380723450782   -0.003264549877301652
-0.005263253417689847   -0.1   -0.0037899016957270394
-0.005735135306632455   -0.1   -0.00313520012573472
-0.010781288631802662   -0.09795380723450782   -0.003264549877301652
-0.009401691761894837   -0.09841920127021016   -0.003122541508888743
-0.00963425779873037   -0.09852624403985963   -0.0033728637586441096
-0.005735135306632455   -0.1   -0.00313520012573472
-0.010781288631802662   -0.09795380723450782   -0.003264549877301652
-0.00963425779873037   -0.09852624403985963   -0.0033728637586441096
-0.005263253417689847   -0.1   -0.0037899016957270394
-0.005735135306632455   -0.1   -0.00313520012573472
-0.009401691761894837   -0.09841920127021016   -0.003122541508888743
-0.004390626558328442   -0.1   -0.003230842764393621
-0.0053154594447729535   -0.1   -0.002744026640936885
-0.009401691761894837   -0.09841920127021016   -0.003122541508888743
-0.010781288631802662   -0.09795380723450782   -0.003264549877301652
-0.004390626558328442   -0.1   -0.003230842764393621
-0.010214209248772102   -0.0979413249648137   -0.002826027016263978
-0.0053154594447729535   -0.1   -0.002744026640936885
-0.0036947099341393423   -0.1   -0.0026960209898364952
-0.010214209248772102   -0.0979413249648137   -0.002826027016263978
-0.004390626558328442   -0.1   -0.003230842764393621
-0.0053154594447729535   -0.1   -0.002744026640936885
-0.010214209248772102   -0.0979413249648137   -0.002826027016263978
-0.00909495143555174   -0.09839470974126745   -0.002853236497387587
-0.009401691761894837   -0.09841920127021016   -0.003122541508888743
-0.0053154594447729535   -0.1   -0.002744026640936885
-0.010214209248772102   -0.0979413249648137   -0.002826027016263978
-0.009401691761894837   -0.09841920127021016   -0.003122541508888743
-0.004390626558328442   -0.1   -0.003230842764393621
-0.0053154594447729535   -0.1   -0.002744026640936885
-0.00909495143555174   -0.09839470974126745   -0.002853236497387587
-0.0036947099341393423   -0.1   -0.0026960209898364952
-0.0049050706640078766   -0.1   -0.002358014632974915
-0.00909495143555174   -0.09839470974126745   -0.002853236497387587
-0.010214209248772102   -0.0979413249648137   -0.002826027016263978
-0.0036947099341393423   -0.1   -0.0026960209898364952
-0.009498102817817936   -0.09805953786087264   -0.0023672855432550774
-0.0049050706640078766   -0.1   -0.002358014632974915
-0.002835002528100051   -0.1   -0.002140826453816336
-0.009498102817817936   -0.09805953786087264   -0.0023672855432550774
-0.0036947099341393423   -0.1   -0.0026960209898364952
-0.0049050706640078766   -0.1   -0.002358014632974915
-0.009498102817817936   -0.09805953786087264   -0.0023672855432550774
-0.008806211367015206   -0.09843679327209381   -0.0025734917029758718
-0.00909495143555174   -0.09839470974126745   -0.002853236497387587
-0.0049050706640078766   -0.1   -0.002358014632974915
-0.009498102817817936   -0.09805953786087264   -0.0023672855432550774
-0.00909495143555174   -0.09839470974126745   -0.002853236497387587
-0.0036947099341393423   -0.1   -0.0026960209898364952
-0.007077913418855385   -0.09791667929618801   -0.0020988234396005956
-0.0028708924129762356   -0.0942038092099311   -0.001814031965483939
-0.007512160621322344   -0.09829659047059228   -0.0024809798642898206
-0.006583078486741221   -0.09774543792917319   -0.0024243434305988277
-0.0028708924129762356   -0.0942038092099311   -0.001814031965483939
-0.005383870419799043   -0.0944900405524148   -0.0022198545487425326
-0.007512160621322344   -0.09829659047059228   -0.0024809798642898206
-0.005246049526401902   -0.0943286623486912   -0.0023437631028825666
-0.006583078486741221   -0.09774543792917319   -0.0024243434305988277
-0.00731802008304178   -0.09816320430582044   -0.0026200482157945513
-0.005246049526401902   -0.0943286623486912   -0.0023437631028825666
-0.007512160621322344   -0.09829659047059228   -0.0024809798642898206
-0.006583078486741221   -0.09774543792917319   -0.0024243434305988277
-0.005246049526401902   -0.0943286623486912   -0.0023437631028825666
-0.0024766759631074833   -0.0940041722726315   -0.0020951415383893162
-0.0028708924129762356   -0.0942038092099311   -0.001814031965483939
-0.006583078486741221   -0.09774543792917319   -0.0024243434305988277
-0.005246049526401902   -0.0943286623486912   -0.0023437631028825666
-0.0028708924129762356   -0.0942038092099311   -0.001814031965483939
-0.007512160621322344   -0.09829659047059228   -0.0024809798642898206
-0.006583078486741221   -0.09774543792917319   -0.0024243434305988277
-0.0024766759631074833   -0.0940041722726315   -0.0020951415383893162
-0.00731802008304178   -0.09816320430582044   -0.0026200482157945513
-0.006171154308591896   -0.09769242563551978   -0.0027364497221127214
-0.0024766759631074833   -0.0940041722726315   -0.0020951415383893162
-0.005246049526401902   -0.0943286623486912   -0.0023437631028825666
-0.00731802008304178   -0.09816320430582044   -0.0026200482157945513
-0.005090971859788556   -0.09423895539756509   -0.0024564565794374
-0.006171154308591896   -0.09769242563551978   -0.0027364497221127214
-0.007090368122631025   -0.09811370203689462   -0.002748309199514387
-0.005090971859788556   -0.09423895539756509   -0.0024564565794374
-0.00731802008304178   -0.09816320430582044   -0.0026200482157945513
-0.006171154308591896   -0.09769242563551978   -0.0027364497221127214
-0.005090971859788556   -0.09423895539756509   -0.0024564565794374
-0.0021664823679421155   -0.09390875894673667   -0.002359624725429258
-0.0024766759631074833   -0.0940041722726315   -0.0020951415383893162
-0.006171154308591896   -0.09769242563551978   -0.0027364497221127214
-0.005090971859788556   -0.09423895539756509   -0.0024564565794374
-0.0024766759631074833   -0.0940041722726315   -0.0020951415383893162
-0.00731802008304178   -0.09816320430582044   -0.0026200482157945513
-0.006171154308591896   -0.09769242563551978   -0.0027364497221127214
-0.0021664823679421155   -0.09390875894673667   -0.002359624725429258
-0.007090368122631025   -0.09811370203689462   -0.002748309199514387
-0.005705243428105684   -0.09773621031133983   -0.003033745862762366
-0.0021664823679421155   -0.09390875894673667   -0.002359624725429258
-0.005090971859788556   -0.09423895539756509   -0.0024564565794374
-0.007090368122631025   -0.09811370203689462   -0.002748309199514387
-0.004972049706078688   -0.09421841734335164   -0.002558290473791263
-0.005705243428105684   -0.09773621031133983   -0.003033745862762366
-0.006895314357908029   -0.09814878727001122   -0.002865087265385368
-0.004972049706078688   -0.09421841734335164   -0.002558290473791263
-0.007090368122631025   -0.09811370203689462   -0.002748309199514387
-0.005705243428105684   -0.09773621031133983   -0.003033745862762366
-0.004972049706078688   -0.09421841734335164   -0.002558290473791263
-0.0018279066895871077   -0.09389022240718956   -0.0026067751315367554
-0.0021664823679421155   -0.09390875894673667   -0.002359624725429258
-0.005705243428105684   -0.09773621031133983   -0.003033745862762366
-0.004972049706078688   -0.09421841734335164   -0.002558290473791263
-0.0021664823679421155   -0.09390875894673667   -0.002359624725429258
-0.007090368122631025   -0.09811370203689462   -0.002748309199514387
-0.007512160621322344   -0.09829659047059228   -0.0024809798642898206
-0.005383870419799043   -0.0944900405524148   -0.0022198545487425326
-0.00809787342264889   -0.09853191452942896   -0.002786600993011384
-0.00731802008304178   -0.09816320430582044   -0.0026200482157945513
-0.005383870419799043   -0.0944900405524148   -0.0022198545487425326
-0.007863201693642515   -0.09459113923842773   -0.0025509995089229875
-0.00809787342264889   -0.09853191452942896   -0.002786600993011384
-0.007747270891140771   -0.09445033884042447   -0.0025578964251262754
-0.00731802008304178   -0.09816320430582044   -0.0026200482157945513
-0.007926011170074456   -0.09841282748357655   -0.002790306363783198
-0.007747270891140771   -0.09445033884042447   -0.0025578964251262754
-0.00809787342264889   -0.09853191452942896   -0.002786600993011384
-0.00731802008304178   -0.09816320430582044   -0.0026200482157945513
-0.007747270891140771   -0.09445033884042447   -0.0025578964251262754
-0.005246049526401902   -0.0943286623486912   -0.0023437631028825666
-0.005383870419799043   -0.0944900405524148   -0.0022198545487425326
-0.00731802008304178   -0.09816320430582044   -0.0026200482157945513
-0.007747270891140771   -0.09445033884042447   -0.0025578964251262754
-0.005383870419799043   -0.0944900405524148   -0.0022198545487425326
-0.00809787342264889   -0.09853191452942896   -0.002786600993011384
-0.00731802008304178   -0.09816320430582044   -0.0026200482157945513
-0.005246049526401902   -0.0943286623486912   -0.0023437631028825666
-0.007926011170074456   -0.09841282748357655   -0.002790306363783198
-0.007090368122631025   -0.09811370203689462   -0.002748309199514387
-0.005246049526401902   -0.0943286623486912   -0.0023437631028825666
-0.007747270891140771   -0.09445033884042447   -0.0025578964251262754
-0.007926011170074456   -0.09841282748357655   -0.002790306363783198
-0.007627375529172371   -0.09437415109546668   -0.002554408090495627
-0.007090368122631025   -0.09811370203689462   -0.002748309199514387
-0.007734700701021251   -0.09836971847455415   -0.0027799996482542064
-0.007627375529172371   -0.09437415109546668   -0.002554408090495627
-0.007926011170074456   -0.09841282748357655   -0.002790306363783198
-0.007090368122631025   -0.09811370203689462   -0.002748309199514387
-0.007627375529172371   -0.09437415109546668   -0.002554408090495627
-0.005090971859788556   -0.09423895539756509   -0.0024564565794374
-0.005246049526401902   -0.0943286623486912   -0.0023437631028825666
-0.007090368122631025   -0.09811370203689462   -0.002748309199514387
-0.007627375529172371   -0.09437415109546668   -0.002554408090495627
-0.005246049526401902   -0.0943286623486912   -0.0023437631028825666
-0.007926011170074456   -0.09841282748357655   -0.002790306363783198
-0.007090368122631025   -0.09811370203689462   -0.002748309199514387
-0.005090971859788556   -0.09423895539756509   -0.0024564565794374
-0.007734700701021251   -0.09836971847455415   -0.0027799996482542064
-0.006895314357908029   -0.09814878727001122   -0.002865087265385368
-0.005090971859788556   -0.09423895539756509   -0.0024564565794374
-0.007627375529172371   -0.09437415109546668   -0.002554408090495627
-0.007734700701021251   -0.09836971847455415   -0.0027799996482542064
-0.007511737326985134   -0.09435944195955498   -0.0025404315713747055
-0.006895314357908029   -0.09814878727001122   -0.002865087265385368
-0.007540169252931383   -0.09839909304456353   -0.0027586988252820683
-0.007511737326985134   -0.09435944195955498   -0.0025404315713747055
-0.007734700701021251   -0.09836971847455415   -0.0027799996482542064
-0.006895314357908029   -0.09814878727001122   -0.002865087265385368
-0.007511737326985134   -0.09435944195955498   -0.0025404315713747055
-0.004972049706078688   -0.09421841734335164   -0.002558290473791263
-0.005090971859788556   -0.09423895539756509   -0.0024564565794374
-0.006895314357908029   -0.09814878727001122   -0.002865087265385368
-0.007511737326985134   -0.09435944195955498   -0.0025404315713747055
-0.005090971859788556   -0.09423895539756509   -0.0024564565794374
-0.007734700701021251   -0.09836971847455415   -0.0027799996482542064
-0.00809787342264889   -0.09853191452942896   -0.002786600993011384
-0.007863201693642515   -0.09459113923842773   -0.0025509995089229875
-0.008725486789540186   -0.09863151148539183   -0.0030873306983702853
-0.007926011170074456   -0.09841282748357655   -0.002790306363783198
-0.007863201693642515   -0.09459113923842773   -0.0025509995089229875
-0.010325188526695795   -0.09450151190300345   -0.002860885593093432
-0.008725486789540186   -0.09863151148539183   -0.0030873306983702853
-0.010210173083542707   -0.09437649294936619   -0.0027555966334678545
-0.007926011170074456   -0.09841282748357655   -0.002790306363783198
-0.008547458752190311   -0.09851801685253658   -0.0029608820530217855
-0.010210173083542707   -0.09437649294936619   -0.0027555966334678545
-0.008725486789540186   -0.09863151148539183   -0.0030873306983702853
-0.007926011170074456   -0.09841282748357655   -0.002790306363783198
-0.010210173083542707   -0.09437649294936619   -0.0027555966334678545
-0.007747270891140771   -0.09445033884042447   -0.0025578964251262754
-0.007863201693642515   -0.09459113923842773   -0.0025509995089229875
-0.007926011170074456   -0.09841282748357655   -0.002790306363783198
-0.010210173083542707   -0.09437649294936619   -0.0027555966334678545
-0.007863201693642515   -0.09459113923842773   -0.0025509995089229875
-0.008725486789540186   -0.09863151148539183   -0.0030873306983702853
-0.007926011170074456   -0.09841282748357655   -0.002790306363783198
-0.007747270891140771   -0.09445033884042447   -0.0025578964251262754
-0.008547458752190311   -0.09851801685253658   -0.0029608820530217855
-0.007734700701021251   -0.09836971847455415   -0.0027799996482542064
-0.007747270891140771   -0.09445033884042447   -0.0025578964251262754
-0.010210173083542707   -0.09437649294936619   -0.0027555966334678545
-0.008547458752190311   -0.09851801685253658   -0.0029608820530217855
-0.010081097896424456   -0.09431499617968718   -0.00264007367793788
-0.007734700701021251   -0.09836971847455415   -0.0027799996482542064
-0.0083338685917917   -0.09848174808838993   -0.002817369721023326
-0.010081097896424456   -0.09431499617968718   -0.00264007367793788
-0.008547458752190311   -0.09851801685253658   -0.0029608820530217855
-0.007734700701021251   -0.09836971847455415   -0.0027799996482542064
-0.010081097896424456   -0.09431499617968718   -0.00264007367793788
-0.007627375529172371   -0.09437415109546668   -0.002554408090495627
-0.007747270891140771   -0.09445033884042447   -0.0025578964251262754
-0.007734700701021251   -0.09836971847455415   -0.0027799996482542064
-0.010081097896424456   -0.09431499617968718   -0.00264007367793788
-0.007747270891140771   -0.09445033884042447   -0.0025578964251262754
-0.008547458752190311   -0.09851801685253658   -0.0029608820530217855
-0.007734700701021251   -0.09836971847455415   -0.0027799996482542064
-0.007627375529172371   -0.09437415109546668   -0.002554408090495627
-0.0083338685917917   -0.09848174808838993   -0.002817369721023326
-0.007540169252931383   -0.09839909304456353   -0.0027586988252820683
-0.007627375529172371   -0.09437415109546668   -0.002554408090495627
-0.010081097896424456   -0.09431499617968718   -0.00264007367793788
-0.0083338685917917   -0.09848174808838993   -0.002817369721023326
-0.009951459707625832   -0.09431087669384028   -0.0025130693969181877
-0.007540169252931383   -0.09839909304456353   -0.0027586988252820683
-0.008114184854988847   -0.09851051222098475   -0.0026644812053101498
-0.009951459707625832   -0.09431087669384028   -0.0025130693969181877
-0.0083338685917917   -0.09848174808838993   -0.002817369721023326
-0.007540169252931383   -0.09839909304456353   -0.0027586988252820683
-0.009951459707625832   -0.09431087669384028   -0.0025130693969181877
-0.007511737326985134   -0.09435944195955498   -0.0025404315713747055
-0.007627375529172371   -0.09437415109546668   -0.002554408090495627
-0.007540169252931383   -0.09839909304456353   -0.0027586988252820683
-0.009951459707625832   -0.09431087669384028   -0.0025130693969181877
-0.007627375529172371   -0.09437415109546668   -0.002554408090495627
-0.0083338685917917   -0.09848174808838993   -0.002817369721023326
-0.008725486789540186   -0.09863151148539183   -0.0030873306983702853
-0.010325188526695795   -0.09450151190300345   -0.002860885593093432
-0.00963425779873037   -0.09852624403985963   -0.0033728637586441096
-0.008547458752190311   -0.09851801685253658   -0.0029608820530217855
-0.010325188526695795   -0.09450151190300345   -0.002860885593093432
-0.013030616277284067   -0.09420924381607432   -0.0031454154328664215
-0.00963425779873037   -0.09852624403985963   -0.0033728637586441096
-0.012889901676355899   -0.0941000635392082   -0.002930469803802744
-0.008547458752190311   -0.09851801685253658   -0.0029608820530217855
-0.009401691761894837   -0.09841920127021016   -0.003122541508888743
-0.012889901676355899   -0.0941000635392082   -0.002930469803802744
-0.00963425779873037   -0.09852624403985963   -0.0033728637586441096
-0.008547458752190311   -0.09851801685253658   -0.0029608820530217855
-0.012889901676355899   -0.0941000635392082   -0.002930469803802744
-0.010210173083542707   -0.09437649294936619   -0.0027555966334678545
-0.010325188526695795   -0.09450151190300345   -0.002860885593093432
-0.008547458752190311   -0.09851801685253658   -0.0029608820530217855
-0.012889901676355899   -0.0941000635392082   -0.002930469803802744
-0.010325188526695795   -0.09450151190300345   -0.002860885593093432
-0.00963425779873037   -0.09852624403985963   -0.0033728637586441096
-0.008547458752190311   -0.09851801685253658   -0.0029608820530217855
-0.010210173083542707   -0.09437649294936619   -0.0027555966334678545
-0.009401691761894837   -0.09841920127021016   -0.003122541508888743
-0.0083338685917917   -0.09848174808838993   -0.002817369721023326
-0.010210173083542707   -0.09437649294936619   -0.0027555966334678545
-0.012889901676355899   -0.0941000635392082   -0.002930469803802744
-0.009401691761894837   -0.09841920127021016   -0.003122541508888743
-0.012695698987618988   -0.09405319900413382   -0.002706033290598239
-0.0083338685917917   -0.09848174808838993   -0.002817369721023326
-0.00909495143555174   -0.09839470974126745   -0.002853236497387587
-0.012695698987618988   -0.09405319900413382   -0.002706033290598239
-0.009401691761894837   -0.09841920127021016   -0.003122541508888743
-0.0083338685917917   -0.09848174808838993   -0.002817369721023326
-0.012695698987618988   -0.09405319900413382   -0.002706033290598239
-0.010081097896424456   -0.09431499617968718   -0.00264007367793788
-0.010210173083542707   -0.09437649294936619   -0.0027555966334678545
-0.0083338685917917   -0.09848174808838993   -0.002817369721023326
-0.012695698987618988   -0.09405319900413382   -0.002706033290598239
-0.010210173083542707   -0.09437649294936619   -0.0027555966334678545
-0.009401691761894837   -0.09841920127021016   -0.003122541508888743
-0.0083338685917917   -0.09848174808838993   -0.002817369721023326
-0.010081097896424456   -0.09431499617968718   -0.00264007367793788
-0.00909495143555174   -0.09839470974126745   -0.002853236497387587
-0.008114184854988847   -0.09851051222098475   -0.0026644812053101498
-0.010081097896424456   -0.09431499617968718   -0.00264007367793788
-0.012695698987618988   -0.09405319900413382   -0.002706033290598239
-0.00909495143555174   -0.09839470974126745   -0.002853236497387587
-0.012526063191702868   -0.0940687313323308   -0.002465831012768071
-0.008114184854988847   -0.09851051222098475   -0.0026644812053101498
-0.008806211367015206   -0.09843679327209381   -0.0025734917029758718
-0.012526063191702868   -0.0940687313323308   -0.002465831012768071
-0.00909495143555174   -0.09839470974126745   -0.002853236497387587
-0.008114184854988847   -0.09851051222098475   -0.0026644812053101498
-0.012526063191702868   -0.0940687313323308   -0.002465831012768071
-0.009951459707625832   -0.09431087669384028   -0.0025130693969181877
-0.010081097896424456   -0.09431499617968718   -0.00264007367793788
-0.008114184854988847   -0.09851051222098475   -0.0026644812053101498
-0.012526063191702868   -0.0940687313323308   -0.002465831012768071
-0.010081097896424456   -0.09431499617968718   -0.00264007367793788
-0.00909495143555174   -0.09839470974126745   -0.002853236497387587
-0.00963425779873037   -0.09852624403985963   -0.0033728637586441096
-0.013030616277284067   -0.09420924381607432   -0.0031454154328664215
-0.011398168059914351   -0.09804384312905631   -0.0036752643351247584
-0.009401691761894837   -0.09841920127021016   -0.003122541508888743
-0.013030616277284067   -0.09420924381607432   -0.0031454154328664215
-0.01651467285324995   -0.09373392191523003   -0.0034181550478537006
-0.011398168059914351   -0.09804384312905631   -0.0036752643351247584
-0.01606263244528812   -0.09361570502484612   -0.0030788305696081027
-0.009401691761894837   -0.09841920127021016   -0.003122541508888743
-0.010781288631802662   -0.09795380723450782   -0.003264549877301652
-0.01606263244528812   -0.09361570502484612   -0.0030788305696081027
-0.011398168059914351   -0.09804384312905631   -0.0036752643351247584
-0.009401691761894837   -0.09841920127021016   -0.003122541508888743
-0.01606263244528812   -0.09361570502484612   -0.0030788305696081027
-0.012889901676355899   -0.0941000635392082   -0.002930469803802744
-0.013030616277284067   -0.09420924381607432   -0.0031454154328664215
-0.009401691761894837   -0.09841920127021016   -0.003122541508888743
-0.01606263244528812   -0.09361570502484612   -0.0030788305696081027
-0.013030616277284067   -0.09420924381607432   -0.0031454154328664215
-0.011398168059914351   -0.09804384312905631   -0.0036752643351247584
-0.009401691761894837   -0.09841920127021016   -0.003122541508888743
-0.012889901676355899   -0.0941000635392082   -0.002930469803802744
-0.010781288631802662   -0.09795380723450782   -0.003264549877301652
-0.00909495143555174   -0.09839470974126745   -0.002853236497387587
-0.012889901676355899   -0.0941000635392082   -0.002930469803802744
-0.01606263244528812   -0.09361570502484612   -0.0030788305696081027
-0.010781288631802662   -0.09795380723450782   -0.003264549877301652
-0.015657205615187433   -0.09357235671851696   -0.0027196207980378882
-0.00909495143555174   -0.09839470974126745   -0.002853236497387587
-0.010214209248772102   -0.0979413249648137   -0.002826027016263978
-0.015657205615187433   -0.09357235671851696   -0.0027196207980378882
-0.010781288631802662   -0.09795380723450782   -0.003264549877301652
-0.00909495143555174   -0.09839470974126745   -0.002853236497387587
-0.015657205615187433   -0.09357235671851696   -0.0027196207980378882
-0.012695698987618988   -0.09405319900413382   -0.002706033290598239
-0.012889901676355899   -0.0941000635392082   -0.002930469803802744
-0.00909495143555174   -0.09839470974126745   -0.002853236497387587
-0.015657205615187433   -0.09357235671851696   -0.0027196207980378882
-0.012889901676355899   -0.0941000635392082   -0.002930469803802744
-0.010781288631802662   -0.09795380723450782   -0.003264549877301652
-0.00909495143555174   -0.09839470974126745   -0.002853236497387587
-0.012695698987618988   -0.09405319900413382   -0.002706033290598239
-0.010214209248772102   -0.0979413249648137   -0.002826027016263978
-0.008806211367015206   -0.09843679327209381   -0.0025734917029758718
-0.012695698987618988   -0.09405319900413382   -0.002706033290598239
-0.015657205615187433   -0.09357235671851696   -0.0027196207980378882
-0.010214209248772102   -0.0979413249648137   -0.002826027016263978
-0.015131721708811809   -0.09362616475755453   -0.002343948338326382
-0.008806211367015206   -0.09843679327209381   -0.0025734917029758718
-0.009498102817817936   -0.09805953786087264   -0.0023672855432550774
-0.015131721708811809   -0.09362616475755453   -0.002343948338326382
-0.010214209248772102   -0.0979413249648137   -0.002826027016263978
-0.008806211367015206   -0.09843679327209381   -0.0025734917029758718
-0.015131721708811809   -0.09362616475755453   -0.002343948338326382
-0.012526063191702868   -0.0940687313323308   -0.002465831012768071
-0.012695698987618988   -0.09405319900413382   -0.002706033290598239
-0.008806211367015206   -0.09843679327209381   -0.0025734917029758718
-0.015131721708811809   -0.09362616475755453   -0.002343948338326382
-0.012695698987618988   -0.09405319900413382   -0.002706033290598239
-0.010214209248772102   -0.0979413249648137   -0.002826027016263978
-0.0028708924129762356   -0.0942038092099311   -0.001814031965483939
0.000538175044969502   -0.08738248988303061   -0.0015010152925680525
-0.005383870419799043   -0.0944900405524148   -0.0022198545487425326
-0.0024766759631074833   -0.0940041722726315   -0.0020951415383893162
0.000538175044969502   -0.08738248988303061   -0.0015010152925680525
-0.0036956102877370007   -0.08759211353798124   -0.0018993461780428557
-0.005383870419799043   -0.0944900405524148   -0.0022198545487425326
-0.003622656484763601   -0.08742300980468404   -0.0019975426578933797
-0.0024766759631074833   -0.0940041722726315   -0.0020951415383893162
-0.005246049526401902   -0.0943286623486912   -0.0023437631028825666
-0.003622656484763601   -0.08742300980468404   -0.0019975426578933797
-0.005383870419799043   -0.0944900405524148   -0.0022198545487425326
-0.0024766759631074833   -0.0940041722726315   -0.0020951415383893162
-0.003622656484763601   -0.08742300980468404   -0.0019975426578933797
0.0008130718623954385   -0.08717971514544684   -0.0017245996236446755
0.000538175044969502   -0.08738248988303061   -0.0015010152925680525
-0.0024766759631074833   -0.0940041722726315   -0.0020951415383893162
-0.003622656484763601   -0.08742300980468404   -0.0019975426578933797
0.000538175044969502   -0.08738248988303061   -0.0015010152925680525
-0.005383870419799043   -0.0944900405524148   -0.0022198545487425326
-0.0024766759631074833   -0.0940041722726315   -0.0020951415383893162
0.0008130718623954385   -0.08717971514544684   -0.0017245996236446755
-0.005246049526401902   -0.0943286623486912   -0.0023437631028825666
-0.0021664823679421155   -0.09390875894673667   -0.002359624725429258
0.0008130718623954385   -0.08717971514544684   -0.0017245996236446755
-0.003622656484763601   -0.08742300980468404   -0.0019975426578933797
-0.005246049526401902   -0.0943286623486912   -0.0023437631028825666
-0.0035396450079907826   -0.08731228551553094   -0.0020842542656324416
-0.0021664823679421155   -0.09390875894673667   -0.002359624725429258
-0.005090971859788556   -0.09423895539756509   -0.0024564565794374
-0.0035396450079907826   -0.08731228551553094   -0.0020842542656324416
-0.005246049526401902   -0.0943286623486912   -0.0023437631028825666
-0.0021664823679421155   -0.09390875894673667   -0.002359624725429258
-0.0035396450079907826   -0.08731228551553094   -0.0020842542656324416
0.0010152460057130542   -0.08706221277623069   -0.0019321092877218607
0.0008130718623954385   -0.08717971514544684   -0.0017245996236446755
-0.0021664823679421155   -0.09390875894673667   -0.002359624725429258
-0.0035396450079907826   -0.08731228551553094   -0.0020842542656324416
0.0008130718623954385   -0.08717971514544684   -0.0017245996236446755
-0.005246049526401902   -0.0943286623486912   -0.0023437631028825666
-0.0021664823679421155   -0.09390875894673667   -0.002359624725429258
0.0010152460057130542   -0.08706221277623069   -0.0019321092877218607
-0.005090971859788556   -0.09423895539756509   -0.0024564565794374
-0.0018279066895871077   -0.09389022240718956   -0.0026067751315367554
0.0010152460057130542   -0.08706221277623069   -0.0019321092877218607
-0.0035396450079907826   -0.08731228551553094   -0.0020842542656324416
-0.005090971859788556   -0.09423895539756509   -0.0024564565794374
-0.003490023492884316   -0.08725667395617298   -0.002160614507180727
-0.0018279066895871077   -0.09389022240718956   -0.0026067751315367554
-0.004972049706078688   -0.09421841734335164   -0.002558290473791263
-0.003490023492884316   -0.08725667395617298   -0.002160614507180727
-0.005090971859788556   -0.09423895539756509   -0.0024564565794374
-0.0018279066895871077   -0.09389022240718956   -0.0026067751315367554
-0.003490023492884316   -0.08725667395617298   -0.002160614507180727
0.001231507290215902   -0.08700379147816888   -0.0021234628343635136
0.0010152460057130542   -0.08706221277623069   -0.0019321092877218607
-0.0018279066895871077   -0.09389022240718956   -0.0026067751315367554
-0.003490023492884316   -0.08725667395617298   -0.002160614507180727
0.0010152460057130542   -0.08706221277623069   -0.0019321092877218607
-0.005090971859788556   -0.09423895539756509   -0.0024564565794374
-0.005383870419799043   -0.0944900405524148   -0.0022198545487425326
-0.0036956102877370007   -0.08759211353798124   -0.0018993461780428557
-0.007863201693642515   -0.09459113923842773   -0.0025509995089229875
-0.005246049526401902   -0.0943286623486912   -0.0023437631028825666
-0.0036956102877370007   -0.08759211353798124   -0.0018993461780428557
-0.0077901566895432015   -0.08763218042650192   -0.002227752597871566
-0.007863201693642515   -0.09459113923842773   -0.0025509995089229875
-0.0077364821212667296   -0.08748696996583326   -0.0022303328592655648
-0.005246049526401902   -0.0943286623486912   -0.0023437631028825666
-0.007747270891140771   -0.09445033884042447   -0.0025578964251262754
-0.0077364821212667296   -0.08748696996583326   -0.0022303328592655648
-0.007863201693642515   -0.09459113923842773   -0.0025509995089229875
-0.005246049526401902   -0.0943286623486912   -0.0023437631028825666
-0.0077364821212667296   -0.08748696996583326   -0.0022303328592655648
-0.003622656484763601   -0.08742300980468404   -0.0019975426578933797
-0.0036956102877370007   -0.08759211353798124   -0.0018993461780428557
-0.005246049526401902   -0.0943286623486912   -0.0023437631028825666
-0.0077364821212667296   -0.08748696996583326   -0.0022303328592655648
-0.0036956102877370007   -0.08759211353798124   -0.0018993461780428557
-0.007863201693642515   -0.09459113923842773   -0.0025509995089229875
-0.005246049526401902   -0.0943286623486912   -0.0023437631028825666
-0.003622656484763601   -0.08742300980468404   -0.0019975426578933797
-0.007747270891140771   -0.09445033884042447   -0.0025578964251262754
-0.005090971859788556   -0.09423895539756509   -0.0024564565794374
-0.003622656484763601   -0.08742300980468404   -0.0019975426578933797
-0.0077364821212667296   -0.08748696996583326   -0.0022303328592655648
-0.007747270891140771   -0.09445033884042447   -0.0025578964251262754
-0.007681297094440805   -0.08739401679969776   -0.0022219123469538146
-0.005090971859788556   -0.09423895539756509   -0.0024564565794374
-0.007627375529172371   -0.09437415109546668   -0.002554408090495627
-0.007681297094440805   -0.08739401679969776   -0.0022219123469538146
-0.007747270891140771   -0.09445033884042447   -0.0025578964251262754
-0.005090971859788556   -0.09423895539756509   -0.0024564565794374
-0.007681297094440805   -0.08739401679969776   -0.0022219123469538146
-0.0035396450079907826   -0.08731228551553094   -0.0020842542656324416
-0.003622656484763601   -0.08742300980468404   -0.0019975426578933797
-0.005090971859788556   -0.09423895539756509   -0.0024564565794374
-0.007681297094440805   -0.08739401679969776   -0.0022219123469538146
-0.003622656484763601   -0.08742300980468404   -0.0019975426578933797
-0.007747270891140771   -0.09445033884042447   -0.0025578964251262754
-0.005090971859788556   -0.09423895539756509   -0.0024564565794374
-0.0035396450079907826   -0.08731228551553094   -0.0020842542656324416
-0.007627375529172371   -0.09437415109546668   -0.002554408090495627
-0.004972049706078688   -0.09421841734335164   -0.002558290473791263
-0.0035396450079907826   -0.08731228551553094   -0.0020842542656324416
-0.007681297094440805   -0.08739401679969776   -0.0022219123469538146
-0.007627375529172371   -0.09437415109546668   -0.002554408090495627
-0.007633026480237927   -0.08735245054940725   -0.0022032191022895173
-0.004972049706078688   -0.09421841734335164   -0.002558290473791263
-0.007511737326985134   -0.09435944195955498   -0.0025404315713747055
-0.007633026480237927   -0.08735245054940725   -0.0022032191022895173
-0.007627375529172371   -0.09437415109546668   -0.002554408090495627
-0.004972049706078688   -0.09421841734335164   -0.002558290473791263
-0.007633026480237927   -0.08735245054940725   -0.0022032191022895173
-0.003490023492884316   -0.08725667395617298   -0.002160614507180727
-0.0035396450079907826   -0.08731228551553094   -0.0020842542656324416
-0.004972049706078688   -0.09421841734335164   -0.002558290473791263
-0.007633026480237927   -0.08735245054940725   -0.0022032191022895173
-0.0035396450079907826   -0.08731228551553094   -0.0020842542656324416
-0.007627375529172371   -0.09437415109546668   -0.002554408090495627
-0.007863201693642515   -0.09459113923842773   -0.0025509995089229875
-0.0077901566895432015   -0.08763218042650192   -0.002227752597871566
-0.010325188526695795   -0.09450151190300345   -0.002860885593093432
-0.007747270891140771   -0.09445033884042447   -0.0025578964251262754
-0.0077901566895432015   -0.08763218042650192   -0.002227752597871566
-0.011820082204431582   -0.08750190700110813   -0.0025242145227527017
-0.010325188526695795   -0.09450151190300345   -0.002860885593093432
-0.011770106520527488   -0.08737660409897997   -0.002433487789792948
-0.007747270891140771   -0.09445033884042447   -0.0025578964251262754
-0.010210173083542707   -0.09437649294936619   -0.0027555966334678545
-0.011770106520527488   -0.08737660409897997   -0.002433487789792948
-0.010325188526695795   -0.09450151190300345   -0.002860885593093432
-0.007747270891140771   -0.09445033884042447   -0.0025578964251262754
-0.011770106520527488   -0.08737660409897997   -0.002433487789792948
-0.0077364821212667296   -0.08748696996583326   -0.0022303328592655648
-0.0077901566895432015   -0.08763218042650192   -0.002227752597871566
-0.007747270891140771   -0.09445033884042447   -0.0025578964251262754
-0.011770106520527488   -0.08737660409897997   -0.002433487789792948
-0.0077901566895432015   -0.08763218042650192   -0.002227752597871566
-0.010325188526695795   -0.09450151190300345   -0.002860885593093432
-0.007747270891140771   -0.09445033884042447   -0.0025578964251262754
-0.0077364821212667296   -0.08748696996583326   -0.0022303328592655648
-0.010210173083542707   -0.09437649294936619   -0.0027555966334678545
-0.007627375529172371   -0.09437415109546668   -0.002554408090495627
-0.0077364821212667296   -0.08748696996583326   -0.0022303328592655648
-0.011770106520527488   -0.08737660409897997   -0.002433487789792948
-0.010210173083542707   -0.09437649294936619   -0.0027555966334678545
-0.01170972269567251   -0.08730298230347155   -0.0023319964980809257
-0.007627375529172371   -0.09437415109546668   -0.002554408090495627
-0.010081097896424456   -0.09431499617968718   -0.00264007367793788
-0.01170972269567251   -0.08730298230347155   -0.0023319964980809257
-0.010210173083542707   -0.09437649294936619   -0.0027555966334678545
-0.007627375529172371   -0.09437415109546668   -0.002554408090495627
-0.01170972269567251   -0.08730298230347155   -0.0023319964980809257
-0.007681297094440805   -0.08739401679969776   -0.0022219123469538146
-0.0077364821212667296   -0.08748696996583326   -0.0022303328592655648
-0.007627375529172371   -0.09437415109546668   -0.002554408090495627
-0.01170972269567251   -0.08730298230347155   -0.0023319964980809257
-0.0077364821212667296   -0.08748696996583326   -0.0022303328592655648
-0.010210173083542707   -0.09437649294936619   -0.0027555966334678545
-0.007627375529172371   -0.09437415109546668   -0.002554408090495627
-0.007681297094440805   -0.08739401679969776   -0.0022219123469538146
-0.010081097896424456   -0.09431499617968718   -0.00264007367793788
-0.007511737326985134   -0.09435944195955498   -0.0025404315713747055
-0.007681297094440805   -0.08739401679969776   -0.0022219123469538146
-0.01170972269567251   -0.08730298230347155   -0.0023319964980809257
-0.010081097896424456   -0.09431499617968718   -0.00264007367793788
-0.01165097453001731   -0.08727862487648169   -0.0022200727407251162
-0.007511737326985134   -0.09435944195955498   -0.0025404315713747055
-0.009951459707625832   -0.09431087669384028   -0.0025130693969181877
-0.01165097453001731   -0.08727862487648169   -0.0022200727407251162
-0.010081097896424456   -0.09431499617968718   -0.00264007367793788
-0.007511737326985134   -0.09435944195955498   -0.0025404315713747055
-0.01165097453001731   -0.08727862487648169   -0.0022200727407251162
-0.007633026480237927   -0.08735245054940725   -0.0022032191022895173
-0.007681297094440805   -0.08739401679969776   -0.0022219123469538146
-0.007511737326985134   -0.09435944195955498   -0.0025404315713747055
-0.01165097453001731   -0.08727862487648169   -0.0022200727407251162
-0.007681297094440805   -0.08739401679969776   -0.0022219123469538146
-0.010081097896424456   -0.09431499617968718   -0.00264007367793788
-0.010325188526695795   -0.09450151190300345   -0.002860885593093432
-0.011820082204431582   -0.08750190700110813   -0.0025242145227527017
-0.013030616277284067   -0.09420924381607432   -0.0031454154328664215
-0.010210173083542707   -0.09437649294936619   -0.0027555966334678545
-0.011820082204431582   -0.08750190700110813   -0.0025242145227527017
-0.01604363304631308   -0.08720594581671114   -0.0027875469197872612
-0.013030616277284067   -0.09420924381607432   -0.0031454154328664215
-0.015978430739416523   -0.08709967605995494   -0.0026034087655781423
-0.010210173083542707   -0.09437649294936619   -0.0027555966334678545
-0.012889901676355899   -0.0941000635392082   -0.002930469803802744
-0.015978430739416523   -0.08709967605995494   -0.0026034087655781423
-0.013030616277284067   -0.09420924381607432   -0.0031454154328664215
-0.010210173083542707   -0.09437649294936619   -0.0027555966334678545
-0.015978430739416523   -0.08709967605995494   -0.0026034087655781423
-0.011770106520527488   -0.08737660409897997   -0.002433487789792948
-0.011820082204431582   -0.08750190700110813   -0.0025242145227527017
-0.010210173083542707   -0.09437649294936619   -0.0027555966334678545
-0.015978430739416523   -0.08709967605995494   -0.0026034087655781423
-0.011820082204431582   -0.08750190700110813   -0.0025242145227527017
-0.013030616277284067   -0.09420924381607432   -0.0031454154328664215
-0.010210173083542707   -0.09437649294936619   -0.0027555966334678545
-0.011770106520527488   -0.08737660409897997   -0.002433487789792948
-0.012889901676355899   -0.0941000635392082   -0.002930469803802744
-0.010081097896424456   -0.09431499617968718   -0.00264007367793788
-0.011770106520527488   -0.08737660409897997   -0.002433487789792948
-0.015978430739416523   -0.08709967605995494   -0.0026034087655781423
-0.012889901676355899   -0.0941000635392082   -0.002930469803802744
-0.015867940300157993   -0.08704358095547185   -0.0024101563779545324
-0.010081097896424456   -0.09431499617968718   -0.00264007367793788
-0.012695698987618988   -0.09405319900413382   -0.002706033290598239
-0.015867940300157993   -0.08704358095547185   -0.0024101563779545324
-0.012889901676355899   -0.0941000635392082   -0.002930469803802744
-0.010081097896424456   -0.09431499617968718   -0.00264007367793788
-0.015867940300157993   -0.08704358095547185   -0.0024101563779545324
-0.01170972269567251   -0.08730298230347155   -0.0023319964980809257
-0.011770106520527488   -0.08737660409897997   -0.002433487789792948
-0.010081097896424456   -0.09431499617968718   -0.00264007367793788
-0.015867940300157993   -0.08704358095547185   -0.0024101563779545324
-0.011770106520527488   -0.08737660409897997   -0.002433487789792948
-0.012889901676355899   -0.0941000635392082   -0.002930469803802744
-0.010081097896424456   -0.09431499617968718   -0.00264007367793788
-0.01170972269567251   -0.08730298230347155   -0.0023319964980809257
-0.012695698987618988   -0.09405319900413382   -0.002706033290598239
-0.009951459707625832   -0.09431087669384028   -0.0025130693969181877
-0.01170972269567251   -0.08730298230347155   -0.0023319964980809257
-0.015867940300157993   -0.08704358095547185   -0.0024101563779545324
-0.012695698987618988   -0.09405319900413382   -0.002706033290598239
-0.015778098327698224   -0.08704060978931243   -0.0022049559452620555
-0.009951459707625832   -0.09431087669384028   -0.0025130693969181877
-0.012526063191702868   -0.0940687313323308   -0.002465831012768071
-0.015778098327698224   -0.08704060978931243   -0.0022049559452620555
-0.012695698987618988   -0.09405319900413382   -0.002706033290598239
-0.009951459707625832   -0.09431087669384028   -0.0025130693969181877
-0.015778098327698224   -0.08704060978931243   -0.0022049559452620555
-0.01165097453001731   -0.08727862487648169   -0.0022200727407251162
-0.01170972269567251   -0.08730298230347155   -0.0023319964980809257
-0.009951459707625832   -0.09431087669384028   -0.0025130693969181877
-0.015778098327698224   -0.08704060978931243   -0.0022049559452620555
-0.01170972269567251   -0.08730298230347155   -0.0023319964980809257
-0.012695698987618988   -0.09405319900413382   -0.002706033290598239
-0.013030616277284067   -0.09420924381607432   -0.0031454154328664215
-0.01604363304631308   -0.08720594581671114   -0.0027875469197872612
-0.01651467285324995   -0.09373392191523003   -0.0034181550478537006
-0.012889901676355899   -0.0941000635392082   -0.002930469803802744
-0.01604363304631308   -0.08720594581671114   -0.0027875469197872612
-0.020969444876076524   -0.08678006244184872   -0.0030328175430631055
-0.01651467285324995   -0.09373392191523003   -0.0034181550478537006
-0.02063631011032826   -0.0866693501635535   -0.0027446546247082856
-0.012889901676355899   -0.0941000635392082   -0.002930469803802744
-0.01606263244528812   -0.09361570502484612   -0.0030788305696081027
-0.02063631011032826   -0.0866693501635535   -0.0027446546247082856
-0.01651467285324995   -0.09373392191523003   -0.0034181550478537006
-0.012889901676355899   -0.0941000635392082   -0.002930469803802744
-0.02063631011032826   -0.0866693501635535   -0.0027446546247082856
-0.015978430739416523   -0.08709967605995494   -0.0026034087655781423
-0.01604363304631308   -0.08720594581671114   -0.0027875469197872612
-0.012889901676355899   -0.0941000635392082   -0.002930469803802744
-0.02063631011032826   -0.0866693501635535   -0.0027446546247082856
-0.01604363304631308   -0.08720594581671114   -0.0027875469197872612
-0.01651467285324995   -0.09373392191523003   -0.0034181550478537006
-0.012889901676355899   -0.0941000635392082   -0.002930469803802744
-0.015978430739416523   -0.08709967605995494   -0.0026034087655781423
-0.01606263244528812   -0.09361570502484612   -0.0030788305696081027
-0.012695698987618988   -0.09405319900413382   -0.002706033290598239
-0.015978430739416523   -0.08709967605995494   -0.0026034087655781423
-0.02063631011032826   -0.0866693501635535   -0.0027446546247082856
-0.01606263244528812   -0.09361570502484612   -0.0030788305696081027
-0.020347019392088706   -0.08661801224454711   -0.002441475568509532
-0.012695698987618988   -0.09405319900413382   -0.002706033290598239
-0.015657205615187433   -0.09357235671851696   -0.0027196207980378882
-0.020347019392088706   -0.08661801224454711   -0.002441475568509532
-0.01606263244528812   -0.09361570502484612   -0.0030788305696081027
-0.012695698987618988   -0.09405319900413382   -0.002706033290598239
-0.020347019392088706   -0.08661801224454711   -0.002441475568509532
-0.015867940300157993   -0.08704358095547185   -0.0024101563779545324
-0.015978430739416523   -0.08709967605995494   -0.0026034087655781423
-0.012695698987618988   -0.09405319900413382   -0.002706033290598239
-0.020347019392088706   -0.08661801224454711   -0.002441475568509532
-0.015978430739416523   -0.08709967605995494   -0.0026034087655781423
-0.01606263244528812   -0.09361570502484612   -0.0030788305696081027
-0.012695698987618988   -0.09405319900413382   -0.002706033290598239
-0.015867940300157993   -0.08704358095547185   -0.0024101563779545324
-0.015657205615187433   -0.09357235671851696   -0.0027196207980378882
-0.012526063191702868   -0.0940687313323308   -0.002465831012768071
-0.015867940300157993   -0.08704358095547185   -0.0024101563779545324
-0.020347019392088706   -0.08661801224454711   -0.002441475568509532
-0.015657205615187433   -0.09357235671851696   -0.0027196207980378882
-0.01995719954929505   -0.08664790901325027   -0.0021252144665876186
-0.012526063191702868   -0.0940687313323308   -0.002465831012768071
-0.015131721708811809   -0.09362616475755453   -0.002343948338326382
-0.01995719954929505   -0.08664790901325027   -0.0021252144665876186
-0.015657205615187433   -0.09357235671851696   -0.0027196207980378882
-0.012526063191702868   -0.0940687313323308   -0.002465831012768071
-0.01995719954929505   -0.08664790901325027   -0.0021252144665876186
-0.015778098327698224   -0.08704060978931243   -0.0022049559452620555
-0.015867940300157993   -0.08704358095547185   -0.0024101563779545324
-0.012526063191702868   -0.0940687313323308   -0.002465831012768071
-0.01995719954929505   -0.08664790901325027   -0.0021252144665876186
-0.015867940300157993   -0.08704358095547185   -0.0024101563779545324
-0.015657205615187433   -0.09357235671851696   -0.0027196207980378882
0.000538175044969502   -0.08738248988303061   -0.0015010152925680525
0.0031231954460981754   -0.0781299299639415   -0.0011439961564344533
-0.0036956102877370007   -0.08759211353798124   -0.0018993461780428557
0.0008130718623954385   -0.08717971514544684   -0.0017245996236446755
0.0031231954460981754   -0.0781299299639415   -0.0011439961564344533
-0.002478380652093633   -0.07826824677655851   -0.0015241630506742719
-0.0036956102877370007   -0.08759211353798124   -0.0018993461780428557
-0.0024633364154308564   -0.0781000528212305   -0.0015921290390401885
0.0008130718623954385   -0.08717971514544684   -0.0017245996236446755
-0.003622656484763601   -0.08742300980468404   -0.0019975426578933797
-0.0024633364154308564   -0.0781000528212305   -0.0015921290390401885
-0.0036956102877370007   -0.08759211353798124   -0.0018993461780428557
0.0008130718623954385   -0.08717971514544684   -0.0017245996236446755
-0.0024633364154308564   -0.0781000528212305   -0.0015921290390401885
0.0032860707863329635   -0.07793209211190827   -0.0013091258722354475
0.0031231954460981754   -0.0781299299639415   -0.0011439961564344533
0.0008130718623954385   -0.08717971514544684   -0.0017245996236446755
-0.0024633364154308564   -0.0781000528212305   -0.0015921290390401885
0.0031231954460981754   -0.0781299299639415   -0.0011439961564344533
-0.0036956102877370007   -0.08759211353798124   -0.0018993461780428557
0.0008130718623954385   -0.08717971514544684   -0.0017245996236446755
0.0032860707863329635   -0.07793209211190827   -0.0013091258722354475
-0.003622656484763601   -0.08742300980468404   -0.0019975426578933797
0.0010152460057130542   -0.08706221277623069   -0.0019321092877218607
0.0032860707863329635   -0.07793209211190827   -0.0013091258722354475
-0.0024633364154308564   -0.0781000528212305   -0.0015921290390401885
-0.003622656484763601   -0.08742300980468404   -0.0019975426578933797
-0.002444221422445539   -0.07797785714143622   -0.0016496113027842049
0.0010152460057130542   -0.08706221277623069   -0.0019321092877218607
-0.0035396450079907826   -0.08731228551553094   -0.0020842542656324416
-0.002444221422445539   -0.07797785714143622   -0.0016496113027842049
-0.003622656484763601   -0.08742300980468404   -0.0019975426578933797
0.0010152460057130542   -0.08706221277623069   -0.0019321092877218607
-0.002444221422445539   -0.07797785714143622   -0.0016496113027842049
0.0033900973224987984   -0.07780196485791901   -0.0014594432092044371
0.0032860707863329635   -0.07793209211190827   -0.0013091258722354475
0.0010152460057130542   -0.08706221277623069   -0.0019321092877218607
-0.002444221422445539   -0.07797785714143622   -0.0016496113027842049
0.0032860707863329635   -0.07793209211190827   -0.0013091258722354475
-0.003622656484763601   -0.08742300980468404   -0.0019975426578933797
0.0010152460057130542   -0.08706221277623069   -0.0019321092877218607
0.0033900973224987984   -0.07780196485791901   -0.0014594432092044371
-0.0035396450079907826   -0.08731228551553094   -0.0020842542656324416
0.001231507290215902   -0.08700379147816888   -0.0021234628343635136
0.0033900973224987984   -0.07780196485791901   -0.0014594432092044371
-0.002444221422445539   -0.07797785714143622   -0.0016496113027842049
-0.0035396450079907826   -0.08731228551553094   -0.0020842542656324416
-0.0024535875489881654   -0.07789776435782651   -0.0016973750231274805
0.001231507290215902   -0.08700379147816888   -0.0021234628343635136
-0.003490023492884316   -0.08725667395617298   -0.002160614507180727
-0.0024535875489881654   -0.07789776435782651   -0.0016973750231274805
-0.0035396450079907826   -0.08731228551553094   -0.0020842542656324416
0.001231507290215902   -0.08700379147816888   -0.0021234628343635136
-0.0024535875489881654   -0.07789776435782651   -0.0016973750231274805
0.0034967387644120563   -0.07771440278515131   -0.0015952562238559266
0.0033900973224987984   -0.07780196485791901   -0.0014594432092044371
0.001231507290215902   -0.08700379147816888   -0.0021234628343635136
-0.0024535875489881654   -0.07789776435782651   -0.0016973750231274805
0.0033900973224987984   -0.07780196485791901   -0.0014594432092044371
-0.0035396450079907826   -0.08731228551553094   -0.0020842542656324416
-0.0036956102877370007   -0.08759211353798124   -0.0018993461780428557
-0.002478380652093633   -0.07826824677655851   -0.0015241630506742719
-0.0077901566895432015   -0.08763218042650192   -0.002227752597871566
-0.003622656484763601   -0.08742300980468404   -0.0019975426578933797
-0.002478380652093633   -0.07826824677655851   -0.0015241630506742719
-0.007867717839437693   -0.07826883982354418   -0.0018379522945764818
-0.0077901566895432015   -0.08763218042650192   -0.002227752597871566
-0.007868474273803279   -0.07812645256387048   -0.0018315443349031456
-0.003622656484763601   -0.08742300980468404   -0.0019975426578933797
-0.0077364821212667296   -0.08748696996583326   -0.0022303328592655648
-0.007868474273803279   -0.07812645256387048   -0.0018315443349031456
-0.0077901566895432015   -0.08763218042650192   -0.002227752597871566
-0.003622656484763601   -0.08742300980468404   -0.0019975426578933797
-0.007868474273803279   -0.07812645256387048   -0.0018315443349031456
-0.0024633364154308564   -0.0781000528212305   -0.0015921290390401885
-0.002478380652093633   -0.07826824677655851   -0.0015241630506742719
-0.003622656484763601   -0.08742300980468404   -0.0019975426578933797
-0.007868474273803279   -0.07812645256387048   -0.0018315443349031456
-0.002478380652093633   -0.07826824677655851   -0.0015241630506742719
-0.0077901566895432015   -0.08763218042650192   -0.002227752597871566
-0.003622656484763601   -0.08742300980468404   -0.0019975426578933797
-0.0024633364154308564   -0.0781000528212305   -0.0015921290390401885
-0.0077364821212667296   -0.08748696996583326   -0.0022303328592655648
-0.0035396450079907826   -0.08731228551553094   -0.0020842542656324416
-0.0024633364154308564   -0.0781000528212305   -0.0015921290390401885
-0.007868474273803279   -0.07812645256387048   -0.0018315443349031456
-0.0077364821212667296   -0.08748696996583326   -0.0022303328592655648
-0.007868873392232023   -0.07802462026829256   -0.0018146966392387823
-0.0035396450079907826   -0.08731228551553094   -0.0020842542656324416
-0.007681297094440805   -0.08739401679969776   -0.0022219123469538146
-0.007868873392232023   -0.07802462026829256   -0.0018146966392387823
-0.0077364821212667296   -0.08748696996583326   -0.0022303328592655648
-0.0035396450079907826   -0.08731228551553094   -0.0020842542656324416
-0.007868873392232023   -0.07802462026829256   -0.0018146966392387823
-0.002444221422445539   -0.07797785714143622   -0.0016496113027842049
-0.0024633364154308564   -0.0781000528212305   -0.0015921290390401885
-0.0035396450079907826   -0.08731228551553094   -0.0020842542656324416
-0.007868873392232023   -0.07802462026829256   -0.0018146966392387823
-0.0024633364154308564   -0.0781000528212305   -0.0015921290390401885
-0.0077364821212667296   -0.08748696996583326   -0.0022303328592655648
-0.0035396450079907826   -0.08731228551553094   -0.0020842542656324416
-0.002444221422445539   -0.07797785714143622   -0.0016496113027842049
-0.007681297094440805   -0.08739401679969776   -0.0022219123469538146
-0.003490023492884316   -0.08725667395617298   -0.002160614507180727
-0.002444221422445539   -0.07797785714143622   -0.0016496113027842049
-0.007868873392232023   -0.07802462026829256   -0.0018146966392387823
-0.007681297094440805   -0.08739401679969776   -0.0022219123469538146
-0.007876485451617222   -0.07796341327657001   -0.001787946655357572
-0.003490023492884316   -0.08725667395617298   -0.002160614507180727
-0.007633026480237927   -0.08735245054940725   -0.0022032191022895173
-0.007876485451617222   -0.07796341327657001   -0.001787946655357572
-0.007681297094440805   -0.08739401679969776   -0.0022219123469538146
-0.003490023492884316   -0.08725667395617298   -0.002160614507180727
-0.007876485451617222   -0.07796341327657001   -0.001787946655357572
-0.0024535875489881654   -0.07789776435782651   -0.0016973750231274805
-0.002444221422445539   -0.07797785714143622   -0.0016496113027842049
-0.003490023492884316   -0.08725667395617298   -0.002160614507180727
-0.007876485451617222   -0.07796341327657001   -0.001787946655357572
-0.002444221422445539   -0.07797785714143622   -0.0016496113027842049
-0.007681297094440805   -0.08739401679969776   -0.0022219123469538146
-0.0077901566895432015   -0.08763218042650192   -0.002227752597871566
-0.007867717839437693   -0.07826883982354418   -0.0018379522945764818
-0.011820082204431582   -0.08750190700110813   -0.0025242145227527017
-0.0077364821212667296   -0.08748696996583326   -0.0022303328592655648
-0.007867717839437693   -0.07826883982354418   -0.0018379522945764818
-0.013165273828560593   -0.07813479709202081   -0.002112902931575994
-0.011820082204431582   -0.08750190700110813   -0.0025242145227527017
-0.013170010093273912   -0.07801510965300122   -0.002033015009584022
-0.0077364821212667296   -0.08748696996583326   -0.0022303328592655648
-0.011770106520527488   -0.08737660409897997   -0.002433487789792948
-0.013170010093273912   -0.07801510965300122   -0.002033015009584022
-0.011820082204431582   -0.08750190700110813   -0.0025242145227527017
-0.0077364821212667296   -0.08748696996583326   -0.0022303328592655648
-0.013170010093273912   -0.07801510965300122   -0.002033015009584022
-0.007868474273803279   -0.07812645256387048   -0.0018315443349031456
-0.007867717839437693   -0.07826883982354418   -0.0018379522945764818
-0.0077364821212667296   -0.08748696996583326   -0.0022303328592655648
-0.013170010093273912   -0.07801510965300122   -0.002033015009584022
-0.007867717839437693   -0.07826883982354418   -0.0018379522945764818
-0.011820082204431582   -0.08750190700110813   -0.0025242145227527017
-0.0077364821212667296   -0.08748696996583326   -0.0022303328592655648
-0.007868474273803279   -0.07812645256387048   -0.0018315443349031456
-0.011770106520527488   -0.08737660409897997   -0.002433487789792948
-0.007681297094440805   -0.08739401679969776   -0.0022219123469538146
-0.007868474273803279   -0.07812645256387048   -0.0018315443349031456
-0.013170010093273912   -0.07801510965300122   -0.002033015009584022
-0.011770106520527488   -0.08737660409897997   -0.002433487789792948
-0.013165711041261683   -0.07793561802123468   -0.0019428877873542728
-0.007681297094440805   -0.08739401679969776   -0.0022219123469538146
-0.01170972269567251   -0.08730298230347155   -0.0023319964980809257
-0.013165711041261683   -0.07793561802123468   -0.0019428877873542728
-0.011770106520527488   -0.08737660409897997   -0.002433487789792948
-0.007681297094440805   -0.08739401679969776   -0.0022219123469538146
-0.013165711041261683   -0.07793561802123468   -0.0019428877873542728
-0.007868873392232023   -0.07802462026829256   -0.0018146966392387823
-0.007868474273803279   -0.07812645256387048   -0.0018315443349031456
-0.007681297094440805   -0.08739401679969776   -0.0022219123469538146
-0.013165711041261683   -0.07793561802123468   -0.0019428877873542728
-0.007868474273803279   -0.07812645256387048   -0.0018315443349031456
-0.011770106520527488   -0.08737660409897997   -0.002433487789792948
-0.007681297094440805   -0.08739401679969776   -0.0022219123469538146
-0.007868873392232023   -0.07802462026829256   -0.0018146966392387823
-0.01170972269567251   -0.08730298230347155   -0.0023319964980809257
-0.007633026480237927   -0.08735245054940725   -0.0022032191022895173
-0.007868873392232023   -0.07802462026829256   -0.0018146966392387823
-0.013165711041261683   -0.07793561802123468   -0.0019428877873542728
-0.01170972269567251   -0.08730298230347155   -0.0023319964980809257
-0.01316303132737728   -0.07789561230156314   -0.0018428209060439764
-0.007633026480237927   -0.08735245054940725   -0.0022032191022895173
-0.01165097453001731   -0.08727862487648169   -0.0022200727407251162
-0.01316303132737728   -0.07789561230156314   -0.0018428209060439764
-0.01170972269567251   -0.08730298230347155   -0.0023319964980809257
-0.007633026480237927   -0.08735245054940725   -0.0022032191022895173
-0.01316303132737728   -0.07789561230156314   -0.0018428209060439764
-0.007876485451617222   -0.07796341327657001   -0.001787946655357572
-0.007868873392232023   -0.07802462026829256   -0.0018146966392387823
-0.007633026480237927   -0.08735245054940725   -0.0022032191022895173
-0.01316303132737728   -0.07789561230156314   -0.0018428209060439764
-0.007868873392232023   -0.07802462026829256   -0.0018146966392387823
-0.01170972269567251   -0.08730298230347155   -0.0023319964980809257
-0.011820082204431582   -0.08750190700110813   -0.0025242145227527017
-0.013165273828560593   -0.07813479709202081   -0.002112902931575994
-0.01604363304631308   -0.08720594581671114   -0.0027875469197872612
-0.011770106520527488   -0.08737660409897997   -0.002433487789792948
-0.013165273828560593   -0.07813479709202081   -0.002112902931575994
-0.018628114164433017   -0.07787122429659085   -0.0023494935097860127
-0.01604363304631308   -0.08720594581671114   -0.0027875469197872612
-0.01862177280427196   -0.0777732974381325   -0.0021952617783731554
-0.011770106520527488   -0.08737660409897997   -0.002433487789792948
-0.015978430739416523   -0.08709967605995494   -0.0026034087655781423
-0.01862177280427196   -0.0777732974381325   -0.0021952617783731554
-0.01604363304631308   -0.08720594581671114   -0.0027875469197872612
-0.011770106520527488   -0.08737660409897997   -0.002433487789792948
-0.01862177280427196   -0.0777732974381325   -0.0021952617783731554
-0.013170010093273912   -0.07801510965300122   -0.002033015009584022
-0.013165273828560593   -0.07813479709202081   -0.002112902931575994
-0.011770106520527488   -0.08737660409897997   -0.002433487789792948
-0.01862177280427196   -0.0777732974381325   -0.0021952617783731554
-0.013165273828560593   -0.07813479709202081   -0.002112902931575994
-0.01604363304631308   -0.08720594581671114   -0.0027875469197872612
-0.011770106520527488   -0.08737660409897997   -0.002433487789792948
-0.013170010093273912   -0.07801510965300122   -0.002033015009584022
-0.015978430739416523   -0.08709967605995494   -0.0026034087655781423
-0.01170972269567251   -0.08730298230347155   -0.0023319964980809257
-0.013170010093273912   -0.07801510965300122   -0.002033015009584022
-0.01862177280427196   -0.0777732974381325   -0.0021952617783731554
-0.015978430739416523   -0.08709967605995494   -0.0026034087655781423
-0.01857609593569287   -0.07771406144309415   -0.002032332768122922
-0.01170972269567251   -0.08730298230347155   -0.0023319964980809257
-0.015867940300157993   -0.08704358095547185   -0.0024101563779545324
-0.01857609593569287   -0.07771406144309415   -0.002032332768122922
-0.015978430739416523   -0.08709967605995494   -0.0026034087655781423
-0.01170972269567251   -0.08730298230347155   -0.0023319964980809257
-0.01857609593569287   -0.07771406144309415   -0.002032332768122922
-0.013165711041261683   -0.07793561802123468   -0.0019428877873542728
-0.013170010093273912   -0.07801510965300122   -0.002033015009584022
-0.01170972269567251   -0.08730298230347155   -0.0023319964980809257
-0.01857609593569287   -0.07771406144309415   -0.002032332768122922
-0.013170010093273912   -0.07801510965300122   -0.002033015009584022
-0.015978430739416523   -0.08709967605995494   -0.0026034087655781423
-0.01170972269567251   -0.08730298230347155   -0.0023319964980809257
-0.013165711041261683   -0.07793561802123468   -0.0019428877873542728
-0.015867940300157993   -0.08704358095547185   -0.0024101563779545324
-0.01165097453001731   -0.08727862487648169   -0.0022200727407251162
-0.013165711041261683   -0.07793561802123468   -0.0019428877873542728
-0.01857609593569287   -0.07771406144309415   -0.002032332768122922
-0.015867940300157993   -0.08704358095547185   -0.0024101563779545324
-0.01854553658562571   -0.0776976253431778   -0.001858667737020612
-0.01165097453001731   -0.08727862487648169   -0.0022200727407251162
-0.015778098327698224   -0.08704060978931243   -0.0022049559452620555
-0.01854553658562571   -0.0776976253431778   -0.001858667737020612
-0.015867940300157993   -0.08704358095547185   -0.0024101563779545324
-0.01165097453001731   -0.08727862487648169   -0.0022200727407251162
-0.01854553658562571   -0.0776976253431778   -0.001858667737020612
-0.01316303132737728   -0.07789561230156314   -0.0018428209060439764
-0.013165711041261683   -0.07793561802123468   -0.0019428877873542728
-0.01165097453001731   -0.08727862487648169   -0.0022200727407251162
-0.01854553658562571   -0.0776976253431778   -0.001858667737020612
-0.013165711041261683   -0.07793561802123468   -0.0019428877873542728
-0.015867940300157993   -0.08704358095547185   -0.0024101563779545324
-0.01604363304631308   -0.08720594581671114   -0.0027875469197872612
-0.018628114164433017   -0.07787122429659085   -0.0023494935097860127
-0.020969444876076524   -0.08678006244184872   -0.0030328175430631055
-0.015978430739416523   -0.08709967605995494   -0.0026034087655781423
-0.018628114164433017   -0.07787122429659085   -0.0023494935097860127
-0.024729960860743666   -0.0775082420402394   -0.0025626879303694903
-0.020969444876076524   -0.08678006244184872   -0.0030328175430631055
-0.024502569839098223   -0.07741220810255972   -0.002326833132399766
-0.015978430739416523   -0.08709967605995494   -0.0026034087655781423
-0.02063631011032826   -0.0866693501635535   -0.0027446546247082856
-0.024502569839098223   -0.07741220810255972   -0.002326833132399766
-0.020969444876076524   -0.08678006244184872   -0.0030328175430631055
-0.015978430739416523   -0.08709967605995494   -0.0026034087655781423
-0.024502569839098223   -0.07741220810255972   -0.002326833132399766
-0.01862177280427196   -0.0777732974381325   -0.0021952617783731554
-0.018628114164433017   -0.07787122429659085   -0.0023494935097860127
-0.015978430739416523   -0.08709967605995494   -0.0026034087655781423
-0.024502569839098223   -0.07741220810255972   -0.002326833132399766
-0.018628114164433017   -0.07787122429659085   -0.0023494935097860127
-0.020969444876076524   -0.08678006244184872   -0.0030328175430631055
-0.015978430739416523   -0.08709967605995494   -0.0026034087655781423
-0.01862177280427196   -0.0777732974381325   -0.0021952617783731554
-0.02063631011032826   -0.0866693501635535   -0.0027446546247082856
-0.015867940300157993   -0.08704358095547185   -0.0024101563779545324
-0.01862177280427196   -0.0777732974381325   -0.0021952617783731554
-0.024502569839098223   -0.07741220810255972   -0.002326833132399766
-0.02063631011032826   -0.0866693501635535   -0.0027446546247082856
-0.024307994388312104   -0.07736035634241943   -0.00207636980457968
-0.015867940300157993   -0.08704358095547185   -0.0024101563779545324
-0.020347019392088706   -0.08661801224454711   -0.002441475568509532
-0.024307994388312104   -0.07736035634241943   -0.00207636980457968
-0.02063631011032826   -0.0866693501635535   -0.0027446546247082856
-0.015867940300157993   -0.08704358095547185   -0.0024101563779545324
-0.024307994388312104   -0.07736035634241943   -0.00207636980457968
-0.01857609593569287   -0.07771406144309415   -0.002032332768122922
-0.01862177280427196   -0.0777732974381325   -0.0021952617783731554
-0.015867940300157993   -0.08704358095547185   -0.0024101563779545324
-0.024307994388312104   -0.07736035634241943   -0.00207636980457968
-0.01862177280427196   -0.0777732974381325   -0.0021952617783731554
-0.02063631011032826   -0.0866693501635535   -0.0027446546247082856
-0.015867940300157993   -0.08704358095547185   -0.0024101563779545324
-0.01857609593569287   -0.07771406144309415   -0.002032332768122922
-0.020347019392088706   -0.08661801224454711   -0.002441475568509532
-0.015778098327698224   -0.08704060978931243   -0.0022049559452620555
-0.01857609593569287   -0.07771406144309415   -0.002032332768122922
-0.024307994388312104   -0.07736035634241943   -0.00207636980457968
-0.020347019392088706   -0.08661801224454711   -0.002441475568509532
-0.02402704292942284   -0.07737643115968182   -0.0018132956825352906
-0.015778098327698224   -0.08704060978931243   -0.0022049559452620555
-0.01995719954929505   -0.08664790901325027   -0.0021252144665876186
-0.02402704292942284   -0.07737643115968182   -0.0018132956825352906
-0.020347019392088706   -0.08661801224454711   -0.002441475568509532
-0.015778098327698224   -0.08704060978931243   -0.0022049559452620555
-0.02402704292942284   -0.07737643115968182   -0.0018132956825352906
-0.01854553658562571   -0.0776976253431778   -0.001858667737020612
-0.01857609593569287   -0.07771406144309415   -0.002032332768122922
-0.015778098327698224   -0.08704060978931243   -0.0022049559452620555
-0.02402704292942284   -0.07737643115968182   -0.0018132956825352906
-0.01857609593569287   -0.07771406144309415   -0.002032332768122922
-0.020347019392088706   -0.08661801224454711   -0.002441475568509532
0.0031231954460981754   -0.0781299299639415   -0.0011439961564344533
0.00490137665677644   -0.06700798661682669   -0.000761911035930221
-0.002478380652093633   -0.07826824677655851   -0.0015241630506742719
0.0032860707863329635   -0.07793209211190827   -0.0013091258722354475
0.00490137665677644   -0.06700798661682669   -0.000761911035930221
-0.0017407210869372024   -0.06707573582538519   -0.0011196065636904485
-0.002478380652093633   -0.07826824677655851   -0.0015241630506742719
-0.0017722160431088152   -0.06691162172910171   -0.0011561155233958493
0.0032860707863329635   -0.07793209211190827   -0.0013091258722354475
-0.0024633364154308564   -0.0781000528212305   -0.0015921290390401885
-0.0017722160431088152   -0.06691162172910171   -0.0011561155233958493
-0.002478380652093633   -0.07826824677655851   -0.0015241630506742719
0.0032860707863329635   -0.07793209211190827   -0.0013091258722354475
-0.0017722160431088152   -0.06691162172910171   -0.0011561155233958493
0.004965235888515217   -0.06681738608407971   -0.0008698605826314963
0.00490137665677644   -0.06700798661682669   -0.000761911035930221
0.0032860707863329635   -0.07793209211190827   -0.0013091258722354475
-0.0017722160431088152   -0.06691162172910171   -0.0011561155233958493
0.00490137665677644   -0.06700798661682669   -0.000761911035930221
-0.002478380652093633   -0.07826824677655851   -0.0015241630506742719
0.0032860707863329635   -0.07793209211190827   -0.0013091258722354475
0.004965235888515217   -0.06681738608407971   -0.0008698605826314963
-0.0024633364154308564   -0.0781000528212305   -0.0015921290390401885
0.0033900973224987984   -0.07780196485791901   -0.0014594432092044371
0.004965235888515217   -0.06681738608407971   -0.0008698605826314963
-0.0017722160431088152   -0.06691162172910171   -0.0011561155233958493
-0.0024633364154308564   -0.0781000528212305   -0.0015921290390401885
-0.001805346692656875   -0.0667815456566492   -0.0011832780410648118
0.0033900973224987984   -0.07780196485791901   -0.0014594432092044371
-0.002444221422445539   -0.07797785714143622   -0.0016496113027842049
-0.001805346692656875   -0.0667815456566492   -0.0011832780410648118
-0.0024633364154308564   -0.0781000528212305   -0.0015921290390401885
0.0033900973224987984   -0.07780196485791901   -0.0014594432092044371
-0.001805346692656875   -0.0667815456566492   -0.0011832780410648118
0.004984289152615901   -0.06667817604169275   -0.0009640243929949882
0.004965235888515217   -0.06681738608407971   -0.0008698605826314963
0.0033900973224987984   -0.07780196485791901   -0.0014594432092044371
-0.001805346692656875   -0.0667815456566492   -0.0011832780410648118
0.004965235888515217   -0.06681738608407971   -0.0008698605826314963
-0.0024633364154308564   -0.0781000528212305   -0.0015921290390401885
0.0033900973224987984   -0.07780196485791901   -0.0014594432092044371
0.004984289152615901   -0.06667817604169275   -0.0009640243929949882
-0.002444221422445539   -0.07797785714143622   -0.0016496113027842049
0.0034967387644120563   -0.07771440278515131   -0.0015952562238559266
0.004984289152615901   -0.06667817604169275   -0.0009640243929949882
-0.001805346692656875   -0.0667815456566492   -0.0011832780410648118
-0.002444221422445539   -0.07797785714143622   -0.0016496113027842049
-0.0018615352017456515   -0.06668144080366524   -0.001201410844321654
0.0034967387644120563   -0.07771440278515131   -0.0015952562238559266
-0.0024535875489881654   -0.07789776435782651   -0.0016973750231274805
-0.0018615352017456515   -0.06668144080366524   -0.001201410844321654
-0.002444221422445539   -0.07797785714143622   -0.0016496113027842049
0.0034967387644120563   -0.07771440278515131   -0.0015952562238559266
-0.0018615352017456515   -0.06668144080366524   -0.001201410844321654
0.004994595951107967   -0.06656594524718994   -0.0010450532839995272
0.004984289152615901   -0.06667817604169275   -0.0009640243929949882
0.0034967387644120563   -0.07771440278515131   -0.0015952562238559266
-0.0018615352017456515   -0.06668144080366524   -0.001201410844321654
0.004984289152615901   -0.06667817604169275   -0.0009640243929949882
-0.002444221422445539   -0.07797785714143622   -0.0016496113027842049
-0.002478380652093633   -0.07826824677655851   -0.0015241630506742719
-0.0017407210869372024   -0.06707573582538519   -0.0011196065636904485
-0.007867717839437693   -0.07826883982354418   -0.0018379522945764818
-0.0024633364154308564   -0.0781000528212305   -0.0015921290390401885
-0.0017407210869372024   -0.06707573582538519   -0.0011196065636904485
-0.008106700047482235   -0.06704054727323043   -0.0014144619921528264
-0.007867717839437693   -0.07826883982354418   -0.0018379522945764818
-0.008150208740180177   -0.06690327541011915   -0.0013972881020485307
-0.0024633364154308564   -0.0781000528212305   -0.0015921290390401885
-0.007868474273803279   -0.07812645256387048   -0.0018315443349031456
-0.008150208740180177   -0.06690327541011915   -0.0013972881020485307
-0.007867717839437693   -0.07826883982354418   -0.0018379522945764818
-0.0024633364154308564   -0.0781000528212305   -0.0015921290390401885
-0.008150208740180177   -0.06690327541011915   -0.0013972881020485307
-0.0017722160431088152   -0.06691162172910171   -0.0011561155233958493
-0.0017407210869372024   -0.06707573582538519   -0.0011196065636904485
-0.0024633364154308564   -0.0781000528212305   -0.0015921290390401885
-0.008150208740180177   -0.06690327541011915   -0.0013972881020485307
-0.0017407210869372024   -0.06707573582538519   -0.0011196065636904485
-0.007867717839437693   -0.07826883982354418   -0.0018379522945764818
-0.0024633364154308564   -0.0781000528212305   -0.0015921290390401885
-0.0017722160431088152   -0.06691162172910171   -0.0011561155233958493
-0.007868474273803279   -0.07812645256387048   -0.0018315443349031456
-0.002444221422445539   -0.07797785714143622   -0.0016496113027842049
-0.0017722160431088152   -0.06691162172910171   -0.0011561155233958493
-0.008150208740180177   -0.06690327541011915   -0.0013972881020485307
-0.007868474273803279   -0.07812645256387048   -0.0018315443349031456
-0.008194313317247874   -0.06679518435235036   -0.001370495348168336
-0.002444221422445539   -0.07797785714143622   -0.0016496113027842049
-0.007868873392232023   -0.07802462026829256   -0.0018146966392387823
-0.008194313317247874   -0.06679518435235036   -0.001370495348168336
-0.007868474273803279   -0.07812645256387048   -0.0018315443349031456
-0.002444221422445539   -0.07797785714143622   -0.0016496113027842049
-0.008194313317247874   -0.06679518435235036   -0.001370495348168336
-0.001805346692656875   -0.0667815456566492   -0.0011832780410648118
-0.0017722160431088152   -0.06691162172910171   -0.0011561155233958493
-0.002444221422445539   -0.07797785714143622   -0.0016496113027842049
-0.008194313317247874   -0.06679518435235036   -0.001370495348168336
-0.0017722160431088152   -0.06691162172910171   -0.0011561155233958493
-0.007868474273803279   -0.07812645256387048   -0.0018315443349031456
-0.002444221422445539   -0.07797785714143622   -0.0016496113027842049
-0.001805346692656875   -0.0667815456566492   -0.0011832780410648118
-0.007868873392232023   -0.07802462026829256   -0.0018146966392387823
-0.0024535875489881654   -0.07789776435782651   -0.0016973750231274805
-0.001805346692656875   -0.0667815456566492   -0.0011832780410648118
-0.008194313317247874   -0.06679518435235036   -0.001370495348168336
-0.007868873392232023   -0.07802462026829256   -0.0018146966392387823
-0.008245259365965905   -0.06671677123915759   -0.0013345435868196587
-0.0024535875489881654   -0.07789776435782651   -0.0016973750231274805
-0.007876485451617222   -0.07796341327657001   -0.001787946655357572
-0.008245259365965905   -0.06671677123915759   -0.0013345435868196587
-0.007868873392232023   -0.07802462026829256   -0.0018146966392387823
-0.0024535875489881654   -0.07789776435782651   -0.0016973750231274805
-0.008245259365965905   -0.06671677123915759   -0.0013345435868196587
-0.0018615352017456515   -0.06668144080366524   -0.001201410844321654
-0.001805346692656875   -0.0667815456566492   -0.0011832780410648118
-0.0024535875489881654   -0.07789776435782651   -0.0016973750231274805
-0.008245259365965905   -0.06671677123915759   -0.0013345435868196587
-0.001805346692656875   -0.0667815456566492   -0.0011832780410648118
-0.007868873392232023   -0.07802462026829256   -0.0018146966392387823
-0.007867717839437693   -0.07826883982354418   -0.0018379522945764818
-0.008106700047482235   -0.06704054727323043   -0.0014144619921528264
-0.013165273828560593   -0.07813479709202081   -0.002112902931575994
-0.007868474273803279   -0.07812645256387048   -0.0018315443349031456
-0.008106700047482235   -0.06704054727323043   -0.0014144619921528264
-0.01436489685090301   -0.06690870887100205   -0.0016668968851982992
-0.013165273828560593   -0.07813479709202081   -0.002112902931575994
-0.014411799407255956   -0.06679585170991804   -0.0015962919525116471
-0.007868474273803279   -0.07812645256387048   -0.0018315443349031456
-0.013170010093273912   -0.07801510965300122   -0.002033015009584022
-0.014411799407255956   -0.06679585170991804   -0.0015962919525116471
-0.013165273828560593   -0.07813479709202081   -0.002112902931575994
-0.007868474273803279   -0.07812645256387048   -0.0018315443349031456
-0.014411799407255956   -0.06679585170991804   -0.0015962919525116471
-0.008150208740180177   -0.06690327541011915   -0.0013972881020485307
-0.008106700047482235   -0.06704054727323043   -0.0014144619921528264
-0.007868474273803279   -0.07812645256387048   -0.0018315443349031456
-0.014411799407255956   -0.06679585170991804   -0.0015962919525116471
-0.008106700047482235   -0.06704054727323043   -0.0014144619921528264
-0.013165273828560593   -0.07813479709202081   -0.002112902931575994
-0.007868474273803279   -0.07812645256387048   -0.0018315443349031456
-0.008150208740180177   -0.06690327541011915   -0.0013972881020485307
-0.013170010093273912   -0.07801510965300122   -0.002033015009584022
-0.007868873392232023   -0.07802462026829256   -0.0018146966392387823
-0.008150208740180177   -0.06690327541011915   -0.0013972881020485307
-0.014411799407255956   -0.06679585170991804   -0.0015962919525116471
-0.013170010093273912   -0.07801510965300122   -0.002033015009584022
-0.01445068588539635   -0.0667118960312893   -0.0015162364097263785
-0.007868873392232023   -0.07802462026829256   -0.0018146966392387823
-0.013165711041261683   -0.07793561802123468   -0.0019428877873542728
-0.01445068588539635   -0.0667118960312893   -0.0015162364097263785
-0.013170010093273912   -0.07801510965300122   -0.002033015009584022
-0.007868873392232023   -0.07802462026829256   -0.0018146966392387823
-0.01445068588539635   -0.0667118960312893   -0.0015162364097263785
-0.008194313317247874   -0.06679518435235036   -0.001370495348168336
-0.008150208740180177   -0.06690327541011915   -0.0013972881020485307
-0.007868873392232023   -0.07802462026829256   -0.0018146966392387823
-0.01445068588539635   -0.0667118960312893   -0.0015162364097263785
-0.008150208740180177   -0.06690327541011915   -0.0013972881020485307
-0.013170010093273912   -0.07801510965300122   -0.002033015009584022
-0.007868873392232023   -0.07802462026829256   -0.0018146966392387823
-0.008194313317247874   -0.06679518435235036   -0.001370495348168336
-0.013165711041261683   -0.07793561802123468   -0.0019428877873542728
-0.007876485451617222   -0.07796341327657001   -0.001787946655357572
-0.008194313317247874   -0.06679518435235036   -0.001370495348168336
-0.01445068588539635   -0.0667118960312893   -0.0015162364097263785
-0.013165711041261683   -0.07793561802123468   -0.0019428877873542728
-0.014490694060383296   -0.0666567221776341   -0.00142700973822684
-0.007876485451617222   -0.07796341327657001   -0.001787946655357572
-0.01316303132737728   -0.07789561230156314   -0.0018428209060439764
-0.014490694060383296   -0.0666567221776341   -0.00142700973822684
-0.013165711041261683   -0.07793561802123468   -0.0019428877873542728
-0.007876485451617222   -0.07796341327657001   -0.001787946655357572
-0.014490694060383296   -0.0666567221776341   -0.00142700973822684
-0.008245259365965905   -0.06671677123915759   -0.0013345435868196587
-0.008194313317247874   -0.06679518435235036   -0.001370495348168336
-0.007876485451617222   -0.07796341327657001   -0.001787946655357572
-0.014490694060383296   -0.0666567221776341   -0.00142700973822684
-0.008194313317247874   -0.06679518435235036   -0.001370495348168336
-0.013165711041261683   -0.07793561802123468   -0.0019428877873542728
-0.013165273828560593   -0.07813479709202081   -0.002112902931575994
-0.01436489685090301   -0.06690870887100205   -0.0016668968851982992
-0.018628114164433017   -0.07787122429659085   -0.0023494935097860127
-0.013170010093273912   -0.07801510965300122   -0.002033015009584022
-0.01436489685090301   -0.06690870887100205   -0.0016668968851982992
-0.020771966443055297   -0.06668286393537293   -0.0018778401749533133
-0.018628114164433017   -0.07787122429659085   -0.0023494935097860127
-0.020810840846932684   -0.06659387411722852   -0.0017530805877448072
-0.013170010093273912   -0.07801510965300122   -0.002033015009584022
-0.01862177280427196   -0.0777732974381325   -0.0021952617783731554
-0.020810840846932684   -0.06659387411722852   -0.0017530805877448072
-0.018628114164433017   -0.07787122429659085   -0.0023494935097860127
-0.013170010093273912   -0.07801510965300122   -0.002033015009584022
-0.020810840846932684   -0.06659387411722852   -0.0017530805877448072
-0.014411799407255956   -0.06679585170991804   -0.0015962919525116471
-0.01436489685090301   -0.06690870887100205   -0.0016668968851982992
-0.013170010093273912   -0.07801510965300122   -0.002033015009584022
-0.020810840846932684   -0.06659387411722852   -0.0017530805877448072
-0.01436489685090301   -0.06690870887100205   -0.0016668968851982992
-0.018628114164433017   -0.07787122429659085   -0.0023494935097860127
-0.013170010093273912   -0.07801510965300122   -0.002033015009584022
-0.014411799407255956   -0.06679585170991804   -0.0015962919525116471
-0.01862177280427196   -0.0777732974381325   -0.0021952617783731554
-0.013165711041261683   -0.07793561802123468   -0.0019428877873542728
-0.014411799407255956   -0.06679585170991804   -0.0015962919525116471
-0.020810840846932684   -0.06659387411722852   -0.0017530805877448072
-0.01862177280427196   -0.0777732974381325   -0.0021952617783731554
-0.02081606510995622   -0.0665319846636789   -0.001620178763392502
-0.013165711041261683   -0.07793561802123468   -0.0019428877873542728
-0.01857609593569287   -0.07771406144309415   -0.002032332768122922
-0.02081606510995622   -0.0665319846636789   -0.001620178763392502
-0.01862177280427196   -0.0777732974381325   -0.0021952617783731554
-0.013165711041261683   -0.07793561802123468   -0.0019428877873542728
-0.02081606510995622   -0.0665319846636789   -0.001620178763392502
-0.01445068588539635   -0.0667118960312893   -0.0015162364097263785
-0.014411799407255956   -0.06679585170991804   -0.0015962919525116471
-0.013165711041261683   -0.07793561802123468   -0.0019428877873542728
-0.02081606510995622   -0.0665319846636789   -0.001620178763392502
-0.014411799407255956   -0.06679585170991804   -0.0015962919525116471
-0.01862177280427196   -0.0777732974381325   -0.0021952617783731554
-0.013165711041261683   -0.07793561802123468   -0.0019428877873542728
-0.01445068588539635   -0.0667118960312893   -0.0015162364097263785
-0.01857609593569287   -0.07771406144309415   -0.002032332768122922
-0.01316303132737728   -0.07789561230156314   -0.0018428209060439764
-0.01445068588539635   -0.0667118960312893   -0.0015162364097263785
-0.02081606510995622   -0.0665319846636789   -0.001620178763392502
-0.01857609593569287   -0.07771406144309415   -0.002032332768122922
-0.020830783929101523   -0.06650146008056282   -0.0014774122921509428
-0.01316303132737728   -0.07789561230156314   -0.0018428209060439764
-0.01854553658562571   -0.0776976253431778   -0.001858667737020612
-0.020830783929101523   -0.06650146008056282   -0.0014774122921509428
-0.01857609593569287   -0.07771406144309415   -0.002032332768122922
-0.01316303132737728   -0.07789561230156314   -0.0018428209060439764
-0.020830783929101523   -0.06650146008056282   -0.0014774122921509428
-0.014490694060383296   -0.0666567221776341   -0.00142700973822684
-0.01445068588539635   -0.0667118960312893   -0.0015162364097263785
-0.01316303132737728   -0.07789561230156314   -0.0018428209060439764
-0.020830783929101523   -0.06650146008056282   -0.0014774122921509428
-0.01445068588539635   -0.0667118960312893   -0.0015162364097263785
-0.01857609593569287   -0.07771406144309415   -0.002032332768122922
-0.018628114164433017   -0.07787122429659085   -0.0023494935097860127
-0.020771966443055297   -0.06668286393537293   -0.0018778401749533133
-0.024729960860743666   -0.0775082420402394   -0.0025626879303694903
-0.01862177280427196   -0.0777732974381325   -0.0021952617783731554
-0.020771966443055297   -0.06668286393537293   -0.0018778401749533133
-0.027758353953834792   -0.06638689055889922   -0.0020580209250696765
-0.024729960860743666   -0.0775082420402394   -0.0025626879303694903
-0.02762544327198051   -0.06630560494070034   -0.001876084965351097
-0.01862177280427196   -0.0777732974381325   -0.0021952617783731554
-0.024502569839098223   -0.07741220810255972   -0.002326833132399766
-0.02762544327198051   -0.06630560494070034   -0.001876084965351097
-0.024729960860743666   -0.0775082420402394   -0.0025626879303694903
-0.01862177280427196   -0.0777732974381325   -0.0021952617783731554
-0.02762544327198051   -0.06630560494070034   -0.001876084965351097
-0.020810840846932684   -0.06659387411722852   -0.0017530805877448072
-0.020771966443055297   -0.06668286393537293   -0.0018778401749533133
-0.01862177280427196   -0.0777732974381325   -0.0021952617783731554
-0.02762544327198051   -0.06630560494070034   -0.001876084965351097
-0.020771966443055297   -0.06668286393537293   -0.0018778401749533133
-0.024729960860743666   -0.0775082420402394   -0.0025626879303694903
-0.01862177280427196   -0.0777732974381325   -0.0021952617783731554
-0.020810840846932684   -0.06659387411722852   -0.0017530805877448072
-0.024502569839098223   -0.07741220810255972   -0.002326833132399766
-0.01857609593569287   -0.07771406144309415   -0.002032332768122922
-0.020810840846932684   -0.06659387411722852   -0.0017530805877448072
-0.02762544327198051   -0.06630560494070034   -0.001876084965351097
-0.024502569839098223   -0.07741220810255972   -0.002326833132399766
-0.027513339929685722   -0.0662530660112229   -0.0016799389495803707
-0.01857609593569287   -0.07771406144309415   -0.002032332768122922
-0.024307994388312104   -0.07736035634241943   -0.00207636980457968
-0.027513339929685722   -0.0662530660112229   -0.0016799389495803707
-0.024502569839098223   -0.07741220810255972   -0.002326833132399766
-0.01857609593569287   -0.07771406144309415   -0.002032332768122922
-0.027513339929685722   -0.0662530660112229   -0.0016799389495803707
-0.02081606510995622   -0.0665319846636789   -0.001620178763392502
-0.020810840846932684   -0.06659387411722852   -0.0017530805877448072
-0.01857609593569287   -0.07771406144309415   -0.002032332768122922
-0.027513339929685722   -0.0662530660112229   -0.0016799389495803707
-0.020810840846932684   -0.06659387411722852   -0.0017530805877448072
-0.024502569839098223   -0.07741220810255972   -0.002326833132399766
-0.01857609593569287   -0.07771406144309415   -0.002032332768122922
-0.02081606510995622   -0.0665319846636789   -0.001620178763392502
-0.024307994388312104   -0.07736035634241943   -0.00207636980457968
-0.01854553658562571   -0.0776976253431778   -0.001858667737020612
-0.02081606510995622   -0.0665319846636789   -0.001620178763392502
-0.027513339929685722   -0.0662530660112229   -0.0016799389495803707
-0.024307994388312104   -0.07736035634241943   -0.00207636980457968
-0.027328090549430348   -0.0662538676108711   -0.001471352535050973
-0.01854553658562571   -0.0776976253431778   -0.001858667737020612
-0.02402704292942284   -0.07737643115968182   -0.0018132956825352906
-0.027328090549430348   -0.0662538676108711   -0.001471352535050973
-0.024307994388312104   -0.07736035634241943   -0.00207636980457968
-0.01854553658562571   -0.0776976253431778   -0.001858667737020612
-0.027328090549430348   -0.0662538676108711   -0.001471352535050973
-0.020830783929101523   -0.06650146008056282   -0.0014774122921509428
-0.02081606510995622   -0.0665319846636789   -0.001620178763392502
-0.01854553658562571   -0.0776976253431778   -0.001858667737020612
-0.027328090549430348   -0.0662538676108711   -0.001471352535050973
-0.02081606510995622   -0.0665319846636789   -0.001620178763392502
-0.024307994388312104   -0.07736035634241943   -0.00207636980457968
0.00490137665677644   -0.06700798661682669   -0.000761911035930221
0.005885689330482523   -0.05453438875650155   -0.00038760491063398694
-0.0017407210869372024   -0.06707573582538519   -0.0011196065636904485
0.004965235888515217   -0.06681738608407971   -0.0008698605826314963
0.005885689330482523   -0.05453438875650155   -0.00038760491063398694
-0.0014845817750418118   -0.0545323831846587   -0.0007194020656787777
-0.0017407210869372024   -0.06707573582538519   -0.0011196065636904485
-0.0015508358590124577   -0.054373598477119506   -0.0007240972556566527
0.004965235888515217   -0.06681738608407971   -0.0008698605826314963
-0.0017722160431088152   -0.06691162172910171   -0.0011561155233958493
-0.0015508358590124577   -0.054373598477119506   -0.0007240972556566527
-0.0017407210869372024   -0.06707573582538519   -0.0011196065636904485
0.004965235888515217   -0.06681738608407971   -0.0008698605826314963
-0.0015508358590124577   -0.054373598477119506   -0.0007240972556566527
0.005863667594427362   -0.05435188885145054   -0.00043908974091384166
0.005885689330482523   -0.05453438875650155   -0.00038760491063398694
0.004965235888515217   -0.06681738608407971   -0.0008698605826314963
-0.0015508358590124577   -0.054373598477119506   -0.0007240972556566527
0.005885689330482523   -0.05453438875650155   -0.00038760491063398694
-0.0017407210869372024   -0.06707573582538519   -0.0011196065636904485
0.004965235888515217   -0.06681738608407971   -0.0008698605826314963
0.005863667594427362   -0.05435188885145054   -0.00043908974091384166
-0.0017722160431088152   -0.06691162172910171   -0.0011561155233958493
0.004984289152615901   -0.06667817604169275   -0.0009640243929949882
0.005863667594427362   -0.05435188885145054   -0.00043908974091384166
-0.0015508358590124577   -0.054373598477119506   -0.0007240972556566527
-0.0017722160431088152   -0.06691162172910171   -0.0011561155233958493
-0.001624449914009537   -0.05423670161396537   -0.000720517345342192
0.004984289152615901   -0.06667817604169275   -0.0009640243929949882
-0.001805346692656875   -0.0667815456566492   -0.0011832780410648118
-0.001624449914009537   -0.05423670161396537   -0.000720517345342192
-0.0017722160431088152   -0.06691162172910171   -0.0011561155233958493
0.004984289152615901   -0.06667817604169275   -0.0009640243929949882
-0.001624449914009537   -0.05423670161396537   -0.000720517345342192
0.005810036005261344   -0.05420474372978104   -0.0004773111379536323
0.005863667594427362   -0.05435188885145054   -0.00043908974091384166
0.004984289152615901   -0.06667817604169275   -0.0009640243929949882
-0.001624449914009537   -0.05423670161396537   -0.000720517345342192
0.005863667594427362   -0.05435188885145054   -0.00043908974091384166
-0.0017722160431088152   -0.06691162172910171   -0.0011561155233958493
0.004984289152615901   -0.06667817604169275   -0.0009640243929949882
0.005810036005261344   -0.05420474372978104   -0.0004773111379536323
-0.001805346692656875   -0.0667815456566492   -0.0011832780410648118
0.004994595951107967   -0.06656594524718994   -0.0010450532839995272
0.005810036005261344   -0.05420474372978104   -0.0004773111379536323
-0.001624449914009537   -0.05423670161396537   -0.000720517345342192
-0.001805346692656875   -0.0667815456566492   -0.0011832780410648118
-0.0017157005013136118   -0.05411816485532141   -0.0007083361051316155
0.004994595951107967   -0.06656594524718994   -0.0010450532839995272
-0.0018615352017456515   -0.06668144080366524   -0.001201410844321654
-0.0017157005013136118   -0.05411816485532141   -0.0007083361051316155
-0.001805346692656875   -0.0667815456566492   -0.0011832780410648118
0.004994595951107967   -0.06656594524718994   -0.0010450532839995272
-0.0017157005013136118   -0.05411816485532141   -0.0007083361051316155
0.005735271375524456   -0.05406909231366107   -0.000503195229830667
0.005810036005261344   -0.05420474372978104   -0.0004773111379536323
0.004994595951107967   -0.06656594524718994   -0.0010450532839995272
-0.0017157005013136118   -0.05411816485532141   -0.0007083361051316155
0.005810036005261344   -0.05420474372978104   -0.0004773111379536323
-0.001805346692656875   -0.0667815456566492   -0.0011832780410648118
-0.0017407210869372024   -0.06707573582538519   -0.0011196065636904485
-0.0014845817750418118   -0.0545323831846587   -0.0007194020656787777
-0.008106700047482235   -0.06704054727323043   -0.0014144619921528264
-0.0017722160431088152   -0.06691162172910171   -0.0011561155233958493
-0.0014845817750418118   -0.0545323831846587   -0.0007194020656787777
-0.008514167941679788   -0.054465657265577345   -0.0009935877651740335
-0.008106700047482235   -0.06704054727323043   -0.0014144619921528264
-0.0085881974550679   -0.054333701770938915   -0.000964766738390513
-0.0017722160431088152   -0.06691162172910171   -0.0011561155233958493
-0.008150208740180177   -0.06690327541011915   -0.0013972881020485307
-0.0085881974550679   -0.054333701770938915   -0.000964766738390513
-0.008106700047482235   -0.06704054727323043   -0.0014144619921528264
-0.0017722160431088152   -0.06691162172910171   -0.0011561155233958493
-0.0085881974550679   -0.054333701770938915   -0.000964766738390513
-0.0015508358590124577   -0.054373598477119506   -0.0007240972556566527
-0.0014845817750418118   -0.0545323831846587   -0.0007194020656787777
-0.0017722160431088152   -0.06691162172910171   -0.0011561155233958493
-0.0085881974550679   -0.054333701770938915   -0.000964766738390513
-0.0014845817750418118   -0.0545323831846587   -0.0007194020656787777
-0.008106700047482235   -0.06704054727323043   -0.0014144619921528264
-0.0017722160431088152   -0.06691162172910171   -0.0011561155233958493
-0.0015508358590124577   -0.054373598477119506   -0.0007240972556566527
-0.008150208740180177   -0.06690327541011915   -0.0013972881020485307
-0.001805346692656875   -0.0667815456566492   -0.0011832780410648118
-0.0015508358590124577   -0.054373598477119506   -0.0007240972556566527
-0.0085881974550679   -0.054333701770938915   -0.000964766738390513
-0.008150208740180177   -0.06690327541011915   -0.0013972881020485307
-0.008663708119138934   -0.05421956537674929   -0.0009273292191806014
-0.001805346692656875   -0.0667815456566492   -0.0011832780410648118
-0.008194313317247874   -0.06679518435235036   -0.001370495348168336
-0.008663708119138934   -0.05421956537674929   -0.0009273292191806014
-0.008150208740180177   -0.06690327541011915   -0.0013972881020485307
-0.001805346692656875   -0.0667815456566492   -0.0011832780410648118
-0.008663708119138934   -0.05421956537674929   -0.0009273292191806014
-0.001624449914009537   -0.05423670161396537   -0.000720517345342192
-0.0015508358590124577   -0.054373598477119506   -0.0007240972556566527
-0.001805346692656875   -0.0667815456566492   -0.0011832780410648118
-0.008663708119138934   -0.05421956537674929   -0.0009273292191806014
-0.0015508358590124577   -0.054373598477119506   -0.0007240972556566527
-0.008150208740180177   -0.06690327541011915   -0.0013972881020485307
-0.001805346692656875   -0.0667815456566492   -0.0011832780410648118
-0.001624449914009537   -0.05423670161396537   -0.000720517345342192
-0.008194313317247874   -0.06679518435235036   -0.001370495348168336
-0.0018615352017456515   -0.06668144080366524   -0.001201410844321654
-0.001624449914009537   -0.05423670161396537   -0.000720517345342192
-0.008663708119138934   -0.05421956537674929   -0.0009273292191806014
-0.008194313317247874   -0.06679518435235036   -0.001370495348168336
-0.008745584873558697   -0.054124315888288616   -0.0008816754137492644
-0.0018615352017456515   -0.06668144080366524   -0.001201410844321654
-0.008245259365965905   -0.06671677123915759   -0.0013345435868196587
-0.008745584873558697   -0.054124315888288616   -0.0008816754137492644
-0.008194313317247874   -0.06679518435235036   -0.001370495348168336
-0.0018615352017456515   -0.06668144080366524   -0.001201410844321654
-0.008745584873558697   -0.054124315888288616   -0.0008816754137492644
-0.0017157005013136118   -0.05411816485532141   -0.0007083361051316155
-0.001624449914009537   -0.05423670161396537   -0.000720517345342192
-0.0018615352017456515   -0.06668144080366524   -0.001201410844321654
-0.008745584873558697   -0.054124315888288616   -0.0008816754137492644
-0.001624449914009537   -0.05423670161396537   -0.000720517345342192
-0.008194313317247874   -0.06679518435235036   -0.001370495348168336
-0.008106700047482235   -0.06704054727323043   -0.0014144619921528264
-0.008514167941679788   -0.054465657265577345   -0.0009935877651740335
-0.01436489685090301   -0.06690870887100205   -0.0016668968851982992
-0.008150208740180177   -0.06690327541011915   -0.0013972881020485307
-0.008514167941679788   -0.054465657265577345   -0.0009935877651740335
-0.01542487683943462   -0.054341449292109836   -0.0012250966274953946
-0.01436489685090301   -0.06690870887100205   -0.0016668968851982992
-0.015501050999687547   -0.05423425169721264   -0.001162808519956181
-0.008150208740180177   -0.06690327541011915   -0.0013972881020485307
-0.014411799407255956   -0.06679585170991804   -0.0015962919525116471
-0.015501050999687547   -0.05423425169721264   -0.001162808519956181
-0.01436489685090301   -0.06690870887100205   -0.0016668968851982992
-0.008150208740180177   -0.06690327541011915   -0.0013972881020485307
-0.015501050999687547   -0.05423425169721264   -0.001162808519956181
-0.0085881974550679   -0.054333701770938915   -0.000964766738390513
-0.008514167941679788   -0.054465657265577345   -0.0009935877651740335
-0.008150208740180177   -0.06690327541011915   -0.0013972881020485307
-0.015501050999687547   -0.05423425169721264   -0.001162808519956181
-0.008514167941679788   -0.054465657265577345   -0.0009935877651740335
-0.01436489685090301   -0.06690870887100205   -0.0016668968851982992
-0.008150208740180177   -0.06690327541011915   -0.0013972881020485307
-0.0085881974550679   -0.054333701770938915   -0.000964766738390513
-0.014411799407255956   -0.06679585170991804   -0.0015962919525116471
-0.008194313317247874   -0.06679518435235036   -0.001370495348168336
-0.0085881974550679   -0.054333701770938915   -0.000964766738390513
-0.015501050999687547   -0.05423425169721264   -0.001162808519956181
-0.014411799407255956   -0.06679585170991804   -0.0015962919525116471
-0.015570173776447127   -0.05414474711997405   -0.0010921035155798831
-0.008194313317247874   -0.06679518435235036   -0.001370495348168336
-0.01445068588539635   -0.0667118960312893   -0.0015162364097263785
-0.015570173776447127   -0.05414474711997405   -0.0010921035155798831
-0.014411799407255956   -0.06679585170991804   -0.0015962919525116471
-0.008194313317247874   -0.06679518435235036   -0.001370495348168336
-0.015570173776447127   -0.05414474711997405   -0.0010921035155798831
-0.008663708119138934   -0.05421956537674929   -0.0009273292191806014
-0.0085881974550679   -0.054333701770938915   -0.000964766738390513
-0.008194313317247874   -0.06679518435235036   -0.001370495348168336
-0.015570173776447127   -0.05414474711997405   -0.0010921035155798831
-0.0085881974550679   -0.054333701770938915   -0.000964766738390513
-0.014411799407255956   -0.06679585170991804   -0.0015962919525116471
-0.008194313317247874   -0.06679518435235036   -0.001370495348168336
-0.008663708119138934   -0.05421956537674929   -0.0009273292191806014
-0.01445068588539635   -0.0667118960312893   -0.0015162364097263785
-0.008245259365965905   -0.06671677123915759   -0.0013345435868196587
-0.008663708119138934   -0.05421956537674929   -0.0009273292191806014
-0.015570173776447127   -0.05414474711997405   -0.0010921035155798831
-0.01445068588539635   -0.0667118960312893   -0.0015162364097263785
-0.015639949392307603   -0.05407308945032057   -0.0010133040076374113
-0.008245259365965905   -0.06671677123915759   -0.0013345435868196587
-0.014490694060383296   -0.0666567221776341   -0.00142700973822684
-0.015639949392307603   -0.05407308945032057   -0.0010133040076374113
-0.01445068588539635   -0.0667118960312893   -0.0015162364097263785
-0.008245259365965905   -0.06671677123915759   -0.0013345435868196587
-0.015639949392307603   -0.05407308945032057   -0.0010133040076374113
-0.008745584873558697   -0.054124315888288616   -0.0008816754137492644
-0.008663708119138934   -0.05421956537674929   -0.0009273292191806014
-0.008245259365965905   -0.06671677123915759   -0.0013345435868196587
-0.015639949392307603   -0.05407308945032057   -0.0010133040076374113
-0.008663708119138934   -0.05421956537674929   -0.0009273292191806014
-0.01445068588539635   -0.0667118960312893   -0.0015162364097263785
-0.01436489685090301   -0.06690870887100205   -0.0016668968851982992
-0.01542487683943462   -0.054341449292109836   -0.0012250966274953946
-0.020771966443055297   -0.06668286393537293   -0.0018778401749533133
-0.014411799407255956   -0.06679585170991804   -0.0015962919525116471
-0.01542487683943462   -0.054341449292109836   -0.0012250966274953946
-0.022472373747557055   -0.05415711106206597   -0.0014144256942352986
-0.020771966443055297   -0.06668286393537293   -0.0018778401749533133
-0.022543139170794136   -0.054074892479310736   -0.0013184167022915589
-0.014411799407255956   -0.06679585170991804   -0.0015962919525116471
-0.020810840846932684   -0.06659387411722852   -0.0017530805877448072
-0.022543139170794136   -0.054074892479310736   -0.0013184167022915589
-0.020771966443055297   -0.06668286393537293   -0.0018778401749533133
-0.014411799407255956   -0.06679585170991804   -0.0015962919525116471
-0.022543139170794136   -0.054074892479310736   -0.0013184167022915589
-0.015501050999687547   -0.05423425169721264   -0.001162808519956181
-0.01542487683943462   -0.054341449292109836   -0.0012250966274953946
-0.014411799407255956   -0.06679585170991804   -0.0015962919525116471
-0.022543139170794136   -0.054074892479310736   -0.0013184167022915589
-0.01542487683943462   -0.054341449292109836   -0.0012250966274953946
-0.020771966443055297   -0.06668286393537293   -0.0018778401749533133
-0.014411799407255956   -0.06679585170991804   -0.0015962919525116471
-0.015501050999687547   -0.05423425169721264   -0.001162808519956181
-0.020810840846932684   -0.06659387411722852   -0.0017530805877448072
-0.01445068588539635   -0.0667118960312893   -0.0015162364097263785
-0.015501050999687547   -0.05423425169721264   -0.001162808519956181
-0.022543139170794136   -0.054074892479310736   -0.0013184167022915589
-0.020810840846932684   -0.06659387411722852   -0.0017530805877448072
-0.022586148745847114   -0.054008081480893574   -0.0012151298465530977
-0.01445068588539635   -0.0667118960312893   -0.0015162364097263785
-0.02081606510995622   -0.0665319846636789   -0.001620178763392502
-0.022586148745847114   -0.054008081480893574   -0.0012151298465530977
-0.020810840846932684   -0.06659387411722852   -0.0017530805877448072
-0.01445068588539635   -0.0667118960312893   -0.0015162364097263785
-0.022586148745847114   -0.054008081480893574   -0.0012151298465530977
-0.015570173776447127   -0.05414474711997405   -0.0010921035155798831
-0.015501050999687547   -0.05423425169721264   -0.001162808519956181
-0.01445068588539635   -0.0667118960312893   -0.0015162364097263785
-0.022586148745847114   -0.054008081480893574   -0.0012151298465530977
-0.015501050999687547   -0.05423425169721264   -0.001162808519956181
-0.020810840846932684   -0.06659387411722852   -0.0017530805877448072
-0.01445068588539635   -0.0667118960312893   -0.0015162364097263785
-0.015570173776447127   -0.05414474711997405   -0.0010921035155798831
-0.02081606510995622   -0.0665319846636789   -0.001620178763392502
-0.014490694060383296   -0.0666567221776341   -0.00142700973822684
-0.015570173776447127   -0.05414474711997405   -0.0010921035155798831
-0.022586148745847114   -0.054008081480893574   -0.0012151298465530977
-0.02081606510995622   -0.0665319846636789   -0.001620178763392502
-0.022633313955584308   -0.053960658086469736   -0.0011030587670562096
-0.014490694060383296   -0.0666567221776341   -0.00142700973822684
-0.020830783929101523   -0.06650146008056282   -0.0014774122921509428
-0.022633313955584308   -0.053960658086469736   -0.0011030587670562096
-0.02081606510995622   -0.0665319846636789   -0.001620178763392502
-0.014490694060383296   -0.0666567221776341   -0.00142700973822684
-0.022633313955584308   -0.053960658086469736   -0.0011030587670562096
-0.015639949392307603   -0.05407308945032057   -0.0010133040076374113
-0.015570173776447127   -0.05414474711997405   -0.0010921035155798831
-0.014490694060383296   -0.0666567221776341   -0.00142700973822684
-0.022633313955584308   -0.053960658086469736   -0.0011030587670562096
-0.015570173776447127   -0.05414474711997405   -0.0010921035155798831
-0.02081606510995622   -0.0665319846636789   -0.001620178763392502
-0.020771966443055297   -0.06668286393537293   -0.0018778401749533133
-0.022472373747557055   -0.05415711106206597   -0.0014144256942352986
-0.027758353953834792   -0.06638689055889922   -0.0020580209250696765
-0.020810840846932684   -0.06659387411722852   -0.0017530805877448072
-0.022472373747557055   -0.05415711106206597   -0.0014144256942352986
-0.030035441921428187   -0.05393059063645694   -0.001565084609789829
-0.027758353953834792   -0.06638689055889922   -0.0020580209250696765
-0.029984247955226948   -0.05386120472925831   -0.0014373364114546852
-0.020810840846932684   -0.06659387411722852   -0.0017530805877448072
-0.02762544327198051   -0.06630560494070034   -0.001876084965351097
-0.029984247955226948   -0.05386120472925831   -0.0014373364114546852
-0.027758353953834792   -0.06638689055889922   -0.0020580209250696765
-0.020810840846932684   -0.06659387411722852   -0.0017530805877448072
-0.029984247955226948   -0.05386120472925831   -0.0014373364114546852
-0.022543139170794136   -0.054074892479310736   -0.0013184167022915589
-0.022472373747557055   -0.05415711106206597   -0.0014144256942352986
-0.020810840846932684   -0.06659387411722852   -0.0017530805877448072
-0.029984247955226948   -0.05386120472925831   -0.0014373364114546852
-0.022472373747557055   -0.05415711106206597   -0.0014144256942352986
-0.027758353953834792   -0.06638689055889922   -0.0020580209250696765
-0.020810840846932684   -0.06659387411722852   -0.0017530805877448072
-0.022543139170794136   -0.054074892479310736   -0.0013184167022915589
-0.02762544327198051   -0.06630560494070034   -0.001876084965351097
-0.02081606510995622   -0.0665319846636789   -0.001620178763392502
-0.022543139170794136   -0.054074892479310736   -0.0013184167022915589
-0.029984247955226948   -0.05386120472925831   -0.0014373364114546852
-0.02762544327198051   -0.06630560494070034   -0.001876084965351097
-0.029942540461218074   -0.05380508144005723   -0.001296234294714503
-0.02081606510995622   -0.0665319846636789   -0.001620178763392502
-0.027513339929685722   -0.0662530660112229   -0.0016799389495803707
-0.029942540461218074   -0.05380508144005723   -0.001296234294714503
-0.02762544327198051   -0.06630560494070034   -0.001876084965351097
-0.02081606510995622   -0.0665319846636789   -0.001620178763392502
-0.029942540461218074   -0.05380508144005723   -0.001296234294714503
-0.022586148745847114   -0.054008081480893574   -0.0012151298465530977
-0.022543139170794136   -0.054074892479310736   -0.0013184167022915589
-0.02081606510995622   -0.0665319846636789   -0.001620178763392502
-0.029942540461218074   -0.05380508144005723   -0.001296234294714503
-0.022543139170794136   -0.054074892479310736   -0.0013184167022915589
-0.02762544327198051   -0.06630560494070034   -0.001876084965351097
-0.02081606510995622   -0.0665319846636789   -0.001620178763392502
-0.022586148745847114   -0.054008081480893574   -0.0012151298465530977
-0.027513339929685722   -0.0662530660112229   -0.0016799389495803707
-0.020830783929101523   -0.06650146008056282   -0.0014774122921509428
-0.022586148745847114   -0.054008081480893574   -0.0012151298465530977
-0.029942540461218074   -0.05380508144005723   -0.001296234294714503
-0.027513339929685722   -0.0662530660112229   -0.0016799389495803707
-0.029841586843032793   -0.05378667171304936   -0.0011433024191312548
-0.020830783929101523   -0.06650146008056282   -0.0014774122921509428
-0.027328090549430348   -0.0662538676108711   -0.001471352535050973
-0.029841586843032793   -0.05378667171304936   -0.0011433024191312548
-0.027513339929685722   -0.0662530660112229   -0.0016799389495803707
-0.020830783929101523   -0.06650146008056282   -0.0014774122921509428
-0.029841586843032793   -0.05378667171304936   -0.0011433024191312548
-0.022633313955584308   -0.053960658086469736   -0.0011030587670562096
-0.022586148745847114   -0.054008081480893574   -0.0012151298465530977
-0.020830783929101523   -0.06650146008056282   -0.0014774122921509428
-0.029841586843032793   -0.05378667171304936   -0.0011433024191312548
-0.022586148745847114   -0.054008081480893574   -0.0012151298465530977
-0.027513339929685722   -0.0662530660112229   -0.0016799389495803707
0.005885689330482523   -0.05453438875650155   -0.00038760491063398694
0.00607750686464495   -0.04120515392699339   -5.9691048729017866e-05
-0.0014845817750418118   -0.0545323831846587   -0.0007194020656787777
0.005863667594427362   -0.05435188885145054   -0.00043908974091384166
0.00607750686464495   -0.04120515392699339   -5.9691048729017866e-05
-0.0017078138826390253   -0.04113625852856401   -0.00035820102853600304
-0.0014845817750418118   -0.0545323831846587   -0.0007194020656787777
-0.0017986021399764602   -0.04098422542271107   -0.00033113692775456707
0.005863667594427362   -0.05435188885145054   -0.00043908974091384166
-0.0015508358590124577   -0.054373598477119506   -0.0007240972556566527
-0.0017986021399764602   -0.04098422542271107   -0.00033113692775456707
-0.0014845817750418118   -0.0545323831846587   -0.0007194020656787777
0.005863667594427362   -0.05435188885145054   -0.00043908974091384166
-0.0017986021399764602   -0.04098422542271107   -0.00033113692775456707
0.005980749610689492   -0.04103100095976988   -5.379657110873098e-05
0.00607750686464495   -0.04120515392699339   -5.9691048729017866e-05
0.005863667594427362   -0.05435188885145054   -0.00043908974091384166
-0.0017986021399764602   -0.04098422542271107   -0.00033113692775456707
0.00607750686464495   -0.04120515392699339   -5.9691048729017866e-05
-0.0014845817750418118   -0.0545323831846587   -0.0007194020656787777
0.005863667594427362   -0.05435188885145054   -0.00043908974091384166
0.005980749610689492   -0.04103100095976988   -5.379657110873098e-05
-0.0015508358590124577   -0.054373598477119506   -0.0007240972556566527
0.005810036005261344   -0.05420474372978104   -0.0004773111379536323
0.005980749610689492   -0.04103100095976988   -5.379657110873098e-05
-0.0017986021399764602   -0.04098422542271107   -0.00033113692775456707
-0.0015508358590124577   -0.054373598477119506   -0.0007240972556566527
-0.0019025097630297283   -0.04084056780547072   -0.0002965808199476229
0.005810036005261344   -0.05420474372978104   -0.0004773111379536323
-0.001624449914009537   -0.05423670161396537   -0.000720517345342192
-0.0019025097630297283   -0.04084056780547072   -0.0002965808199476229
-0.0015508358590124577   -0.054373598477119506   -0.0007240972556566527
0.005810036005261344   -0.05420474372978104   -0.0004773111379536323
-0.0019025097630297283   -0.04084056780547072   -0.0002965808199476229
0.005862303215608656   -0.04087513381726961   -3.258604667709817e-05
0.005980749610689492   -0.04103100095976988   -5.379657110873098e-05
0.005810036005261344   -0.05420474372978104   -0.0004773111379536323
-0.0019025097630297283   -0.04084056780547072   -0.0002965808199476229
0.005980749610689492   -0.04103100095976988   -5.379657110873098e-05
-0.0015508358590124577   -0.054373598477119506   -0.0007240972556566527
0.005810036005261344   -0.05420474372978104   -0.0004773111379536323
0.005862303215608656   -0.04087513381726961   -3.258604667709817e-05
-0.001624449914009537   -0.05423670161396537   -0.000720517345342192
0.005735271375524456   -0.05406909231366107   -0.000503195229830667
0.005862303215608656   -0.04087513381726961   -3.258604667709817e-05
-0.0019025097630297283   -0.04084056780547072   -0.0002965808199476229
-0.001624449914009537   -0.05423670161396537   -0.000720517345342192
-0.0020190548585760216   -0.04070332805627443   -0.0002526531202072241
0.005735271375524456   -0.05406909231366107   -0.000503195229830667
-0.0017157005013136118   -0.05411816485532141   -0.0007083361051316155
-0.0020190548585760216   -0.04070332805627443   -0.0002526531202072241
-0.001624449914009537   -0.05423670161396537   -0.000720517345342192
0.005735271375524456   -0.05406909231366107   -0.000503195229830667
-0.0020190548585760216   -0.04070332805627443   -0.0002526531202072241
0.005706252983801005   -0.04071196588924826   3.24503093704633e-06
0.005862303215608656   -0.04087513381726961   -3.258604667709817e-05
0.005735271375524456   -0.05406909231366107   -0.000503195229830667
-0.0020190548585760216   -0.04070332805627443   -0.0002526531202072241
0.005862303215608656   -0.04087513381726961   -3.258604667709817e-05
-0.001624449914009537   -0.05423670161396537   -0.000720517345342192
-0.0014845817750418118   -0.0545323831846587   -0.0007194020656787777
-0.0017078138826390253   -0.04113625852856401   -0.00035820102853600304
-0.008514167941679788   -0.054465657265577345   -0.0009935877651740335
-0.0015508358590124577   -0.054373598477119506   -0.0007240972556566527
-0.0017078138826390253   -0.04113625852856401   -0.00035820102853600304
-0.009084911894229521   -0.04105639897256161   -0.0006111817548714912
-0.008514167941679788   -0.054465657265577345   -0.0009935877651740335
-0.00917741458615634   -0.04092908607743233   -0.0005699982108447914
-0.0015508358590124577   -0.054373598477119506   -0.0007240972556566527
-0.0085881974550679   -0.054333701770938915   -0.000964766738390513
-0.00917741458615634   -0.04092908607743233   -0.0005699982108447914
-0.008514167941679788   -0.054465657265577345   -0.0009935877651740335
-0.0015508358590124577   -0.054373598477119506   -0.0007240972556566527
-0.00917741458615634   -0.04092908607743233   -0.0005699982108447914
-0.0017986021399764602   -0.04098422542271107   -0.00033113692775456707
-0.0017078138826390253   -0.04113625852856401   -0.00035820102853600304
-0.0015508358590124577   -0.054373598477119506   -0.0007240972556566527
-0.00917741458615634   -0.04092908607743233   -0.0005699982108447914
-0.0017078138826390253   -0.04113625852856401   -0.00035820102853600304
-0.008514167941679788   -0.054465657265577345   -0.0009935877651740335
-0.0015508358590124577   -0.054373598477119506   -0.0007240972556566527
-0.0017986021399764602   -0.04098422542271107   -0.00033113692775456707
-0.0085881974550679   -0.054333701770938915   -0.000964766738390513
-0.001624449914009537   -0.05423670161396537   -0.000720517345342192
-0.0017986021399764602   -0.04098422542271107   -0.00033113692775456707
-0.00917741458615634   -0.04092908607743233   -0.0005699982108447914
-0.0085881974550679   -0.054333701770938915   -0.000964766738390513
-0.00927197507216514   -0.040808278075088834   -0.0005216814495782184
-0.001624449914009537   -0.05423670161396537   -0.000720517345342192
-0.008663708119138934   -0.05421956537674929   -0.0009273292191806014
-0.00927197507216514   -0.040808278075088834   -0.0005216814495782184
-0.0085881974550679   -0.054333701770938915   -0.000964766738390513
-0.001624449914009537   -0.05423670161396537   -0.000720517345342192
-0.00927197507216514   -0.040808278075088834   -0.0005216814495782184
-0.0019025097630297283   -0.04084056780547072   -0.0002965808199476229
-0.0017986021399764602   -0.04098422542271107   -0.00033113692775456707
-0.001624449914009537   -0.05423670161396537   -0.000720517345342192
-0.00927197507216514   -0.040808278075088834   -0.0005216814495782184
-0.0017986021399764602   -0.04098422542271107   -0.00033113692775456707
-0.0085881974550679   -0.054333701770938915   -0.000964766738390513
-0.001624449914009537   -0.05423670161396537   -0.000720517345342192
-0.0019025097630297283   -0.04084056780547072   -0.0002965808199476229
-0.008663708119138934   -0.05421956537674929   -0.0009273292191806014
-0.0017157005013136118   -0.05411816485532141   -0.0007083361051316155
-0.0019025097630297283   -0.04084056780547072   -0.0002965808199476229
-0.00927197507216514   -0.040808278075088834   -0.0005216814495782184
-0.008663708119138934   -0.05421956537674929   -0.0009273292191806014
-0.009372527531561481   -0.040695825672798405   -0.00046614933375178604
-0.0017157005013136118   -0.05411816485532141   -0.0007083361051316155
-0.008745584873558697   -0.054124315888288616   -0.0008816754137492644
-0.009372527531561481   -0.040695825672798405   -0.00046614933375178604
-0.008663708119138934   -0.05421956537674929   -0.0009273292191806014
-0.0017157005013136118   -0.05411816485532141   -0.0007083361051316155
-0.009372527531561481   -0.040695825672798405   -0.00046614933375178604
-0.0020190548585760216   -0.04070332805627443   -0.0002526531202072241
-0.0019025097630297283   -0.04084056780547072   -0.0002965808199476229
-0.0017157005013136118   -0.05411816485532141   -0.0007083361051316155
-0.009372527531561481   -0.040695825672798405   -0.00046614933375178604
-0.0019025097630297283   -0.04084056780547072   -0.0002965808199476229
-0.008663708119138934   -0.05421956537674929   -0.0009273292191806014
-0.008514167941679788   -0.054465657265577345   -0.0009935877651740335
-0.009084911894229521   -0.04105639897256161   -0.0006111817548714912
-0.01542487683943462   -0.054341449292109836   -0.0012250966274953946
-0.0085881974550679   -0.054333701770938915   -0.000964766738390513
-0.009084911894229521   -0.04105639897256161   -0.0006111817548714912
-0.016342226271615582   -0.04096083359261603   -0.0008262344595335785
-0.01542487683943462   -0.054341449292109836   -0.0012250966274953946
-0.016434015732628746   -0.04085645308510354   -0.0007709241206051397
-0.0085881974550679   -0.054333701770938915   -0.000964766738390513
-0.015501050999687547   -0.05423425169721264   -0.001162808519956181
-0.016434015732628746   -0.04085645308510354   -0.0007709241206051397
-0.01542487683943462   -0.054341449292109836   -0.0012250966274953946
-0.0085881974550679   -0.054333701770938915   -0.000964766738390513
-0.016434015732628746   -0.04085645308510354   -0.0007709241206051397
-0.00917741458615634   -0.04092908607743233   -0.0005699982108447914
-0.009084911894229521   -0.04105639897256161   -0.0006111817548714912
-0.0085881974550679   -0.054333701770938915   -0.000964766738390513
-0.016434015732628746   -0.04085645308510354   -0.0007709241206051397
-0.009084911894229521   -0.04105639897256161   -0.0006111817548714912
-0.01542487683943462   -0.054341449292109836   -0.0012250966274953946
-0.0085881974550679   -0.054333701770938915   -0.000964766738390513
-0.00917741458615634   -0.04092908607743233   -0.0005699982108447914
-0.015501050999687547   -0.05423425169721264   -0.001162808519956181
-0.008663708119138934   -0.05421956537674929   -0.0009273292191806014
-0.00917741458615634   -0.04092908607743233   -0.0005699982108447914
-0.016434015732628746   -0.04085645308510354   -0.0007709241206051397
-0.015501050999687547   -0.05423425169721264   -0.001162808519956181
-0.016519878871297432   -0.04075895488418797   -0.0007087247669108936
-0.008663708119138934   -0.05421956537674929   -0.0009273292191806014
-0.015570173776447127   -0.05414474711997405   -0.0010921035155798831
-0.016519878871297432   -0.04075895488418797   -0.0007087247669108936
-0.015501050999687547   -0.05423425169721264   -0.001162808519956181
-0.008663708119138934   -0.05421956537674929   -0.0009273292191806014
-0.016519878871297432   -0.04075895488418797   -0.0007087247669108936
-0.00927197507216514   -0.040808278075088834   -0.0005216814495782184
-0.00917741458615634   -0.04092908607743233   -0.0005699982108447914
-0.008663708119138934   -0.05421956537674929   -0.0009273292191806014
-0.016519878871297432   -0.04075895488418797   -0.0007087247669108936
-0.00917741458615634   -0.04092908607743233   -0.0005699982108447914
-0.015501050999687547   -0.05423425169721264   -0.001162808519956181
-0.008663708119138934   -0.05421956537674929   -0.0009273292191806014
-0.00927197507216514   -0.040808278075088834   -0.0005216814495782184
-0.015570173776447127   -0.05414474711997405   -0.0010921035155798831
-0.008745584873558697   -0.054124315888288616   -0.0008816754137492644
-0.00927197507216514   -0.040808278075088834   -0.0005216814495782184
-0.016519878871297432   -0.04075895488418797   -0.0007087247669108936
-0.015570173776447127   -0.05414474711997405   -0.0010921035155798831
-0.01660604873008327   -0.0406686122503812   -0.0006399791226525417
-0.008745584873558697   -0.054124315888288616   -0.0008816754137492644
-0.015639949392307603   -0.05407308945032057   -0.0010133040076374113
-0.01660604873008327   -0.0406686122503812   -0.0006399791226525417
-0.015570173776447127   -0.05414474711997405   -0.0010921035155798831
-0.008745584873558697   -0.054124315888288616   -0.0008816754137492644
-0.01660604873008327   -0.0406686122503812   -0.0006399791226525417
-0.009372527531561481   -0.040695825672798405   -0.00046614933375178604
-0.00927197507216514   -0.040808278075088834   -0.0005216814495782184
-0.008745584873558697   -0.054124315888288616   -0.0008816754137492644
-0.01660604873008327   -0.0406686122503812   -0.0006399791226525417
-0.00927197507216514   -0.040808278075088834   -0.0005216814495782184
-0.015570173776447127   -0.05414474711997405   -0.0010921035155798831
-0.01542487683943462   -0.054341449292109836   -0.0012250966274953946
-0.016342226271615582   -0.04096083359261603   -0.0008262344595335785
-0.022472373747557055   -0.05415711106206597   -0.0014144256942352986
-0.015501050999687547   -0.05423425169721264   -0.001162808519956181
-0.016342226271615582   -0.04096083359261603   -0.0008262344595335785
-0.023730488165975186   -0.04083176947531495   -0.00100152455352069
-0.022472373747557055   -0.05415711106206597   -0.0014144256942352986
-0.02381840469778138   -0.0407515187226758   -0.0009322544237016169
-0.015501050999687547   -0.05423425169721264   -0.001162808519956181
-0.022543139170794136   -0.054074892479310736   -0.0013184167022915589
-0.02381840469778138   -0.0407515187226758   -0.0009322544237016169
-0.022472373747557055   -0.05415711106206597   -0.0014144256942352986
-0.015501050999687547   -0.05423425169721264   -0.001162808519956181
-0.02381840469778138   -0.0407515187226758   -0.0009322544237016169
-0.016434015732628746   -0.04085645308510354   -0.0007709241206051397
-0.016342226271615582   -0.04096083359261603   -0.0008262344595335785
-0.015501050999687547   -0.05423425169721264   -0.001162808519956181
-0.02381840469778138   -0.0407515187226758   -0.0009322544237016169
-0.016342226271615582   -0.04096083359261603   -0.0008262344595335785
-0.022472373747557055   -0.05415711106206597   -0.0014144256942352986
-0.015501050999687547   -0.05423425169721264   -0.001162808519956181
-0.016434015732628746   -0.04085645308510354   -0.0007709241206051397
-0.022543139170794136   -0.054074892479310736   -0.0013184167022915589
-0.015570173776447127   -0.05414474711997405   -0.0010921035155798831
-0.016434015732628746   -0.04085645308510354   -0.0007709241206051397
-0.02381840469778138   -0.0407515187226758   -0.0009322544237016169
-0.022543139170794136   -0.054074892479310736   -0.0013184167022915589
-0.023885155494171154   -0.04067547440009054   -0.0008572392588799869
-0.015570173776447127   -0.05414474711997405   -0.0010921035155798831
-0.022586148745847114   -0.054008081480893574   -0.0012151298465530977
-0.023885155494171154   -0.04067547440009054   -0.0008572392588799869
-0.022543139170794136   -0.054074892479310736   -0.0013184167022915589
-0.015570173776447127   -0.05414474711997405   -0.0010921035155798831
-0.023885155494171154   -0.04067547440009054   -0.0008572392588799869
-0.016519878871297432   -0.04075895488418797   -0.0007087247669108936
-0.016434015732628746   -0.04085645308510354   -0.0007709241206051397
-0.015570173776447127   -0.05414474711997405   -0.0010921035155798831
-0.023885155494171154   -0.04067547440009054   -0.0008572392588799869
-0.016434015732628746   -0.04085645308510354   -0.0007709241206051397
-0.022543139170794136   -0.054074892479310736   -0.0013184167022915589
-0.015570173776447127   -0.05414474711997405   -0.0010921035155798831
-0.016519878871297432   -0.04075895488418797   -0.0007087247669108936
-0.022586148745847114   -0.054008081480893574   -0.0012151298465530977
-0.015639949392307603   -0.05407308945032057   -0.0010133040076374113
-0.016519878871297432   -0.04075895488418797   -0.0007087247669108936
-0.023885155494171154   -0.04067547440009054   -0.0008572392588799869
-0.022586148745847114   -0.054008081480893574   -0.0012151298465530977
-0.02395136248814715   -0.04060697329701107   -0.0007749739707786724
-0.015639949392307603   -0.05407308945032057   -0.0010133040076374113
-0.022633313955584308   -0.053960658086469736   -0.0011030587670562096
-0.02395136248814715   -0.04060697329701107   -0.0007749739707786724
-0.022586148745847114   -0.054008081480893574   -0.0012151298465530977
-0.015639949392307603   -0.05407308945032057   -0.0010133040076374113
-0.02395136248814715   -0.04060697329701107   -0.0007749739707786724
-0.01660604873008327   -0.0406686122503812   -0.0006399791226525417
-0.016519878871297432   -0.04075895488418797   -0.0007087247669108936
-0.015639949392307603   -0.05407308945032057   -0.0010133040076374113
-0.02395136248814715   -0.04060697329701107   -0.0007749739707786724
-0.016519878871297432   -0.04075895488418797   -0.0007087247669108936
-0.022586148745847114   -0.054008081480893574   -0.0012151298465530977
-0.022472373747557055   -0.05415711106206597   -0.0014144256942352986
-0.023730488165975186   -0.04083176947531495   -0.00100152455352069
-0.030035441921428187   -0.05393059063645694   -0.001565084609789829
-0.022543139170794136   -0.054074892479310736   -0.0013184167022915589
-0.023730488165975186   -0.04083176947531495   -0.00100152455352069
-0.031560038290537586   -0.04067951137223976   -0.0011318645687879733
-0.030035441921428187   -0.05393059063645694   -0.001565084609789829
-0.03157405816414137   -0.04061532067168496   -0.0010555195458539764
-0.022543139170794136   -0.054074892479310736   -0.0013184167022915589
-0.029984247955226948   -0.05386120472925831   -0.0014373364114546852
-0.03157405816414137   -0.04061532067168496   -0.0010555195458539764
-0.030035441921428187   -0.05393059063645694   -0.001565084609789829
-0.022543139170794136   -0.054074892479310736   -0.0013184167022915589
-0.03157405816414137   -0.04061532067168496   -0.0010555195458539764
-0.02381840469778138   -0.0407515187226758   -0.0009322544237016169
-0.023730488165975186   -0.04083176947531495   -0.00100152455352069
-0.022543139170794136   -0.054074892479310736   -0.0013184167022915589
-0.03157405816414137   -0.04061532067168496   -0.0010555195458539764
-0.023730488165975186   -0.04083176947531495   -0.00100152455352069
-0.030035441921428187   -0.05393059063645694   -0.001565084609789829
-0.022543139170794136   -0.054074892479310736   -0.0013184167022915589
-0.02381840469778138   -0.0407515187226758   -0.0009322544237016169
-0.029984247955226948   -0.05386120472925831   -0.0014373364114546852
-0.022586148745847114   -0.054008081480893574   -0.0012151298465530977
-0.02381840469778138   -0.0407515187226758   -0.0009322544237016169
-0.03157405816414137   -0.04061532067168496   -0.0010555195458539764
-0.029984247955226948   -0.05386120472925831   -0.0014373364114546852
-0.031588369171730746   -0.0405502929583211   -0.0009675992118633069
-0.022586148745847114   -0.054008081480893574   -0.0012151298465530977
-0.029942540461218074   -0.05380508144005723   -0.001296234294714503
-0.031588369171730746   -0.0405502929583211   -0.0009675992118633069
-0.029984247955226948   -0.05386120472925831   -0.0014373364114546852
-0.022586148745847114   -0.054008081480893574   -0.0012151298465530977
-0.031588369171730746   -0.0405502929583211   -0.0009675992118633069
-0.023885155494171154   -0.04067547440009054   -0.0008572392588799869
-0.02381840469778138   -0.0407515187226758   -0.0009322544237016169
-0.022586148745847114   -0.054008081480893574   -0.0012151298465530977
-0.031588369171730746   -0.0405502929583211   -0.0009675992118633069
-0.02381840469778138   -0.0407515187226758   -0.0009322544237016169
-0.029984247955226948   -0.05386120472925831   -0.0014373364114546852
-0.022586148745847114   -0.054008081480893574   -0.0012151298465530977
-0.023885155494171154   -0.04067547440009054   -0.0008572392588799869
-0.029942540461218074   -0.05380508144005723   -0.001296234294714503
-0.022633313955584308   -0.053960658086469736   -0.0011030587670562096
-0.023885155494171154   -0.04067547440009054   -0.0008572392588799869
-0.031588369171730746   -0.0405502929583211   -0.0009675992118633069
-0.029942540461218074   -0.05380508144005723   -0.001296234294714503
-0.03155881139012039   -0.040507025149841   -0.0008694814386244672
-0.022633313955584308   -0.053960658086469736   -0.0011030587670562096
-0.029841586843032793   -0.05378667171304936   -0.0011433024191312548
-0.03155881139012039   -0.040507025149841   -0.0008694814386244672
-0.029942540461218074   -0.05380508144005723   -0.001296234294714503
-0.022633313955584308   -0.053960658086469736   -0.0011030587670562096
-0.03155881139012039   -0.040507025149841   -0.0008694814386244672
-0.02395136248814715   -0.04060697329701107   -0.0007749739707786724
-0.023885155494171154   -0.04067547440009054   -0.0008572392588799869
-0.022633313955584308   -0.053960658086469736   -0.0011030587670562096
-0.03155881139012039   -0.040507025149841   -0.0008694814386244672
-0.023885155494171154   -0.04067547440009054   -0.0008572392588799869
-0.029942540461218074   -0.05380508144005723   -0.001296234294714503
0.00607750686464495   -0.04120515392699339   -5.9691048729017866e-05
0.0054434327703973455   -0.027485567277258118   0.00016657689135541066
-0.0017078138826390253   -0.04113625852856401   -0.00035820102853600304
0.005980749610689492   -0.04103100095976988   -5.379657110873098e-05
0.0054434327703973455   -0.027485567277258118   0.00016657689135541066
-0.0023968935458063257   -0.027355912845775876   -7.103436465940702e-05
-0.0017078138826390253   -0.04113625852856401   -0.00035820102853600304
-0.0025051855650480926   -0.027218175776550006   -1.4793944747211086e-05
0.005980749610689492   -0.04103100095976988   -5.379657110873098e-05
-0.0017986021399764602   -0.04098422542271107   -0.00033113692775456707
-0.0025051855650480926   -0.027218175776550006   -1.4793944747211086e-05
-0.0017078138826390253   -0.04113625852856401   -0.00035820102853600304
0.005980749610689492   -0.04103100095976988   -5.379657110873098e-05
-0.0025051855650480926   -0.027218175776550006   -1.4793944747211086e-05
0.005272583426016437   -0.027319564999412918   0.00023681831909854088
0.0054434327703973455   -0.027485567277258118   0.00016657689135541066
0.005980749610689492   -0.04103100095976988   -5.379657110873098e-05
-0.0025051855650480926   -0.027218175776550006   -1.4793944747211086e-05
0.0054434327703973455   -0.027485567277258118   0.00016657689135541066
-0.0017078138826390253   -0.04113625852856401   -0.00035820102853600304
0.005980749610689492   -0.04103100095976988   -5.379657110873098e-05
0.005272583426016437   -0.027319564999412918   0.00023681831909854088
-0.0017986021399764602   -0.04098422542271107   -0.00033113692775456707
0.005862303215608656   -0.04087513381726961   -3.258604667709817e-05
0.005272583426016437   -0.027319564999412918   0.00023681831909854088
-0.0025051855650480926   -0.027218175776550006   -1.4793944747211086e-05
-0.0017986021399764602   -0.04098422542271107   -0.00033113692775456707
-0.0026318197147912397   -0.027072744559134134   5.14139049722292e-05
0.005862303215608656   -0.04087513381726961   -3.258604667709817e-05
-0.0019025097630297283   -0.04084056780547072   -0.0002965808199476229
-0.0026318197147912397   -0.027072744559134134   5.14139049722292e-05
-0.0017986021399764602   -0.04098422542271107   -0.00033113692775456707
0.005862303215608656   -0.04087513381726961   -3.258604667709817e-05
-0.0026318197147912397   -0.027072744559134134   5.14139049722292e-05
0.005082125966073632   -0.027154556875766768   0.0003374891884938847
0.005272583426016437   -0.027319564999412918   0.00023681831909854088
0.005862303215608656   -0.04087513381726961   -3.258604667709817e-05
-0.0026318197147912397   -0.027072744559134134   5.14139049722292e-05
0.005272583426016437   -0.027319564999412918   0.00023681831909854088
-0.0017986021399764602   -0.04098422542271107   -0.00033113692775456707
0.005862303215608656   -0.04087513381726961   -3.258604667709817e-05
0.005082125966073632   -0.027154556875766768   0.0003374891884938847
-0.0019025097630297283   -0.04084056780547072   -0.0002965808199476229
0.005706252983801005   -0.04071196588924826   3.24503093704633e-06
0.005082125966073632   -0.027154556875766768   0.0003374891884938847
-0.0026318197147912397   -0.027072744559134134   5.14139049722292e-05
-0.0019025097630297283   -0.04084056780547072   -0.0002965808199476229
-0.002762750318402514   -0.026918271861981733   0.00012744837440242077
0.005706252983801005   -0.04071196588924826   3.24503093704633e-06
-0.0020190548585760216   -0.04070332805627443   -0.0002526531202072241
-0.002762750318402514   -0.026918271861981733   0.00012744837440242077
-0.0019025097630297283   -0.04084056780547072   -0.0002965808199476229
0.005706252983801005   -0.04071196588924826   3.24503093704633e-06
-0.002762750318402514   -0.026918271861981733   0.00012744837440242077
0.0048494356003130415   -0.026951912397564507   0.00044822611057725837
0.005082125966073632   -0.027154556875766768   0.0003374891884938847
0.005706252983801005   -0.04071196588924826   3.24503093704633e-06
-0.002762750318402514   -0.026918271861981733   0.00012744837440242077
0.005082125966073632   -0.027154556875766768   0.0003374891884938847
-0.0019025097630297283   -0.04084056780547072   -0.0002965808199476229
-0.0017078138826390253   -0.04113625852856401   -0.00035820102853600304
-0.0023968935458063257   -0.027355912845775876   -7.103436465940702e-05
-0.009084911894229521   -0.04105639897256161   -0.0006111817548714912
-0.0017986021399764602   -0.04098422542271107   -0.00033113692775456707
-0.0023968935458063257   -0.027355912845775876   -7.103436465940702e-05
-0.009780735211950102   -0.02732237719701254   -0.0003002333620623669
-0.009084911894229521   -0.04105639897256161   -0.0006111817548714912
-0.009878531377600391   -0.02720203195936259   -0.0002480236527244484
-0.0017986021399764602   -0.04098422542271107   -0.00033113692775456707
-0.00917741458615634   -0.04092908607743233   -0.0005699982108447914
-0.009878531377600391   -0.02720203195936259   -0.0002480236527244484
-0.009084911894229521   -0.04105639897256161   -0.0006111817548714912
-0.0017986021399764602   -0.04098422542271107   -0.00033113692775456707
-0.009878531377600391   -0.02720203195936259   -0.0002480236527244484
-0.0025051855650480926   -0.027218175776550006   -1.4793944747211086e-05
-0.0023968935458063257   -0.027355912845775876   -7.103436465940702e-05
-0.0017986021399764602   -0.04098422542271107   -0.00033113692775456707
-0.009878531377600391   -0.02720203195936259   -0.0002480236527244484
-0.0023968935458063257   -0.027355912845775876   -7.103436465940702e-05
-0.009084911894229521   -0.04105639897256161   -0.0006111817548714912
-0.0017986021399764602   -0.04098422542271107   -0.00033113692775456707
-0.0025051855650480926   -0.027218175776550006   -1.4793944747211086e-05
-0.00917741458615634   -0.04092908607743233   -0.0005699982108447914
-0.0019025097630297283   -0.04084056780547072   -0.0002965808199476229
-0.0025051855650480926   -0.027218175776550006   -1.4793944747211086e-05
-0.009878531377600391   -0.02720203195936259   -0.0002480236527244484
-0.00917741458615634   -0.04092908607743233   -0.0005699982108447914
-0.00997967355693635   -0.027076826258593274   -0.00019065693603132096
-0.0019025097630297283   -0.04084056780547072   -0.0002965808199476229
-0.00927197507216514   -0.040808278075088834   -0.0005216814495782184
-0.00997967355693635   -0.027076826258593274   -0.00019065693603132096
-0.00917741458615634   -0.04092908607743233   -0.0005699982108447914
-0.0019025097630297283   -0.04084056780547072   -0.0002965808199476229
-0.00997967355693635   -0.027076826258593274   -0.00019065693603132096
-0.0026318197147912397   -0.027072744559134134   5.14139049722292e-05
-0.0025051855650480926   -0.027218175776550006   -1.4793944747211086e-05
-0.0019025097630297283   -0.04084056780547072   -0.0002965808199476229
-0.00997967355693635   -0.027076826258593274   -0.00019065693603132096
-0.0025051855650480926   -0.027218175776550006   -1.4793944747211086e-05
-0.00917741458615634   -0.04092908607743233   -0.0005699982108447914
-0.0019025097630297283   -0.04084056780547072   -0.0002965808199476229
-0.0026318197147912397   -0.027072744559134134   5.14139049722292e-05
-0.00927197507216514   -0.040808278075088834   -0.0005216814495782184
-0.0020190548585760216   -0.04070332805627443   -0.0002526531202072241
-0.0026318197147912397   -0.027072744559134134   5.14139049722292e-05
-0.00997967355693635   -0.027076826258593274   -0.00019065693603132096
-0.00927197507216514   -0.040808278075088834   -0.0005216814495782184
-0.010084947482242273   -0.026948967552381048   -0.00012709735685523832
-0.0020190548585760216   -0.04070332805627443   -0.0002526531202072241
-0.009372527531561481   -0.040695825672798405   -0.00046614933375178604
-0.010084947482242273   -0.026948967552381048   -0.00012709735685523832
-0.00927197507216514   -0.040808278075088834   -0.0005216814495782184
-0.0020190548585760216   -0.04070332805627443   -0.0002526531202072241
-0.010084947482242273   -0.026948967552381048   -0.00012709735685523832
-0.002762750318402514   -0.026918271861981733   0.00012744837440242077
-0.0026318197147912397   -0.027072744559134134   5.14139049722292e-05
-0.0020190548585760216   -0.04070332805627443   -0.0002526531202072241
-0.010084947482242273   -0.026948967552381048   -0.00012709735685523832
-0.0026318197147912397   -0.027072744559134134   5.14139049722292e-05
-0.00927197507216514   -0.040808278075088834   -0.0005216814495782184
-0.009084911894229521   -0.04105639897256161   -0.0006111817548714912
-0.009780735211950102   -0.02732237719701254   -0.0003002333620623669
-0.016342226271615582   -0.04096083359261603   -0.0008262344595335785
-0.00917741458615634   -0.04092908607743233   -0.0005699982108447914
-0.009780735211950102   -0.02732237719701254   -0.0003002333620623669
-0.01708942946187429   -0.027313081111454363   -0.0005075106927913095
-0.016342226271615582   -0.04096083359261603   -0.0008262344595335785
-0.017182877406926228   -0.027207463047382686   -0.0004578045082046341
-0.00917741458615634   -0.04092908607743233   -0.0005699982108447914
-0.016434015732628746   -0.04085645308510354   -0.0007709241206051397
-0.017182877406926228   -0.027207463047382686   -0.0004578045082046341
-0.016342226271615582   -0.04096083359261603   -0.0008262344595335785
-0.00917741458615634   -0.04092908607743233   -0.0005699982108447914
-0.017182877406926228   -0.027207463047382686   -0.0004578045082046341
-0.009878531377600391   -0.02720203195936259   -0.0002480236527244484
-0.009780735211950102   -0.02732237719701254   -0.0003002333620623669
-0.00917741458615634   -0.04092908607743233   -0.0005699982108447914
-0.017182877406926228   -0.027207463047382686   -0.0004578045082046341
-0.009780735211950102   -0.02732237719701254   -0.0003002333620623669
-0.016342226271615582   -0.04096083359261603   -0.0008262344595335785
-0.00917741458615634   -0.04092908607743233   -0.0005699982108447914
-0.009878531377600391   -0.02720203195936259   -0.0002480236527244484
-0.016434015732628746   -0.04085645308510354   -0.0007709241206051397
-0.00927197507216514   -0.040808278075088834   -0.0005216814495782184
-0.009878531377600391   -0.02720203195936259   -0.0002480236527244484
-0.017182877406926228   -0.027207463047382686   -0.0004578045082046341
-0.016434015732628746   -0.04085645308510354   -0.0007709241206051397
-0.017271893828313692   -0.02709989541082764   -0.0004035927871846147
-0.00927197507216514   -0.040808278075088834   -0.0005216814495782184
-0.016519878871297432   -0.04075895488418797   -0.0007087247669108936
-0.017271893828313692   -0.02709989541082764   -0.0004035927871846147
-0.016434015732628746   -0.04085645308510354   -0.0007709241206051397
-0.00927197507216514   -0.040808278075088834   -0.0005216814495782184
-0.017271893828313692   -0.02709989541082764   -0.0004035927871846147
-0.00997967355693635   -0.027076826258593274   -0.00019065693603132096
-0.009878531377600391   -0.02720203195936259   -0.0002480236527244484
-0.00927197507216514   -0.040808278075088834   -0.0005216814495782184
-0.017271893828313692   -0.02709989541082764   -0.0004035927871846147
-0.009878531377600391   -0.02720203195936259   -0.0002480236527244484
-0.016434015732628746   -0.04085645308510354   -0.0007709241206051397
-0.00927197507216514   -0.040808278075088834   -0.0005216814495782184
-0.00997967355693635   -0.027076826258593274   -0.00019065693603132096
-0.016519878871297432   -0.04075895488418797   -0.0007087247669108936
-0.009372527531561481   -0.040695825672798405   -0.00046614933375178604
-0.00997967355693635   -0.027076826258593274   -0.00019065693603132096
-0.017271893828313692   -0.02709989541082764   -0.0004035927871846147
-0.016519878871297432   -0.04075895488418797   -0.0007087247669108936
-0.017360012234751622   -0.02698977076194806   -0.0003451345908944178
-0.009372527531561481   -0.040695825672798405   -0.00046614933375178604
-0.01660604873008327   -0.0406686122503812   -0.0006399791226525417
-0.017360012234751622   -0.02698977076194806   -0.0003451345908944178
-0.016519878871297432   -0.04075895488418797   -0.0007087247669108936
-0.009372527531561481   -0.040695825672798405   -0.00046614933375178604
-0.017360012234751622   -0.02698977076194806   -0.0003451345908944178
-0.010084947482242273   -0.026948967552381048   -0.00012709735685523832
-0.00997967355693635   -0.027076826258593274   -0.00019065693603132096
-0.009372527531561481   -0.040695825672798405   -0.00046614933375178604
-0.017360012234751622   -0.02698977076194806   -0.0003451345908944178
-0.00997967355693635   -0.027076826258593274   -0.00019065693603132096
-0.016519878871297432   -0.04075895488418797   -0.0007087247669108936
-0.016342226271615582   -0.04096083359261603   -0.0008262344595335785
-0.01708942946187429   -0.027313081111454363   -0.0005075106927913095
-0.023730488165975186   -0.04083176947531495   -0.00100152455352069
-0.016434015732628746   -0.04085645308510354   -0.0007709241206051397
-0.01708942946187429   -0.027313081111454363   -0.0005075106927913095
-0.02455286632189739   -0.027270761256421264   -0.0006818264272226255
-0.023730488165975186   -0.04083176947531495   -0.00100152455352069
-0.02464195389663255   -0.02718453351868121   -0.0006348618370234224
-0.016434015732628746   -0.04085645308510354   -0.0007709241206051397
-0.02381840469778138   -0.0407515187226758   -0.0009322544237016169
-0.02464195389663255   -0.02718453351868121   -0.0006348618370234224
-0.023730488165975186   -0.04083176947531495   -0.00100152455352069
-0.016434015732628746   -0.04085645308510354   -0.0007709241206051397
-0.02464195389663255   -0.02718453351868121   -0.0006348618370234224
-0.017182877406926228   -0.027207463047382686   -0.0004578045082046341
-0.01708942946187429   -0.027313081111454363   -0.0005075106927913095
-0.016434015732628746   -0.04085645308510354   -0.0007709241206051397
-0.02464195389663255   -0.02718453351868121   -0.0006348618370234224
-0.01708942946187429   -0.027313081111454363   -0.0005075106927913095
-0.023730488165975186   -0.04083176947531495   -0.00100152455352069
-0.016434015732628746   -0.04085645308510354   -0.0007709241206051397
-0.017182877406926228   -0.027207463047382686   -0.0004578045082046341
-0.02381840469778138   -0.0407515187226758   -0.0009322544237016169
-0.016519878871297432   -0.04075895488418797   -0.0007087247669108936
-0.017182877406926228   -0.027207463047382686   -0.0004578045082046341
-0.02464195389663255   -0.02718453351868121   -0.0006348618370234224
-0.02381840469778138   -0.0407515187226758   -0.0009322544237016169
-0.024717489091081856   -0.0270935622801656   -0.0005847092324888239
-0.016519878871297432   -0.04075895488418797   -0.0007087247669108936
-0.023885155494171154   -0.04067547440009054   -0.0008572392588799869
-0.024717489091081856   -0.0270935622801656   -0.0005847092324888239
-0.02381840469778138   -0.0407515187226758   -0.0009322544237016169
-0.016519878871297432   -0.04075895488418797   -0.0007087247669108936
-0.024717489091081856   -0.0270935622801656   -0.0005847092324888239
-0.017271893828313692   -0.02709989541082764   -0.0004035927871846147
-0.017182877406926228   -0.027207463047382686   -0.0004578045082046341
-0.016519878871297432   -0.04075895488418797   -0.0007087247669108936
-0.024717489091081856   -0.0270935622801656   -0.0005847092324888239
-0.017182877406926228   -0.027207463047382686   -0.0004578045082046341
-0.02381840469778138   -0.0407515187226758   -0.0009322544237016169
-0.016519878871297432   -0.04075895488418797   -0.0007087247669108936
-0.017271893828313692   -0.02709989541082764   -0.0004035927871846147
-0.023885155494171154   -0.04067547440009054   -0.0008572392588799869
-0.01660604873008327   -0.0406686122503812   -0.0006399791226525417
-0.017271893828313692   -0.02709989541082764   -0.0004035927871846147
-0.024717489091081856   -0.0270935622801656   -0.0005847092324888239
-0.023885155494171154   -0.04067547440009054   -0.0008572392588799869
-0.024788883874196338   -0.027000163166340303   -0.0005299691317712042
-0.01660604873008327   -0.0406686122503812   -0.0006399791226525417
-0.02395136248814715   -0.04060697329701107   -0.0007749739707786724
-0.024788883874196338   -0.027000163166340303   -0.0005299691317712042
-0.023885155494171154   -0.04067547440009054   -0.0008572392588799869
-0.01660604873008327   -0.0406686122503812   -0.0006399791226525417
-0.024788883874196338   -0.027000163166340303   -0.0005299691317712042
-0.017360012234751622   -0.02698977076194806   -0.0003451345908944178
-0.017271893828313692   -0.02709989541082764   -0.0004035927871846147
-0.01660604873008327   -0.0406686122503812   -0.0006399791226525417
-0.024788883874196338   -0.027000163166340303   -0.0005299691317712042
-0.017271893828313692   -0.02709989541082764   -0.0004035927871846147
-0.023885155494171154   -0.04067547440009054   -0.0008572392588799869
-0.023730488165975186   -0.04083176947531495   -0.00100152455352069
-0.02455286632189739   -0.027270761256421264   -0.0006818264272226255
-0.031560038290537586   -0.04067951137223976   -0.0011318645687879733
-0.02381840469778138   -0.0407515187226758   -0.0009322544237016169
-0.02455286632189739   -0.027270761256421264   -0.0006818264272226255
-0.03236972165089729   -0.027201188380325623   -0.000811131028855242
-0.031560038290537586   -0.04067951137223976   -0.0011318645687879733
-0.03242536469472391   -0.027128660608866772   -0.0007760693042440044
-0.02381840469778138   -0.0407515187226758   -0.0009322544237016169
-0.03157405816414137   -0.04061532067168496   -0.0010555195458539764
-0.03242536469472391   -0.027128660608866772   -0.0007760693042440044
-0.031560038290537586   -0.04067951137223976   -0.0011318645687879733
-0.02381840469778138   -0.0407515187226758   -0.0009322544237016169
-0.03242536469472391   -0.027128660608866772   -0.0007760693042440044
-0.02464195389663255   -0.02718453351868121   -0.0006348618370234224
-0.02455286632189739   -0.027270761256421264   -0.0006818264272226255
-0.02381840469778138   -0.0407515187226758   -0.0009322544237016169
-0.03242536469472391   -0.027128660608866772   -0.0007760693042440044
-0.02455286632189739   -0.027270761256421264   -0.0006818264272226255
-0.031560038290537586   -0.04067951137223976   -0.0011318645687879733
-0.02381840469778138   -0.0407515187226758   -0.0009322544237016169
-0.02464195389663255   -0.02718453351868121   -0.0006348618370234224
-0.03157405816414137   -0.04061532067168496   -0.0010555195458539764
-0.023885155494171154   -0.04067547440009054   -0.0008572392588799869
-0.02464195389663255   -0.02718453351868121   -0.0006348618370234224
-0.03242536469472391   -0.027128660608866772   -0.0007760693042440044
-0.03157405816414137   -0.04061532067168496   -0.0010555195458539764
-0.032476243664641524   -0.02704665311862788   -0.0007331633926961741
-0.023885155494171154   -0.04067547440009054   -0.0008572392588799869
-0.031588369171730746   -0.0405502929583211   -0.0009675992118633069
-0.032476243664641524   -0.02704665311862788   -0.0007331633926961741
-0.03157405816414137   -0.04061532067168496   -0.0010555195458539764
-0.023885155494171154   -0.04067547440009054   -0.0008572392588799869
-0.032476243664641524   -0.02704665311862788   -0.0007331633926961741
-0.024717489091081856   -0.0270935622801656   -0.0005847092324888239
-0.02464195389663255   -0.02718453351868121   -0.0006348618370234224
-0.023885155494171154   -0.04067547440009054   -0.0008572392588799869
-0.032476243664641524   -0.02704665311862788   -0.0007331633926961741
-0.02464195389663255   -0.02718453351868121   -0.0006348618370234224
-0.03157405816414137   -0.04061532067168496   -0.0010555195458539764
-0.023885155494171154   -0.04067547440009054   -0.0008572392588799869
-0.024717489091081856   -0.0270935622801656   -0.0005847092324888239
-0.031588369171730746   -0.0405502929583211   -0.0009675992118633069
-0.02395136248814715   -0.04060697329701107   -0.0007749739707786724
-0.024717489091081856   -0.0270935622801656   -0.0005847092324888239
-0.032476243664641524   -0.02704665311862788   -0.0007331633926961741
-0.031588369171730746   -0.0405502929583211   -0.0009675992118633069
-0.032501209976212565   -0.026971216888459538   -0.0006843872898012584
-0.02395136248814715   -0.04060697329701107   -0.0007749739707786724
-0.03155881139012039   -0.040507025149841   -0.0008694814386244672
-0.032501209976212565   -0.026971216888459538   -0.0006843872898012584
-0.031588369171730746   -0.0405502929583211   -0.0009675992118633069
-0.02395136248814715   -0.04060697329701107   -0.0007749739707786724
-0.032501209976212565   -0.026971216888459538   -0.0006843872898012584
-0.024788883874196338   -0.027000163166340303   -0.0005299691317712042
-0.024717489091081856   -0.0270935622801656   -0.0005847092324888239
-0.02395136248814715   -0.04060697329701107   -0.0007749739707786724
-0.032501209976212565   -0.026971216888459538   -0.0006843872898012584
-0.024717489091081856   -0.0270935622801656   -0.0005847092324888239
-0.031588369171730746   -0.0405502929583211   -0.0009675992118633069
0.0054434327703973455   -0.027485567277258118   0.00016657689135541066
0.003811120212724613   -0.013797603758863684   0.00017864543013866314
-0.0023968935458063257   -0.027355912845775876   -7.103436465940702e-05
0.005272583426016437   -0.027319564999412918   0.00023681831909854088
0.003811120212724613   -0.013797603758863684   0.00017864543013866314
-0.003496673068357229   -0.013617909851353718   8.955530836271403e-05
-0.0023968935458063257   -0.027355912845775876   -7.103436465940702e-05
-0.0036042829764975875   -0.013547970581000223   0.00016752347928023026
0.005272583426016437   -0.027319564999412918   0.00023681831909854088
-0.0025051855650480926   -0.027218175776550006   -1.4793944747211086e-05
-0.0036042829764975875   -0.013547970581000223   0.00016752347928023026
-0.0023968935458063257   -0.027355912845775876   -7.103436465940702e-05
0.005272583426016437   -0.027319564999412918   0.00023681831909854088
-0.0036042829764975875   -0.013547970581000223   0.00016752347928023026
0.0034758395826500186   -0.01362144998628572   0.000371818013789129
0.003811120212724613   -0.013797603758863684   0.00017864543013866314
0.005272583426016437   -0.027319564999412918   0.00023681831909854088
-0.0036042829764975875   -0.013547970581000223   0.00016752347928023026
0.003811120212724613   -0.013797603758863684   0.00017864543013866314
-0.0023968935458063257   -0.027355912845775876   -7.103436465940702e-05
0.005272583426016437   -0.027319564999412918   0.00023681831909854088
0.0034758395826500186   -0.01362144998628572   0.000371818013789129
-0.0025051855650480926   -0.027218175776550006   -1.4793944747211086e-05
0.005082125966073632   -0.027154556875766768   0.0003374891884938847
0.0034758395826500186   -0.01362144998628572   0.000371818013789129
-0.0036042829764975875   -0.013547970581000223   0.00016752347928023026
-0.0025051855650480926   -0.027218175776550006   -1.4793944747211086e-05
-0.0037455130440519385   -0.013424078876507225   0.00026214250823706716
0.005082125966073632   -0.027154556875766768   0.0003374891884938847
-0.0026318197147912397   -0.027072744559134134   5.14139049722292e-05
-0.0037455130440519385   -0.013424078876507225   0.00026214250823706716
-0.0025051855650480926   -0.027218175776550006   -1.4793944747211086e-05
0.005082125966073632   -0.027154556875766768   0.0003374891884938847
-0.0037455130440519385   -0.013424078876507225   0.00026214250823706716
0.003279418697394599   -0.01347704908249138   0.0005160852303085341
0.0034758395826500186   -0.01362144998628572   0.000371818013789129
0.005082125966073632   -0.027154556875766768   0.0003374891884938847
-0.0037455130440519385   -0.013424078876507225   0.00026214250823706716
0.0034758395826500186   -0.01362144998628572   0.000371818013789129
-0.0025051855650480926   -0.027218175776550006   -1.4793944747211086e-05
0.005082125966073632   -0.027154556875766768   0.0003374891884938847
0.003279418697394599   -0.01347704908249138   0.0005160852303085341
-0.0026318197147912397   -0.027072744559134134   5.14139049722292e-05
0.0048494356003130415   -0.026951912397564507   0.00044822611057725837
0.003279418697394599   -0.01347704908249138   0.0005160852303085341
-0.0037455130440519385   -0.013424078876507225   0.00026214250823706716
-0.0026318197147912397   -0.027072744559134134   5.14139049722292e-05
-0.0038641639251319   -0.013290748254129901   0.00034544640888174033
0.0048494356003130415   -0.026951912397564507   0.00044822611057725837
-0.002762750318402514   -0.026918271861981733   0.00012744837440242077
-0.0038641639251319   -0.013290748254129901   0.00034544640888174033
-0.0026318197147912397   -0.027072744559134134   5.14139049722292e-05
0.0048494356003130415   -0.026951912397564507   0.00044822611057725837
-0.0038641639251319   -0.013290748254129901   0.00034544640888174033
0.0030278394359712297   -0.013256644073104765   0.0006812253735742328
0.003279418697394599   -0.01347704908249138   0.0005160852303085341
0.0048494356003130415   -0.026951912397564507   0.00044822611057725837
-0.0038641639251319   -0.013290748254129901   0.00034544640888174033
0.003279418697394599   -0.01347704908249138   0.0005160852303085341
-0.0026318197147912397   -0.027072744559134134   5.14139049722292e-05
-0.0023968935458063257   -0.027355912845775876   -7.103436465940702e-05
-0.003496673068357229   -0.013617909851353718   8.955530836271403e-05
-0.009780735211950102   -0.02732237719701254   -0.0003002333620623669
-0.0025051855650480926   -0.027218175776550006   -1.4793944747211086e-05
-0.003496673068357229   -0.013617909851353718   8.955530836271403e-05
-0.010454482497333112   -0.013818623036335756   -9.324354528302784e-05
-0.009780735211950102   -0.02732237719701254   -0.0003002333620623669
-0.010553393491984527   -0.013712139819697754   -3.808639779651929e-05
-0.0025051855650480926   -0.027218175776550006   -1.4793944747211086e-05
-0.009878531377600391   -0.02720203195936259   -0.0002480236527244484
-0.010553393491984527   -0.013712139819697754   -3.808639779651929e-05
-0.009780735211950102   -0.02732237719701254   -0.0003002333620623669
-0.0025051855650480926   -0.027218175776550006   -1.4793944747211086e-05
-0.010553393491984527   -0.013712139819697754   -3.808639779651929e-05
-0.0036042829764975875   -0.013547970581000223   0.00016752347928023026
-0.003496673068357229   -0.013617909851353718   8.955530836271403e-05
-0.0025051855650480926   -0.027218175776550006   -1.4793944747211086e-05
-0.010553393491984527   -0.013712139819697754   -3.808639779651929e-05
-0.003496673068357229   -0.013617909851353718   8.955530836271403e-05
-0.009780735211950102   -0.02732237719701254   -0.0003002333620623669
-0.0025051855650480926   -0.027218175776550006   -1.4793944747211086e-05
-0.0036042829764975875   -0.013547970581000223   0.00016752347928023026
-0.009878531377600391   -0.02720203195936259   -0.0002480236527244484
-0.0026318197147912397   -0.027072744559134134   5.14139049722292e-05
-0.0036042829764975875   -0.013547970581000223   0.00016752347928023026
-0.010553393491984527   -0.013712139819697754   -3.808639779651929e-05
-0.009878531377600391   -0.02720203195936259   -0.0002480236527244484
-0.010656831610904539   -0.01359203135461884   2.023965065440643e-05
-0.0026318197147912397   -0.027072744559134134   5.14139049722292e-05
-0.00997967355693635   -0.027076826258593274   -0.00019065693603132096
-0.010656831610904539   -0.01359203135461884   2.023965065440643e-05
-0.009878531377600391   -0.02720203195936259   -0.0002480236527244484
-0.0026318197147912397   -0.027072744559134134   5.14139049722292e-05
-0.010656831610904539   -0.01359203135461884   2.023965065440643e-05
-0.0037455130440519385   -0.013424078876507225   0.00026214250823706716
-0.0036042829764975875   -0.013547970581000223   0.00016752347928023026
-0.0026318197147912397   -0.027072744559134134   5.14139049722292e-05
-0.010656831610904539   -0.01359203135461884   2.023965065440643e-05
-0.0036042829764975875   -0.013547970581000223   0.00016752347928023026
-0.009878531377600391   -0.02720203195936259   -0.0002480236527244484
-0.0026318197147912397   -0.027072744559134134   5.14139049722292e-05
-0.0037455130440519385   -0.013424078876507225   0.00026214250823706716
-0.00997967355693635   -0.027076826258593274   -0.00019065693603132096
-0.002762750318402514   -0.026918271861981733   0.00012744837440242077
-0.0037455130440519385   -0.013424078876507225   0.00026214250823706716
-0.010656831610904539   -0.01359203135461884   2.023965065440643e-05
-0.00997967355693635   -0.027076826258593274   -0.00019065693603132096
-0.01075506986598268   -0.013460393971434248   8.453583116681681e-05
-0.002762750318402514   -0.026918271861981733   0.00012744837440242077
-0.010084947482242273   -0.026948967552381048   -0.00012709735685523832
-0.01075506986598268   -0.013460393971434248   8.453583116681681e-05
-0.00997967355693635   -0.027076826258593274   -0.00019065693603132096
-0.002762750318402514   -0.026918271861981733   0.00012744837440242077
-0.01075506986598268   -0.013460393971434248   8.453583116681681e-05
-0.0038641639251319   -0.013290748254129901   0.00034544640888174033
-0.0037455130440519385   -0.013424078876507225   0.00026214250823706716
-0.002762750318402514   -0.026918271861981733   0.00012744837440242077
-0.01075506986598268   -0.013460393971434248   8.453583116681681e-05
-0.0037455130440519385   -0.013424078876507225   0.00026214250823706716
-0.00997967355693635   -0.027076826258593274   -0.00019065693603132096
-0.009780735211950102   -0.02732237719701254   -0.0003002333620623669
-0.010454482497333112   -0.013818623036335756   -9.324354528302784e-05
-0.01708942946187429   -0.027313081111454363   -0.0005075106927913095
-0.009878531377600391   -0.02720203195936259   -0.0002480236527244484
-0.010454482497333112   -0.013818623036335756   -9.324354528302784e-05
-0.01758401369610043   -0.013975399508119683   -0.0002955387006236721
-0.01708942946187429   -0.027313081111454363   -0.0005075106927913095
-0.017672773307808518   -0.013866111778335756   -0.00025285832954978184
-0.009878531377600391   -0.02720203195936259   -0.0002480236527244484
-0.017182877406926228   -0.027207463047382686   -0.0004578045082046341
-0.017672773307808518   -0.013866111778335756   -0.00025285832954978184
-0.01708942946187429   -0.027313081111454363   -0.0005075106927913095
-0.009878531377600391   -0.02720203195936259   -0.0002480236527244484
-0.017672773307808518   -0.013866111778335756   -0.00025285832954978184
-0.010553393491984527   -0.013712139819697754   -3.808639779651929e-05
-0.010454482497333112   -0.013818623036335756   -9.324354528302784e-05
-0.009878531377600391   -0.02720203195936259   -0.0002480236527244484
-0.017672773307808518   -0.013866111778335756   -0.00025285832954978184
-0.010454482497333112   -0.013818623036335756   -9.324354528302784e-05
-0.01708942946187429   -0.027313081111454363   -0.0005075106927913095
-0.009878531377600391   -0.02720203195936259   -0.0002480236527244484
-0.010553393491984527   -0.013712139819697754   -3.808639779651929e-05
-0.017182877406926228   -0.027207463047382686   -0.0004578045082046341
-0.00997967355693635   -0.027076826258593274   -0.00019065693603132096
-0.010553393491984527   -0.013712139819697754   -3.808639779651929e-05
-0.017672773307808518   -0.013866111778335756   -0.00025285832954978184
-0.017182877406926228   -0.027207463047382686   -0.0004578045082046341
-0.017757677407272618   -0.013750739393922429   -0.00021035162385565556
-0.00997967355693635   -0.027076826258593274   -0.00019065693603132096
-0.017271893828313692   -0.02709989541082764   -0.0004035927871846147
-0.017757677407272618   -0.013750739393922429   -0.00021035162385565556
-0.017182877406926228   -0.027207463047382686   -0.0004578045082046341
-0.00997967355693635   -0.027076826258593274   -0.00019065693603132096
-0.017757677407272618   -0.013750739393922429   -0.00021035162385565556
-0.010656831610904539   -0.01359203135461884   2.023965065440643e-05
-0.010553393491984527   -0.013712139819697754   -3.808639779651929e-05
-0.00997967355693635   -0.027076826258593274   -0.00019065693603132096
-0.017757677407272618   -0.013750739393922429   -0.00021035162385565556
-0.010553393491984527   -0.013712139819697754   -3.808639779651929e-05
-0.017182877406926228   -0.027207463047382686   -0.0004578045082046341
-0.00997967355693635   -0.027076826258593274   -0.00019065693603132096
-0.010656831610904539   -0.01359203135461884   2.023965065440643e-05
-0.017271893828313692   -0.02709989541082764   -0.0004035927871846147
-0.010084947482242273   -0.026948967552381048   -0.00012709735685523832
-0.010656831610904539   -0.01359203135461884   2.023965065440643e-05
-0.017757677407272618   -0.013750739393922429   -0.00021035162385565556
-0.017271893828313692   -0.02709989541082764   -0.0004035927871846147
-0.017835892646483734   -0.013625868011878758   -0.0001641116566752286
-0.010084947482242273   -0.026948967552381048   -0.00012709735685523832
-0.017360012234751622   -0.02698977076194806   -0.0003451345908944178
-0.017835892646483734   -0.013625868011878758   -0.0001641116566752286
-0.017271893828313692   -0.02709989541082764   -0.0004035927871846147
-0.010084947482242273   -0.026948967552381048   -0.00012709735685523832
-0.017835892646483734   -0.013625868011878758   -0.0001641116566752286
-0.01075506986598268   -0.013460393971434248   8.453583116681681e-05
-0.010656831610904539   -0.01359203135461884   2.023965065440643e-05
-0.010084947482242273   -0.026948967552381048   -0.00012709735685523832
-0.017835892646483734   -0.013625868011878758   -0.0001641116566752286
-0.010656831610904539   -0.01359203135461884   2.023965065440643e-05
-0.017271893828313692   -0.02709989541082764   -0.0004035927871846147
-0.01708942946187429   -0.027313081111454363   -0.0005075106927913095
-0.01758401369610043   -0.013975399508119683   -0.0002955387006236721
-0.02455286632189739   -0.027270761256421264   -0.0006818264272226255
-0.017182877406926228   -0.027207463047382686   -0.0004578045082046341
-0.01758401369610043   -0.013975399508119683   -0.0002955387006236721
-0.024963943262830777   -0.014039664292194363   -0.00048236822670528557
-0.02455286632189739   -0.027270761256421264   -0.0006818264272226255
-0.025043891308441795   -0.013941401525320243   -0.00045130818754993216
-0.017182877406926228   -0.027207463047382686   -0.0004578045082046341
-0.02464195389663255   -0.02718453351868121   -0.0006348618370234224
-0.025043891308441795   -0.013941401525320243   -0.00045130818754993216
-0.02455286632189739   -0.027270761256421264   -0.0006818264272226255
-0.017182877406926228   -0.027207463047382686   -0.0004578045082046341
-0.025043891308441795   -0.013941401525320243   -0.00045130818754993216
-0.017672773307808518   -0.013866111778335756   -0.00025285832954978184
-0.01758401369610043   -0.013975399508119683   -0.0002955387006236721
-0.017182877406926228   -0.027207463047382686   -0.0004578045082046341
-0.025043891308441795   -0.013941401525320243   -0.00045130818754993216
-0.01758401369610043   -0.013975399508119683   -0.0002955387006236721
-0.02455286632189739   -0.027270761256421264   -0.0006818264272226255
-0.017182877406926228   -0.027207463047382686   -0.0004578045082046341
-0.017672773307808518   -0.013866111778335756   -0.00025285832954978184
-0.02464195389663255   -0.02718453351868121   -0.0006348618370234224
-0.017271893828313692   -0.02709989541082764   -0.0004035927871846147
-0.017672773307808518   -0.013866111778335756   -0.00025285832954978184
-0.025043891308441795   -0.013941401525320243   -0.00045130818754993216
-0.02464195389663255   -0.02718453351868121   -0.0006348618370234224
-0.025115130190931215   -0.01383445369861626   -0.00042116639860792856
-0.017271893828313692   -0.02709989541082764   -0.0004035927871846147
-0.024717489091081856   -0.0270935622801656   -0.0005847092324888239
-0.025115130190931215   -0.01383445369861626   -0.00042116639860792856
-0.02464195389663255   -0.02718453351868121   -0.0006348618370234224
-0.017271893828313692   -0.02709989541082764   -0.0004035927871846147
-0.025115130190931215   -0.01383445369861626   -0.00042116639860792856
-0.017757677407272618   -0.013750739393922429   -0.00021035162385565556
-0.017672773307808518   -0.013866111778335756   -0.00025285832954978184
-0.017271893828313692   -0.02709989541082764   -0.0004035927871846147
-0.025115130190931215   -0.01383445369861626   -0.00042116639860792856
-0.017672773307808518   -0.013866111778335756   -0.00025285832954978184
-0.02464195389663255   -0.02718453351868121   -0.0006348618370234224
-0.017271893828313692   -0.02709989541082764   -0.0004035927871846147
-0.017757677407272618   -0.013750739393922429   -0.00021035162385565556
-0.024717489091081856   -0.0270935622801656   -0.0005847092324888239
-0.017360012234751622   -0.02698977076194806   -0.0003451345908944178
-0.017757677407272618   -0.013750739393922429   -0.00021035162385565556
-0.025115130190931215   -0.01383445369861626   -0.00042116639860792856
-0.024717489091081856   -0.0270935622801656   -0.0005847092324888239
-0.02517962504067578   -0.013720646724753479   -0.0003901679343745133
-0.017360012234751622   -0.02698977076194806   -0.0003451345908944178
-0.024788883874196338   -0.027000163166340303   -0.0005299691317712042
-0.02517962504067578   -0.013720646724753479   -0.0003901679343745133
-0.024717489091081856   -0.0270935622801656   -0.0005847092324888239
-0.017360012234751622   -0.02698977076194806   -0.0003451345908944178
-0.02517962504067578   -0.013720646724753479   -0.0003901679343745133
-0.017835892646483734   -0.013625868011878758   -0.0001641116566752286
-0.017757677407272618   -0.013750739393922429   -0.00021035162385565556
-0.017360012234751622   -0.02698977076194806   -0.0003451345908944178
-0.02517962504067578   -0.013720646724753479   -0.0003901679343745133
-0.017757677407272618   -0.013750739393922429   -0.00021035162385565556
-0.024717489091081856   -0.0270935622801656   -0.0005847092324888239
-0.02455286632189739   -0.027270761256421264   -0.0006818264272226255
-0.024963943262830777   -0.014039664292194363   -0.00048236822670528557
-0.03236972165089729   -0.027201188380325623   -0.000811131028855242
-0.02464195389663255   -0.02718453351868121   -0.0006348618370234224
-0.024963943262830777   -0.014039664292194363   -0.00048236822670528557
-0.03260548190573936   -0.01404696366679338   -0.0006377271515058712
-0.03236972165089729   -0.027201188380325623   -0.000811131028855242
-0.0326742725042867   -0.013951533431194176   -0.0006244961209755411
-0.02464195389663255   -0.02718453351868121   -0.0006348618370234224
-0.03242536469472391   -0.027128660608866772   -0.0007760693042440044
-0.0326742725042867   -0.013951533431194176   -0.0006244961209755411
-0.03236972165089729   -0.027201188380325623   -0.000811131028855242
-0.02464195389663255   -0.02718453351868121   -0.0006348618370234224
-0.0326742725042867   -0.013951533431194176   -0.0006244961209755411
-0.025043891308441795   -0.013941401525320243   -0.00045130818754993216
-0.024963943262830777   -0.014039664292194363   -0.00048236822670528557
-0.02464195389663255   -0.02718453351868121   -0.0006348618370234224
-0.0326742725042867   -0.013951533431194176   -0.0006244961209755411
-0.024963943262830777   -0.014039664292194363   -0.00048236822670528557
-0.03236972165089729   -0.027201188380325623   -0.000811131028855242
-0.02464195389663255   -0.02718453351868121   -0.0006348618370234224
-0.025043891308441795   -0.013941401525320243   -0.00045130818754993216
-0.03242536469472391   -0.027128660608866772   -0.0007760693042440044
-0.024717489091081856   -0.0270935622801656   -0.0005847092324888239
-0.025043891308441795   -0.013941401525320243   -0.00045130818754993216
-0.0326742725042867   -0.013951533431194176   -0.0006244961209755411
-0.03242536469472391   -0.027128660608866772   -0.0007760693042440044
-0.03273590273128893   -0.01384843513301525   -0.000609040938520849
-0.024717489091081856   -0.0270935622801656   -0.0005847092324888239
-0.032476243664641524   -0.02704665311862788   -0.0007331633926961741
-0.03273590273128893   -0.01384843513301525   -0.000609040938520849
-0.03242536469472391   -0.027128660608866772   -0.0007760693042440044
-0.024717489091081856   -0.0270935622801656   -0.0005847092324888239
-0.03273590273128893   -0.01384843513301525   -0.000609040938520849
-0.025115130190931215   -0.01383445369861626   -0.00042116639860792856
-0.025043891308441795   -0.013941401525320243   -0.00045130818754993216
-0.024717489091081856   -0.0270935622801656   -0.0005847092324888239
-0.03273590273128893   -0.01384843513301525   -0.000609040938520849
-0.025043891308441795   -0.013941401525320243   -0.00045130818754993216
-0.03242536469472391   -0.027128660608866772   -0.0007760693042440044
-0.024717489091081856   -0.0270935622801656   -0.0005847092324888239
-0.025115130190931215   -0.01383445369861626   -0.00042116639860792856
-0.032476243664641524   -0.02704665311862788   -0.0007331633926961741
-0.024788883874196338   -0.027000163166340303   -0.0005299691317712042
-0.025115130190931215   -0.01383445369861626   -0.00042116639860792856
-0.03273590273128893   -0.01384843513301525   -0.000609040938520849
-0.032476243664641524   -0.02704665311862788   -0.0007331633926961741
-0.03278785672122418   -0.013739248534364113   -0.000594732997106011
-0.024788883874196338   -0.027000163166340303   -0.0005299691317712042
-0.032501209976212565   -0.026971216888459538   -0.0006843872898012584
-0.03278785672122418   -0.013739248534364113   -0.000594732997106011
-0.032476243664641524   -0.02704665311862788   -0.0007331633926961741
-0.024788883874196338   -0.027000163166340303   -0.0005299691317712042
-0.03278785672122418   -0.013739248534364113   -0.000594732997106011
-0.02517962504067578   -0.013720646724753479   -0.0003901679343745133
-0.025115130190931215   -0.01383445369861626   -0.00042116639860792856
-0.024788883874196338   -0.027000163166340303   -0.0005299691317712042
-0.03278785672122418   -0.013739248534364113   -0.000594732997106011
-0.025115130190931215   -0.01383445369861626   -0.00042116639860792856
-0.032476243664641524   -0.02704665311862788   -0.0007331633926961741
0.003811120212724613   -0.013797603758863684   0.00017864543013866314
0.0   0.0   0.0
-0.003496673068357229   -0.013617909851353718   8.955530836271403e-05
0.0034758395826500186   -0.01362144998628572   0.000371818013789129
0.0   0.0   0.0
-0.0043943801925756705   -0.001106187690976807   -3.891984914062079e-05
-0.003496673068357229   -0.013617909851353718   8.955530836271403e-05
-0.0046567622359917635   -0.0008580917393165199   0.00011164145516917957
0.0034758395826500186   -0.01362144998628572   0.000371818013789129
-0.0036042829764975875   -0.013547970581000223   0.00016752347928023026
-0.0046567622359917635   -0.0008580917393165199   0.00011164145516917957
-0.003496673068357229   -0.013617909851353718   8.955530836271403e-05
0.0034758395826500186   -0.01362144998628572   0.000371818013789129
-0.0046567622359917635   -0.0008580917393165199   0.00011164145516917957
0.0   0.0   0.0
0.0   0.0   0.0
0.0034758395826500186   -0.01362144998628572   0.000371818013789129
-0.0046567622359917635   -0.0008580917393165199   0.00011164145516917957
0.0   0.0   0.0
-0.003496673068357229   -0.013617909851353718   8.955530836271403e-05
0.0034758395826500186   -0.01362144998628572   0.000371818013789129
0.0   0.0   0.0
-0.0036042829764975875   -0.013547970581000223   0.00016752347928023026
0.003279418697394599   -0.01347704908249138   0.0005160852303085341
0.0   0.0   0.0
-0.0046567622359917635   -0.0008580917393165199   0.00011164145516917957
-0.0036042829764975875   -0.013547970581000223   0.00016752347928023026
-0.004821191285722782   -0.0007383196864950283   0.00019828681208824481
0.003279418697394599   -0.01347704908249138   0.0005160852303085341
-0.0037455130440519385   -0.013424078876507225   0.00026214250823706716
-0.004821191285722782   -0.0007383196864950283   0.00019828681208824481
-0.0036042829764975875   -0.013547970581000223   0.00016752347928023026
0.003279418697394599   -0.01347704908249138   0.0005160852303085341
-0.004821191285722782   -0.0007383196864950283   0.00019828681208824481
0.0   0.0   0.0
0.0   0.0   0.0
0.003279418697394599   -0.01347704908249138   0.0005160852303085341
-0.004821191285722782   -0.0007383196864950283   0.00019828681208824481
0.0   0.0   0.0
-0.0036042829764975875   -0.013547970581000223   0.00016752347928023026
0.003279418697394599   -0.01347704908249138   0.0005160852303085341
0.0   0.0   0.0
-0.0037455130440519385   -0.013424078876507225   0.00026214250823706716
0.0030278394359712297   -0.013256644073104765   0.0006812253735742328
0.0   0.0   0.0
-0.004821191285722782   -0.0007383196864950283   0.00019828681208824481
-0.0037455130440519385   -0.013424078876507225   0.00026214250823706716
-0.005041226132521775   -0.0005794079333188773   0.0002976901284989641
0.0030278394359712297   -0.013256644073104765   0.0006812253735742328
-0.0038641639251319   -0.013290748254129901   0.00034544640888174033
-0.005041226132521775   -0.0005794079333188773   0.0002976901284989641
-0.0037455130440519385   -0.013424078876507225   0.00026214250823706716
0.0030278394359712297   -0.013256644073104765   0.0006812253735742328
-0.005041226132521775   -0.0005794079333188773   0.0002976901284989641
0.0   0.0   0.0
0.0   0.0   0.0
0.0030278394359712297   -0.013256644073104765   0.0006812253735742328
-0.005041226132521775   -0.0005794079333188773   0.0002976901284989641
0.0   0.0   0.0
-0.0037455130440519385   -0.013424078876507225   0.00026214250823706716
-0.003496673068357229   -0.013617909851353718   8.955530836271403e-05
-0.0043943801925756705   -0.001106187690976807   -3.891984914062079e-05
-0.010454482497333112   -0.013818623036335756   -9.324354528302784e-05
-0.0036042829764975875   -0.013547970581000223   0.00016752347928023026
-0.0043943801925756705   -0.001106187690976807   -3.891984914062079e-05
-0.010767703939949105   -0.0014460093793989004   -3.950021351363332e-05
-0.010454482497333112   -0.013818623036335756   -9.324354528302784e-05
-0.01090258869797195   -0.0013099299705535976   -1.2911144099193718e-06
-0.0036042829764975875   -0.013547970581000223   0.00016752347928023026
-0.010553393491984527   -0.013712139819697754   -3.808639779651929e-05
-0.01090258869797195   -0.0013099299705535976   -1.2911144099193718e-06
-0.010454482497333112   -0.013818623036335756   -9.324354528302784e-05
-0.0036042829764975875   -0.013547970581000223   0.00016752347928023026
-0.01090258869797195   -0.0013099299705535976   -1.2911144099193718e-06
-0.0046567622359917635   -0.0008580917393165199   0.00011164145516917957
-0.0043943801925756705   -0.001106187690976807   -3.891984914062079e-05
-0.0036042829764975875   -0.013547970581000223   0.00016752347928023026
-0.01090258869797195   -0.0013099299705535976   -1.2911144099193718e-06
-0.0043943801925756705   -0.001106187690976807   -3.891984914062079e-05
-0.010454482497333112   -0.013818623036335756   -9.324354528302784e-05
-0.0036042829764975875   -0.013547970581000223   0.00016752347928023026
-0.0046567622359917635   -0.0008580917393165199   0.00011164145516917957
-0.010553393491984527   -0.013712139819697754   -3.808639779651929e-05
-0.0037455130440519385   -0.013424078876507225   0.00026214250823706716
-0.0046567622359917635   -0.0008580917393165199   0.00011164145516917957
-0.01090258869797195   -0.0013099299705535976   -1.2911144099193718e-06
-0.010553393491984527   -0.013712139819697754   -3.808639779651929e-05
-0.011036793214910358   -0.0011508417264230692   6.744434038282631e-05
-0.0037455130440519385   -0.013424078876507225   0.00026214250823706716
-0.010656831610904539   -0.01359203135461884   2.023965065440643e-05
-0.011036793214910358   -0.0011508417264230692   6.744434038282631e-05
-0.010553393491984527   -0.013712139819697754   -3.808639779651929e-05
-0.0037455130440519385   -0.013424078876507225   0.00026214250823706716
-0.011036793214910358   -0.0011508417264230692   6.744434038282631e-05
-0.004821191285722782   -0.0007383196864950283   0.00019828681208824481
-0.0046567622359917635   -0.0008580917393165199   0.00011164145516917957
-0.0037455130440519385   -0.013424078876507225   0.00026214250823706716
-0.011036793214910358   -0.0011508417264230692   6.744434038282631e-05
-0.0046567622359917635   -0.0008580917393165199   0.00011164145516917957
-0.010553393491984527   -0.013712139819697754   -3.808639779651929e-05
-0.0037455130440519385   -0.013424078876507225   0.00026214250823706716
-0.004821191285722782   -0.0007383196864950283   0.00019828681208824481
-0.010656831610904539   -0.01359203135461884   2.023965065440643e-05
-0.0038641639251319   -0.013290748254129901   0.00034544640888174033
-0.004821191285722782   -0.0007383196864950283   0.00019828681208824481
-0.011036793214910358   -0.0011508417264230692   6.744434038282631e-05
-0.010656831610904539   -0.01359203135461884   2.023965065440643e-05
-0.011184960300037676   -0.0009672080423792207   0.00013307525213420045
-0.0038641639251319   -0.013290748254129901   0.00034544640888174033
-0.01075506986598268   -0.013460393971434248   8.453583116681681e-05
-0.011184960300037676   -0.0009672080423792207   0.00013307525213420045
-0.010656831610904539   -0.01359203135461884   2.023965065440643e-05
-0.0038641639251319   -0.013290748254129901   0.00034544640888174033
-0.011184960300037676   -0.0009672080423792207   0.00013307525213420045
-0.005041226132521775   -0.0005794079333188773   0.0002976901284989641
-0.004821191285722782   -0.0007383196864950283   0.00019828681208824481
-0.0038641639251319   -0.013290748254129901   0.00034544640888174033
-0.011184960300037676   -0.0009672080423792207   0.00013307525213420045
-0.004821191285722782   -0.0007383196864950283   0.00019828681208824481
-0.010656831610904539   -0.01359203135461884   2.023965065440643e-05
-0.010454482497333112   -0.013818623036335756   -9.324354528302784e-05
-0.010767703939949105   -0.0014460093793989004   -3.950021351363332e-05
-0.01758401369610043   -0.013975399508119683   -0.0002955387006236721
-0.010553393491984527   -0.013712139819697754   -3.808639779651929e-05
-0.010767703939949105   -0.0014460093793989004   -3.950021351363332e-05
-0.01775845043474671   -0.0015391995696665253   -0.0001686117647517801
-0.01758401369610043   -0.013975399508119683   -0.0002955387006236721
-0.017840078187785994   -0.0014324867408458232   -0.00015824627036833996
-0.010553393491984527   -0.013712139819697754   -3.808639779651929e-05
-0.017672773307808518   -0.013866111778335756   -0.00025285832954978184
-0.017840078187785994   -0.0014324867408458232   -0.00015824627036833996
-0.01758401369610043   -0.013975399508119683   -0.0002955387006236721
-0.010553393491984527   -0.013712139819697754   -3.808639779651929e-05
-0.017840078187785994   -0.0014324867408458232   -0.00015824627036833996
-0.01090258869797195   -0.0013099299705535976   -1.2911144099193718e-06
-0.010767703939949105   -0.0014460093793989004   -3.950021351363332e-05
-0.010553393491984527   -0.013712139819697754   -3.808639779651929e-05
-0.017840078187785994   -0.0014324867408458232   -0.00015824627036833996
-0.010767703939949105   -0.0014460093793989004   -3.950021351363332e-05
-0.01758401369610043   -0.013975399508119683   -0.0002955387006236721
-0.010553393491984527   -0.013712139819697754   -3.808639779651929e-05
-0.01090258869797195   -0.0013099299705535976   -1.2911144099193718e-06
-0.017672773307808518   -0.013866111778335756   -0.00025285832954978184
-0.010656831610904539   -0.01359203135461884   2.023965065440643e-05
-0.01090258869797195   -0.0013099299705535976   -1.2911144099193718e-06
-0.017840078187785994   -0.0014324867408458232   -0.00015824627036833996
-0.017672773307808518   -0.013866111778335756   -0.00025285832954978184
-0.017924917337287568   -0.0013089293301009617   -0.0001399299956944387
-0.010656831610904539   -0.01359203135461884   2.023965065440643e-05
-0.017757677407272618   -0.013750739393922429   -0.00021035162385565556
-0.017924917337287568   -0.0013089293301009617   -0.0001399299956944387
-0.017672773307808518   -0.013866111778335756   -0.00025285832954978184
-0.010656831610904539   -0.01359203135461884   2.023965065440643e-05
-0.017924917337287568   -0.0013089293301009617   -0.0001399299956944387
-0.011036793214910358   -0.0011508417264230692   6.744434038282631e-05
-0.01090258869797195   -0.0013099299705535976   -1.2911144099193718e-06
-0.010656831610904539   -0.01359203135461884   2.023965065440643e-05
-0.017924917337287568   -0.0013089293301009617   -0.0001399299956944387
-0.01090258869797195   -0.0013099299705535976   -1.2911144099193718e-06
-0.017672773307808518   -0.013866111778335756   -0.00025285832954978184
-0.010656831610904539   -0.01359203135461884   2.023965065440643e-05
-0.011036793214910358   -0.0011508417264230692   6.744434038282631e-05
-0.017757677407272618   -0.013750739393922429   -0.00021035162385565556
-0.01075506986598268   -0.013460393971434248   8.453583116681681e-05
-0.011036793214910358   -0.0011508417264230692   6.744434038282631e-05
-0.017924917337287568   -0.0013089293301009617   -0.0001399299956944387
-0.017757677407272618   -0.013750739393922429   -0.00021035162385565556
-0.018005048691739495   -0.0011590944267178534   -0.00011569662627746218
-0.01075506986598268   -0.013460393971434248   8.453583116681681e-05
-0.017835892646483734   -0.013625868011878758   -0.0001641116566752286
-0.018005048691739495   -0.0011590944267178534   -0.00011569662627746218
-0.017757677407272618   -0.013750739393922429   -0.00021035162385565556
-0.01075506986598268   -0.013460393971434248   8.453583116681681e-05
-0.018005048691739495   -0.0011590944267178534   -0.00011569662627746218
-0.011184960300037676   -0.0009672080423792207   0.00013307525213420045
-0.011036793214910358   -0.0011508417264230692   6.744434038282631e-05
-0.01075506986598268   -0.013460393971434248   8.453583116681681e-05
-0.018005048691739495   -0.0011590944267178534   -0.00011569662627746218
-0.011036793214910358   -0.0011508417264230692   6.744434038282631e-05
-0.017757677407272618   -0.013750739393922429   -0.00021035162385565556
-0.01758401369610043   -0.013975399508119683   -0.0002955387006236721
-0.01775845043474671   -0.0015391995696665253   -0.0001686117647517801
-0.024963943262830777   -0.014039664292194363   -0.00048236822670528557
-0.017672773307808518   -0.013866111778335756   -0.00025285832954978184
-0.01775845043474671   -0.0015391995696665253   -0.0001686117647517801
-0.02509281488372084   -0.0015211658226664728   -0.00035277072768330887
-0.024963943262830777   -0.014039664292194363   -0.00048236822670528557
-0.025147892600892886   -0.0014248247251407817   -0.00034836589190876115
-0.017672773307808518   -0.013866111778335756   -0.00025285832954978184
-0.025043891308441795   -0.013941401525320243   -0.00045130818754993216
-0.025147892600892886   -0.0014248247251407817   -0.00034836589190876115
-0.024963943262830777   -0.014039664292194363   -0.00048236822670528557
-0.017672773307808518   -0.013866111778335756   -0.00025285832954978184
-0.025147892600892886   -0.0014248247251407817   -0.00034836589190876115
-0.017840078187785994   -0.0014324867408458232   -0.00015824627036833996
-0.01775845043474671   -0.0015391995696665253   -0.0001686117647517801
-0.017672773307808518   -0.013866111778335756   -0.00025285832954978184
-0.025147892600892886   -0.0014248247251407817   -0.00034836589190876115
-0.01775845043474671   -0.0015391995696665253   -0.0001686117647517801
-0.024963943262830777   -0.014039664292194363   -0.00048236822670528557
-0.017672773307808518   -0.013866111778335756   -0.00025285832954978184
-0.017840078187785994   -0.0014324867408458232   -0.00015824627036833996
-0.025043891308441795   -0.013941401525320243   -0.00045130818754993216
-0.017757677407272618   -0.013750739393922429   -0.00021035162385565556
-0.017840078187785994   -0.0014324867408458232   -0.00015824627036833996
-0.025147892600892886   -0.0014248247251407817   -0.00034836589190876115
-0.025043891308441795   -0.013941401525320243   -0.00045130818754993216
-0.025205367690965406   -0.0013178800052982254   -0.00034548597665126646
-0.017757677407272618   -0.013750739393922429   -0.00021035162385565556
-0.025115130190931215   -0.01383445369861626   -0.00042116639860792856
-0.025205367690965406   -0.0013178800052982254   -0.00034548597665126646
-0.025043891308441795   -0.013941401525320243   -0.00045130818754993216
-0.017757677407272618   -0.013750739393922429   -0.00021035162385565556
-0.025205367690965406   -0.0013178800052982254   -0.00034548597665126646
-0.017924917337287568   -0.0013089293301009617   -0.0001399299956944387
-0.017840078187785994   -0.0014324867408458232   -0.00015824627036833996
-0.017757677407272618   -0.013750739393922429   -0.00021035162385565556
-0.025205367690965406   -0.0013178800052982254   -0.00034548597665126646
-0.017840078187785994   -0.0014324867408458232   -0.00015824627036833996
-0.025043891308441795   -0.013941401525320243   -0.00045130818754993216
-0.017757677407272618   -0.013750739393922429   -0.00021035162385565556
-0.017924917337287568   -0.0013089293301009617   -0.0001399299956944387
-0.025115130190931215   -0.01383445369861626   -0.00042116639860792856
-0.017835892646483734   -0.013625868011878758   -0.0001641116566752286
-0.017924917337287568   -0.0013089293301009617   -0.0001399299956944387
-0.025205367690965406   -0.0013178800052982254   -0.00034548597665126646
-0.025115130190931215   -0.01383445369861626   -0.00042116639860792856
-0.0252487336795257   -0.0012023793667734516   -0.0003443930567219589
-0.017835892646483734   -0.013625868011878758   -0.0001641116566752286
-0.02517962504067578   -0.013720646724753479   -0.0003901679343745133
-0.0252487336795257   -0.0012023793667734516   -0.0003443930567219589
-0.025115130190931215   -0.01383445369861626   -0.00042116639860792856
-0.017835892646483734   -0.013625868011878758   -0.0001641116566752286
-0.0252487336795257   -0.0012023793667734516   -0.0003443930567219589
-0.018005048691739495   -0.0011590944267178534   -0.00011569662627746218
-0.017924917337287568   -0.0013089293301009617   -0.0001399299956944387
-0.017835892646483734   -0.013625868011878758   -0.0001641116566752286
-0.0252487336795257   -0.0012023793667734516   -0.0003443930567219589
-0.017924917337287568   -0.0013089293301009617   -0.0001399299956944387
-0.025115130190931215   -0.01383445369861626   -0.00042116639860792856
-0.024963943262830777   -0.014039664292194363   -0.00048236822670528557
-0.02509281488372084   -0.0015211658226664728   -0.00035277072768330887
-0.03260548190573936   -0.01404696366679338   -0.0006377271515058712
-0.025043891308441795   -0.013941401525320243   -0.00045130818754993216
-0.02509281488372084   -0.0015211658226664728   -0.00035277072768330887
-0.0326287505769454   -0.0015099245475203428   -0.0005339234956247092
-0.03260548190573936   -0.01404696366679338   -0.0006377271515058712
-0.032673093228780335   -0.001405309930235625   -0.0005339354506710563
-0.025043891308441795   -0.013941401525320243   -0.00045130818754993216
-0.0326742725042867   -0.013951533431194176   -0.0006244961209755411
-0.032673093228780335   -0.001405309930235625   -0.0005339354506710563
-0.03260548190573936   -0.01404696366679338   -0.0006377271515058712
-0.025043891308441795   -0.013941401525320243   -0.00045130818754993216
-0.032673093228780335   -0.001405309930235625   -0.0005339354506710563
-0.025147892600892886   -0.0014248247251407817   -0.00034836589190876115
-0.02509281488372084   -0.0015211658226664728   -0.00035277072768330887
-0.025043891308441795   -0.013941401525320243   -0.00045130818754993216
-0.032673093228780335   -0.001405309930235625   -0.0005339354506710563
-0.02509281488372084   -0.0015211658226664728   -0.00035277072768330887
-0.03260548190573936   -0.01404696366679338   -0.0006377271515058712
-0.025043891308441795   -0.013941401525320243   -0.00045130818754993216
-0.025147892600892886   -0.0014248247251407817   -0.00034836589190876115
-0.0326742725042867   -0.013951533431194176   -0.0006244961209755411
-0.025115130190931215   -0.01383445369861626   -0.00042116639860792856
-0.025147892600892886   -0.0014248247251407817   -0.00034836589190876115
-0.032673093228780335   -0.001405309930235625   -0.0005339354506710563
-0.0326742725042867   -0.013951533431194176   -0.0006244961209755411
-0.03272179515380727   -0.0013009931701673594   -0.0005421001489699086
-0.025115130190931215   -0.01383445369861626   -0.00042116639860792856
-0.03273590273128893   -0.01384843513301525   -0.000609040938520849
-0.03272179515380727   -0.0013009931701673594   -0.0005421001489699086
-0.0326742725042867   -0.013951533431194176   -0.0006244961209755411
-0.025115130190931215   -0.01383445369861626   -0.00042116639860792856
-0.03272179515380727   -0.0013009931701673594   -0.0005421001489699086
-0.025205367690965406   -0.0013178800052982254   -0.00034548597665126646
-0.025147892600892886   -0.0014248247251407817   -0.00034836589190876115
-0.025115130190931215   -0.01383445369861626   -0.00042116639860792856
-0.03272179515380727   -0.0013009931701673594   -0.0005421001489699086
-0.025147892600892886   -0.0014248247251407817   -0.00034836589190876115
-0.0326742725042867   -0.013951533431194176   -0.0006244961209755411
-0.025115130190931215   -0.01383445369861626   -0.00042116639860792856
-0.025205367690965406   -0.0013178800052982254   -0.00034548597665126646
-0.03273590273128893   -0.01384843513301525   -0.000609040938520849
-0.02517962504067578   -0.013720646724753479   -0.0003901679343745133
-0.025205367690965406   -0.0013178800052982254   -0.00034548597665126646
-0.03272179515380727   -0.0013009931701673594   -0.0005421001489699086
-0.03273590273128893   -0.01384843513301525   -0.000609040938520849
-0.03275758109464473   -0.0011875577427914   -0.0005508270127887467
-0.02517962504067578   -0.013720646724753479   -0.0003901679343745133
-0.03278785672122418   -0.013739248534364113   -0.000594732997106011
-0.03275758109464473   -0.0011875577427914   -0.0005508270127887467
-0.03273590273128893   -0.01384843513301525   -0.000609040938520849
-0.02517962504067578   -0.013720646724753479   -0.0003901679343745133
-0.03275758109464473   -0.0011875577427914   -0.0005508270127887467
-0.0252487336795257   -0.0012023793667734516   -0.0003443930567219589
-0.025205367690965406   -0.0013178800052982254   -0.00034548597665126646
-0.02517962504067578   -0.013720646724753479   -0.0003901679343745133
-0.03275758109464473   -0.0011875577427914   -0.0005508270127887467
-0.025205367690965406   -0.0013178800052982254   -0.00034548597665126646
-0.03273590273128893   -0.01384843513301525   -0.000609040938520849
              </DataArray>   
          </PointData>  
       </Piece>  
   </UnstructuredGrid> 
</VTKFile> 
