<?xml version="1.0"?> 
<VTKFile type="UnstructuredGrid"> 
   <UnstructuredGrid> 
      <Piece NumberOfPoints="6000"  NumberOfCells="1500">  
          <Points>  
             <DataArray type="Float64" NumberOfComponents="3" format="ascii">   
-500.0   0.0   0.0
-450.0   0.0   0.0
-500.0   30.0   0.0
-500.0   0.0   16.666666666666668
-450.0   0.0   0.0
-450.0   30.0   0.0
-500.0   30.0   0.0
-450.0   30.0   16.666666666666668
-500.0   0.0   16.666666666666668
-500.0   30.0   16.666666666666668
-450.0   30.0   16.666666666666668
-500.0   30.0   0.0
-500.0   0.0   16.666666666666668
-450.0   30.0   16.666666666666668
-450.0   0.0   16.666666666666668
-450.0   0.0   0.0
-500.0   0.0   16.666666666666668
-450.0   30.0   16.666666666666668
-450.0   0.0   0.0
-500.0   30.0   0.0
-500.0   0.0   16.666666666666668
-450.0   0.0   16.666666666666668
-500.0   30.0   16.666666666666668
-500.0   0.0   33.333333333333336
-450.0   0.0   16.666666666666668
-450.0   30.0   16.666666666666668
-500.0   30.0   16.666666666666668
-450.0   30.0   33.333333333333336
-500.0   0.0   33.333333333333336
-500.0   30.0   33.333333333333336
-450.0   30.0   33.333333333333336
-500.0   30.0   16.666666666666668
-500.0   0.0   33.333333333333336
-450.0   30.0   33.333333333333336
-450.0   0.0   33.333333333333336
-450.0   0.0   16.666666666666668
-500.0   0.0   33.333333333333336
-450.0   30.0   33.333333333333336
-450.0   0.0   16.666666666666668
-500.0   30.0   16.666666666666668
-500.0   0.0   33.333333333333336
-450.0   0.0   33.333333333333336
-500.0   30.0   33.333333333333336
-500.0   0.0   50.0
-450.0   0.0   33.333333333333336
-450.0   30.0   33.333333333333336
-500.0   30.0   33.333333333333336
-450.0   30.0   50.0
-500.0   0.0   50.0
-500.0   30.0   50.0
-450.0   30.0   50.0
-500.0   30.0   33.333333333333336
-500.0   0.0   50.0
-450.0   30.0   50.0
-450.0   0.0   50.0
-450.0   0.0   33.333333333333336
-500.0   0.0   50.0
-450.0   30.0   50.0
-450.0   0.0   33.333333333333336
-500.0   30.0   33.333333333333336
-500.0   30.0   0.0
-450.0   30.0   0.0
-500.0   60.0   0.0
-500.0   30.0   16.666666666666668
-450.0   30.0   0.0
-450.0   60.0   0.0
-500.0   60.0   0.0
-450.0   60.0   16.666666666666668
-500.0   30.0   16.666666666666668
-500.0   60.0   16.666666666666668
-450.0   60.0   16.666666666666668
-500.0   60.0   0.0
-500.0   30.0   16.666666666666668
-450.0   60.0   16.666666666666668
-450.0   30.0   16.666666666666668
-450.0   30.0   0.0
-500.0   30.0   16.666666666666668
-450.0   60.0   16.666666666666668
-450.0   30.0   0.0
-500.0   60.0   0.0
-500.0   30.0   16.666666666666668
-450.0   30.0   16.666666666666668
-500.0   60.0   16.666666666666668
-500.0   30.0   33.333333333333336
-450.0   30.0   16.666666666666668
-450.0   60.0   16.666666666666668
-500.0   60.0   16.666666666666668
-450.0   60.0   33.333333333333336
-500.0   30.0   33.333333333333336
-500.0   60.0   33.333333333333336
-450.0   60.0   33.333333333333336
-500.0   60.0   16.666666666666668
-500.0   30.0   33.333333333333336
-450.0   60.0   33.333333333333336
-450.0   30.0   33.333333333333336
-450.0   30.0   16.666666666666668
-500.0   30.0   33.333333333333336
-450.0   60.0   33.333333333333336
-450.0   30.0   16.666666666666668
-500.0   60.0   16.666666666666668
-500.0   30.0   33.333333333333336
-450.0   30.0   33.333333333333336
-500.0   60.0   33.333333333333336
-500.0   30.0   50.0
-450.0   30.0   33.333333333333336
-450.0   60.0   33.333333333333336
-500.0   60.0   33.333333333333336
-450.0   60.0   50.0
-500.0   30.0   50.0
-500.0   60.0   50.0
-450.0   60.0   50.0
-500.0   60.0   33.333333333333336
-500.0   30.0   50.0
-450.0   60.0   50.0
-450.0   30.0   50.0
-450.0   30.0   33.333333333333336
-500.0   30.0   50.0
-450.0   60.0   50.0
-450.0   30.0   33.333333333333336
-500.0   60.0   33.333333333333336
-500.0   60.0   0.0
-450.0   60.0   0.0
-500.0   90.0   0.0
-500.0   60.0   16.666666666666668
-450.0   60.0   0.0
-450.0   90.0   0.0
-500.0   90.0   0.0
-450.0   90.0   16.666666666666668
-500.0   60.0   16.666666666666668
-500.0   90.0   16.666666666666668
-450.0   90.0   16.666666666666668
-500.0   90.0   0.0
-500.0   60.0   16.666666666666668
-450.0   90.0   16.666666666666668
-450.0   60.0   16.666666666666668
-450.0   60.0   0.0
-500.0   60.0   16.666666666666668
-450.0   90.0   16.666666666666668
-450.0   60.0   0.0
-500.0   90.0   0.0
-500.0   60.0   16.666666666666668
-450.0   60.0   16.666666666666668
-500.0   90.0   16.666666666666668
-500.0   60.0   33.333333333333336
-450.0   60.0   16.666666666666668
-450.0   90.0   16.666666666666668
-500.0   90.0   16.666666666666668
-450.0   90.0   33.333333333333336
-500.0   60.0   33.333333333333336
-500.0   90.0   33.333333333333336
-450.0   90.0   33.333333333333336
-500.0   90.0   16.666666666666668
-500.0   60.0   33.333333333333336
-450.0   90.0   33.333333333333336
-450.0   60.0   33.333333333333336
-450.0   60.0   16.666666666666668
-500.0   60.0   33.333333333333336
-450.0   90.0   33.333333333333336
-450.0   60.0   16.666666666666668
-500.0   90.0   16.666666666666668
-500.0   60.0   33.333333333333336
-450.0   60.0   33.333333333333336
-500.0   90.0   33.333333333333336
-500.0   60.0   50.0
-450.0   60.0   33.333333333333336
-450.0   90.0   33.333333333333336
-500.0   90.0   33.333333333333336
-450.0   90.0   50.0
-500.0   60.0   50.0
-500.0   90.0   50.0
-450.0   90.0   50.0
-500.0   90.0   33.333333333333336
-500.0   60.0   50.0
-450.0   90.0   50.0
-450.0   60.0   50.0
-450.0   60.0   33.333333333333336
-500.0   60.0   50.0
-450.0   90.0   50.0
-450.0   60.0   33.333333333333336
-500.0   90.0   33.333333333333336
-500.0   90.0   0.0
-450.0   90.0   0.0
-500.0   120.0   0.0
-500.0   90.0   16.666666666666668
-450.0   90.0   0.0
-450.0   120.0   0.0
-500.0   120.0   0.0
-450.0   120.0   16.666666666666668
-500.0   90.0   16.666666666666668
-500.0   120.0   16.666666666666668
-450.0   120.0   16.666666666666668
-500.0   120.0   0.0
-500.0   90.0   16.666666666666668
-450.0   120.0   16.666666666666668
-450.0   90.0   16.666666666666668
-450.0   90.0   0.0
-500.0   90.0   16.666666666666668
-450.0   120.0   16.666666666666668
-450.0   90.0   0.0
-500.0   120.0   0.0
-500.0   90.0   16.666666666666668
-450.0   90.0   16.666666666666668
-500.0   120.0   16.666666666666668
-500.0   90.0   33.333333333333336
-450.0   90.0   16.666666666666668
-450.0   120.0   16.666666666666668
-500.0   120.0   16.666666666666668
-450.0   120.0   33.333333333333336
-500.0   90.0   33.333333333333336
-500.0   120.0   33.333333333333336
-450.0   120.0   33.333333333333336
-500.0   120.0   16.666666666666668
-500.0   90.0   33.333333333333336
-450.0   120.0   33.333333333333336
-450.0   90.0   33.333333333333336
-450.0   90.0   16.666666666666668
-500.0   90.0   33.333333333333336
-450.0   120.0   33.333333333333336
-450.0   90.0   16.666666666666668
-500.0   120.0   16.666666666666668
-500.0   90.0   33.333333333333336
-450.0   90.0   33.333333333333336
-500.0   120.0   33.333333333333336
-500.0   90.0   50.0
-450.0   90.0   33.333333333333336
-450.0   120.0   33.333333333333336
-500.0   120.0   33.333333333333336
-450.0   120.0   50.0
-500.0   90.0   50.0
-500.0   120.0   50.0
-450.0   120.0   50.0
-500.0   120.0   33.333333333333336
-500.0   90.0   50.0
-450.0   120.0   50.0
-450.0   90.0   50.0
-450.0   90.0   33.333333333333336
-500.0   90.0   50.0
-450.0   120.0   50.0
-450.0   90.0   33.333333333333336
-500.0   120.0   33.333333333333336
-500.0   120.0   0.0
-450.0   120.0   0.0
-500.0   150.0   0.0
-500.0   120.0   16.666666666666668
-450.0   120.0   0.0
-450.0   150.0   0.0
-500.0   150.0   0.0
-450.0   150.0   16.666666666666668
-500.0   120.0   16.666666666666668
-500.0   150.0   16.666666666666668
-450.0   150.0   16.666666666666668
-500.0   150.0   0.0
-500.0   120.0   16.666666666666668
-450.0   150.0   16.666666666666668
-450.0   120.0   16.666666666666668
-450.0   120.0   0.0
-500.0   120.0   16.666666666666668
-450.0   150.0   16.666666666666668
-450.0   120.0   0.0
-500.0   150.0   0.0
-500.0   120.0   16.666666666666668
-450.0   120.0   16.666666666666668
-500.0   150.0   16.666666666666668
-500.0   120.0   33.333333333333336
-450.0   120.0   16.666666666666668
-450.0   150.0   16.666666666666668
-500.0   150.0   16.666666666666668
-450.0   150.0   33.333333333333336
-500.0   120.0   33.333333333333336
-500.0   150.0   33.333333333333336
-450.0   150.0   33.333333333333336
-500.0   150.0   16.666666666666668
-500.0   120.0   33.333333333333336
-450.0   150.0   33.333333333333336
-450.0   120.0   33.333333333333336
-450.0   120.0   16.666666666666668
-500.0   120.0   33.333333333333336
-450.0   150.0   33.333333333333336
-450.0   120.0   16.666666666666668
-500.0   150.0   16.666666666666668
-500.0   120.0   33.333333333333336
-450.0   120.0   33.333333333333336
-500.0   150.0   33.333333333333336
-500.0   120.0   50.0
-450.0   120.0   33.333333333333336
-450.0   150.0   33.333333333333336
-500.0   150.0   33.333333333333336
-450.0   150.0   50.0
-500.0   120.0   50.0
-500.0   150.0   50.0
-450.0   150.0   50.0
-500.0   150.0   33.333333333333336
-500.0   120.0   50.0
-450.0   150.0   50.0
-450.0   120.0   50.0
-450.0   120.0   33.333333333333336
-500.0   120.0   50.0
-450.0   150.0   50.0
-450.0   120.0   33.333333333333336
-500.0   150.0   33.333333333333336
-450.0   0.0   0.0
-400.0   0.0   0.0
-450.0   30.0   0.0
-450.0   0.0   16.666666666666668
-400.0   0.0   0.0
-400.0   30.0   0.0
-450.0   30.0   0.0
-400.0   30.0   16.666666666666668
-450.0   0.0   16.666666666666668
-450.0   30.0   16.666666666666668
-400.0   30.0   16.666666666666668
-450.0   30.0   0.0
-450.0   0.0   16.666666666666668
-400.0   30.0   16.666666666666668
-400.0   0.0   16.666666666666668
-400.0   0.0   0.0
-450.0   0.0   16.666666666666668
-400.0   30.0   16.666666666666668
-400.0   0.0   0.0
-450.0   30.0   0.0
-450.0   0.0   16.666666666666668
-400.0   0.0   16.666666666666668
-450.0   30.0   16.666666666666668
-450.0   0.0   33.333333333333336
-400.0   0.0   16.666666666666668
-400.0   30.0   16.666666666666668
-450.0   30.0   16.666666666666668
-400.0   30.0   33.333333333333336
-450.0   0.0   33.333333333333336
-450.0   30.0   33.333333333333336
-400.0   30.0   33.333333333333336
-450.0   30.0   16.666666666666668
-450.0   0.0   33.333333333333336
-400.0   30.0   33.333333333333336
-400.0   0.0   33.333333333333336
-400.0   0.0   16.666666666666668
-450.0   0.0   33.333333333333336
-400.0   30.0   33.333333333333336
-400.0   0.0   16.666666666666668
-450.0   30.0   16.666666666666668
-450.0   0.0   33.333333333333336
-400.0   0.0   33.333333333333336
-450.0   30.0   33.333333333333336
-450.0   0.0   50.0
-400.0   0.0   33.333333333333336
-400.0   30.0   33.333333333333336
-450.0   30.0   33.333333333333336
-400.0   30.0   50.0
-450.0   0.0   50.0
-450.0   30.0   50.0
-400.0   30.0   50.0
-450.0   30.0   33.333333333333336
-450.0   0.0   50.0
-400.0   30.0   50.0
-400.0   0.0   50.0
-400.0   0.0   33.333333333333336
-450.0   0.0   50.0
-400.0   30.0   50.0
-400.0   0.0   33.333333333333336
-450.0   30.0   33.333333333333336
-450.0   30.0   0.0
-400.0   30.0   0.0
-450.0   60.0   0.0
-450.0   30.0   16.666666666666668
-400.0   30.0   0.0
-400.0   60.0   0.0
-450.0   60.0   0.0
-400.0   60.0   16.666666666666668
-450.0   30.0   16.666666666666668
-450.0   60.0   16.666666666666668
-400.0   60.0   16.666666666666668
-450.0   60.0   0.0
-450.0   30.0   16.666666666666668
-400.0   60.0   16.666666666666668
-400.0   30.0   16.666666666666668
-400.0   30.0   0.0
-450.0   30.0   16.666666666666668
-400.0   60.0   16.666666666666668
-400.0   30.0   0.0
-450.0   60.0   0.0
-450.0   30.0   16.666666666666668
-400.0   30.0   16.666666666666668
-450.0   60.0   16.666666666666668
-450.0   30.0   33.333333333333336
-400.0   30.0   16.666666666666668
-400.0   60.0   16.666666666666668
-450.0   60.0   16.666666666666668
-400.0   60.0   33.333333333333336
-450.0   30.0   33.333333333333336
-450.0   60.0   33.333333333333336
-400.0   60.0   33.333333333333336
-450.0   60.0   16.666666666666668
-450.0   30.0   33.333333333333336
-400.0   60.0   33.333333333333336
-400.0   30.0   33.333333333333336
-400.0   30.0   16.666666666666668
-450.0   30.0   33.333333333333336
-400.0   60.0   33.333333333333336
-400.0   30.0   16.666666666666668
-450.0   60.0   16.666666666666668
-450.0   30.0   33.333333333333336
-400.0   30.0   33.333333333333336
-450.0   60.0   33.333333333333336
-450.0   30.0   50.0
-400.0   30.0   33.333333333333336
-400.0   60.0   33.333333333333336
-450.0   60.0   33.333333333333336
-400.0   60.0   50.0
-450.0   30.0   50.0
-450.0   60.0   50.0
-400.0   60.0   50.0
-450.0   60.0   33.333333333333336
-450.0   30.0   50.0
-400.0   60.0   50.0
-400.0   30.0   50.0
-400.0   30.0   33.333333333333336
-450.0   30.0   50.0
-400.0   60.0   50.0
-400.0   30.0   33.333333333333336
-450.0   60.0   33.333333333333336
-450.0   60.0   0.0
-400.0   60.0   0.0
-450.0   90.0   0.0
-450.0   60.0   16.666666666666668
-400.0   60.0   0.0
-400.0   90.0   0.0
-450.0   90.0   0.0
-400.0   90.0   16.666666666666668
-450.0   60.0   16.666666666666668
-450.0   90.0   16.666666666666668
-400.0   90.0   16.666666666666668
-450.0   90.0   0.0
-450.0   60.0   16.666666666666668
-400.0   90.0   16.666666666666668
-400.0   60.0   16.666666666666668
-400.0   60.0   0.0
-450.0   60.0   16.666666666666668
-400.0   90.0   16.666666666666668
-400.0   60.0   0.0
-450.0   90.0   0.0
-450.0   60.0   16.666666666666668
-400.0   60.0   16.666666666666668
-450.0   90.0   16.666666666666668
-450.0   60.0   33.333333333333336
-400.0   60.0   16.666666666666668
-400.0   90.0   16.666666666666668
-450.0   90.0   16.666666666666668
-400.0   90.0   33.333333333333336
-450.0   60.0   33.333333333333336
-450.0   90.0   33.333333333333336
-400.0   90.0   33.333333333333336
-450.0   90.0   16.666666666666668
-450.0   60.0   33.333333333333336
-400.0   90.0   33.333333333333336
-400.0   60.0   33.333333333333336
-400.0   60.0   16.666666666666668
-450.0   60.0   33.333333333333336
-400.0   90.0   33.333333333333336
-400.0   60.0   16.666666666666668
-450.0   90.0   16.666666666666668
-450.0   60.0   33.333333333333336
-400.0   60.0   33.333333333333336
-450.0   90.0   33.333333333333336
-450.0   60.0   50.0
-400.0   60.0   33.333333333333336
-400.0   90.0   33.333333333333336
-450.0   90.0   33.333333333333336
-400.0   90.0   50.0
-450.0   60.0   50.0
-450.0   90.0   50.0
-400.0   90.0   50.0
-450.0   90.0   33.333333333333336
-450.0   60.0   50.0
-400.0   90.0   50.0
-400.0   60.0   50.0
-400.0   60.0   33.333333333333336
-450.0   60.0   50.0
-400.0   90.0   50.0
-400.0   60.0   33.333333333333336
-450.0   90.0   33.333333333333336
-450.0   90.0   0.0
-400.0   90.0   0.0
-450.0   120.0   0.0
-450.0   90.0   16.666666666666668
-400.0   90.0   0.0
-400.0   120.0   0.0
-450.0   120.0   0.0
-400.0   120.0   16.666666666666668
-450.0   90.0   16.666666666666668
-450.0   120.0   16.666666666666668
-400.0   120.0   16.666666666666668
-450.0   120.0   0.0
-450.0   90.0   16.666666666666668
-400.0   120.0   16.666666666666668
-400.0   90.0   16.666666666666668
-400.0   90.0   0.0
-450.0   90.0   16.666666666666668
-400.0   120.0   16.666666666666668
-400.0   90.0   0.0
-450.0   120.0   0.0
-450.0   90.0   16.666666666666668
-400.0   90.0   16.666666666666668
-450.0   120.0   16.666666666666668
-450.0   90.0   33.333333333333336
-400.0   90.0   16.666666666666668
-400.0   120.0   16.666666666666668
-450.0   120.0   16.666666666666668
-400.0   120.0   33.333333333333336
-450.0   90.0   33.333333333333336
-450.0   120.0   33.333333333333336
-400.0   120.0   33.333333333333336
-450.0   120.0   16.666666666666668
-450.0   90.0   33.333333333333336
-400.0   120.0   33.333333333333336
-400.0   90.0   33.333333333333336
-400.0   90.0   16.666666666666668
-450.0   90.0   33.333333333333336
-400.0   120.0   33.333333333333336
-400.0   90.0   16.666666666666668
-450.0   120.0   16.666666666666668
-450.0   90.0   33.333333333333336
-400.0   90.0   33.333333333333336
-450.0   120.0   33.333333333333336
-450.0   90.0   50.0
-400.0   90.0   33.333333333333336
-400.0   120.0   33.333333333333336
-450.0   120.0   33.333333333333336
-400.0   120.0   50.0
-450.0   90.0   50.0
-450.0   120.0   50.0
-400.0   120.0   50.0
-450.0   120.0   33.333333333333336
-450.0   90.0   50.0
-400.0   120.0   50.0
-400.0   90.0   50.0
-400.0   90.0   33.333333333333336
-450.0   90.0   50.0
-400.0   120.0   50.0
-400.0   90.0   33.333333333333336
-450.0   120.0   33.333333333333336
-450.0   120.0   0.0
-400.0   120.0   0.0
-450.0   150.0   0.0
-450.0   120.0   16.666666666666668
-400.0   120.0   0.0
-400.0   150.0   0.0
-450.0   150.0   0.0
-400.0   150.0   16.666666666666668
-450.0   120.0   16.666666666666668
-450.0   150.0   16.666666666666668
-400.0   150.0   16.666666666666668
-450.0   150.0   0.0
-450.0   120.0   16.666666666666668
-400.0   150.0   16.666666666666668
-400.0   120.0   16.666666666666668
-400.0   120.0   0.0
-450.0   120.0   16.666666666666668
-400.0   150.0   16.666666666666668
-400.0   120.0   0.0
-450.0   150.0   0.0
-450.0   120.0   16.666666666666668
-400.0   120.0   16.666666666666668
-450.0   150.0   16.666666666666668
-450.0   120.0   33.333333333333336
-400.0   120.0   16.666666666666668
-400.0   150.0   16.666666666666668
-450.0   150.0   16.666666666666668
-400.0   150.0   33.333333333333336
-450.0   120.0   33.333333333333336
-450.0   150.0   33.333333333333336
-400.0   150.0   33.333333333333336
-450.0   150.0   16.666666666666668
-450.0   120.0   33.333333333333336
-400.0   150.0   33.333333333333336
-400.0   120.0   33.333333333333336
-400.0   120.0   16.666666666666668
-450.0   120.0   33.333333333333336
-400.0   150.0   33.333333333333336
-400.0   120.0   16.666666666666668
-450.0   150.0   16.666666666666668
-450.0   120.0   33.333333333333336
-400.0   120.0   33.333333333333336
-450.0   150.0   33.333333333333336
-450.0   120.0   50.0
-400.0   120.0   33.333333333333336
-400.0   150.0   33.333333333333336
-450.0   150.0   33.333333333333336
-400.0   150.0   50.0
-450.0   120.0   50.0
-450.0   150.0   50.0
-400.0   150.0   50.0
-450.0   150.0   33.333333333333336
-450.0   120.0   50.0
-400.0   150.0   50.0
-400.0   120.0   50.0
-400.0   120.0   33.333333333333336
-450.0   120.0   50.0
-400.0   150.0   50.0
-400.0   120.0   33.333333333333336
-450.0   150.0   33.333333333333336
-400.0   0.0   0.0
-350.0   0.0   0.0
-400.0   30.0   0.0
-400.0   0.0   16.666666666666668
-350.0   0.0   0.0
-350.0   30.0   0.0
-400.0   30.0   0.0
-350.0   30.0   16.666666666666668
-400.0   0.0   16.666666666666668
-400.0   30.0   16.666666666666668
-350.0   30.0   16.666666666666668
-400.0   30.0   0.0
-400.0   0.0   16.666666666666668
-350.0   30.0   16.666666666666668
-350.0   0.0   16.666666666666668
-350.0   0.0   0.0
-400.0   0.0   16.666666666666668
-350.0   30.0   16.666666666666668
-350.0   0.0   0.0
-400.0   30.0   0.0
-400.0   0.0   16.666666666666668
-350.0   0.0   16.666666666666668
-400.0   30.0   16.666666666666668
-400.0   0.0   33.333333333333336
-350.0   0.0   16.666666666666668
-350.0   30.0   16.666666666666668
-400.0   30.0   16.666666666666668
-350.0   30.0   33.333333333333336
-400.0   0.0   33.333333333333336
-400.0   30.0   33.333333333333336
-350.0   30.0   33.333333333333336
-400.0   30.0   16.666666666666668
-400.0   0.0   33.333333333333336
-350.0   30.0   33.333333333333336
-350.0   0.0   33.333333333333336
-350.0   0.0   16.666666666666668
-400.0   0.0   33.333333333333336
-350.0   30.0   33.333333333333336
-350.0   0.0   16.666666666666668
-400.0   30.0   16.666666666666668
-400.0   0.0   33.333333333333336
-350.0   0.0   33.333333333333336
-400.0   30.0   33.333333333333336
-400.0   0.0   50.0
-350.0   0.0   33.333333333333336
-350.0   30.0   33.333333333333336
-400.0   30.0   33.333333333333336
-350.0   30.0   50.0
-400.0   0.0   50.0
-400.0   30.0   50.0
-350.0   30.0   50.0
-400.0   30.0   33.333333333333336
-400.0   0.0   50.0
-350.0   30.0   50.0
-350.0   0.0   50.0
-350.0   0.0   33.333333333333336
-400.0   0.0   50.0
-350.0   30.0   50.0
-350.0   0.0   33.333333333333336
-400.0   30.0   33.333333333333336
-400.0   30.0   0.0
-350.0   30.0   0.0
-400.0   60.0   0.0
-400.0   30.0   16.666666666666668
-350.0   30.0   0.0
-350.0   60.0   0.0
-400.0   60.0   0.0
-350.0   60.0   16.666666666666668
-400.0   30.0   16.666666666666668
-400.0   60.0   16.666666666666668
-350.0   60.0   16.666666666666668
-400.0   60.0   0.0
-400.0   30.0   16.666666666666668
-350.0   60.0   16.666666666666668
-350.0   30.0   16.666666666666668
-350.0   30.0   0.0
-400.0   30.0   16.666666666666668
-350.0   60.0   16.666666666666668
-350.0   30.0   0.0
-400.0   60.0   0.0
-400.0   30.0   16.666666666666668
-350.0   30.0   16.666666666666668
-400.0   60.0   16.666666666666668
-400.0   30.0   33.333333333333336
-350.0   30.0   16.666666666666668
-350.0   60.0   16.666666666666668
-400.0   60.0   16.666666666666668
-350.0   60.0   33.333333333333336
-400.0   30.0   33.333333333333336
-400.0   60.0   33.333333333333336
-350.0   60.0   33.333333333333336
-400.0   60.0   16.666666666666668
-400.0   30.0   33.333333333333336
-350.0   60.0   33.333333333333336
-350.0   30.0   33.333333333333336
-350.0   30.0   16.666666666666668
-400.0   30.0   33.333333333333336
-350.0   60.0   33.333333333333336
-350.0   30.0   16.666666666666668
-400.0   60.0   16.666666666666668
-400.0   30.0   33.333333333333336
-350.0   30.0   33.333333333333336
-400.0   60.0   33.333333333333336
-400.0   30.0   50.0
-350.0   30.0   33.333333333333336
-350.0   60.0   33.333333333333336
-400.0   60.0   33.333333333333336
-350.0   60.0   50.0
-400.0   30.0   50.0
-400.0   60.0   50.0
-350.0   60.0   50.0
-400.0   60.0   33.333333333333336
-400.0   30.0   50.0
-350.0   60.0   50.0
-350.0   30.0   50.0
-350.0   30.0   33.333333333333336
-400.0   30.0   50.0
-350.0   60.0   50.0
-350.0   30.0   33.333333333333336
-400.0   60.0   33.333333333333336
-400.0   60.0   0.0
-350.0   60.0   0.0
-400.0   90.0   0.0
-400.0   60.0   16.666666666666668
-350.0   60.0   0.0
-350.0   90.0   0.0
-400.0   90.0   0.0
-350.0   90.0   16.666666666666668
-400.0   60.0   16.666666666666668
-400.0   90.0   16.666666666666668
-350.0   90.0   16.666666666666668
-400.0   90.0   0.0
-400.0   60.0   16.666666666666668
-350.0   90.0   16.666666666666668
-350.0   60.0   16.666666666666668
-350.0   60.0   0.0
-400.0   60.0   16.666666666666668
-350.0   90.0   16.666666666666668
-350.0   60.0   0.0
-400.0   90.0   0.0
-400.0   60.0   16.666666666666668
-350.0   60.0   16.666666666666668
-400.0   90.0   16.666666666666668
-400.0   60.0   33.333333333333336
-350.0   60.0   16.666666666666668
-350.0   90.0   16.666666666666668
-400.0   90.0   16.666666666666668
-350.0   90.0   33.333333333333336
-400.0   60.0   33.333333333333336
-400.0   90.0   33.333333333333336
-350.0   90.0   33.333333333333336
-400.0   90.0   16.666666666666668
-400.0   60.0   33.333333333333336
-350.0   90.0   33.333333333333336
-350.0   60.0   33.333333333333336
-350.0   60.0   16.666666666666668
-400.0   60.0   33.333333333333336
-350.0   90.0   33.333333333333336
-350.0   60.0   16.666666666666668
-400.0   90.0   16.666666666666668
-400.0   60.0   33.333333333333336
-350.0   60.0   33.333333333333336
-400.0   90.0   33.333333333333336
-400.0   60.0   50.0
-350.0   60.0   33.333333333333336
-350.0   90.0   33.333333333333336
-400.0   90.0   33.333333333333336
-350.0   90.0   50.0
-400.0   60.0   50.0
-400.0   90.0   50.0
-350.0   90.0   50.0
-400.0   90.0   33.333333333333336
-400.0   60.0   50.0
-350.0   90.0   50.0
-350.0   60.0   50.0
-350.0   60.0   33.333333333333336
-400.0   60.0   50.0
-350.0   90.0   50.0
-350.0   60.0   33.333333333333336
-400.0   90.0   33.333333333333336
-400.0   90.0   0.0
-350.0   90.0   0.0
-400.0   120.0   0.0
-400.0   90.0   16.666666666666668
-350.0   90.0   0.0
-350.0   120.0   0.0
-400.0   120.0   0.0
-350.0   120.0   16.666666666666668
-400.0   90.0   16.666666666666668
-400.0   120.0   16.666666666666668
-350.0   120.0   16.666666666666668
-400.0   120.0   0.0
-400.0   90.0   16.666666666666668
-350.0   120.0   16.666666666666668
-350.0   90.0   16.666666666666668
-350.0   90.0   0.0
-400.0   90.0   16.666666666666668
-350.0   120.0   16.666666666666668
-350.0   90.0   0.0
-400.0   120.0   0.0
-400.0   90.0   16.666666666666668
-350.0   90.0   16.666666666666668
-400.0   120.0   16.666666666666668
-400.0   90.0   33.333333333333336
-350.0   90.0   16.666666666666668
-350.0   120.0   16.666666666666668
-400.0   120.0   16.666666666666668
-350.0   120.0   33.333333333333336
-400.0   90.0   33.333333333333336
-400.0   120.0   33.333333333333336
-350.0   120.0   33.333333333333336
-400.0   120.0   16.666666666666668
-400.0   90.0   33.333333333333336
-350.0   120.0   33.333333333333336
-350.0   90.0   33.333333333333336
-350.0   90.0   16.666666666666668
-400.0   90.0   33.333333333333336
-350.0   120.0   33.333333333333336
-350.0   90.0   16.666666666666668
-400.0   120.0   16.666666666666668
-400.0   90.0   33.333333333333336
-350.0   90.0   33.333333333333336
-400.0   120.0   33.333333333333336
-400.0   90.0   50.0
-350.0   90.0   33.333333333333336
-350.0   120.0   33.333333333333336
-400.0   120.0   33.333333333333336
-350.0   120.0   50.0
-400.0   90.0   50.0
-400.0   120.0   50.0
-350.0   120.0   50.0
-400.0   120.0   33.333333333333336
-400.0   90.0   50.0
-350.0   120.0   50.0
-350.0   90.0   50.0
-350.0   90.0   33.333333333333336
-400.0   90.0   50.0
-350.0   120.0   50.0
-350.0   90.0   33.333333333333336
-400.0   120.0   33.333333333333336
-400.0   120.0   0.0
-350.0   120.0   0.0
-400.0   150.0   0.0
-400.0   120.0   16.666666666666668
-350.0   120.0   0.0
-350.0   150.0   0.0
-400.0   150.0   0.0
-350.0   150.0   16.666666666666668
-400.0   120.0   16.666666666666668
-400.0   150.0   16.666666666666668
-350.0   150.0   16.666666666666668
-400.0   150.0   0.0
-400.0   120.0   16.666666666666668
-350.0   150.0   16.666666666666668
-350.0   120.0   16.666666666666668
-350.0   120.0   0.0
-400.0   120.0   16.666666666666668
-350.0   150.0   16.666666666666668
-350.0   120.0   0.0
-400.0   150.0   0.0
-400.0   120.0   16.666666666666668
-350.0   120.0   16.666666666666668
-400.0   150.0   16.666666666666668
-400.0   120.0   33.333333333333336
-350.0   120.0   16.666666666666668
-350.0   150.0   16.666666666666668
-400.0   150.0   16.666666666666668
-350.0   150.0   33.333333333333336
-400.0   120.0   33.333333333333336
-400.0   150.0   33.333333333333336
-350.0   150.0   33.333333333333336
-400.0   150.0   16.666666666666668
-400.0   120.0   33.333333333333336
-350.0   150.0   33.333333333333336
-350.0   120.0   33.333333333333336
-350.0   120.0   16.666666666666668
-400.0   120.0   33.333333333333336
-350.0   150.0   33.333333333333336
-350.0   120.0   16.666666666666668
-400.0   150.0   16.666666666666668
-400.0   120.0   33.333333333333336
-350.0   120.0   33.333333333333336
-400.0   150.0   33.333333333333336
-400.0   120.0   50.0
-350.0   120.0   33.333333333333336
-350.0   150.0   33.333333333333336
-400.0   150.0   33.333333333333336
-350.0   150.0   50.0
-400.0   120.0   50.0
-400.0   150.0   50.0
-350.0   150.0   50.0
-400.0   150.0   33.333333333333336
-400.0   120.0   50.0
-350.0   150.0   50.0
-350.0   120.0   50.0
-350.0   120.0   33.333333333333336
-400.0   120.0   50.0
-350.0   150.0   50.0
-350.0   120.0   33.333333333333336
-400.0   150.0   33.333333333333336
-350.0   0.0   0.0
-300.0   0.0   0.0
-350.0   30.0   0.0
-350.0   0.0   16.666666666666668
-300.0   0.0   0.0
-300.0   30.0   0.0
-350.0   30.0   0.0
-300.0   30.0   16.666666666666668
-350.0   0.0   16.666666666666668
-350.0   30.0   16.666666666666668
-300.0   30.0   16.666666666666668
-350.0   30.0   0.0
-350.0   0.0   16.666666666666668
-300.0   30.0   16.666666666666668
-300.0   0.0   16.666666666666668
-300.0   0.0   0.0
-350.0   0.0   16.666666666666668
-300.0   30.0   16.666666666666668
-300.0   0.0   0.0
-350.0   30.0   0.0
-350.0   0.0   16.666666666666668
-300.0   0.0   16.666666666666668
-350.0   30.0   16.666666666666668
-350.0   0.0   33.333333333333336
-300.0   0.0   16.666666666666668
-300.0   30.0   16.666666666666668
-350.0   30.0   16.666666666666668
-300.0   30.0   33.333333333333336
-350.0   0.0   33.333333333333336
-350.0   30.0   33.333333333333336
-300.0   30.0   33.333333333333336
-350.0   30.0   16.666666666666668
-350.0   0.0   33.333333333333336
-300.0   30.0   33.333333333333336
-300.0   0.0   33.333333333333336
-300.0   0.0   16.666666666666668
-350.0   0.0   33.333333333333336
-300.0   30.0   33.333333333333336
-300.0   0.0   16.666666666666668
-350.0   30.0   16.666666666666668
-350.0   0.0   33.333333333333336
-300.0   0.0   33.333333333333336
-350.0   30.0   33.333333333333336
-350.0   0.0   50.0
-300.0   0.0   33.333333333333336
-300.0   30.0   33.333333333333336
-350.0   30.0   33.333333333333336
-300.0   30.0   50.0
-350.0   0.0   50.0
-350.0   30.0   50.0
-300.0   30.0   50.0
-350.0   30.0   33.333333333333336
-350.0   0.0   50.0
-300.0   30.0   50.0
-300.0   0.0   50.0
-300.0   0.0   33.333333333333336
-350.0   0.0   50.0
-300.0   30.0   50.0
-300.0   0.0   33.333333333333336
-350.0   30.0   33.333333333333336
-350.0   30.0   0.0
-300.0   30.0   0.0
-350.0   60.0   0.0
-350.0   30.0   16.666666666666668
-300.0   30.0   0.0
-300.0   60.0   0.0
-350.0   60.0   0.0
-300.0   60.0   16.666666666666668
-350.0   30.0   16.666666666666668
-350.0   60.0   16.666666666666668
-300.0   60.0   16.666666666666668
-350.0   60.0   0.0
-350.0   30.0   16.666666666666668
-300.0   60.0   16.666666666666668
-300.0   30.0   16.666666666666668
-300.0   30.0   0.0
-350.0   30.0   16.666666666666668
-300.0   60.0   16.666666666666668
-300.0   30.0   0.0
-350.0   60.0   0.0
-350.0   30.0   16.666666666666668
-300.0   30.0   16.666666666666668
-350.0   60.0   16.666666666666668
-350.0   30.0   33.333333333333336
-300.0   30.0   16.666666666666668
-300.0   60.0   16.666666666666668
-350.0   60.0   16.666666666666668
-300.0   60.0   33.333333333333336
-350.0   30.0   33.333333333333336
-350.0   60.0   33.333333333333336
-300.0   60.0   33.333333333333336
-350.0   60.0   16.666666666666668
-350.0   30.0   33.333333333333336
-300.0   60.0   33.333333333333336
-300.0   30.0   33.333333333333336
-300.0   30.0   16.666666666666668
-350.0   30.0   33.333333333333336
-300.0   60.0   33.333333333333336
-300.0   30.0   16.666666666666668
-350.0   60.0   16.666666666666668
-350.0   30.0   33.333333333333336
-300.0   30.0   33.333333333333336
-350.0   60.0   33.333333333333336
-350.0   30.0   50.0
-300.0   30.0   33.333333333333336
-300.0   60.0   33.333333333333336
-350.0   60.0   33.333333333333336
-300.0   60.0   50.0
-350.0   30.0   50.0
-350.0   60.0   50.0
-300.0   60.0   50.0
-350.0   60.0   33.333333333333336
-350.0   30.0   50.0
-300.0   60.0   50.0
-300.0   30.0   50.0
-300.0   30.0   33.333333333333336
-350.0   30.0   50.0
-300.0   60.0   50.0
-300.0   30.0   33.333333333333336
-350.0   60.0   33.333333333333336
-350.0   60.0   0.0
-300.0   60.0   0.0
-350.0   90.0   0.0
-350.0   60.0   16.666666666666668
-300.0   60.0   0.0
-300.0   90.0   0.0
-350.0   90.0   0.0
-300.0   90.0   16.666666666666668
-350.0   60.0   16.666666666666668
-350.0   90.0   16.666666666666668
-300.0   90.0   16.666666666666668
-350.0   90.0   0.0
-350.0   60.0   16.666666666666668
-300.0   90.0   16.666666666666668
-300.0   60.0   16.666666666666668
-300.0   60.0   0.0
-350.0   60.0   16.666666666666668
-300.0   90.0   16.666666666666668
-300.0   60.0   0.0
-350.0   90.0   0.0
-350.0   60.0   16.666666666666668
-300.0   60.0   16.666666666666668
-350.0   90.0   16.666666666666668
-350.0   60.0   33.333333333333336
-300.0   60.0   16.666666666666668
-300.0   90.0   16.666666666666668
-350.0   90.0   16.666666666666668
-300.0   90.0   33.333333333333336
-350.0   60.0   33.333333333333336
-350.0   90.0   33.333333333333336
-300.0   90.0   33.333333333333336
-350.0   90.0   16.666666666666668
-350.0   60.0   33.333333333333336
-300.0   90.0   33.333333333333336
-300.0   60.0   33.333333333333336
-300.0   60.0   16.666666666666668
-350.0   60.0   33.333333333333336
-300.0   90.0   33.333333333333336
-300.0   60.0   16.666666666666668
-350.0   90.0   16.666666666666668
-350.0   60.0   33.333333333333336
-300.0   60.0   33.333333333333336
-350.0   90.0   33.333333333333336
-350.0   60.0   50.0
-300.0   60.0   33.333333333333336
-300.0   90.0   33.333333333333336
-350.0   90.0   33.333333333333336
-300.0   90.0   50.0
-350.0   60.0   50.0
-350.0   90.0   50.0
-300.0   90.0   50.0
-350.0   90.0   33.333333333333336
-350.0   60.0   50.0
-300.0   90.0   50.0
-300.0   60.0   50.0
-300.0   60.0   33.333333333333336
-350.0   60.0   50.0
-300.0   90.0   50.0
-300.0   60.0   33.333333333333336
-350.0   90.0   33.333333333333336
-350.0   90.0   0.0
-300.0   90.0   0.0
-350.0   120.0   0.0
-350.0   90.0   16.666666666666668
-300.0   90.0   0.0
-300.0   120.0   0.0
-350.0   120.0   0.0
-300.0   120.0   16.666666666666668
-350.0   90.0   16.666666666666668
-350.0   120.0   16.666666666666668
-300.0   120.0   16.666666666666668
-350.0   120.0   0.0
-350.0   90.0   16.666666666666668
-300.0   120.0   16.666666666666668
-300.0   90.0   16.666666666666668
-300.0   90.0   0.0
-350.0   90.0   16.666666666666668
-300.0   120.0   16.666666666666668
-300.0   90.0   0.0
-350.0   120.0   0.0
-350.0   90.0   16.666666666666668
-300.0   90.0   16.666666666666668
-350.0   120.0   16.666666666666668
-350.0   90.0   33.333333333333336
-300.0   90.0   16.666666666666668
-300.0   120.0   16.666666666666668
-350.0   120.0   16.666666666666668
-300.0   120.0   33.333333333333336
-350.0   90.0   33.333333333333336
-350.0   120.0   33.333333333333336
-300.0   120.0   33.333333333333336
-350.0   120.0   16.666666666666668
-350.0   90.0   33.333333333333336
-300.0   120.0   33.333333333333336
-300.0   90.0   33.333333333333336
-300.0   90.0   16.666666666666668
-350.0   90.0   33.333333333333336
-300.0   120.0   33.333333333333336
-300.0   90.0   16.666666666666668
-350.0   120.0   16.666666666666668
-350.0   90.0   33.333333333333336
-300.0   90.0   33.333333333333336
-350.0   120.0   33.333333333333336
-350.0   90.0   50.0
-300.0   90.0   33.333333333333336
-300.0   120.0   33.333333333333336
-350.0   120.0   33.333333333333336
-300.0   120.0   50.0
-350.0   90.0   50.0
-350.0   120.0   50.0
-300.0   120.0   50.0
-350.0   120.0   33.333333333333336
-350.0   90.0   50.0
-300.0   120.0   50.0
-300.0   90.0   50.0
-300.0   90.0   33.333333333333336
-350.0   90.0   50.0
-300.0   120.0   50.0
-300.0   90.0   33.333333333333336
-350.0   120.0   33.333333333333336
-350.0   120.0   0.0
-300.0   120.0   0.0
-350.0   150.0   0.0
-350.0   120.0   16.666666666666668
-300.0   120.0   0.0
-300.0   150.0   0.0
-350.0   150.0   0.0
-300.0   150.0   16.666666666666668
-350.0   120.0   16.666666666666668
-350.0   150.0   16.666666666666668
-300.0   150.0   16.666666666666668
-350.0   150.0   0.0
-350.0   120.0   16.666666666666668
-300.0   150.0   16.666666666666668
-300.0   120.0   16.666666666666668
-300.0   120.0   0.0
-350.0   120.0   16.666666666666668
-300.0   150.0   16.666666666666668
-300.0   120.0   0.0
-350.0   150.0   0.0
-350.0   120.0   16.666666666666668
-300.0   120.0   16.666666666666668
-350.0   150.0   16.666666666666668
-350.0   120.0   33.333333333333336
-300.0   120.0   16.666666666666668
-300.0   150.0   16.666666666666668
-350.0   150.0   16.666666666666668
-300.0   150.0   33.333333333333336
-350.0   120.0   33.333333333333336
-350.0   150.0   33.333333333333336
-300.0   150.0   33.333333333333336
-350.0   150.0   16.666666666666668
-350.0   120.0   33.333333333333336
-300.0   150.0   33.333333333333336
-300.0   120.0   33.333333333333336
-300.0   120.0   16.666666666666668
-350.0   120.0   33.333333333333336
-300.0   150.0   33.333333333333336
-300.0   120.0   16.666666666666668
-350.0   150.0   16.666666666666668
-350.0   120.0   33.333333333333336
-300.0   120.0   33.333333333333336
-350.0   150.0   33.333333333333336
-350.0   120.0   50.0
-300.0   120.0   33.333333333333336
-300.0   150.0   33.333333333333336
-350.0   150.0   33.333333333333336
-300.0   150.0   50.0
-350.0   120.0   50.0
-350.0   150.0   50.0
-300.0   150.0   50.0
-350.0   150.0   33.333333333333336
-350.0   120.0   50.0
-300.0   150.0   50.0
-300.0   120.0   50.0
-300.0   120.0   33.333333333333336
-350.0   120.0   50.0
-300.0   150.0   50.0
-300.0   120.0   33.333333333333336
-350.0   150.0   33.333333333333336
-300.0   0.0   0.0
-250.0   0.0   0.0
-300.0   30.0   0.0
-300.0   0.0   16.666666666666668
-250.0   0.0   0.0
-250.0   30.0   0.0
-300.0   30.0   0.0
-250.0   30.0   16.666666666666668
-300.0   0.0   16.666666666666668
-300.0   30.0   16.666666666666668
-250.0   30.0   16.666666666666668
-300.0   30.0   0.0
-300.0   0.0   16.666666666666668
-250.0   30.0   16.666666666666668
-250.0   0.0   16.666666666666668
-250.0   0.0   0.0
-300.0   0.0   16.666666666666668
-250.0   30.0   16.666666666666668
-250.0   0.0   0.0
-300.0   30.0   0.0
-300.0   0.0   16.666666666666668
-250.0   0.0   16.666666666666668
-300.0   30.0   16.666666666666668
-300.0   0.0   33.333333333333336
-250.0   0.0   16.666666666666668
-250.0   30.0   16.666666666666668
-300.0   30.0   16.666666666666668
-250.0   30.0   33.333333333333336
-300.0   0.0   33.333333333333336
-300.0   30.0   33.333333333333336
-250.0   30.0   33.333333333333336
-300.0   30.0   16.666666666666668
-300.0   0.0   33.333333333333336
-250.0   30.0   33.333333333333336
-250.0   0.0   33.333333333333336
-250.0   0.0   16.666666666666668
-300.0   0.0   33.333333333333336
-250.0   30.0   33.333333333333336
-250.0   0.0   16.666666666666668
-300.0   30.0   16.666666666666668
-300.0   0.0   33.333333333333336
-250.0   0.0   33.333333333333336
-300.0   30.0   33.333333333333336
-300.0   0.0   50.0
-250.0   0.0   33.333333333333336
-250.0   30.0   33.333333333333336
-300.0   30.0   33.333333333333336
-250.0   30.0   50.0
-300.0   0.0   50.0
-300.0   30.0   50.0
-250.0   30.0   50.0
-300.0   30.0   33.333333333333336
-300.0   0.0   50.0
-250.0   30.0   50.0
-250.0   0.0   50.0
-250.0   0.0   33.333333333333336
-300.0   0.0   50.0
-250.0   30.0   50.0
-250.0   0.0   33.333333333333336
-300.0   30.0   33.333333333333336
-300.0   30.0   0.0
-250.0   30.0   0.0
-300.0   60.0   0.0
-300.0   30.0   16.666666666666668
-250.0   30.0   0.0
-250.0   60.0   0.0
-300.0   60.0   0.0
-250.0   60.0   16.666666666666668
-300.0   30.0   16.666666666666668
-300.0   60.0   16.666666666666668
-250.0   60.0   16.666666666666668
-300.0   60.0   0.0
-300.0   30.0   16.666666666666668
-250.0   60.0   16.666666666666668
-250.0   30.0   16.666666666666668
-250.0   30.0   0.0
-300.0   30.0   16.666666666666668
-250.0   60.0   16.666666666666668
-250.0   30.0   0.0
-300.0   60.0   0.0
-300.0   30.0   16.666666666666668
-250.0   30.0   16.666666666666668
-300.0   60.0   16.666666666666668
-300.0   30.0   33.333333333333336
-250.0   30.0   16.666666666666668
-250.0   60.0   16.666666666666668
-300.0   60.0   16.666666666666668
-250.0   60.0   33.333333333333336
-300.0   30.0   33.333333333333336
-300.0   60.0   33.333333333333336
-250.0   60.0   33.333333333333336
-300.0   60.0   16.666666666666668
-300.0   30.0   33.333333333333336
-250.0   60.0   33.333333333333336
-250.0   30.0   33.333333333333336
-250.0   30.0   16.666666666666668
-300.0   30.0   33.333333333333336
-250.0   60.0   33.333333333333336
-250.0   30.0   16.666666666666668
-300.0   60.0   16.666666666666668
-300.0   30.0   33.333333333333336
-250.0   30.0   33.333333333333336
-300.0   60.0   33.333333333333336
-300.0   30.0   50.0
-250.0   30.0   33.333333333333336
-250.0   60.0   33.333333333333336
-300.0   60.0   33.333333333333336
-250.0   60.0   50.0
-300.0   30.0   50.0
-300.0   60.0   50.0
-250.0   60.0   50.0
-300.0   60.0   33.333333333333336
-300.0   30.0   50.0
-250.0   60.0   50.0
-250.0   30.0   50.0
-250.0   30.0   33.333333333333336
-300.0   30.0   50.0
-250.0   60.0   50.0
-250.0   30.0   33.333333333333336
-300.0   60.0   33.333333333333336
-300.0   60.0   0.0
-250.0   60.0   0.0
-300.0   90.0   0.0
-300.0   60.0   16.666666666666668
-250.0   60.0   0.0
-250.0   90.0   0.0
-300.0   90.0   0.0
-250.0   90.0   16.666666666666668
-300.0   60.0   16.666666666666668
-300.0   90.0   16.666666666666668
-250.0   90.0   16.666666666666668
-300.0   90.0   0.0
-300.0   60.0   16.666666666666668
-250.0   90.0   16.666666666666668
-250.0   60.0   16.666666666666668
-250.0   60.0   0.0
-300.0   60.0   16.666666666666668
-250.0   90.0   16.666666666666668
-250.0   60.0   0.0
-300.0   90.0   0.0
-300.0   60.0   16.666666666666668
-250.0   60.0   16.666666666666668
-300.0   90.0   16.666666666666668
-300.0   60.0   33.333333333333336
-250.0   60.0   16.666666666666668
-250.0   90.0   16.666666666666668
-300.0   90.0   16.666666666666668
-250.0   90.0   33.333333333333336
-300.0   60.0   33.333333333333336
-300.0   90.0   33.333333333333336
-250.0   90.0   33.333333333333336
-300.0   90.0   16.666666666666668
-300.0   60.0   33.333333333333336
-250.0   90.0   33.333333333333336
-250.0   60.0   33.333333333333336
-250.0   60.0   16.666666666666668
-300.0   60.0   33.333333333333336
-250.0   90.0   33.333333333333336
-250.0   60.0   16.666666666666668
-300.0   90.0   16.666666666666668
-300.0   60.0   33.333333333333336
-250.0   60.0   33.333333333333336
-300.0   90.0   33.333333333333336
-300.0   60.0   50.0
-250.0   60.0   33.333333333333336
-250.0   90.0   33.333333333333336
-300.0   90.0   33.333333333333336
-250.0   90.0   50.0
-300.0   60.0   50.0
-300.0   90.0   50.0
-250.0   90.0   50.0
-300.0   90.0   33.333333333333336
-300.0   60.0   50.0
-250.0   90.0   50.0
-250.0   60.0   50.0
-250.0   60.0   33.333333333333336
-300.0   60.0   50.0
-250.0   90.0   50.0
-250.0   60.0   33.333333333333336
-300.0   90.0   33.333333333333336
-300.0   90.0   0.0
-250.0   90.0   0.0
-300.0   120.0   0.0
-300.0   90.0   16.666666666666668
-250.0   90.0   0.0
-250.0   120.0   0.0
-300.0   120.0   0.0
-250.0   120.0   16.666666666666668
-300.0   90.0   16.666666666666668
-300.0   120.0   16.666666666666668
-250.0   120.0   16.666666666666668
-300.0   120.0   0.0
-300.0   90.0   16.666666666666668
-250.0   120.0   16.666666666666668
-250.0   90.0   16.666666666666668
-250.0   90.0   0.0
-300.0   90.0   16.666666666666668
-250.0   120.0   16.666666666666668
-250.0   90.0   0.0
-300.0   120.0   0.0
-300.0   90.0   16.666666666666668
-250.0   90.0   16.666666666666668
-300.0   120.0   16.666666666666668
-300.0   90.0   33.333333333333336
-250.0   90.0   16.666666666666668
-250.0   120.0   16.666666666666668
-300.0   120.0   16.666666666666668
-250.0   120.0   33.333333333333336
-300.0   90.0   33.333333333333336
-300.0   120.0   33.333333333333336
-250.0   120.0   33.333333333333336
-300.0   120.0   16.666666666666668
-300.0   90.0   33.333333333333336
-250.0   120.0   33.333333333333336
-250.0   90.0   33.333333333333336
-250.0   90.0   16.666666666666668
-300.0   90.0   33.333333333333336
-250.0   120.0   33.333333333333336
-250.0   90.0   16.666666666666668
-300.0   120.0   16.666666666666668
-300.0   90.0   33.333333333333336
-250.0   90.0   33.333333333333336
-300.0   120.0   33.333333333333336
-300.0   90.0   50.0
-250.0   90.0   33.333333333333336
-250.0   120.0   33.333333333333336
-300.0   120.0   33.333333333333336
-250.0   120.0   50.0
-300.0   90.0   50.0
-300.0   120.0   50.0
-250.0   120.0   50.0
-300.0   120.0   33.333333333333336
-300.0   90.0   50.0
-250.0   120.0   50.0
-250.0   90.0   50.0
-250.0   90.0   33.333333333333336
-300.0   90.0   50.0
-250.0   120.0   50.0
-250.0   90.0   33.333333333333336
-300.0   120.0   33.333333333333336
-300.0   120.0   0.0
-250.0   120.0   0.0
-300.0   150.0   0.0
-300.0   120.0   16.666666666666668
-250.0   120.0   0.0
-250.0   150.0   0.0
-300.0   150.0   0.0
-250.0   150.0   16.666666666666668
-300.0   120.0   16.666666666666668
-300.0   150.0   16.666666666666668
-250.0   150.0   16.666666666666668
-300.0   150.0   0.0
-300.0   120.0   16.666666666666668
-250.0   150.0   16.666666666666668
-250.0   120.0   16.666666666666668
-250.0   120.0   0.0
-300.0   120.0   16.666666666666668
-250.0   150.0   16.666666666666668
-250.0   120.0   0.0
-300.0   150.0   0.0
-300.0   120.0   16.666666666666668
-250.0   120.0   16.666666666666668
-300.0   150.0   16.666666666666668
-300.0   120.0   33.333333333333336
-250.0   120.0   16.666666666666668
-250.0   150.0   16.666666666666668
-300.0   150.0   16.666666666666668
-250.0   150.0   33.333333333333336
-300.0   120.0   33.333333333333336
-300.0   150.0   33.333333333333336
-250.0   150.0   33.333333333333336
-300.0   150.0   16.666666666666668
-300.0   120.0   33.333333333333336
-250.0   150.0   33.333333333333336
-250.0   120.0   33.333333333333336
-250.0   120.0   16.666666666666668
-300.0   120.0   33.333333333333336
-250.0   150.0   33.333333333333336
-250.0   120.0   16.666666666666668
-300.0   150.0   16.666666666666668
-300.0   120.0   33.333333333333336
-250.0   120.0   33.333333333333336
-300.0   150.0   33.333333333333336
-300.0   120.0   50.0
-250.0   120.0   33.333333333333336
-250.0   150.0   33.333333333333336
-300.0   150.0   33.333333333333336
-250.0   150.0   50.0
-300.0   120.0   50.0
-300.0   150.0   50.0
-250.0   150.0   50.0
-300.0   150.0   33.333333333333336
-300.0   120.0   50.0
-250.0   150.0   50.0
-250.0   120.0   50.0
-250.0   120.0   33.333333333333336
-300.0   120.0   50.0
-250.0   150.0   50.0
-250.0   120.0   33.333333333333336
-300.0   150.0   33.333333333333336
-250.0   0.0   0.0
-200.0   0.0   0.0
-250.0   30.0   0.0
-250.0   0.0   16.666666666666668
-200.0   0.0   0.0
-200.0   30.0   0.0
-250.0   30.0   0.0
-200.0   30.0   16.666666666666668
-250.0   0.0   16.666666666666668
-250.0   30.0   16.666666666666668
-200.0   30.0   16.666666666666668
-250.0   30.0   0.0
-250.0   0.0   16.666666666666668
-200.0   30.0   16.666666666666668
-200.0   0.0   16.666666666666668
-200.0   0.0   0.0
-250.0   0.0   16.666666666666668
-200.0   30.0   16.666666666666668
-200.0   0.0   0.0
-250.0   30.0   0.0
-250.0   0.0   16.666666666666668
-200.0   0.0   16.666666666666668
-250.0   30.0   16.666666666666668
-250.0   0.0   33.333333333333336
-200.0   0.0   16.666666666666668
-200.0   30.0   16.666666666666668
-250.0   30.0   16.666666666666668
-200.0   30.0   33.333333333333336
-250.0   0.0   33.333333333333336
-250.0   30.0   33.333333333333336
-200.0   30.0   33.333333333333336
-250.0   30.0   16.666666666666668
-250.0   0.0   33.333333333333336
-200.0   30.0   33.333333333333336
-200.0   0.0   33.333333333333336
-200.0   0.0   16.666666666666668
-250.0   0.0   33.333333333333336
-200.0   30.0   33.333333333333336
-200.0   0.0   16.666666666666668
-250.0   30.0   16.666666666666668
-250.0   0.0   33.333333333333336
-200.0   0.0   33.333333333333336
-250.0   30.0   33.333333333333336
-250.0   0.0   50.0
-200.0   0.0   33.333333333333336
-200.0   30.0   33.333333333333336
-250.0   30.0   33.333333333333336
-200.0   30.0   50.0
-250.0   0.0   50.0
-250.0   30.0   50.0
-200.0   30.0   50.0
-250.0   30.0   33.333333333333336
-250.0   0.0   50.0
-200.0   30.0   50.0
-200.0   0.0   50.0
-200.0   0.0   33.333333333333336
-250.0   0.0   50.0
-200.0   30.0   50.0
-200.0   0.0   33.333333333333336
-250.0   30.0   33.333333333333336
-250.0   30.0   0.0
-200.0   30.0   0.0
-250.0   60.0   0.0
-250.0   30.0   16.666666666666668
-200.0   30.0   0.0
-200.0   60.0   0.0
-250.0   60.0   0.0
-200.0   60.0   16.666666666666668
-250.0   30.0   16.666666666666668
-250.0   60.0   16.666666666666668
-200.0   60.0   16.666666666666668
-250.0   60.0   0.0
-250.0   30.0   16.666666666666668
-200.0   60.0   16.666666666666668
-200.0   30.0   16.666666666666668
-200.0   30.0   0.0
-250.0   30.0   16.666666666666668
-200.0   60.0   16.666666666666668
-200.0   30.0   0.0
-250.0   60.0   0.0
-250.0   30.0   16.666666666666668
-200.0   30.0   16.666666666666668
-250.0   60.0   16.666666666666668
-250.0   30.0   33.333333333333336
-200.0   30.0   16.666666666666668
-200.0   60.0   16.666666666666668
-250.0   60.0   16.666666666666668
-200.0   60.0   33.333333333333336
-250.0   30.0   33.333333333333336
-250.0   60.0   33.333333333333336
-200.0   60.0   33.333333333333336
-250.0   60.0   16.666666666666668
-250.0   30.0   33.333333333333336
-200.0   60.0   33.333333333333336
-200.0   30.0   33.333333333333336
-200.0   30.0   16.666666666666668
-250.0   30.0   33.333333333333336
-200.0   60.0   33.333333333333336
-200.0   30.0   16.666666666666668
-250.0   60.0   16.666666666666668
-250.0   30.0   33.333333333333336
-200.0   30.0   33.333333333333336
-250.0   60.0   33.333333333333336
-250.0   30.0   50.0
-200.0   30.0   33.333333333333336
-200.0   60.0   33.333333333333336
-250.0   60.0   33.333333333333336
-200.0   60.0   50.0
-250.0   30.0   50.0
-250.0   60.0   50.0
-200.0   60.0   50.0
-250.0   60.0   33.333333333333336
-250.0   30.0   50.0
-200.0   60.0   50.0
-200.0   30.0   50.0
-200.0   30.0   33.333333333333336
-250.0   30.0   50.0
-200.0   60.0   50.0
-200.0   30.0   33.333333333333336
-250.0   60.0   33.333333333333336
-250.0   60.0   0.0
-200.0   60.0   0.0
-250.0   90.0   0.0
-250.0   60.0   16.666666666666668
-200.0   60.0   0.0
-200.0   90.0   0.0
-250.0   90.0   0.0
-200.0   90.0   16.666666666666668
-250.0   60.0   16.666666666666668
-250.0   90.0   16.666666666666668
-200.0   90.0   16.666666666666668
-250.0   90.0   0.0
-250.0   60.0   16.666666666666668
-200.0   90.0   16.666666666666668
-200.0   60.0   16.666666666666668
-200.0   60.0   0.0
-250.0   60.0   16.666666666666668
-200.0   90.0   16.666666666666668
-200.0   60.0   0.0
-250.0   90.0   0.0
-250.0   60.0   16.666666666666668
-200.0   60.0   16.666666666666668
-250.0   90.0   16.666666666666668
-250.0   60.0   33.333333333333336
-200.0   60.0   16.666666666666668
-200.0   90.0   16.666666666666668
-250.0   90.0   16.666666666666668
-200.0   90.0   33.333333333333336
-250.0   60.0   33.333333333333336
-250.0   90.0   33.333333333333336
-200.0   90.0   33.333333333333336
-250.0   90.0   16.666666666666668
-250.0   60.0   33.333333333333336
-200.0   90.0   33.333333333333336
-200.0   60.0   33.333333333333336
-200.0   60.0   16.666666666666668
-250.0   60.0   33.333333333333336
-200.0   90.0   33.333333333333336
-200.0   60.0   16.666666666666668
-250.0   90.0   16.666666666666668
-250.0   60.0   33.333333333333336
-200.0   60.0   33.333333333333336
-250.0   90.0   33.333333333333336
-250.0   60.0   50.0
-200.0   60.0   33.333333333333336
-200.0   90.0   33.333333333333336
-250.0   90.0   33.333333333333336
-200.0   90.0   50.0
-250.0   60.0   50.0
-250.0   90.0   50.0
-200.0   90.0   50.0
-250.0   90.0   33.333333333333336
-250.0   60.0   50.0
-200.0   90.0   50.0
-200.0   60.0   50.0
-200.0   60.0   33.333333333333336
-250.0   60.0   50.0
-200.0   90.0   50.0
-200.0   60.0   33.333333333333336
-250.0   90.0   33.333333333333336
-250.0   90.0   0.0
-200.0   90.0   0.0
-250.0   120.0   0.0
-250.0   90.0   16.666666666666668
-200.0   90.0   0.0
-200.0   120.0   0.0
-250.0   120.0   0.0
-200.0   120.0   16.666666666666668
-250.0   90.0   16.666666666666668
-250.0   120.0   16.666666666666668
-200.0   120.0   16.666666666666668
-250.0   120.0   0.0
-250.0   90.0   16.666666666666668
-200.0   120.0   16.666666666666668
-200.0   90.0   16.666666666666668
-200.0   90.0   0.0
-250.0   90.0   16.666666666666668
-200.0   120.0   16.666666666666668
-200.0   90.0   0.0
-250.0   120.0   0.0
-250.0   90.0   16.666666666666668
-200.0   90.0   16.666666666666668
-250.0   120.0   16.666666666666668
-250.0   90.0   33.333333333333336
-200.0   90.0   16.666666666666668
-200.0   120.0   16.666666666666668
-250.0   120.0   16.666666666666668
-200.0   120.0   33.333333333333336
-250.0   90.0   33.333333333333336
-250.0   120.0   33.333333333333336
-200.0   120.0   33.333333333333336
-250.0   120.0   16.666666666666668
-250.0   90.0   33.333333333333336
-200.0   120.0   33.333333333333336
-200.0   90.0   33.333333333333336
-200.0   90.0   16.666666666666668
-250.0   90.0   33.333333333333336
-200.0   120.0   33.333333333333336
-200.0   90.0   16.666666666666668
-250.0   120.0   16.666666666666668
-250.0   90.0   33.333333333333336
-200.0   90.0   33.333333333333336
-250.0   120.0   33.333333333333336
-250.0   90.0   50.0
-200.0   90.0   33.333333333333336
-200.0   120.0   33.333333333333336
-250.0   120.0   33.333333333333336
-200.0   120.0   50.0
-250.0   90.0   50.0
-250.0   120.0   50.0
-200.0   120.0   50.0
-250.0   120.0   33.333333333333336
-250.0   90.0   50.0
-200.0   120.0   50.0
-200.0   90.0   50.0
-200.0   90.0   33.333333333333336
-250.0   90.0   50.0
-200.0   120.0   50.0
-200.0   90.0   33.333333333333336
-250.0   120.0   33.333333333333336
-250.0   120.0   0.0
-200.0   120.0   0.0
-250.0   150.0   0.0
-250.0   120.0   16.666666666666668
-200.0   120.0   0.0
-200.0   150.0   0.0
-250.0   150.0   0.0
-200.0   150.0   16.666666666666668
-250.0   120.0   16.666666666666668
-250.0   150.0   16.666666666666668
-200.0   150.0   16.666666666666668
-250.0   150.0   0.0
-250.0   120.0   16.666666666666668
-200.0   150.0   16.666666666666668
-200.0   120.0   16.666666666666668
-200.0   120.0   0.0
-250.0   120.0   16.666666666666668
-200.0   150.0   16.666666666666668
-200.0   120.0   0.0
-250.0   150.0   0.0
-250.0   120.0   16.666666666666668
-200.0   120.0   16.666666666666668
-250.0   150.0   16.666666666666668
-250.0   120.0   33.333333333333336
-200.0   120.0   16.666666666666668
-200.0   150.0   16.666666666666668
-250.0   150.0   16.666666666666668
-200.0   150.0   33.333333333333336
-250.0   120.0   33.333333333333336
-250.0   150.0   33.333333333333336
-200.0   150.0   33.333333333333336
-250.0   150.0   16.666666666666668
-250.0   120.0   33.333333333333336
-200.0   150.0   33.333333333333336
-200.0   120.0   33.333333333333336
-200.0   120.0   16.666666666666668
-250.0   120.0   33.333333333333336
-200.0   150.0   33.333333333333336
-200.0   120.0   16.666666666666668
-250.0   150.0   16.666666666666668
-250.0   120.0   33.333333333333336
-200.0   120.0   33.333333333333336
-250.0   150.0   33.333333333333336
-250.0   120.0   50.0
-200.0   120.0   33.333333333333336
-200.0   150.0   33.333333333333336
-250.0   150.0   33.333333333333336
-200.0   150.0   50.0
-250.0   120.0   50.0
-250.0   150.0   50.0
-200.0   150.0   50.0
-250.0   150.0   33.333333333333336
-250.0   120.0   50.0
-200.0   150.0   50.0
-200.0   120.0   50.0
-200.0   120.0   33.333333333333336
-250.0   120.0   50.0
-200.0   150.0   50.0
-200.0   120.0   33.333333333333336
-250.0   150.0   33.333333333333336
-200.0   0.0   0.0
-150.0   0.0   0.0
-200.0   30.0   0.0
-200.0   0.0   16.666666666666668
-150.0   0.0   0.0
-150.0   30.0   0.0
-200.0   30.0   0.0
-150.0   30.0   16.666666666666668
-200.0   0.0   16.666666666666668
-200.0   30.0   16.666666666666668
-150.0   30.0   16.666666666666668
-200.0   30.0   0.0
-200.0   0.0   16.666666666666668
-150.0   30.0   16.666666666666668
-150.0   0.0   16.666666666666668
-150.0   0.0   0.0
-200.0   0.0   16.666666666666668
-150.0   30.0   16.666666666666668
-150.0   0.0   0.0
-200.0   30.0   0.0
-200.0   0.0   16.666666666666668
-150.0   0.0   16.666666666666668
-200.0   30.0   16.666666666666668
-200.0   0.0   33.333333333333336
-150.0   0.0   16.666666666666668
-150.0   30.0   16.666666666666668
-200.0   30.0   16.666666666666668
-150.0   30.0   33.333333333333336
-200.0   0.0   33.333333333333336
-200.0   30.0   33.333333333333336
-150.0   30.0   33.333333333333336
-200.0   30.0   16.666666666666668
-200.0   0.0   33.333333333333336
-150.0   30.0   33.333333333333336
-150.0   0.0   33.333333333333336
-150.0   0.0   16.666666666666668
-200.0   0.0   33.333333333333336
-150.0   30.0   33.333333333333336
-150.0   0.0   16.666666666666668
-200.0   30.0   16.666666666666668
-200.0   0.0   33.333333333333336
-150.0   0.0   33.333333333333336
-200.0   30.0   33.333333333333336
-200.0   0.0   50.0
-150.0   0.0   33.333333333333336
-150.0   30.0   33.333333333333336
-200.0   30.0   33.333333333333336
-150.0   30.0   50.0
-200.0   0.0   50.0
-200.0   30.0   50.0
-150.0   30.0   50.0
-200.0   30.0   33.333333333333336
-200.0   0.0   50.0
-150.0   30.0   50.0
-150.0   0.0   50.0
-150.0   0.0   33.333333333333336
-200.0   0.0   50.0
-150.0   30.0   50.0
-150.0   0.0   33.333333333333336
-200.0   30.0   33.333333333333336
-200.0   30.0   0.0
-150.0   30.0   0.0
-200.0   60.0   0.0
-200.0   30.0   16.666666666666668
-150.0   30.0   0.0
-150.0   60.0   0.0
-200.0   60.0   0.0
-150.0   60.0   16.666666666666668
-200.0   30.0   16.666666666666668
-200.0   60.0   16.666666666666668
-150.0   60.0   16.666666666666668
-200.0   60.0   0.0
-200.0   30.0   16.666666666666668
-150.0   60.0   16.666666666666668
-150.0   30.0   16.666666666666668
-150.0   30.0   0.0
-200.0   30.0   16.666666666666668
-150.0   60.0   16.666666666666668
-150.0   30.0   0.0
-200.0   60.0   0.0
-200.0   30.0   16.666666666666668
-150.0   30.0   16.666666666666668
-200.0   60.0   16.666666666666668
-200.0   30.0   33.333333333333336
-150.0   30.0   16.666666666666668
-150.0   60.0   16.666666666666668
-200.0   60.0   16.666666666666668
-150.0   60.0   33.333333333333336
-200.0   30.0   33.333333333333336
-200.0   60.0   33.333333333333336
-150.0   60.0   33.333333333333336
-200.0   60.0   16.666666666666668
-200.0   30.0   33.333333333333336
-150.0   60.0   33.333333333333336
-150.0   30.0   33.333333333333336
-150.0   30.0   16.666666666666668
-200.0   30.0   33.333333333333336
-150.0   60.0   33.333333333333336
-150.0   30.0   16.666666666666668
-200.0   60.0   16.666666666666668
-200.0   30.0   33.333333333333336
-150.0   30.0   33.333333333333336
-200.0   60.0   33.333333333333336
-200.0   30.0   50.0
-150.0   30.0   33.333333333333336
-150.0   60.0   33.333333333333336
-200.0   60.0   33.333333333333336
-150.0   60.0   50.0
-200.0   30.0   50.0
-200.0   60.0   50.0
-150.0   60.0   50.0
-200.0   60.0   33.333333333333336
-200.0   30.0   50.0
-150.0   60.0   50.0
-150.0   30.0   50.0
-150.0   30.0   33.333333333333336
-200.0   30.0   50.0
-150.0   60.0   50.0
-150.0   30.0   33.333333333333336
-200.0   60.0   33.333333333333336
-200.0   60.0   0.0
-150.0   60.0   0.0
-200.0   90.0   0.0
-200.0   60.0   16.666666666666668
-150.0   60.0   0.0
-150.0   90.0   0.0
-200.0   90.0   0.0
-150.0   90.0   16.666666666666668
-200.0   60.0   16.666666666666668
-200.0   90.0   16.666666666666668
-150.0   90.0   16.666666666666668
-200.0   90.0   0.0
-200.0   60.0   16.666666666666668
-150.0   90.0   16.666666666666668
-150.0   60.0   16.666666666666668
-150.0   60.0   0.0
-200.0   60.0   16.666666666666668
-150.0   90.0   16.666666666666668
-150.0   60.0   0.0
-200.0   90.0   0.0
-200.0   60.0   16.666666666666668
-150.0   60.0   16.666666666666668
-200.0   90.0   16.666666666666668
-200.0   60.0   33.333333333333336
-150.0   60.0   16.666666666666668
-150.0   90.0   16.666666666666668
-200.0   90.0   16.666666666666668
-150.0   90.0   33.333333333333336
-200.0   60.0   33.333333333333336
-200.0   90.0   33.333333333333336
-150.0   90.0   33.333333333333336
-200.0   90.0   16.666666666666668
-200.0   60.0   33.333333333333336
-150.0   90.0   33.333333333333336
-150.0   60.0   33.333333333333336
-150.0   60.0   16.666666666666668
-200.0   60.0   33.333333333333336
-150.0   90.0   33.333333333333336
-150.0   60.0   16.666666666666668
-200.0   90.0   16.666666666666668
-200.0   60.0   33.333333333333336
-150.0   60.0   33.333333333333336
-200.0   90.0   33.333333333333336
-200.0   60.0   50.0
-150.0   60.0   33.333333333333336
-150.0   90.0   33.333333333333336
-200.0   90.0   33.333333333333336
-150.0   90.0   50.0
-200.0   60.0   50.0
-200.0   90.0   50.0
-150.0   90.0   50.0
-200.0   90.0   33.333333333333336
-200.0   60.0   50.0
-150.0   90.0   50.0
-150.0   60.0   50.0
-150.0   60.0   33.333333333333336
-200.0   60.0   50.0
-150.0   90.0   50.0
-150.0   60.0   33.333333333333336
-200.0   90.0   33.333333333333336
-200.0   90.0   0.0
-150.0   90.0   0.0
-200.0   120.0   0.0
-200.0   90.0   16.666666666666668
-150.0   90.0   0.0
-150.0   120.0   0.0
-200.0   120.0   0.0
-150.0   120.0   16.666666666666668
-200.0   90.0   16.666666666666668
-200.0   120.0   16.666666666666668
-150.0   120.0   16.666666666666668
-200.0   120.0   0.0
-200.0   90.0   16.666666666666668
-150.0   120.0   16.666666666666668
-150.0   90.0   16.666666666666668
-150.0   90.0   0.0
-200.0   90.0   16.666666666666668
-150.0   120.0   16.666666666666668
-150.0   90.0   0.0
-200.0   120.0   0.0
-200.0   90.0   16.666666666666668
-150.0   90.0   16.666666666666668
-200.0   120.0   16.666666666666668
-200.0   90.0   33.333333333333336
-150.0   90.0   16.666666666666668
-150.0   120.0   16.666666666666668
-200.0   120.0   16.666666666666668
-150.0   120.0   33.333333333333336
-200.0   90.0   33.333333333333336
-200.0   120.0   33.333333333333336
-150.0   120.0   33.333333333333336
-200.0   120.0   16.666666666666668
-200.0   90.0   33.333333333333336
-150.0   120.0   33.333333333333336
-150.0   90.0   33.333333333333336
-150.0   90.0   16.666666666666668
-200.0   90.0   33.333333333333336
-150.0   120.0   33.333333333333336
-150.0   90.0   16.666666666666668
-200.0   120.0   16.666666666666668
-200.0   90.0   33.333333333333336
-150.0   90.0   33.333333333333336
-200.0   120.0   33.333333333333336
-200.0   90.0   50.0
-150.0   90.0   33.333333333333336
-150.0   120.0   33.333333333333336
-200.0   120.0   33.333333333333336
-150.0   120.0   50.0
-200.0   90.0   50.0
-200.0   120.0   50.0
-150.0   120.0   50.0
-200.0   120.0   33.333333333333336
-200.0   90.0   50.0
-150.0   120.0   50.0
-150.0   90.0   50.0
-150.0   90.0   33.333333333333336
-200.0   90.0   50.0
-150.0   120.0   50.0
-150.0   90.0   33.333333333333336
-200.0   120.0   33.333333333333336
-200.0   120.0   0.0
-150.0   120.0   0.0
-200.0   150.0   0.0
-200.0   120.0   16.666666666666668
-150.0   120.0   0.0
-150.0   150.0   0.0
-200.0   150.0   0.0
-150.0   150.0   16.666666666666668
-200.0   120.0   16.666666666666668
-200.0   150.0   16.666666666666668
-150.0   150.0   16.666666666666668
-200.0   150.0   0.0
-200.0   120.0   16.666666666666668
-150.0   150.0   16.666666666666668
-150.0   120.0   16.666666666666668
-150.0   120.0   0.0
-200.0   120.0   16.666666666666668
-150.0   150.0   16.666666666666668
-150.0   120.0   0.0
-200.0   150.0   0.0
-200.0   120.0   16.666666666666668
-150.0   120.0   16.666666666666668
-200.0   150.0   16.666666666666668
-200.0   120.0   33.333333333333336
-150.0   120.0   16.666666666666668
-150.0   150.0   16.666666666666668
-200.0   150.0   16.666666666666668
-150.0   150.0   33.333333333333336
-200.0   120.0   33.333333333333336
-200.0   150.0   33.333333333333336
-150.0   150.0   33.333333333333336
-200.0   150.0   16.666666666666668
-200.0   120.0   33.333333333333336
-150.0   150.0   33.333333333333336
-150.0   120.0   33.333333333333336
-150.0   120.0   16.666666666666668
-200.0   120.0   33.333333333333336
-150.0   150.0   33.333333333333336
-150.0   120.0   16.666666666666668
-200.0   150.0   16.666666666666668
-200.0   120.0   33.333333333333336
-150.0   120.0   33.333333333333336
-200.0   150.0   33.333333333333336
-200.0   120.0   50.0
-150.0   120.0   33.333333333333336
-150.0   150.0   33.333333333333336
-200.0   150.0   33.333333333333336
-150.0   150.0   50.0
-200.0   120.0   50.0
-200.0   150.0   50.0
-150.0   150.0   50.0
-200.0   150.0   33.333333333333336
-200.0   120.0   50.0
-150.0   150.0   50.0
-150.0   120.0   50.0
-150.0   120.0   33.333333333333336
-200.0   120.0   50.0
-150.0   150.0   50.0
-150.0   120.0   33.333333333333336
-200.0   150.0   33.333333333333336
-150.0   0.0   0.0
-100.0   0.0   0.0
-150.0   30.0   0.0
-150.0   0.0   16.666666666666668
-100.0   0.0   0.0
-100.0   30.0   0.0
-150.0   30.0   0.0
-100.0   30.0   16.666666666666668
-150.0   0.0   16.666666666666668
-150.0   30.0   16.666666666666668
-100.0   30.0   16.666666666666668
-150.0   30.0   0.0
-150.0   0.0   16.666666666666668
-100.0   30.0   16.666666666666668
-100.0   0.0   16.666666666666668
-100.0   0.0   0.0
-150.0   0.0   16.666666666666668
-100.0   30.0   16.666666666666668
-100.0   0.0   0.0
-150.0   30.0   0.0
-150.0   0.0   16.666666666666668
-100.0   0.0   16.666666666666668
-150.0   30.0   16.666666666666668
-150.0   0.0   33.333333333333336
-100.0   0.0   16.666666666666668
-100.0   30.0   16.666666666666668
-150.0   30.0   16.666666666666668
-100.0   30.0   33.333333333333336
-150.0   0.0   33.333333333333336
-150.0   30.0   33.333333333333336
-100.0   30.0   33.333333333333336
-150.0   30.0   16.666666666666668
-150.0   0.0   33.333333333333336
-100.0   30.0   33.333333333333336
-100.0   0.0   33.333333333333336
-100.0   0.0   16.666666666666668
-150.0   0.0   33.333333333333336
-100.0   30.0   33.333333333333336
-100.0   0.0   16.666666666666668
-150.0   30.0   16.666666666666668
-150.0   0.0   33.333333333333336
-100.0   0.0   33.333333333333336
-150.0   30.0   33.333333333333336
-150.0   0.0   50.0
-100.0   0.0   33.333333333333336
-100.0   30.0   33.333333333333336
-150.0   30.0   33.333333333333336
-100.0   30.0   50.0
-150.0   0.0   50.0
-150.0   30.0   50.0
-100.0   30.0   50.0
-150.0   30.0   33.333333333333336
-150.0   0.0   50.0
-100.0   30.0   50.0
-100.0   0.0   50.0
-100.0   0.0   33.333333333333336
-150.0   0.0   50.0
-100.0   30.0   50.0
-100.0   0.0   33.333333333333336
-150.0   30.0   33.333333333333336
-150.0   30.0   0.0
-100.0   30.0   0.0
-150.0   60.0   0.0
-150.0   30.0   16.666666666666668
-100.0   30.0   0.0
-100.0   60.0   0.0
-150.0   60.0   0.0
-100.0   60.0   16.666666666666668
-150.0   30.0   16.666666666666668
-150.0   60.0   16.666666666666668
-100.0   60.0   16.666666666666668
-150.0   60.0   0.0
-150.0   30.0   16.666666666666668
-100.0   60.0   16.666666666666668
-100.0   30.0   16.666666666666668
-100.0   30.0   0.0
-150.0   30.0   16.666666666666668
-100.0   60.0   16.666666666666668
-100.0   30.0   0.0
-150.0   60.0   0.0
-150.0   30.0   16.666666666666668
-100.0   30.0   16.666666666666668
-150.0   60.0   16.666666666666668
-150.0   30.0   33.333333333333336
-100.0   30.0   16.666666666666668
-100.0   60.0   16.666666666666668
-150.0   60.0   16.666666666666668
-100.0   60.0   33.333333333333336
-150.0   30.0   33.333333333333336
-150.0   60.0   33.333333333333336
-100.0   60.0   33.333333333333336
-150.0   60.0   16.666666666666668
-150.0   30.0   33.333333333333336
-100.0   60.0   33.333333333333336
-100.0   30.0   33.333333333333336
-100.0   30.0   16.666666666666668
-150.0   30.0   33.333333333333336
-100.0   60.0   33.333333333333336
-100.0   30.0   16.666666666666668
-150.0   60.0   16.666666666666668
-150.0   30.0   33.333333333333336
-100.0   30.0   33.333333333333336
-150.0   60.0   33.333333333333336
-150.0   30.0   50.0
-100.0   30.0   33.333333333333336
-100.0   60.0   33.333333333333336
-150.0   60.0   33.333333333333336
-100.0   60.0   50.0
-150.0   30.0   50.0
-150.0   60.0   50.0
-100.0   60.0   50.0
-150.0   60.0   33.333333333333336
-150.0   30.0   50.0
-100.0   60.0   50.0
-100.0   30.0   50.0
-100.0   30.0   33.333333333333336
-150.0   30.0   50.0
-100.0   60.0   50.0
-100.0   30.0   33.333333333333336
-150.0   60.0   33.333333333333336
-150.0   60.0   0.0
-100.0   60.0   0.0
-150.0   90.0   0.0
-150.0   60.0   16.666666666666668
-100.0   60.0   0.0
-100.0   90.0   0.0
-150.0   90.0   0.0
-100.0   90.0   16.666666666666668
-150.0   60.0   16.666666666666668
-150.0   90.0   16.666666666666668
-100.0   90.0   16.666666666666668
-150.0   90.0   0.0
-150.0   60.0   16.666666666666668
-100.0   90.0   16.666666666666668
-100.0   60.0   16.666666666666668
-100.0   60.0   0.0
-150.0   60.0   16.666666666666668
-100.0   90.0   16.666666666666668
-100.0   60.0   0.0
-150.0   90.0   0.0
-150.0   60.0   16.666666666666668
-100.0   60.0   16.666666666666668
-150.0   90.0   16.666666666666668
-150.0   60.0   33.333333333333336
-100.0   60.0   16.666666666666668
-100.0   90.0   16.666666666666668
-150.0   90.0   16.666666666666668
-100.0   90.0   33.333333333333336
-150.0   60.0   33.333333333333336
-150.0   90.0   33.333333333333336
-100.0   90.0   33.333333333333336
-150.0   90.0   16.666666666666668
-150.0   60.0   33.333333333333336
-100.0   90.0   33.333333333333336
-100.0   60.0   33.333333333333336
-100.0   60.0   16.666666666666668
-150.0   60.0   33.333333333333336
-100.0   90.0   33.333333333333336
-100.0   60.0   16.666666666666668
-150.0   90.0   16.666666666666668
-150.0   60.0   33.333333333333336
-100.0   60.0   33.333333333333336
-150.0   90.0   33.333333333333336
-150.0   60.0   50.0
-100.0   60.0   33.333333333333336
-100.0   90.0   33.333333333333336
-150.0   90.0   33.333333333333336
-100.0   90.0   50.0
-150.0   60.0   50.0
-150.0   90.0   50.0
-100.0   90.0   50.0
-150.0   90.0   33.333333333333336
-150.0   60.0   50.0
-100.0   90.0   50.0
-100.0   60.0   50.0
-100.0   60.0   33.333333333333336
-150.0   60.0   50.0
-100.0   90.0   50.0
-100.0   60.0   33.333333333333336
-150.0   90.0   33.333333333333336
-150.0   90.0   0.0
-100.0   90.0   0.0
-150.0   120.0   0.0
-150.0   90.0   16.666666666666668
-100.0   90.0   0.0
-100.0   120.0   0.0
-150.0   120.0   0.0
-100.0   120.0   16.666666666666668
-150.0   90.0   16.666666666666668
-150.0   120.0   16.666666666666668
-100.0   120.0   16.666666666666668
-150.0   120.0   0.0
-150.0   90.0   16.666666666666668
-100.0   120.0   16.666666666666668
-100.0   90.0   16.666666666666668
-100.0   90.0   0.0
-150.0   90.0   16.666666666666668
-100.0   120.0   16.666666666666668
-100.0   90.0   0.0
-150.0   120.0   0.0
-150.0   90.0   16.666666666666668
-100.0   90.0   16.666666666666668
-150.0   120.0   16.666666666666668
-150.0   90.0   33.333333333333336
-100.0   90.0   16.666666666666668
-100.0   120.0   16.666666666666668
-150.0   120.0   16.666666666666668
-100.0   120.0   33.333333333333336
-150.0   90.0   33.333333333333336
-150.0   120.0   33.333333333333336
-100.0   120.0   33.333333333333336
-150.0   120.0   16.666666666666668
-150.0   90.0   33.333333333333336
-100.0   120.0   33.333333333333336
-100.0   90.0   33.333333333333336
-100.0   90.0   16.666666666666668
-150.0   90.0   33.333333333333336
-100.0   120.0   33.333333333333336
-100.0   90.0   16.666666666666668
-150.0   120.0   16.666666666666668
-150.0   90.0   33.333333333333336
-100.0   90.0   33.333333333333336
-150.0   120.0   33.333333333333336
-150.0   90.0   50.0
-100.0   90.0   33.333333333333336
-100.0   120.0   33.333333333333336
-150.0   120.0   33.333333333333336
-100.0   120.0   50.0
-150.0   90.0   50.0
-150.0   120.0   50.0
-100.0   120.0   50.0
-150.0   120.0   33.333333333333336
-150.0   90.0   50.0
-100.0   120.0   50.0
-100.0   90.0   50.0
-100.0   90.0   33.333333333333336
-150.0   90.0   50.0
-100.0   120.0   50.0
-100.0   90.0   33.333333333333336
-150.0   120.0   33.333333333333336
-150.0   120.0   0.0
-100.0   120.0   0.0
-150.0   150.0   0.0
-150.0   120.0   16.666666666666668
-100.0   120.0   0.0
-100.0   150.0   0.0
-150.0   150.0   0.0
-100.0   150.0   16.666666666666668
-150.0   120.0   16.666666666666668
-150.0   150.0   16.666666666666668
-100.0   150.0   16.666666666666668
-150.0   150.0   0.0
-150.0   120.0   16.666666666666668
-100.0   150.0   16.666666666666668
-100.0   120.0   16.666666666666668
-100.0   120.0   0.0
-150.0   120.0   16.666666666666668
-100.0   150.0   16.666666666666668
-100.0   120.0   0.0
-150.0   150.0   0.0
-150.0   120.0   16.666666666666668
-100.0   120.0   16.666666666666668
-150.0   150.0   16.666666666666668
-150.0   120.0   33.333333333333336
-100.0   120.0   16.666666666666668
-100.0   150.0   16.666666666666668
-150.0   150.0   16.666666666666668
-100.0   150.0   33.333333333333336
-150.0   120.0   33.333333333333336
-150.0   150.0   33.333333333333336
-100.0   150.0   33.333333333333336
-150.0   150.0   16.666666666666668
-150.0   120.0   33.333333333333336
-100.0   150.0   33.333333333333336
-100.0   120.0   33.333333333333336
-100.0   120.0   16.666666666666668
-150.0   120.0   33.333333333333336
-100.0   150.0   33.333333333333336
-100.0   120.0   16.666666666666668
-150.0   150.0   16.666666666666668
-150.0   120.0   33.333333333333336
-100.0   120.0   33.333333333333336
-150.0   150.0   33.333333333333336
-150.0   120.0   50.0
-100.0   120.0   33.333333333333336
-100.0   150.0   33.333333333333336
-150.0   150.0   33.333333333333336
-100.0   150.0   50.0
-150.0   120.0   50.0
-150.0   150.0   50.0
-100.0   150.0   50.0
-150.0   150.0   33.333333333333336
-150.0   120.0   50.0
-100.0   150.0   50.0
-100.0   120.0   50.0
-100.0   120.0   33.333333333333336
-150.0   120.0   50.0
-100.0   150.0   50.0
-100.0   120.0   33.333333333333336
-150.0   150.0   33.333333333333336
-100.0   0.0   0.0
-50.0   0.0   0.0
-100.0   30.0   0.0
-100.0   0.0   16.666666666666668
-50.0   0.0   0.0
-50.0   30.0   0.0
-100.0   30.0   0.0
-50.0   30.0   16.666666666666668
-100.0   0.0   16.666666666666668
-100.0   30.0   16.666666666666668
-50.0   30.0   16.666666666666668
-100.0   30.0   0.0
-100.0   0.0   16.666666666666668
-50.0   30.0   16.666666666666668
-50.0   0.0   16.666666666666668
-50.0   0.0   0.0
-100.0   0.0   16.666666666666668
-50.0   30.0   16.666666666666668
-50.0   0.0   0.0
-100.0   30.0   0.0
-100.0   0.0   16.666666666666668
-50.0   0.0   16.666666666666668
-100.0   30.0   16.666666666666668
-100.0   0.0   33.333333333333336
-50.0   0.0   16.666666666666668
-50.0   30.0   16.666666666666668
-100.0   30.0   16.666666666666668
-50.0   30.0   33.333333333333336
-100.0   0.0   33.333333333333336
-100.0   30.0   33.333333333333336
-50.0   30.0   33.333333333333336
-100.0   30.0   16.666666666666668
-100.0   0.0   33.333333333333336
-50.0   30.0   33.333333333333336
-50.0   0.0   33.333333333333336
-50.0   0.0   16.666666666666668
-100.0   0.0   33.333333333333336
-50.0   30.0   33.333333333333336
-50.0   0.0   16.666666666666668
-100.0   30.0   16.666666666666668
-100.0   0.0   33.333333333333336
-50.0   0.0   33.333333333333336
-100.0   30.0   33.333333333333336
-100.0   0.0   50.0
-50.0   0.0   33.333333333333336
-50.0   30.0   33.333333333333336
-100.0   30.0   33.333333333333336
-50.0   30.0   50.0
-100.0   0.0   50.0
-100.0   30.0   50.0
-50.0   30.0   50.0
-100.0   30.0   33.333333333333336
-100.0   0.0   50.0
-50.0   30.0   50.0
-50.0   0.0   50.0
-50.0   0.0   33.333333333333336
-100.0   0.0   50.0
-50.0   30.0   50.0
-50.0   0.0   33.333333333333336
-100.0   30.0   33.333333333333336
-100.0   30.0   0.0
-50.0   30.0   0.0
-100.0   60.0   0.0
-100.0   30.0   16.666666666666668
-50.0   30.0   0.0
-50.0   60.0   0.0
-100.0   60.0   0.0
-50.0   60.0   16.666666666666668
-100.0   30.0   16.666666666666668
-100.0   60.0   16.666666666666668
-50.0   60.0   16.666666666666668
-100.0   60.0   0.0
-100.0   30.0   16.666666666666668
-50.0   60.0   16.666666666666668
-50.0   30.0   16.666666666666668
-50.0   30.0   0.0
-100.0   30.0   16.666666666666668
-50.0   60.0   16.666666666666668
-50.0   30.0   0.0
-100.0   60.0   0.0
-100.0   30.0   16.666666666666668
-50.0   30.0   16.666666666666668
-100.0   60.0   16.666666666666668
-100.0   30.0   33.333333333333336
-50.0   30.0   16.666666666666668
-50.0   60.0   16.666666666666668
-100.0   60.0   16.666666666666668
-50.0   60.0   33.333333333333336
-100.0   30.0   33.333333333333336
-100.0   60.0   33.333333333333336
-50.0   60.0   33.333333333333336
-100.0   60.0   16.666666666666668
-100.0   30.0   33.333333333333336
-50.0   60.0   33.333333333333336
-50.0   30.0   33.333333333333336
-50.0   30.0   16.666666666666668
-100.0   30.0   33.333333333333336
-50.0   60.0   33.333333333333336
-50.0   30.0   16.666666666666668
-100.0   60.0   16.666666666666668
-100.0   30.0   33.333333333333336
-50.0   30.0   33.333333333333336
-100.0   60.0   33.333333333333336
-100.0   30.0   50.0
-50.0   30.0   33.333333333333336
-50.0   60.0   33.333333333333336
-100.0   60.0   33.333333333333336
-50.0   60.0   50.0
-100.0   30.0   50.0
-100.0   60.0   50.0
-50.0   60.0   50.0
-100.0   60.0   33.333333333333336
-100.0   30.0   50.0
-50.0   60.0   50.0
-50.0   30.0   50.0
-50.0   30.0   33.333333333333336
-100.0   30.0   50.0
-50.0   60.0   50.0
-50.0   30.0   33.333333333333336
-100.0   60.0   33.333333333333336
-100.0   60.0   0.0
-50.0   60.0   0.0
-100.0   90.0   0.0
-100.0   60.0   16.666666666666668
-50.0   60.0   0.0
-50.0   90.0   0.0
-100.0   90.0   0.0
-50.0   90.0   16.666666666666668
-100.0   60.0   16.666666666666668
-100.0   90.0   16.666666666666668
-50.0   90.0   16.666666666666668
-100.0   90.0   0.0
-100.0   60.0   16.666666666666668
-50.0   90.0   16.666666666666668
-50.0   60.0   16.666666666666668
-50.0   60.0   0.0
-100.0   60.0   16.666666666666668
-50.0   90.0   16.666666666666668
-50.0   60.0   0.0
-100.0   90.0   0.0
-100.0   60.0   16.666666666666668
-50.0   60.0   16.666666666666668
-100.0   90.0   16.666666666666668
-100.0   60.0   33.333333333333336
-50.0   60.0   16.666666666666668
-50.0   90.0   16.666666666666668
-100.0   90.0   16.666666666666668
-50.0   90.0   33.333333333333336
-100.0   60.0   33.333333333333336
-100.0   90.0   33.333333333333336
-50.0   90.0   33.333333333333336
-100.0   90.0   16.666666666666668
-100.0   60.0   33.333333333333336
-50.0   90.0   33.333333333333336
-50.0   60.0   33.333333333333336
-50.0   60.0   16.666666666666668
-100.0   60.0   33.333333333333336
-50.0   90.0   33.333333333333336
-50.0   60.0   16.666666666666668
-100.0   90.0   16.666666666666668
-100.0   60.0   33.333333333333336
-50.0   60.0   33.333333333333336
-100.0   90.0   33.333333333333336
-100.0   60.0   50.0
-50.0   60.0   33.333333333333336
-50.0   90.0   33.333333333333336
-100.0   90.0   33.333333333333336
-50.0   90.0   50.0
-100.0   60.0   50.0
-100.0   90.0   50.0
-50.0   90.0   50.0
-100.0   90.0   33.333333333333336
-100.0   60.0   50.0
-50.0   90.0   50.0
-50.0   60.0   50.0
-50.0   60.0   33.333333333333336
-100.0   60.0   50.0
-50.0   90.0   50.0
-50.0   60.0   33.333333333333336
-100.0   90.0   33.333333333333336
-100.0   90.0   0.0
-50.0   90.0   0.0
-100.0   120.0   0.0
-100.0   90.0   16.666666666666668
-50.0   90.0   0.0
-50.0   120.0   0.0
-100.0   120.0   0.0
-50.0   120.0   16.666666666666668
-100.0   90.0   16.666666666666668
-100.0   120.0   16.666666666666668
-50.0   120.0   16.666666666666668
-100.0   120.0   0.0
-100.0   90.0   16.666666666666668
-50.0   120.0   16.666666666666668
-50.0   90.0   16.666666666666668
-50.0   90.0   0.0
-100.0   90.0   16.666666666666668
-50.0   120.0   16.666666666666668
-50.0   90.0   0.0
-100.0   120.0   0.0
-100.0   90.0   16.666666666666668
-50.0   90.0   16.666666666666668
-100.0   120.0   16.666666666666668
-100.0   90.0   33.333333333333336
-50.0   90.0   16.666666666666668
-50.0   120.0   16.666666666666668
-100.0   120.0   16.666666666666668
-50.0   120.0   33.333333333333336
-100.0   90.0   33.333333333333336
-100.0   120.0   33.333333333333336
-50.0   120.0   33.333333333333336
-100.0   120.0   16.666666666666668
-100.0   90.0   33.333333333333336
-50.0   120.0   33.333333333333336
-50.0   90.0   33.333333333333336
-50.0   90.0   16.666666666666668
-100.0   90.0   33.333333333333336
-50.0   120.0   33.333333333333336
-50.0   90.0   16.666666666666668
-100.0   120.0   16.666666666666668
-100.0   90.0   33.333333333333336
-50.0   90.0   33.333333333333336
-100.0   120.0   33.333333333333336
-100.0   90.0   50.0
-50.0   90.0   33.333333333333336
-50.0   120.0   33.333333333333336
-100.0   120.0   33.333333333333336
-50.0   120.0   50.0
-100.0   90.0   50.0
-100.0   120.0   50.0
-50.0   120.0   50.0
-100.0   120.0   33.333333333333336
-100.0   90.0   50.0
-50.0   120.0   50.0
-50.0   90.0   50.0
-50.0   90.0   33.333333333333336
-100.0   90.0   50.0
-50.0   120.0   50.0
-50.0   90.0   33.333333333333336
-100.0   120.0   33.333333333333336
-100.0   120.0   0.0
-50.0   120.0   0.0
-100.0   150.0   0.0
-100.0   120.0   16.666666666666668
-50.0   120.0   0.0
-50.0   150.0   0.0
-100.0   150.0   0.0
-50.0   150.0   16.666666666666668
-100.0   120.0   16.666666666666668
-100.0   150.0   16.666666666666668
-50.0   150.0   16.666666666666668
-100.0   150.0   0.0
-100.0   120.0   16.666666666666668
-50.0   150.0   16.666666666666668
-50.0   120.0   16.666666666666668
-50.0   120.0   0.0
-100.0   120.0   16.666666666666668
-50.0   150.0   16.666666666666668
-50.0   120.0   0.0
-100.0   150.0   0.0
-100.0   120.0   16.666666666666668
-50.0   120.0   16.666666666666668
-100.0   150.0   16.666666666666668
-100.0   120.0   33.333333333333336
-50.0   120.0   16.666666666666668
-50.0   150.0   16.666666666666668
-100.0   150.0   16.666666666666668
-50.0   150.0   33.333333333333336
-100.0   120.0   33.333333333333336
-100.0   150.0   33.333333333333336
-50.0   150.0   33.333333333333336
-100.0   150.0   16.666666666666668
-100.0   120.0   33.333333333333336
-50.0   150.0   33.333333333333336
-50.0   120.0   33.333333333333336
-50.0   120.0   16.666666666666668
-100.0   120.0   33.333333333333336
-50.0   150.0   33.333333333333336
-50.0   120.0   16.666666666666668
-100.0   150.0   16.666666666666668
-100.0   120.0   33.333333333333336
-50.0   120.0   33.333333333333336
-100.0   150.0   33.333333333333336
-100.0   120.0   50.0
-50.0   120.0   33.333333333333336
-50.0   150.0   33.333333333333336
-100.0   150.0   33.333333333333336
-50.0   150.0   50.0
-100.0   120.0   50.0
-100.0   150.0   50.0
-50.0   150.0   50.0
-100.0   150.0   33.333333333333336
-100.0   120.0   50.0
-50.0   150.0   50.0
-50.0   120.0   50.0
-50.0   120.0   33.333333333333336
-100.0   120.0   50.0
-50.0   150.0   50.0
-50.0   120.0   33.333333333333336
-100.0   150.0   33.333333333333336
-50.0   0.0   0.0
0.0   0.0   0.0
-50.0   30.0   0.0
-50.0   0.0   16.666666666666668
0.0   0.0   0.0
0.0   30.0   0.0
-50.0   30.0   0.0
0.0   30.0   16.666666666666668
-50.0   0.0   16.666666666666668
-50.0   30.0   16.666666666666668
0.0   30.0   16.666666666666668
-50.0   30.0   0.0
-50.0   0.0   16.666666666666668
0.0   30.0   16.666666666666668
0.0   0.0   16.666666666666668
0.0   0.0   0.0
-50.0   0.0   16.666666666666668
0.0   30.0   16.666666666666668
0.0   0.0   0.0
-50.0   30.0   0.0
-50.0   0.0   16.666666666666668
0.0   0.0   16.666666666666668
-50.0   30.0   16.666666666666668
-50.0   0.0   33.333333333333336
0.0   0.0   16.666666666666668
0.0   30.0   16.666666666666668
-50.0   30.0   16.666666666666668
0.0   30.0   33.333333333333336
-50.0   0.0   33.333333333333336
-50.0   30.0   33.333333333333336
0.0   30.0   33.333333333333336
-50.0   30.0   16.666666666666668
-50.0   0.0   33.333333333333336
0.0   30.0   33.333333333333336
0.0   0.0   33.333333333333336
0.0   0.0   16.666666666666668
-50.0   0.0   33.333333333333336
0.0   30.0   33.333333333333336
0.0   0.0   16.666666666666668
-50.0   30.0   16.666666666666668
-50.0   0.0   33.333333333333336
0.0   0.0   33.333333333333336
-50.0   30.0   33.333333333333336
-50.0   0.0   50.0
0.0   0.0   33.333333333333336
0.0   30.0   33.333333333333336
-50.0   30.0   33.333333333333336
0.0   30.0   50.0
-50.0   0.0   50.0
-50.0   30.0   50.0
0.0   30.0   50.0
-50.0   30.0   33.333333333333336
-50.0   0.0   50.0
0.0   30.0   50.0
0.0   0.0   50.0
0.0   0.0   33.333333333333336
-50.0   0.0   50.0
0.0   30.0   50.0
0.0   0.0   33.333333333333336
-50.0   30.0   33.333333333333336
-50.0   30.0   0.0
0.0   30.0   0.0
-50.0   60.0   0.0
-50.0   30.0   16.666666666666668
0.0   30.0   0.0
0.0   60.0   0.0
-50.0   60.0   0.0
0.0   60.0   16.666666666666668
-50.0   30.0   16.666666666666668
-50.0   60.0   16.666666666666668
0.0   60.0   16.666666666666668
-50.0   60.0   0.0
-50.0   30.0   16.666666666666668
0.0   60.0   16.666666666666668
0.0   30.0   16.666666666666668
0.0   30.0   0.0
-50.0   30.0   16.666666666666668
0.0   60.0   16.666666666666668
0.0   30.0   0.0
-50.0   60.0   0.0
-50.0   30.0   16.666666666666668
0.0   30.0   16.666666666666668
-50.0   60.0   16.666666666666668
-50.0   30.0   33.333333333333336
0.0   30.0   16.666666666666668
0.0   60.0   16.666666666666668
-50.0   60.0   16.666666666666668
0.0   60.0   33.333333333333336
-50.0   30.0   33.333333333333336
-50.0   60.0   33.333333333333336
0.0   60.0   33.333333333333336
-50.0   60.0   16.666666666666668
-50.0   30.0   33.333333333333336
0.0   60.0   33.333333333333336
0.0   30.0   33.333333333333336
0.0   30.0   16.666666666666668
-50.0   30.0   33.333333333333336
0.0   60.0   33.333333333333336
0.0   30.0   16.666666666666668
-50.0   60.0   16.666666666666668
-50.0   30.0   33.333333333333336
0.0   30.0   33.333333333333336
-50.0   60.0   33.333333333333336
-50.0   30.0   50.0
0.0   30.0   33.333333333333336
0.0   60.0   33.333333333333336
-50.0   60.0   33.333333333333336
0.0   60.0   50.0
-50.0   30.0   50.0
-50.0   60.0   50.0
0.0   60.0   50.0
-50.0   60.0   33.333333333333336
-50.0   30.0   50.0
0.0   60.0   50.0
0.0   30.0   50.0
0.0   30.0   33.333333333333336
-50.0   30.0   50.0
0.0   60.0   50.0
0.0   30.0   33.333333333333336
-50.0   60.0   33.333333333333336
-50.0   60.0   0.0
0.0   60.0   0.0
-50.0   90.0   0.0
-50.0   60.0   16.666666666666668
0.0   60.0   0.0
0.0   90.0   0.0
-50.0   90.0   0.0
0.0   90.0   16.666666666666668
-50.0   60.0   16.666666666666668
-50.0   90.0   16.666666666666668
0.0   90.0   16.666666666666668
-50.0   90.0   0.0
-50.0   60.0   16.666666666666668
0.0   90.0   16.666666666666668
0.0   60.0   16.666666666666668
0.0   60.0   0.0
-50.0   60.0   16.666666666666668
0.0   90.0   16.666666666666668
0.0   60.0   0.0
-50.0   90.0   0.0
-50.0   60.0   16.666666666666668
0.0   60.0   16.666666666666668
-50.0   90.0   16.666666666666668
-50.0   60.0   33.333333333333336
0.0   60.0   16.666666666666668
0.0   90.0   16.666666666666668
-50.0   90.0   16.666666666666668
0.0   90.0   33.333333333333336
-50.0   60.0   33.333333333333336
-50.0   90.0   33.333333333333336
0.0   90.0   33.333333333333336
-50.0   90.0   16.666666666666668
-50.0   60.0   33.333333333333336
0.0   90.0   33.333333333333336
0.0   60.0   33.333333333333336
0.0   60.0   16.666666666666668
-50.0   60.0   33.333333333333336
0.0   90.0   33.333333333333336
0.0   60.0   16.666666666666668
-50.0   90.0   16.666666666666668
-50.0   60.0   33.333333333333336
0.0   60.0   33.333333333333336
-50.0   90.0   33.333333333333336
-50.0   60.0   50.0
0.0   60.0   33.333333333333336
0.0   90.0   33.333333333333336
-50.0   90.0   33.333333333333336
0.0   90.0   50.0
-50.0   60.0   50.0
-50.0   90.0   50.0
0.0   90.0   50.0
-50.0   90.0   33.333333333333336
-50.0   60.0   50.0
0.0   90.0   50.0
0.0   60.0   50.0
0.0   60.0   33.333333333333336
-50.0   60.0   50.0
0.0   90.0   50.0
0.0   60.0   33.333333333333336
-50.0   90.0   33.333333333333336
-50.0   90.0   0.0
0.0   90.0   0.0
-50.0   120.0   0.0
-50.0   90.0   16.666666666666668
0.0   90.0   0.0
0.0   120.0   0.0
-50.0   120.0   0.0
0.0   120.0   16.666666666666668
-50.0   90.0   16.666666666666668
-50.0   120.0   16.666666666666668
0.0   120.0   16.666666666666668
-50.0   120.0   0.0
-50.0   90.0   16.666666666666668
0.0   120.0   16.666666666666668
0.0   90.0   16.666666666666668
0.0   90.0   0.0
-50.0   90.0   16.666666666666668
0.0   120.0   16.666666666666668
0.0   90.0   0.0
-50.0   120.0   0.0
-50.0   90.0   16.666666666666668
0.0   90.0   16.666666666666668
-50.0   120.0   16.666666666666668
-50.0   90.0   33.333333333333336
0.0   90.0   16.666666666666668
0.0   120.0   16.666666666666668
-50.0   120.0   16.666666666666668
0.0   120.0   33.333333333333336
-50.0   90.0   33.333333333333336
-50.0   120.0   33.333333333333336
0.0   120.0   33.333333333333336
-50.0   120.0   16.666666666666668
-50.0   90.0   33.333333333333336
0.0   120.0   33.333333333333336
0.0   90.0   33.333333333333336
0.0   90.0   16.666666666666668
-50.0   90.0   33.333333333333336
0.0   120.0   33.333333333333336
0.0   90.0   16.666666666666668
-50.0   120.0   16.666666666666668
-50.0   90.0   33.333333333333336
0.0   90.0   33.333333333333336
-50.0   120.0   33.333333333333336
-50.0   90.0   50.0
0.0   90.0   33.333333333333336
0.0   120.0   33.333333333333336
-50.0   120.0   33.333333333333336
0.0   120.0   50.0
-50.0   90.0   50.0
-50.0   120.0   50.0
0.0   120.0   50.0
-50.0   120.0   33.333333333333336
-50.0   90.0   50.0
0.0   120.0   50.0
0.0   90.0   50.0
0.0   90.0   33.333333333333336
-50.0   90.0   50.0
0.0   120.0   50.0
0.0   90.0   33.333333333333336
-50.0   120.0   33.333333333333336
-50.0   120.0   0.0
0.0   120.0   0.0
-50.0   150.0   0.0
-50.0   120.0   16.666666666666668
0.0   120.0   0.0
0.0   150.0   0.0
-50.0   150.0   0.0
0.0   150.0   16.666666666666668
-50.0   120.0   16.666666666666668
-50.0   150.0   16.666666666666668
0.0   150.0   16.666666666666668
-50.0   150.0   0.0
-50.0   120.0   16.666666666666668
0.0   150.0   16.666666666666668
0.0   120.0   16.666666666666668
0.0   120.0   0.0
-50.0   120.0   16.666666666666668
0.0   150.0   16.666666666666668
0.0   120.0   0.0
-50.0   150.0   0.0
-50.0   120.0   16.666666666666668
0.0   120.0   16.666666666666668
-50.0   150.0   16.666666666666668
-50.0   120.0   33.333333333333336
0.0   120.0   16.666666666666668
0.0   150.0   16.666666666666668
-50.0   150.0   16.666666666666668
0.0   150.0   33.333333333333336
-50.0   120.0   33.333333333333336
-50.0   150.0   33.333333333333336
0.0   150.0   33.333333333333336
-50.0   150.0   16.666666666666668
-50.0   120.0   33.333333333333336
0.0   150.0   33.333333333333336
0.0   120.0   33.333333333333336
0.0   120.0   16.666666666666668
-50.0   120.0   33.333333333333336
0.0   150.0   33.333333333333336
0.0   120.0   16.666666666666668
-50.0   150.0   16.666666666666668
-50.0   120.0   33.333333333333336
0.0   120.0   33.333333333333336
-50.0   150.0   33.333333333333336
-50.0   120.0   50.0
0.0   120.0   33.333333333333336
0.0   150.0   33.333333333333336
-50.0   150.0   33.333333333333336
0.0   150.0   50.0
-50.0   120.0   50.0
-50.0   150.0   50.0
0.0   150.0   50.0
-50.0   150.0   33.333333333333336
-50.0   120.0   50.0
0.0   150.0   50.0
0.0   120.0   50.0
0.0   120.0   33.333333333333336
-50.0   120.0   50.0
0.0   150.0   50.0
0.0   120.0   33.333333333333336
-50.0   150.0   33.333333333333336
0.0   0.0   0.0
50.0   0.0   0.0
0.0   30.0   0.0
0.0   0.0   16.666666666666668
50.0   0.0   0.0
50.0   30.0   0.0
0.0   30.0   0.0
50.0   30.0   16.666666666666668
0.0   0.0   16.666666666666668
0.0   30.0   16.666666666666668
50.0   30.0   16.666666666666668
0.0   30.0   0.0
0.0   0.0   16.666666666666668
50.0   30.0   16.666666666666668
50.0   0.0   16.666666666666668
50.0   0.0   0.0
0.0   0.0   16.666666666666668
50.0   30.0   16.666666666666668
50.0   0.0   0.0
0.0   30.0   0.0
0.0   0.0   16.666666666666668
50.0   0.0   16.666666666666668
0.0   30.0   16.666666666666668
0.0   0.0   33.333333333333336
50.0   0.0   16.666666666666668
50.0   30.0   16.666666666666668
0.0   30.0   16.666666666666668
50.0   30.0   33.333333333333336
0.0   0.0   33.333333333333336
0.0   30.0   33.333333333333336
50.0   30.0   33.333333333333336
0.0   30.0   16.666666666666668
0.0   0.0   33.333333333333336
50.0   30.0   33.333333333333336
50.0   0.0   33.333333333333336
50.0   0.0   16.666666666666668
0.0   0.0   33.333333333333336
50.0   30.0   33.333333333333336
50.0   0.0   16.666666666666668
0.0   30.0   16.666666666666668
0.0   0.0   33.333333333333336
50.0   0.0   33.333333333333336
0.0   30.0   33.333333333333336
0.0   0.0   50.0
50.0   0.0   33.333333333333336
50.0   30.0   33.333333333333336
0.0   30.0   33.333333333333336
50.0   30.0   50.0
0.0   0.0   50.0
0.0   30.0   50.0
50.0   30.0   50.0
0.0   30.0   33.333333333333336
0.0   0.0   50.0
50.0   30.0   50.0
50.0   0.0   50.0
50.0   0.0   33.333333333333336
0.0   0.0   50.0
50.0   30.0   50.0
50.0   0.0   33.333333333333336
0.0   30.0   33.333333333333336
0.0   30.0   0.0
50.0   30.0   0.0
0.0   60.0   0.0
0.0   30.0   16.666666666666668
50.0   30.0   0.0
50.0   60.0   0.0
0.0   60.0   0.0
50.0   60.0   16.666666666666668
0.0   30.0   16.666666666666668
0.0   60.0   16.666666666666668
50.0   60.0   16.666666666666668
0.0   60.0   0.0
0.0   30.0   16.666666666666668
50.0   60.0   16.666666666666668
50.0   30.0   16.666666666666668
50.0   30.0   0.0
0.0   30.0   16.666666666666668
50.0   60.0   16.666666666666668
50.0   30.0   0.0
0.0   60.0   0.0
0.0   30.0   16.666666666666668
50.0   30.0   16.666666666666668
0.0   60.0   16.666666666666668
0.0   30.0   33.333333333333336
50.0   30.0   16.666666666666668
50.0   60.0   16.666666666666668
0.0   60.0   16.666666666666668
50.0   60.0   33.333333333333336
0.0   30.0   33.333333333333336
0.0   60.0   33.333333333333336
50.0   60.0   33.333333333333336
0.0   60.0   16.666666666666668
0.0   30.0   33.333333333333336
50.0   60.0   33.333333333333336
50.0   30.0   33.333333333333336
50.0   30.0   16.666666666666668
0.0   30.0   33.333333333333336
50.0   60.0   33.333333333333336
50.0   30.0   16.666666666666668
0.0   60.0   16.666666666666668
0.0   30.0   33.333333333333336
50.0   30.0   33.333333333333336
0.0   60.0   33.333333333333336
0.0   30.0   50.0
50.0   30.0   33.333333333333336
50.0   60.0   33.333333333333336
0.0   60.0   33.333333333333336
50.0   60.0   50.0
0.0   30.0   50.0
0.0   60.0   50.0
50.0   60.0   50.0
0.0   60.0   33.333333333333336
0.0   30.0   50.0
50.0   60.0   50.0
50.0   30.0   50.0
50.0   30.0   33.333333333333336
0.0   30.0   50.0
50.0   60.0   50.0
50.0   30.0   33.333333333333336
0.0   60.0   33.333333333333336
0.0   60.0   0.0
50.0   60.0   0.0
0.0   90.0   0.0
0.0   60.0   16.666666666666668
50.0   60.0   0.0
50.0   90.0   0.0
0.0   90.0   0.0
50.0   90.0   16.666666666666668
0.0   60.0   16.666666666666668
0.0   90.0   16.666666666666668
50.0   90.0   16.666666666666668
0.0   90.0   0.0
0.0   60.0   16.666666666666668
50.0   90.0   16.666666666666668
50.0   60.0   16.666666666666668
50.0   60.0   0.0
0.0   60.0   16.666666666666668
50.0   90.0   16.666666666666668
50.0   60.0   0.0
0.0   90.0   0.0
0.0   60.0   16.666666666666668
50.0   60.0   16.666666666666668
0.0   90.0   16.666666666666668
0.0   60.0   33.333333333333336
50.0   60.0   16.666666666666668
50.0   90.0   16.666666666666668
0.0   90.0   16.666666666666668
50.0   90.0   33.333333333333336
0.0   60.0   33.333333333333336
0.0   90.0   33.333333333333336
50.0   90.0   33.333333333333336
0.0   90.0   16.666666666666668
0.0   60.0   33.333333333333336
50.0   90.0   33.333333333333336
50.0   60.0   33.333333333333336
50.0   60.0   16.666666666666668
0.0   60.0   33.333333333333336
50.0   90.0   33.333333333333336
50.0   60.0   16.666666666666668
0.0   90.0   16.666666666666668
0.0   60.0   33.333333333333336
50.0   60.0   33.333333333333336
0.0   90.0   33.333333333333336
0.0   60.0   50.0
50.0   60.0   33.333333333333336
50.0   90.0   33.333333333333336
0.0   90.0   33.333333333333336
50.0   90.0   50.0
0.0   60.0   50.0
0.0   90.0   50.0
50.0   90.0   50.0
0.0   90.0   33.333333333333336
0.0   60.0   50.0
50.0   90.0   50.0
50.0   60.0   50.0
50.0   60.0   33.333333333333336
0.0   60.0   50.0
50.0   90.0   50.0
50.0   60.0   33.333333333333336
0.0   90.0   33.333333333333336
0.0   90.0   0.0
50.0   90.0   0.0
0.0   120.0   0.0
0.0   90.0   16.666666666666668
50.0   90.0   0.0
50.0   120.0   0.0
0.0   120.0   0.0
50.0   120.0   16.666666666666668
0.0   90.0   16.666666666666668
0.0   120.0   16.666666666666668
50.0   120.0   16.666666666666668
0.0   120.0   0.0
0.0   90.0   16.666666666666668
50.0   120.0   16.666666666666668
50.0   90.0   16.666666666666668
50.0   90.0   0.0
0.0   90.0   16.666666666666668
50.0   120.0   16.666666666666668
50.0   90.0   0.0
0.0   120.0   0.0
0.0   90.0   16.666666666666668
50.0   90.0   16.666666666666668
0.0   120.0   16.666666666666668
0.0   90.0   33.333333333333336
50.0   90.0   16.666666666666668
50.0   120.0   16.666666666666668
0.0   120.0   16.666666666666668
50.0   120.0   33.333333333333336
0.0   90.0   33.333333333333336
0.0   120.0   33.333333333333336
50.0   120.0   33.333333333333336
0.0   120.0   16.666666666666668
0.0   90.0   33.333333333333336
50.0   120.0   33.333333333333336
50.0   90.0   33.333333333333336
50.0   90.0   16.666666666666668
0.0   90.0   33.333333333333336
50.0   120.0   33.333333333333336
50.0   90.0   16.666666666666668
0.0   120.0   16.666666666666668
0.0   90.0   33.333333333333336
50.0   90.0   33.333333333333336
0.0   120.0   33.333333333333336
0.0   90.0   50.0
50.0   90.0   33.333333333333336
50.0   120.0   33.333333333333336
0.0   120.0   33.333333333333336
50.0   120.0   50.0
0.0   90.0   50.0
0.0   120.0   50.0
50.0   120.0   50.0
0.0   120.0   33.333333333333336
0.0   90.0   50.0
50.0   120.0   50.0
50.0   90.0   50.0
50.0   90.0   33.333333333333336
0.0   90.0   50.0
50.0   120.0   50.0
50.0   90.0   33.333333333333336
0.0   120.0   33.333333333333336
0.0   120.0   0.0
50.0   120.0   0.0
0.0   150.0   0.0
0.0   120.0   16.666666666666668
50.0   120.0   0.0
50.0   150.0   0.0
0.0   150.0   0.0
50.0   150.0   16.666666666666668
0.0   120.0   16.666666666666668
0.0   150.0   16.666666666666668
50.0   150.0   16.666666666666668
0.0   150.0   0.0
0.0   120.0   16.666666666666668
50.0   150.0   16.666666666666668
50.0   120.0   16.666666666666668
50.0   120.0   0.0
0.0   120.0   16.666666666666668
50.0   150.0   16.666666666666668
50.0   120.0   0.0
0.0   150.0   0.0
0.0   120.0   16.666666666666668
50.0   120.0   16.666666666666668
0.0   150.0   16.666666666666668
0.0   120.0   33.333333333333336
50.0   120.0   16.666666666666668
50.0   150.0   16.666666666666668
0.0   150.0   16.666666666666668
50.0   150.0   33.333333333333336
0.0   120.0   33.333333333333336
0.0   150.0   33.333333333333336
50.0   150.0   33.333333333333336
0.0   150.0   16.666666666666668
0.0   120.0   33.333333333333336
50.0   150.0   33.333333333333336
50.0   120.0   33.333333333333336
50.0   120.0   16.666666666666668
0.0   120.0   33.333333333333336
50.0   150.0   33.333333333333336
50.0   120.0   16.666666666666668
0.0   150.0   16.666666666666668
0.0   120.0   33.333333333333336
50.0   120.0   33.333333333333336
0.0   150.0   33.333333333333336
0.0   120.0   50.0
50.0   120.0   33.333333333333336
50.0   150.0   33.333333333333336
0.0   150.0   33.333333333333336
50.0   150.0   50.0
0.0   120.0   50.0
0.0   150.0   50.0
50.0   150.0   50.0
0.0   150.0   33.333333333333336
0.0   120.0   50.0
50.0   150.0   50.0
50.0   120.0   50.0
50.0   120.0   33.333333333333336
0.0   120.0   50.0
50.0   150.0   50.0
50.0   120.0   33.333333333333336
0.0   150.0   33.333333333333336
50.0   0.0   0.0
100.0   0.0   0.0
50.0   30.0   0.0
50.0   0.0   16.666666666666668
100.0   0.0   0.0
100.0   30.0   0.0
50.0   30.0   0.0
100.0   30.0   16.666666666666668
50.0   0.0   16.666666666666668
50.0   30.0   16.666666666666668
100.0   30.0   16.666666666666668
50.0   30.0   0.0
50.0   0.0   16.666666666666668
100.0   30.0   16.666666666666668
100.0   0.0   16.666666666666668
100.0   0.0   0.0
50.0   0.0   16.666666666666668
100.0   30.0   16.666666666666668
100.0   0.0   0.0
50.0   30.0   0.0
50.0   0.0   16.666666666666668
100.0   0.0   16.666666666666668
50.0   30.0   16.666666666666668
50.0   0.0   33.333333333333336
100.0   0.0   16.666666666666668
100.0   30.0   16.666666666666668
50.0   30.0   16.666666666666668
100.0   30.0   33.333333333333336
50.0   0.0   33.333333333333336
50.0   30.0   33.333333333333336
100.0   30.0   33.333333333333336
50.0   30.0   16.666666666666668
50.0   0.0   33.333333333333336
100.0   30.0   33.333333333333336
100.0   0.0   33.333333333333336
100.0   0.0   16.666666666666668
50.0   0.0   33.333333333333336
100.0   30.0   33.333333333333336
100.0   0.0   16.666666666666668
50.0   30.0   16.666666666666668
50.0   0.0   33.333333333333336
100.0   0.0   33.333333333333336
50.0   30.0   33.333333333333336
50.0   0.0   50.0
100.0   0.0   33.333333333333336
100.0   30.0   33.333333333333336
50.0   30.0   33.333333333333336
100.0   30.0   50.0
50.0   0.0   50.0
50.0   30.0   50.0
100.0   30.0   50.0
50.0   30.0   33.333333333333336
50.0   0.0   50.0
100.0   30.0   50.0
100.0   0.0   50.0
100.0   0.0   33.333333333333336
50.0   0.0   50.0
100.0   30.0   50.0
100.0   0.0   33.333333333333336
50.0   30.0   33.333333333333336
50.0   30.0   0.0
100.0   30.0   0.0
50.0   60.0   0.0
50.0   30.0   16.666666666666668
100.0   30.0   0.0
100.0   60.0   0.0
50.0   60.0   0.0
100.0   60.0   16.666666666666668
50.0   30.0   16.666666666666668
50.0   60.0   16.666666666666668
100.0   60.0   16.666666666666668
50.0   60.0   0.0
50.0   30.0   16.666666666666668
100.0   60.0   16.666666666666668
100.0   30.0   16.666666666666668
100.0   30.0   0.0
50.0   30.0   16.666666666666668
100.0   60.0   16.666666666666668
100.0   30.0   0.0
50.0   60.0   0.0
50.0   30.0   16.666666666666668
100.0   30.0   16.666666666666668
50.0   60.0   16.666666666666668
50.0   30.0   33.333333333333336
100.0   30.0   16.666666666666668
100.0   60.0   16.666666666666668
50.0   60.0   16.666666666666668
100.0   60.0   33.333333333333336
50.0   30.0   33.333333333333336
50.0   60.0   33.333333333333336
100.0   60.0   33.333333333333336
50.0   60.0   16.666666666666668
50.0   30.0   33.333333333333336
100.0   60.0   33.333333333333336
100.0   30.0   33.333333333333336
100.0   30.0   16.666666666666668
50.0   30.0   33.333333333333336
100.0   60.0   33.333333333333336
100.0   30.0   16.666666666666668
50.0   60.0   16.666666666666668
50.0   30.0   33.333333333333336
100.0   30.0   33.333333333333336
50.0   60.0   33.333333333333336
50.0   30.0   50.0
100.0   30.0   33.333333333333336
100.0   60.0   33.333333333333336
50.0   60.0   33.333333333333336
100.0   60.0   50.0
50.0   30.0   50.0
50.0   60.0   50.0
100.0   60.0   50.0
50.0   60.0   33.333333333333336
50.0   30.0   50.0
100.0   60.0   50.0
100.0   30.0   50.0
100.0   30.0   33.333333333333336
50.0   30.0   50.0
100.0   60.0   50.0
100.0   30.0   33.333333333333336
50.0   60.0   33.333333333333336
50.0   60.0   0.0
100.0   60.0   0.0
50.0   90.0   0.0
50.0   60.0   16.666666666666668
100.0   60.0   0.0
100.0   90.0   0.0
50.0   90.0   0.0
100.0   90.0   16.666666666666668
50.0   60.0   16.666666666666668
50.0   90.0   16.666666666666668
100.0   90.0   16.666666666666668
50.0   90.0   0.0
50.0   60.0   16.666666666666668
100.0   90.0   16.666666666666668
100.0   60.0   16.666666666666668
100.0   60.0   0.0
50.0   60.0   16.666666666666668
100.0   90.0   16.666666666666668
100.0   60.0   0.0
50.0   90.0   0.0
50.0   60.0   16.666666666666668
100.0   60.0   16.666666666666668
50.0   90.0   16.666666666666668
50.0   60.0   33.333333333333336
100.0   60.0   16.666666666666668
100.0   90.0   16.666666666666668
50.0   90.0   16.666666666666668
100.0   90.0   33.333333333333336
50.0   60.0   33.333333333333336
50.0   90.0   33.333333333333336
100.0   90.0   33.333333333333336
50.0   90.0   16.666666666666668
50.0   60.0   33.333333333333336
100.0   90.0   33.333333333333336
100.0   60.0   33.333333333333336
100.0   60.0   16.666666666666668
50.0   60.0   33.333333333333336
100.0   90.0   33.333333333333336
100.0   60.0   16.666666666666668
50.0   90.0   16.666666666666668
50.0   60.0   33.333333333333336
100.0   60.0   33.333333333333336
50.0   90.0   33.333333333333336
50.0   60.0   50.0
100.0   60.0   33.333333333333336
100.0   90.0   33.333333333333336
50.0   90.0   33.333333333333336
100.0   90.0   50.0
50.0   60.0   50.0
50.0   90.0   50.0
100.0   90.0   50.0
50.0   90.0   33.333333333333336
50.0   60.0   50.0
100.0   90.0   50.0
100.0   60.0   50.0
100.0   60.0   33.333333333333336
50.0   60.0   50.0
100.0   90.0   50.0
100.0   60.0   33.333333333333336
50.0   90.0   33.333333333333336
50.0   90.0   0.0
100.0   90.0   0.0
50.0   120.0   0.0
50.0   90.0   16.666666666666668
100.0   90.0   0.0
100.0   120.0   0.0
50.0   120.0   0.0
100.0   120.0   16.666666666666668
50.0   90.0   16.666666666666668
50.0   120.0   16.666666666666668
100.0   120.0   16.666666666666668
50.0   120.0   0.0
50.0   90.0   16.666666666666668
100.0   120.0   16.666666666666668
100.0   90.0   16.666666666666668
100.0   90.0   0.0
50.0   90.0   16.666666666666668
100.0   120.0   16.666666666666668
100.0   90.0   0.0
50.0   120.0   0.0
50.0   90.0   16.666666666666668
100.0   90.0   16.666666666666668
50.0   120.0   16.666666666666668
50.0   90.0   33.333333333333336
100.0   90.0   16.666666666666668
100.0   120.0   16.666666666666668
50.0   120.0   16.666666666666668
100.0   120.0   33.333333333333336
50.0   90.0   33.333333333333336
50.0   120.0   33.333333333333336
100.0   120.0   33.333333333333336
50.0   120.0   16.666666666666668
50.0   90.0   33.333333333333336
100.0   120.0   33.333333333333336
100.0   90.0   33.333333333333336
100.0   90.0   16.666666666666668
50.0   90.0   33.333333333333336
100.0   120.0   33.333333333333336
100.0   90.0   16.666666666666668
50.0   120.0   16.666666666666668
50.0   90.0   33.333333333333336
100.0   90.0   33.333333333333336
50.0   120.0   33.333333333333336
50.0   90.0   50.0
100.0   90.0   33.333333333333336
100.0   120.0   33.333333333333336
50.0   120.0   33.333333333333336
100.0   120.0   50.0
50.0   90.0   50.0
50.0   120.0   50.0
100.0   120.0   50.0
50.0   120.0   33.333333333333336
50.0   90.0   50.0
100.0   120.0   50.0
100.0   90.0   50.0
100.0   90.0   33.333333333333336
50.0   90.0   50.0
100.0   120.0   50.0
100.0   90.0   33.333333333333336
50.0   120.0   33.333333333333336
50.0   120.0   0.0
100.0   120.0   0.0
50.0   150.0   0.0
50.0   120.0   16.666666666666668
100.0   120.0   0.0
100.0   150.0   0.0
50.0   150.0   0.0
100.0   150.0   16.666666666666668
50.0   120.0   16.666666666666668
50.0   150.0   16.666666666666668
100.0   150.0   16.666666666666668
50.0   150.0   0.0
50.0   120.0   16.666666666666668
100.0   150.0   16.666666666666668
100.0   120.0   16.666666666666668
100.0   120.0   0.0
50.0   120.0   16.666666666666668
100.0   150.0   16.666666666666668
100.0   120.0   0.0
50.0   150.0   0.0
50.0   120.0   16.666666666666668
100.0   120.0   16.666666666666668
50.0   150.0   16.666666666666668
50.0   120.0   33.333333333333336
100.0   120.0   16.666666666666668
100.0   150.0   16.666666666666668
50.0   150.0   16.666666666666668
100.0   150.0   33.333333333333336
50.0   120.0   33.333333333333336
50.0   150.0   33.333333333333336
100.0   150.0   33.333333333333336
50.0   150.0   16.666666666666668
50.0   120.0   33.333333333333336
100.0   150.0   33.333333333333336
100.0   120.0   33.333333333333336
100.0   120.0   16.666666666666668
50.0   120.0   33.333333333333336
100.0   150.0   33.333333333333336
100.0   120.0   16.666666666666668
50.0   150.0   16.666666666666668
50.0   120.0   33.333333333333336
100.0   120.0   33.333333333333336
50.0   150.0   33.333333333333336
50.0   120.0   50.0
100.0   120.0   33.333333333333336
100.0   150.0   33.333333333333336
50.0   150.0   33.333333333333336
100.0   150.0   50.0
50.0   120.0   50.0
50.0   150.0   50.0
100.0   150.0   50.0
50.0   150.0   33.333333333333336
50.0   120.0   50.0
100.0   150.0   50.0
100.0   120.0   50.0
100.0   120.0   33.333333333333336
50.0   120.0   50.0
100.0   150.0   50.0
100.0   120.0   33.333333333333336
50.0   150.0   33.333333333333336
100.0   0.0   0.0
150.0   0.0   0.0
100.0   30.0   0.0
100.0   0.0   16.666666666666668
150.0   0.0   0.0
150.0   30.0   0.0
100.0   30.0   0.0
150.0   30.0   16.666666666666668
100.0   0.0   16.666666666666668
100.0   30.0   16.666666666666668
150.0   30.0   16.666666666666668
100.0   30.0   0.0
100.0   0.0   16.666666666666668
150.0   30.0   16.666666666666668
150.0   0.0   16.666666666666668
150.0   0.0   0.0
100.0   0.0   16.666666666666668
150.0   30.0   16.666666666666668
150.0   0.0   0.0
100.0   30.0   0.0
100.0   0.0   16.666666666666668
150.0   0.0   16.666666666666668
100.0   30.0   16.666666666666668
100.0   0.0   33.333333333333336
150.0   0.0   16.666666666666668
150.0   30.0   16.666666666666668
100.0   30.0   16.666666666666668
150.0   30.0   33.333333333333336
100.0   0.0   33.333333333333336
100.0   30.0   33.333333333333336
150.0   30.0   33.333333333333336
100.0   30.0   16.666666666666668
100.0   0.0   33.333333333333336
150.0   30.0   33.333333333333336
150.0   0.0   33.333333333333336
150.0   0.0   16.666666666666668
100.0   0.0   33.333333333333336
150.0   30.0   33.333333333333336
150.0   0.0   16.666666666666668
100.0   30.0   16.666666666666668
100.0   0.0   33.333333333333336
150.0   0.0   33.333333333333336
100.0   30.0   33.333333333333336
100.0   0.0   50.0
150.0   0.0   33.333333333333336
150.0   30.0   33.333333333333336
100.0   30.0   33.333333333333336
150.0   30.0   50.0
100.0   0.0   50.0
100.0   30.0   50.0
150.0   30.0   50.0
100.0   30.0   33.333333333333336
100.0   0.0   50.0
150.0   30.0   50.0
150.0   0.0   50.0
150.0   0.0   33.333333333333336
100.0   0.0   50.0
150.0   30.0   50.0
150.0   0.0   33.333333333333336
100.0   30.0   33.333333333333336
100.0   30.0   0.0
150.0   30.0   0.0
100.0   60.0   0.0
100.0   30.0   16.666666666666668
150.0   30.0   0.0
150.0   60.0   0.0
100.0   60.0   0.0
150.0   60.0   16.666666666666668
100.0   30.0   16.666666666666668
100.0   60.0   16.666666666666668
150.0   60.0   16.666666666666668
100.0   60.0   0.0
100.0   30.0   16.666666666666668
150.0   60.0   16.666666666666668
150.0   30.0   16.666666666666668
150.0   30.0   0.0
100.0   30.0   16.666666666666668
150.0   60.0   16.666666666666668
150.0   30.0   0.0
100.0   60.0   0.0
100.0   30.0   16.666666666666668
150.0   30.0   16.666666666666668
100.0   60.0   16.666666666666668
100.0   30.0   33.333333333333336
150.0   30.0   16.666666666666668
150.0   60.0   16.666666666666668
100.0   60.0   16.666666666666668
150.0   60.0   33.333333333333336
100.0   30.0   33.333333333333336
100.0   60.0   33.333333333333336
150.0   60.0   33.333333333333336
100.0   60.0   16.666666666666668
100.0   30.0   33.333333333333336
150.0   60.0   33.333333333333336
150.0   30.0   33.333333333333336
150.0   30.0   16.666666666666668
100.0   30.0   33.333333333333336
150.0   60.0   33.333333333333336
150.0   30.0   16.666666666666668
100.0   60.0   16.666666666666668
100.0   30.0   33.333333333333336
150.0   30.0   33.333333333333336
100.0   60.0   33.333333333333336
100.0   30.0   50.0
150.0   30.0   33.333333333333336
150.0   60.0   33.333333333333336
100.0   60.0   33.333333333333336
150.0   60.0   50.0
100.0   30.0   50.0
100.0   60.0   50.0
150.0   60.0   50.0
100.0   60.0   33.333333333333336
100.0   30.0   50.0
150.0   60.0   50.0
150.0   30.0   50.0
150.0   30.0   33.333333333333336
100.0   30.0   50.0
150.0   60.0   50.0
150.0   30.0   33.333333333333336
100.0   60.0   33.333333333333336
100.0   60.0   0.0
150.0   60.0   0.0
100.0   90.0   0.0
100.0   60.0   16.666666666666668
150.0   60.0   0.0
150.0   90.0   0.0
100.0   90.0   0.0
150.0   90.0   16.666666666666668
100.0   60.0   16.666666666666668
100.0   90.0   16.666666666666668
150.0   90.0   16.666666666666668
100.0   90.0   0.0
100.0   60.0   16.666666666666668
150.0   90.0   16.666666666666668
150.0   60.0   16.666666666666668
150.0   60.0   0.0
100.0   60.0   16.666666666666668
150.0   90.0   16.666666666666668
150.0   60.0   0.0
100.0   90.0   0.0
100.0   60.0   16.666666666666668
150.0   60.0   16.666666666666668
100.0   90.0   16.666666666666668
100.0   60.0   33.333333333333336
150.0   60.0   16.666666666666668
150.0   90.0   16.666666666666668
100.0   90.0   16.666666666666668
150.0   90.0   33.333333333333336
100.0   60.0   33.333333333333336
100.0   90.0   33.333333333333336
150.0   90.0   33.333333333333336
100.0   90.0   16.666666666666668
100.0   60.0   33.333333333333336
150.0   90.0   33.333333333333336
150.0   60.0   33.333333333333336
150.0   60.0   16.666666666666668
100.0   60.0   33.333333333333336
150.0   90.0   33.333333333333336
150.0   60.0   16.666666666666668
100.0   90.0   16.666666666666668
100.0   60.0   33.333333333333336
150.0   60.0   33.333333333333336
100.0   90.0   33.333333333333336
100.0   60.0   50.0
150.0   60.0   33.333333333333336
150.0   90.0   33.333333333333336
100.0   90.0   33.333333333333336
150.0   90.0   50.0
100.0   60.0   50.0
100.0   90.0   50.0
150.0   90.0   50.0
100.0   90.0   33.333333333333336
100.0   60.0   50.0
150.0   90.0   50.0
150.0   60.0   50.0
150.0   60.0   33.333333333333336
100.0   60.0   50.0
150.0   90.0   50.0
150.0   60.0   33.333333333333336
100.0   90.0   33.333333333333336
100.0   90.0   0.0
150.0   90.0   0.0
100.0   120.0   0.0
100.0   90.0   16.666666666666668
150.0   90.0   0.0
150.0   120.0   0.0
100.0   120.0   0.0
150.0   120.0   16.666666666666668
100.0   90.0   16.666666666666668
100.0   120.0   16.666666666666668
150.0   120.0   16.666666666666668
100.0   120.0   0.0
100.0   90.0   16.666666666666668
150.0   120.0   16.666666666666668
150.0   90.0   16.666666666666668
150.0   90.0   0.0
100.0   90.0   16.666666666666668
150.0   120.0   16.666666666666668
150.0   90.0   0.0
100.0   120.0   0.0
100.0   90.0   16.666666666666668
150.0   90.0   16.666666666666668
100.0   120.0   16.666666666666668
100.0   90.0   33.333333333333336
150.0   90.0   16.666666666666668
150.0   120.0   16.666666666666668
100.0   120.0   16.666666666666668
150.0   120.0   33.333333333333336
100.0   90.0   33.333333333333336
100.0   120.0   33.333333333333336
150.0   120.0   33.333333333333336
100.0   120.0   16.666666666666668
100.0   90.0   33.333333333333336
150.0   120.0   33.333333333333336
150.0   90.0   33.333333333333336
150.0   90.0   16.666666666666668
100.0   90.0   33.333333333333336
150.0   120.0   33.333333333333336
150.0   90.0   16.666666666666668
100.0   120.0   16.666666666666668
100.0   90.0   33.333333333333336
150.0   90.0   33.333333333333336
100.0   120.0   33.333333333333336
100.0   90.0   50.0
150.0   90.0   33.333333333333336
150.0   120.0   33.333333333333336
100.0   120.0   33.333333333333336
150.0   120.0   50.0
100.0   90.0   50.0
100.0   120.0   50.0
150.0   120.0   50.0
100.0   120.0   33.333333333333336
100.0   90.0   50.0
150.0   120.0   50.0
150.0   90.0   50.0
150.0   90.0   33.333333333333336
100.0   90.0   50.0
150.0   120.0   50.0
150.0   90.0   33.333333333333336
100.0   120.0   33.333333333333336
100.0   120.0   0.0
150.0   120.0   0.0
100.0   150.0   0.0
100.0   120.0   16.666666666666668
150.0   120.0   0.0
150.0   150.0   0.0
100.0   150.0   0.0
150.0   150.0   16.666666666666668
100.0   120.0   16.666666666666668
100.0   150.0   16.666666666666668
150.0   150.0   16.666666666666668
100.0   150.0   0.0
100.0   120.0   16.666666666666668
150.0   150.0   16.666666666666668
150.0   120.0   16.666666666666668
150.0   120.0   0.0
100.0   120.0   16.666666666666668
150.0   150.0   16.666666666666668
150.0   120.0   0.0
100.0   150.0   0.0
100.0   120.0   16.666666666666668
150.0   120.0   16.666666666666668
100.0   150.0   16.666666666666668
100.0   120.0   33.333333333333336
150.0   120.0   16.666666666666668
150.0   150.0   16.666666666666668
100.0   150.0   16.666666666666668
150.0   150.0   33.333333333333336
100.0   120.0   33.333333333333336
100.0   150.0   33.333333333333336
150.0   150.0   33.333333333333336
100.0   150.0   16.666666666666668
100.0   120.0   33.333333333333336
150.0   150.0   33.333333333333336
150.0   120.0   33.333333333333336
150.0   120.0   16.666666666666668
100.0   120.0   33.333333333333336
150.0   150.0   33.333333333333336
150.0   120.0   16.666666666666668
100.0   150.0   16.666666666666668
100.0   120.0   33.333333333333336
150.0   120.0   33.333333333333336
100.0   150.0   33.333333333333336
100.0   120.0   50.0
150.0   120.0   33.333333333333336
150.0   150.0   33.333333333333336
100.0   150.0   33.333333333333336
150.0   150.0   50.0
100.0   120.0   50.0
100.0   150.0   50.0
150.0   150.0   50.0
100.0   150.0   33.333333333333336
100.0   120.0   50.0
150.0   150.0   50.0
150.0   120.0   50.0
150.0   120.0   33.333333333333336
100.0   120.0   50.0
150.0   150.0   50.0
150.0   120.0   33.333333333333336
100.0   150.0   33.333333333333336
150.0   0.0   0.0
200.0   0.0   0.0
150.0   30.0   0.0
150.0   0.0   16.666666666666668
200.0   0.0   0.0
200.0   30.0   0.0
150.0   30.0   0.0
200.0   30.0   16.666666666666668
150.0   0.0   16.666666666666668
150.0   30.0   16.666666666666668
200.0   30.0   16.666666666666668
150.0   30.0   0.0
150.0   0.0   16.666666666666668
200.0   30.0   16.666666666666668
200.0   0.0   16.666666666666668
200.0   0.0   0.0
150.0   0.0   16.666666666666668
200.0   30.0   16.666666666666668
200.0   0.0   0.0
150.0   30.0   0.0
150.0   0.0   16.666666666666668
200.0   0.0   16.666666666666668
150.0   30.0   16.666666666666668
150.0   0.0   33.333333333333336
200.0   0.0   16.666666666666668
200.0   30.0   16.666666666666668
150.0   30.0   16.666666666666668
200.0   30.0   33.333333333333336
150.0   0.0   33.333333333333336
150.0   30.0   33.333333333333336
200.0   30.0   33.333333333333336
150.0   30.0   16.666666666666668
150.0   0.0   33.333333333333336
200.0   30.0   33.333333333333336
200.0   0.0   33.333333333333336
200.0   0.0   16.666666666666668
150.0   0.0   33.333333333333336
200.0   30.0   33.333333333333336
200.0   0.0   16.666666666666668
150.0   30.0   16.666666666666668
150.0   0.0   33.333333333333336
200.0   0.0   33.333333333333336
150.0   30.0   33.333333333333336
150.0   0.0   50.0
200.0   0.0   33.333333333333336
200.0   30.0   33.333333333333336
150.0   30.0   33.333333333333336
200.0   30.0   50.0
150.0   0.0   50.0
150.0   30.0   50.0
200.0   30.0   50.0
150.0   30.0   33.333333333333336
150.0   0.0   50.0
200.0   30.0   50.0
200.0   0.0   50.0
200.0   0.0   33.333333333333336
150.0   0.0   50.0
200.0   30.0   50.0
200.0   0.0   33.333333333333336
150.0   30.0   33.333333333333336
150.0   30.0   0.0
200.0   30.0   0.0
150.0   60.0   0.0
150.0   30.0   16.666666666666668
200.0   30.0   0.0
200.0   60.0   0.0
150.0   60.0   0.0
200.0   60.0   16.666666666666668
150.0   30.0   16.666666666666668
150.0   60.0   16.666666666666668
200.0   60.0   16.666666666666668
150.0   60.0   0.0
150.0   30.0   16.666666666666668
200.0   60.0   16.666666666666668
200.0   30.0   16.666666666666668
200.0   30.0   0.0
150.0   30.0   16.666666666666668
200.0   60.0   16.666666666666668
200.0   30.0   0.0
150.0   60.0   0.0
150.0   30.0   16.666666666666668
200.0   30.0   16.666666666666668
150.0   60.0   16.666666666666668
150.0   30.0   33.333333333333336
200.0   30.0   16.666666666666668
200.0   60.0   16.666666666666668
150.0   60.0   16.666666666666668
200.0   60.0   33.333333333333336
150.0   30.0   33.333333333333336
150.0   60.0   33.333333333333336
200.0   60.0   33.333333333333336
150.0   60.0   16.666666666666668
150.0   30.0   33.333333333333336
200.0   60.0   33.333333333333336
200.0   30.0   33.333333333333336
200.0   30.0   16.666666666666668
150.0   30.0   33.333333333333336
200.0   60.0   33.333333333333336
200.0   30.0   16.666666666666668
150.0   60.0   16.666666666666668
150.0   30.0   33.333333333333336
200.0   30.0   33.333333333333336
150.0   60.0   33.333333333333336
150.0   30.0   50.0
200.0   30.0   33.333333333333336
200.0   60.0   33.333333333333336
150.0   60.0   33.333333333333336
200.0   60.0   50.0
150.0   30.0   50.0
150.0   60.0   50.0
200.0   60.0   50.0
150.0   60.0   33.333333333333336
150.0   30.0   50.0
200.0   60.0   50.0
200.0   30.0   50.0
200.0   30.0   33.333333333333336
150.0   30.0   50.0
200.0   60.0   50.0
200.0   30.0   33.333333333333336
150.0   60.0   33.333333333333336
150.0   60.0   0.0
200.0   60.0   0.0
150.0   90.0   0.0
150.0   60.0   16.666666666666668
200.0   60.0   0.0
200.0   90.0   0.0
150.0   90.0   0.0
200.0   90.0   16.666666666666668
150.0   60.0   16.666666666666668
150.0   90.0   16.666666666666668
200.0   90.0   16.666666666666668
150.0   90.0   0.0
150.0   60.0   16.666666666666668
200.0   90.0   16.666666666666668
200.0   60.0   16.666666666666668
200.0   60.0   0.0
150.0   60.0   16.666666666666668
200.0   90.0   16.666666666666668
200.0   60.0   0.0
150.0   90.0   0.0
150.0   60.0   16.666666666666668
200.0   60.0   16.666666666666668
150.0   90.0   16.666666666666668
150.0   60.0   33.333333333333336
200.0   60.0   16.666666666666668
200.0   90.0   16.666666666666668
150.0   90.0   16.666666666666668
200.0   90.0   33.333333333333336
150.0   60.0   33.333333333333336
150.0   90.0   33.333333333333336
200.0   90.0   33.333333333333336
150.0   90.0   16.666666666666668
150.0   60.0   33.333333333333336
200.0   90.0   33.333333333333336
200.0   60.0   33.333333333333336
200.0   60.0   16.666666666666668
150.0   60.0   33.333333333333336
200.0   90.0   33.333333333333336
200.0   60.0   16.666666666666668
150.0   90.0   16.666666666666668
150.0   60.0   33.333333333333336
200.0   60.0   33.333333333333336
150.0   90.0   33.333333333333336
150.0   60.0   50.0
200.0   60.0   33.333333333333336
200.0   90.0   33.333333333333336
150.0   90.0   33.333333333333336
200.0   90.0   50.0
150.0   60.0   50.0
150.0   90.0   50.0
200.0   90.0   50.0
150.0   90.0   33.333333333333336
150.0   60.0   50.0
200.0   90.0   50.0
200.0   60.0   50.0
200.0   60.0   33.333333333333336
150.0   60.0   50.0
200.0   90.0   50.0
200.0   60.0   33.333333333333336
150.0   90.0   33.333333333333336
150.0   90.0   0.0
200.0   90.0   0.0
150.0   120.0   0.0
150.0   90.0   16.666666666666668
200.0   90.0   0.0
200.0   120.0   0.0
150.0   120.0   0.0
200.0   120.0   16.666666666666668
150.0   90.0   16.666666666666668
150.0   120.0   16.666666666666668
200.0   120.0   16.666666666666668
150.0   120.0   0.0
150.0   90.0   16.666666666666668
200.0   120.0   16.666666666666668
200.0   90.0   16.666666666666668
200.0   90.0   0.0
150.0   90.0   16.666666666666668
200.0   120.0   16.666666666666668
200.0   90.0   0.0
150.0   120.0   0.0
150.0   90.0   16.666666666666668
200.0   90.0   16.666666666666668
150.0   120.0   16.666666666666668
150.0   90.0   33.333333333333336
200.0   90.0   16.666666666666668
200.0   120.0   16.666666666666668
150.0   120.0   16.666666666666668
200.0   120.0   33.333333333333336
150.0   90.0   33.333333333333336
150.0   120.0   33.333333333333336
200.0   120.0   33.333333333333336
150.0   120.0   16.666666666666668
150.0   90.0   33.333333333333336
200.0   120.0   33.333333333333336
200.0   90.0   33.333333333333336
200.0   90.0   16.666666666666668
150.0   90.0   33.333333333333336
200.0   120.0   33.333333333333336
200.0   90.0   16.666666666666668
150.0   120.0   16.666666666666668
150.0   90.0   33.333333333333336
200.0   90.0   33.333333333333336
150.0   120.0   33.333333333333336
150.0   90.0   50.0
200.0   90.0   33.333333333333336
200.0   120.0   33.333333333333336
150.0   120.0   33.333333333333336
200.0   120.0   50.0
150.0   90.0   50.0
150.0   120.0   50.0
200.0   120.0   50.0
150.0   120.0   33.333333333333336
150.0   90.0   50.0
200.0   120.0   50.0
200.0   90.0   50.0
200.0   90.0   33.333333333333336
150.0   90.0   50.0
200.0   120.0   50.0
200.0   90.0   33.333333333333336
150.0   120.0   33.333333333333336
150.0   120.0   0.0
200.0   120.0   0.0
150.0   150.0   0.0
150.0   120.0   16.666666666666668
200.0   120.0   0.0
200.0   150.0   0.0
150.0   150.0   0.0
200.0   150.0   16.666666666666668
150.0   120.0   16.666666666666668
150.0   150.0   16.666666666666668
200.0   150.0   16.666666666666668
150.0   150.0   0.0
150.0   120.0   16.666666666666668
200.0   150.0   16.666666666666668
200.0   120.0   16.666666666666668
200.0   120.0   0.0
150.0   120.0   16.666666666666668
200.0   150.0   16.666666666666668
200.0   120.0   0.0
150.0   150.0   0.0
150.0   120.0   16.666666666666668
200.0   120.0   16.666666666666668
150.0   150.0   16.666666666666668
150.0   120.0   33.333333333333336
200.0   120.0   16.666666666666668
200.0   150.0   16.666666666666668
150.0   150.0   16.666666666666668
200.0   150.0   33.333333333333336
150.0   120.0   33.333333333333336
150.0   150.0   33.333333333333336
200.0   150.0   33.333333333333336
150.0   150.0   16.666666666666668
150.0   120.0   33.333333333333336
200.0   150.0   33.333333333333336
200.0   120.0   33.333333333333336
200.0   120.0   16.666666666666668
150.0   120.0   33.333333333333336
200.0   150.0   33.333333333333336
200.0   120.0   16.666666666666668
150.0   150.0   16.666666666666668
150.0   120.0   33.333333333333336
200.0   120.0   33.333333333333336
150.0   150.0   33.333333333333336
150.0   120.0   50.0
200.0   120.0   33.333333333333336
200.0   150.0   33.333333333333336
150.0   150.0   33.333333333333336
200.0   150.0   50.0
150.0   120.0   50.0
150.0   150.0   50.0
200.0   150.0   50.0
150.0   150.0   33.333333333333336
150.0   120.0   50.0
200.0   150.0   50.0
200.0   120.0   50.0
200.0   120.0   33.333333333333336
150.0   120.0   50.0
200.0   150.0   50.0
200.0   120.0   33.333333333333336
150.0   150.0   33.333333333333336
200.0   0.0   0.0
250.0   0.0   0.0
200.0   30.0   0.0
200.0   0.0   16.666666666666668
250.0   0.0   0.0
250.0   30.0   0.0
200.0   30.0   0.0
250.0   30.0   16.666666666666668
200.0   0.0   16.666666666666668
200.0   30.0   16.666666666666668
250.0   30.0   16.666666666666668
200.0   30.0   0.0
200.0   0.0   16.666666666666668
250.0   30.0   16.666666666666668
250.0   0.0   16.666666666666668
250.0   0.0   0.0
200.0   0.0   16.666666666666668
250.0   30.0   16.666666666666668
250.0   0.0   0.0
200.0   30.0   0.0
200.0   0.0   16.666666666666668
250.0   0.0   16.666666666666668
200.0   30.0   16.666666666666668
200.0   0.0   33.333333333333336
250.0   0.0   16.666666666666668
250.0   30.0   16.666666666666668
200.0   30.0   16.666666666666668
250.0   30.0   33.333333333333336
200.0   0.0   33.333333333333336
200.0   30.0   33.333333333333336
250.0   30.0   33.333333333333336
200.0   30.0   16.666666666666668
200.0   0.0   33.333333333333336
250.0   30.0   33.333333333333336
250.0   0.0   33.333333333333336
250.0   0.0   16.666666666666668
200.0   0.0   33.333333333333336
250.0   30.0   33.333333333333336
250.0   0.0   16.666666666666668
200.0   30.0   16.666666666666668
200.0   0.0   33.333333333333336
250.0   0.0   33.333333333333336
200.0   30.0   33.333333333333336
200.0   0.0   50.0
250.0   0.0   33.333333333333336
250.0   30.0   33.333333333333336
200.0   30.0   33.333333333333336
250.0   30.0   50.0
200.0   0.0   50.0
200.0   30.0   50.0
250.0   30.0   50.0
200.0   30.0   33.333333333333336
200.0   0.0   50.0
250.0   30.0   50.0
250.0   0.0   50.0
250.0   0.0   33.333333333333336
200.0   0.0   50.0
250.0   30.0   50.0
250.0   0.0   33.333333333333336
200.0   30.0   33.333333333333336
200.0   30.0   0.0
250.0   30.0   0.0
200.0   60.0   0.0
200.0   30.0   16.666666666666668
250.0   30.0   0.0
250.0   60.0   0.0
200.0   60.0   0.0
250.0   60.0   16.666666666666668
200.0   30.0   16.666666666666668
200.0   60.0   16.666666666666668
250.0   60.0   16.666666666666668
200.0   60.0   0.0
200.0   30.0   16.666666666666668
250.0   60.0   16.666666666666668
250.0   30.0   16.666666666666668
250.0   30.0   0.0
200.0   30.0   16.666666666666668
250.0   60.0   16.666666666666668
250.0   30.0   0.0
200.0   60.0   0.0
200.0   30.0   16.666666666666668
250.0   30.0   16.666666666666668
200.0   60.0   16.666666666666668
200.0   30.0   33.333333333333336
250.0   30.0   16.666666666666668
250.0   60.0   16.666666666666668
200.0   60.0   16.666666666666668
250.0   60.0   33.333333333333336
200.0   30.0   33.333333333333336
200.0   60.0   33.333333333333336
250.0   60.0   33.333333333333336
200.0   60.0   16.666666666666668
200.0   30.0   33.333333333333336
250.0   60.0   33.333333333333336
250.0   30.0   33.333333333333336
250.0   30.0   16.666666666666668
200.0   30.0   33.333333333333336
250.0   60.0   33.333333333333336
250.0   30.0   16.666666666666668
200.0   60.0   16.666666666666668
200.0   30.0   33.333333333333336
250.0   30.0   33.333333333333336
200.0   60.0   33.333333333333336
200.0   30.0   50.0
250.0   30.0   33.333333333333336
250.0   60.0   33.333333333333336
200.0   60.0   33.333333333333336
250.0   60.0   50.0
200.0   30.0   50.0
200.0   60.0   50.0
250.0   60.0   50.0
200.0   60.0   33.333333333333336
200.0   30.0   50.0
250.0   60.0   50.0
250.0   30.0   50.0
250.0   30.0   33.333333333333336
200.0   30.0   50.0
250.0   60.0   50.0
250.0   30.0   33.333333333333336
200.0   60.0   33.333333333333336
200.0   60.0   0.0
250.0   60.0   0.0
200.0   90.0   0.0
200.0   60.0   16.666666666666668
250.0   60.0   0.0
250.0   90.0   0.0
200.0   90.0   0.0
250.0   90.0   16.666666666666668
200.0   60.0   16.666666666666668
200.0   90.0   16.666666666666668
250.0   90.0   16.666666666666668
200.0   90.0   0.0
200.0   60.0   16.666666666666668
250.0   90.0   16.666666666666668
250.0   60.0   16.666666666666668
250.0   60.0   0.0
200.0   60.0   16.666666666666668
250.0   90.0   16.666666666666668
250.0   60.0   0.0
200.0   90.0   0.0
200.0   60.0   16.666666666666668
250.0   60.0   16.666666666666668
200.0   90.0   16.666666666666668
200.0   60.0   33.333333333333336
250.0   60.0   16.666666666666668
250.0   90.0   16.666666666666668
200.0   90.0   16.666666666666668
250.0   90.0   33.333333333333336
200.0   60.0   33.333333333333336
200.0   90.0   33.333333333333336
250.0   90.0   33.333333333333336
200.0   90.0   16.666666666666668
200.0   60.0   33.333333333333336
250.0   90.0   33.333333333333336
250.0   60.0   33.333333333333336
250.0   60.0   16.666666666666668
200.0   60.0   33.333333333333336
250.0   90.0   33.333333333333336
250.0   60.0   16.666666666666668
200.0   90.0   16.666666666666668
200.0   60.0   33.333333333333336
250.0   60.0   33.333333333333336
200.0   90.0   33.333333333333336
200.0   60.0   50.0
250.0   60.0   33.333333333333336
250.0   90.0   33.333333333333336
200.0   90.0   33.333333333333336
250.0   90.0   50.0
200.0   60.0   50.0
200.0   90.0   50.0
250.0   90.0   50.0
200.0   90.0   33.333333333333336
200.0   60.0   50.0
250.0   90.0   50.0
250.0   60.0   50.0
250.0   60.0   33.333333333333336
200.0   60.0   50.0
250.0   90.0   50.0
250.0   60.0   33.333333333333336
200.0   90.0   33.333333333333336
200.0   90.0   0.0
250.0   90.0   0.0
200.0   120.0   0.0
200.0   90.0   16.666666666666668
250.0   90.0   0.0
250.0   120.0   0.0
200.0   120.0   0.0
250.0   120.0   16.666666666666668
200.0   90.0   16.666666666666668
200.0   120.0   16.666666666666668
250.0   120.0   16.666666666666668
200.0   120.0   0.0
200.0   90.0   16.666666666666668
250.0   120.0   16.666666666666668
250.0   90.0   16.666666666666668
250.0   90.0   0.0
200.0   90.0   16.666666666666668
250.0   120.0   16.666666666666668
250.0   90.0   0.0
200.0   120.0   0.0
200.0   90.0   16.666666666666668
250.0   90.0   16.666666666666668
200.0   120.0   16.666666666666668
200.0   90.0   33.333333333333336
250.0   90.0   16.666666666666668
250.0   120.0   16.666666666666668
200.0   120.0   16.666666666666668
250.0   120.0   33.333333333333336
200.0   90.0   33.333333333333336
200.0   120.0   33.333333333333336
250.0   120.0   33.333333333333336
200.0   120.0   16.666666666666668
200.0   90.0   33.333333333333336
250.0   120.0   33.333333333333336
250.0   90.0   33.333333333333336
250.0   90.0   16.666666666666668
200.0   90.0   33.333333333333336
250.0   120.0   33.333333333333336
250.0   90.0   16.666666666666668
200.0   120.0   16.666666666666668
200.0   90.0   33.333333333333336
250.0   90.0   33.333333333333336
200.0   120.0   33.333333333333336
200.0   90.0   50.0
250.0   90.0   33.333333333333336
250.0   120.0   33.333333333333336
200.0   120.0   33.333333333333336
250.0   120.0   50.0
200.0   90.0   50.0
200.0   120.0   50.0
250.0   120.0   50.0
200.0   120.0   33.333333333333336
200.0   90.0   50.0
250.0   120.0   50.0
250.0   90.0   50.0
250.0   90.0   33.333333333333336
200.0   90.0   50.0
250.0   120.0   50.0
250.0   90.0   33.333333333333336
200.0   120.0   33.333333333333336
200.0   120.0   0.0
250.0   120.0   0.0
200.0   150.0   0.0
200.0   120.0   16.666666666666668
250.0   120.0   0.0
250.0   150.0   0.0
200.0   150.0   0.0
250.0   150.0   16.666666666666668
200.0   120.0   16.666666666666668
200.0   150.0   16.666666666666668
250.0   150.0   16.666666666666668
200.0   150.0   0.0
200.0   120.0   16.666666666666668
250.0   150.0   16.666666666666668
250.0   120.0   16.666666666666668
250.0   120.0   0.0
200.0   120.0   16.666666666666668
250.0   150.0   16.666666666666668
250.0   120.0   0.0
200.0   150.0   0.0
200.0   120.0   16.666666666666668
250.0   120.0   16.666666666666668
200.0   150.0   16.666666666666668
200.0   120.0   33.333333333333336
250.0   120.0   16.666666666666668
250.0   150.0   16.666666666666668
200.0   150.0   16.666666666666668
250.0   150.0   33.333333333333336
200.0   120.0   33.333333333333336
200.0   150.0   33.333333333333336
250.0   150.0   33.333333333333336
200.0   150.0   16.666666666666668
200.0   120.0   33.333333333333336
250.0   150.0   33.333333333333336
250.0   120.0   33.333333333333336
250.0   120.0   16.666666666666668
200.0   120.0   33.333333333333336
250.0   150.0   33.333333333333336
250.0   120.0   16.666666666666668
200.0   150.0   16.666666666666668
200.0   120.0   33.333333333333336
250.0   120.0   33.333333333333336
200.0   150.0   33.333333333333336
200.0   120.0   50.0
250.0   120.0   33.333333333333336
250.0   150.0   33.333333333333336
200.0   150.0   33.333333333333336
250.0   150.0   50.0
200.0   120.0   50.0
200.0   150.0   50.0
250.0   150.0   50.0
200.0   150.0   33.333333333333336
200.0   120.0   50.0
250.0   150.0   50.0
250.0   120.0   50.0
250.0   120.0   33.333333333333336
200.0   120.0   50.0
250.0   150.0   50.0
250.0   120.0   33.333333333333336
200.0   150.0   33.333333333333336
250.0   0.0   0.0
300.0   0.0   0.0
250.0   30.0   0.0
250.0   0.0   16.666666666666668
300.0   0.0   0.0
300.0   30.0   0.0
250.0   30.0   0.0
300.0   30.0   16.666666666666668
250.0   0.0   16.666666666666668
250.0   30.0   16.666666666666668
300.0   30.0   16.666666666666668
250.0   30.0   0.0
250.0   0.0   16.666666666666668
300.0   30.0   16.666666666666668
300.0   0.0   16.666666666666668
300.0   0.0   0.0
250.0   0.0   16.666666666666668
300.0   30.0   16.666666666666668
300.0   0.0   0.0
250.0   30.0   0.0
250.0   0.0   16.666666666666668
300.0   0.0   16.666666666666668
250.0   30.0   16.666666666666668
250.0   0.0   33.333333333333336
300.0   0.0   16.666666666666668
300.0   30.0   16.666666666666668
250.0   30.0   16.666666666666668
300.0   30.0   33.333333333333336
250.0   0.0   33.333333333333336
250.0   30.0   33.333333333333336
300.0   30.0   33.333333333333336
250.0   30.0   16.666666666666668
250.0   0.0   33.333333333333336
300.0   30.0   33.333333333333336
300.0   0.0   33.333333333333336
300.0   0.0   16.666666666666668
250.0   0.0   33.333333333333336
300.0   30.0   33.333333333333336
300.0   0.0   16.666666666666668
250.0   30.0   16.666666666666668
250.0   0.0   33.333333333333336
300.0   0.0   33.333333333333336
250.0   30.0   33.333333333333336
250.0   0.0   50.0
300.0   0.0   33.333333333333336
300.0   30.0   33.333333333333336
250.0   30.0   33.333333333333336
300.0   30.0   50.0
250.0   0.0   50.0
250.0   30.0   50.0
300.0   30.0   50.0
250.0   30.0   33.333333333333336
250.0   0.0   50.0
300.0   30.0   50.0
300.0   0.0   50.0
300.0   0.0   33.333333333333336
250.0   0.0   50.0
300.0   30.0   50.0
300.0   0.0   33.333333333333336
250.0   30.0   33.333333333333336
250.0   30.0   0.0
300.0   30.0   0.0
250.0   60.0   0.0
250.0   30.0   16.666666666666668
300.0   30.0   0.0
300.0   60.0   0.0
250.0   60.0   0.0
300.0   60.0   16.666666666666668
250.0   30.0   16.666666666666668
250.0   60.0   16.666666666666668
300.0   60.0   16.666666666666668
250.0   60.0   0.0
250.0   30.0   16.666666666666668
300.0   60.0   16.666666666666668
300.0   30.0   16.666666666666668
300.0   30.0   0.0
250.0   30.0   16.666666666666668
300.0   60.0   16.666666666666668
300.0   30.0   0.0
250.0   60.0   0.0
250.0   30.0   16.666666666666668
300.0   30.0   16.666666666666668
250.0   60.0   16.666666666666668
250.0   30.0   33.333333333333336
300.0   30.0   16.666666666666668
300.0   60.0   16.666666666666668
250.0   60.0   16.666666666666668
300.0   60.0   33.333333333333336
250.0   30.0   33.333333333333336
250.0   60.0   33.333333333333336
300.0   60.0   33.333333333333336
250.0   60.0   16.666666666666668
250.0   30.0   33.333333333333336
300.0   60.0   33.333333333333336
300.0   30.0   33.333333333333336
300.0   30.0   16.666666666666668
250.0   30.0   33.333333333333336
300.0   60.0   33.333333333333336
300.0   30.0   16.666666666666668
250.0   60.0   16.666666666666668
250.0   30.0   33.333333333333336
300.0   30.0   33.333333333333336
250.0   60.0   33.333333333333336
250.0   30.0   50.0
300.0   30.0   33.333333333333336
300.0   60.0   33.333333333333336
250.0   60.0   33.333333333333336
300.0   60.0   50.0
250.0   30.0   50.0
250.0   60.0   50.0
300.0   60.0   50.0
250.0   60.0   33.333333333333336
250.0   30.0   50.0
300.0   60.0   50.0
300.0   30.0   50.0
300.0   30.0   33.333333333333336
250.0   30.0   50.0
300.0   60.0   50.0
300.0   30.0   33.333333333333336
250.0   60.0   33.333333333333336
250.0   60.0   0.0
300.0   60.0   0.0
250.0   90.0   0.0
250.0   60.0   16.666666666666668
300.0   60.0   0.0
300.0   90.0   0.0
250.0   90.0   0.0
300.0   90.0   16.666666666666668
250.0   60.0   16.666666666666668
250.0   90.0   16.666666666666668
300.0   90.0   16.666666666666668
250.0   90.0   0.0
250.0   60.0   16.666666666666668
300.0   90.0   16.666666666666668
300.0   60.0   16.666666666666668
300.0   60.0   0.0
250.0   60.0   16.666666666666668
300.0   90.0   16.666666666666668
300.0   60.0   0.0
250.0   90.0   0.0
250.0   60.0   16.666666666666668
300.0   60.0   16.666666666666668
250.0   90.0   16.666666666666668
250.0   60.0   33.333333333333336
300.0   60.0   16.666666666666668
300.0   90.0   16.666666666666668
250.0   90.0   16.666666666666668
300.0   90.0   33.333333333333336
250.0   60.0   33.333333333333336
250.0   90.0   33.333333333333336
300.0   90.0   33.333333333333336
250.0   90.0   16.666666666666668
250.0   60.0   33.333333333333336
300.0   90.0   33.333333333333336
300.0   60.0   33.333333333333336
300.0   60.0   16.666666666666668
250.0   60.0   33.333333333333336
300.0   90.0   33.333333333333336
300.0   60.0   16.666666666666668
250.0   90.0   16.666666666666668
250.0   60.0   33.333333333333336
300.0   60.0   33.333333333333336
250.0   90.0   33.333333333333336
250.0   60.0   50.0
300.0   60.0   33.333333333333336
300.0   90.0   33.333333333333336
250.0   90.0   33.333333333333336
300.0   90.0   50.0
250.0   60.0   50.0
250.0   90.0   50.0
300.0   90.0   50.0
250.0   90.0   33.333333333333336
250.0   60.0   50.0
300.0   90.0   50.0
300.0   60.0   50.0
300.0   60.0   33.333333333333336
250.0   60.0   50.0
300.0   90.0   50.0
300.0   60.0   33.333333333333336
250.0   90.0   33.333333333333336
250.0   90.0   0.0
300.0   90.0   0.0
250.0   120.0   0.0
250.0   90.0   16.666666666666668
300.0   90.0   0.0
300.0   120.0   0.0
250.0   120.0   0.0
300.0   120.0   16.666666666666668
250.0   90.0   16.666666666666668
250.0   120.0   16.666666666666668
300.0   120.0   16.666666666666668
250.0   120.0   0.0
250.0   90.0   16.666666666666668
300.0   120.0   16.666666666666668
300.0   90.0   16.666666666666668
300.0   90.0   0.0
250.0   90.0   16.666666666666668
300.0   120.0   16.666666666666668
300.0   90.0   0.0
250.0   120.0   0.0
250.0   90.0   16.666666666666668
300.0   90.0   16.666666666666668
250.0   120.0   16.666666666666668
250.0   90.0   33.333333333333336
300.0   90.0   16.666666666666668
300.0   120.0   16.666666666666668
250.0   120.0   16.666666666666668
300.0   120.0   33.333333333333336
250.0   90.0   33.333333333333336
250.0   120.0   33.333333333333336
300.0   120.0   33.333333333333336
250.0   120.0   16.666666666666668
250.0   90.0   33.333333333333336
300.0   120.0   33.333333333333336
300.0   90.0   33.333333333333336
300.0   90.0   16.666666666666668
250.0   90.0   33.333333333333336
300.0   120.0   33.333333333333336
300.0   90.0   16.666666666666668
250.0   120.0   16.666666666666668
250.0   90.0   33.333333333333336
300.0   90.0   33.333333333333336
250.0   120.0   33.333333333333336
250.0   90.0   50.0
300.0   90.0   33.333333333333336
300.0   120.0   33.333333333333336
250.0   120.0   33.333333333333336
300.0   120.0   50.0
250.0   90.0   50.0
250.0   120.0   50.0
300.0   120.0   50.0
250.0   120.0   33.333333333333336
250.0   90.0   50.0
300.0   120.0   50.0
300.0   90.0   50.0
300.0   90.0   33.333333333333336
250.0   90.0   50.0
300.0   120.0   50.0
300.0   90.0   33.333333333333336
250.0   120.0   33.333333333333336
250.0   120.0   0.0
300.0   120.0   0.0
250.0   150.0   0.0
250.0   120.0   16.666666666666668
300.0   120.0   0.0
300.0   150.0   0.0
250.0   150.0   0.0
300.0   150.0   16.666666666666668
250.0   120.0   16.666666666666668
250.0   150.0   16.666666666666668
300.0   150.0   16.666666666666668
250.0   150.0   0.0
250.0   120.0   16.666666666666668
300.0   150.0   16.666666666666668
300.0   120.0   16.666666666666668
300.0   120.0   0.0
250.0   120.0   16.666666666666668
300.0   150.0   16.666666666666668
300.0   120.0   0.0
250.0   150.0   0.0
250.0   120.0   16.666666666666668
300.0   120.0   16.666666666666668
250.0   150.0   16.666666666666668
250.0   120.0   33.333333333333336
300.0   120.0   16.666666666666668
300.0   150.0   16.666666666666668
250.0   150.0   16.666666666666668
300.0   150.0   33.333333333333336
250.0   120.0   33.333333333333336
250.0   150.0   33.333333333333336
300.0   150.0   33.333333333333336
250.0   150.0   16.666666666666668
250.0   120.0   33.333333333333336
300.0   150.0   33.333333333333336
300.0   120.0   33.333333333333336
300.0   120.0   16.666666666666668
250.0   120.0   33.333333333333336
300.0   150.0   33.333333333333336
300.0   120.0   16.666666666666668
250.0   150.0   16.666666666666668
250.0   120.0   33.333333333333336
300.0   120.0   33.333333333333336
250.0   150.0   33.333333333333336
250.0   120.0   50.0
300.0   120.0   33.333333333333336
300.0   150.0   33.333333333333336
250.0   150.0   33.333333333333336
300.0   150.0   50.0
250.0   120.0   50.0
250.0   150.0   50.0
300.0   150.0   50.0
250.0   150.0   33.333333333333336
250.0   120.0   50.0
300.0   150.0   50.0
300.0   120.0   50.0
300.0   120.0   33.333333333333336
250.0   120.0   50.0
300.0   150.0   50.0
300.0   120.0   33.333333333333336
250.0   150.0   33.333333333333336
300.0   0.0   0.0
350.0   0.0   0.0
300.0   30.0   0.0
300.0   0.0   16.666666666666668
350.0   0.0   0.0
350.0   30.0   0.0
300.0   30.0   0.0
350.0   30.0   16.666666666666668
300.0   0.0   16.666666666666668
300.0   30.0   16.666666666666668
350.0   30.0   16.666666666666668
300.0   30.0   0.0
300.0   0.0   16.666666666666668
350.0   30.0   16.666666666666668
350.0   0.0   16.666666666666668
350.0   0.0   0.0
300.0   0.0   16.666666666666668
350.0   30.0   16.666666666666668
350.0   0.0   0.0
300.0   30.0   0.0
300.0   0.0   16.666666666666668
350.0   0.0   16.666666666666668
300.0   30.0   16.666666666666668
300.0   0.0   33.333333333333336
350.0   0.0   16.666666666666668
350.0   30.0   16.666666666666668
300.0   30.0   16.666666666666668
350.0   30.0   33.333333333333336
300.0   0.0   33.333333333333336
300.0   30.0   33.333333333333336
350.0   30.0   33.333333333333336
300.0   30.0   16.666666666666668
300.0   0.0   33.333333333333336
350.0   30.0   33.333333333333336
350.0   0.0   33.333333333333336
350.0   0.0   16.666666666666668
300.0   0.0   33.333333333333336
350.0   30.0   33.333333333333336
350.0   0.0   16.666666666666668
300.0   30.0   16.666666666666668
300.0   0.0   33.333333333333336
350.0   0.0   33.333333333333336
300.0   30.0   33.333333333333336
300.0   0.0   50.0
350.0   0.0   33.333333333333336
350.0   30.0   33.333333333333336
300.0   30.0   33.333333333333336
350.0   30.0   50.0
300.0   0.0   50.0
300.0   30.0   50.0
350.0   30.0   50.0
300.0   30.0   33.333333333333336
300.0   0.0   50.0
350.0   30.0   50.0
350.0   0.0   50.0
350.0   0.0   33.333333333333336
300.0   0.0   50.0
350.0   30.0   50.0
350.0   0.0   33.333333333333336
300.0   30.0   33.333333333333336
300.0   30.0   0.0
350.0   30.0   0.0
300.0   60.0   0.0
300.0   30.0   16.666666666666668
350.0   30.0   0.0
350.0   60.0   0.0
300.0   60.0   0.0
350.0   60.0   16.666666666666668
300.0   30.0   16.666666666666668
300.0   60.0   16.666666666666668
350.0   60.0   16.666666666666668
300.0   60.0   0.0
300.0   30.0   16.666666666666668
350.0   60.0   16.666666666666668
350.0   30.0   16.666666666666668
350.0   30.0   0.0
300.0   30.0   16.666666666666668
350.0   60.0   16.666666666666668
350.0   30.0   0.0
300.0   60.0   0.0
300.0   30.0   16.666666666666668
350.0   30.0   16.666666666666668
300.0   60.0   16.666666666666668
300.0   30.0   33.333333333333336
350.0   30.0   16.666666666666668
350.0   60.0   16.666666666666668
300.0   60.0   16.666666666666668
350.0   60.0   33.333333333333336
300.0   30.0   33.333333333333336
300.0   60.0   33.333333333333336
350.0   60.0   33.333333333333336
300.0   60.0   16.666666666666668
300.0   30.0   33.333333333333336
350.0   60.0   33.333333333333336
350.0   30.0   33.333333333333336
350.0   30.0   16.666666666666668
300.0   30.0   33.333333333333336
350.0   60.0   33.333333333333336
350.0   30.0   16.666666666666668
300.0   60.0   16.666666666666668
300.0   30.0   33.333333333333336
350.0   30.0   33.333333333333336
300.0   60.0   33.333333333333336
300.0   30.0   50.0
350.0   30.0   33.333333333333336
350.0   60.0   33.333333333333336
300.0   60.0   33.333333333333336
350.0   60.0   50.0
300.0   30.0   50.0
300.0   60.0   50.0
350.0   60.0   50.0
300.0   60.0   33.333333333333336
300.0   30.0   50.0
350.0   60.0   50.0
350.0   30.0   50.0
350.0   30.0   33.333333333333336
300.0   30.0   50.0
350.0   60.0   50.0
350.0   30.0   33.333333333333336
300.0   60.0   33.333333333333336
300.0   60.0   0.0
350.0   60.0   0.0
300.0   90.0   0.0
300.0   60.0   16.666666666666668
350.0   60.0   0.0
350.0   90.0   0.0
300.0   90.0   0.0
350.0   90.0   16.666666666666668
300.0   60.0   16.666666666666668
300.0   90.0   16.666666666666668
350.0   90.0   16.666666666666668
300.0   90.0   0.0
300.0   60.0   16.666666666666668
350.0   90.0   16.666666666666668
350.0   60.0   16.666666666666668
350.0   60.0   0.0
300.0   60.0   16.666666666666668
350.0   90.0   16.666666666666668
350.0   60.0   0.0
300.0   90.0   0.0
300.0   60.0   16.666666666666668
350.0   60.0   16.666666666666668
300.0   90.0   16.666666666666668
300.0   60.0   33.333333333333336
350.0   60.0   16.666666666666668
350.0   90.0   16.666666666666668
300.0   90.0   16.666666666666668
350.0   90.0   33.333333333333336
300.0   60.0   33.333333333333336
300.0   90.0   33.333333333333336
350.0   90.0   33.333333333333336
300.0   90.0   16.666666666666668
300.0   60.0   33.333333333333336
350.0   90.0   33.333333333333336
350.0   60.0   33.333333333333336
350.0   60.0   16.666666666666668
300.0   60.0   33.333333333333336
350.0   90.0   33.333333333333336
350.0   60.0   16.666666666666668
300.0   90.0   16.666666666666668
300.0   60.0   33.333333333333336
350.0   60.0   33.333333333333336
300.0   90.0   33.333333333333336
300.0   60.0   50.0
350.0   60.0   33.333333333333336
350.0   90.0   33.333333333333336
300.0   90.0   33.333333333333336
350.0   90.0   50.0
300.0   60.0   50.0
300.0   90.0   50.0
350.0   90.0   50.0
300.0   90.0   33.333333333333336
300.0   60.0   50.0
350.0   90.0   50.0
350.0   60.0   50.0
350.0   60.0   33.333333333333336
300.0   60.0   50.0
350.0   90.0   50.0
350.0   60.0   33.333333333333336
300.0   90.0   33.333333333333336
300.0   90.0   0.0
350.0   90.0   0.0
300.0   120.0   0.0
300.0   90.0   16.666666666666668
350.0   90.0   0.0
350.0   120.0   0.0
300.0   120.0   0.0
350.0   120.0   16.666666666666668
300.0   90.0   16.666666666666668
300.0   120.0   16.666666666666668
350.0   120.0   16.666666666666668
300.0   120.0   0.0
300.0   90.0   16.666666666666668
350.0   120.0   16.666666666666668
350.0   90.0   16.666666666666668
350.0   90.0   0.0
300.0   90.0   16.666666666666668
350.0   120.0   16.666666666666668
350.0   90.0   0.0
300.0   120.0   0.0
300.0   90.0   16.666666666666668
350.0   90.0   16.666666666666668
300.0   120.0   16.666666666666668
300.0   90.0   33.333333333333336
350.0   90.0   16.666666666666668
350.0   120.0   16.666666666666668
300.0   120.0   16.666666666666668
350.0   120.0   33.333333333333336
300.0   90.0   33.333333333333336
300.0   120.0   33.333333333333336
350.0   120.0   33.333333333333336
300.0   120.0   16.666666666666668
300.0   90.0   33.333333333333336
350.0   120.0   33.333333333333336
350.0   90.0   33.333333333333336
350.0   90.0   16.666666666666668
300.0   90.0   33.333333333333336
350.0   120.0   33.333333333333336
350.0   90.0   16.666666666666668
300.0   120.0   16.666666666666668
300.0   90.0   33.333333333333336
350.0   90.0   33.333333333333336
300.0   120.0   33.333333333333336
300.0   90.0   50.0
350.0   90.0   33.333333333333336
350.0   120.0   33.333333333333336
300.0   120.0   33.333333333333336
350.0   120.0   50.0
300.0   90.0   50.0
300.0   120.0   50.0
350.0   120.0   50.0
300.0   120.0   33.333333333333336
300.0   90.0   50.0
350.0   120.0   50.0
350.0   90.0   50.0
350.0   90.0   33.333333333333336
300.0   90.0   50.0
350.0   120.0   50.0
350.0   90.0   33.333333333333336
300.0   120.0   33.333333333333336
300.0   120.0   0.0
350.0   120.0   0.0
300.0   150.0   0.0
300.0   120.0   16.666666666666668
350.0   120.0   0.0
350.0   150.0   0.0
300.0   150.0   0.0
350.0   150.0   16.666666666666668
300.0   120.0   16.666666666666668
300.0   150.0   16.666666666666668
350.0   150.0   16.666666666666668
300.0   150.0   0.0
300.0   120.0   16.666666666666668
350.0   150.0   16.666666666666668
350.0   120.0   16.666666666666668
350.0   120.0   0.0
300.0   120.0   16.666666666666668
350.0   150.0   16.666666666666668
350.0   120.0   0.0
300.0   150.0   0.0
300.0   120.0   16.666666666666668
350.0   120.0   16.666666666666668
300.0   150.0   16.666666666666668
300.0   120.0   33.333333333333336
350.0   120.0   16.666666666666668
350.0   150.0   16.666666666666668
300.0   150.0   16.666666666666668
350.0   150.0   33.333333333333336
300.0   120.0   33.333333333333336
300.0   150.0   33.333333333333336
350.0   150.0   33.333333333333336
300.0   150.0   16.666666666666668
300.0   120.0   33.333333333333336
350.0   150.0   33.333333333333336
350.0   120.0   33.333333333333336
350.0   120.0   16.666666666666668
300.0   120.0   33.333333333333336
350.0   150.0   33.333333333333336
350.0   120.0   16.666666666666668
300.0   150.0   16.666666666666668
300.0   120.0   33.333333333333336
350.0   120.0   33.333333333333336
300.0   150.0   33.333333333333336
300.0   120.0   50.0
350.0   120.0   33.333333333333336
350.0   150.0   33.333333333333336
300.0   150.0   33.333333333333336
350.0   150.0   50.0
300.0   120.0   50.0
300.0   150.0   50.0
350.0   150.0   50.0
300.0   150.0   33.333333333333336
300.0   120.0   50.0
350.0   150.0   50.0
350.0   120.0   50.0
350.0   120.0   33.333333333333336
300.0   120.0   50.0
350.0   150.0   50.0
350.0   120.0   33.333333333333336
300.0   150.0   33.333333333333336
350.0   0.0   0.0
400.0   0.0   0.0
350.0   30.0   0.0
350.0   0.0   16.666666666666668
400.0   0.0   0.0
400.0   30.0   0.0
350.0   30.0   0.0
400.0   30.0   16.666666666666668
350.0   0.0   16.666666666666668
350.0   30.0   16.666666666666668
400.0   30.0   16.666666666666668
350.0   30.0   0.0
350.0   0.0   16.666666666666668
400.0   30.0   16.666666666666668
400.0   0.0   16.666666666666668
400.0   0.0   0.0
350.0   0.0   16.666666666666668
400.0   30.0   16.666666666666668
400.0   0.0   0.0
350.0   30.0   0.0
350.0   0.0   16.666666666666668
400.0   0.0   16.666666666666668
350.0   30.0   16.666666666666668
350.0   0.0   33.333333333333336
400.0   0.0   16.666666666666668
400.0   30.0   16.666666666666668
350.0   30.0   16.666666666666668
400.0   30.0   33.333333333333336
350.0   0.0   33.333333333333336
350.0   30.0   33.333333333333336
400.0   30.0   33.333333333333336
350.0   30.0   16.666666666666668
350.0   0.0   33.333333333333336
400.0   30.0   33.333333333333336
400.0   0.0   33.333333333333336
400.0   0.0   16.666666666666668
350.0   0.0   33.333333333333336
400.0   30.0   33.333333333333336
400.0   0.0   16.666666666666668
350.0   30.0   16.666666666666668
350.0   0.0   33.333333333333336
400.0   0.0   33.333333333333336
350.0   30.0   33.333333333333336
350.0   0.0   50.0
400.0   0.0   33.333333333333336
400.0   30.0   33.333333333333336
350.0   30.0   33.333333333333336
400.0   30.0   50.0
350.0   0.0   50.0
350.0   30.0   50.0
400.0   30.0   50.0
350.0   30.0   33.333333333333336
350.0   0.0   50.0
400.0   30.0   50.0
400.0   0.0   50.0
400.0   0.0   33.333333333333336
350.0   0.0   50.0
400.0   30.0   50.0
400.0   0.0   33.333333333333336
350.0   30.0   33.333333333333336
350.0   30.0   0.0
400.0   30.0   0.0
350.0   60.0   0.0
350.0   30.0   16.666666666666668
400.0   30.0   0.0
400.0   60.0   0.0
350.0   60.0   0.0
400.0   60.0   16.666666666666668
350.0   30.0   16.666666666666668
350.0   60.0   16.666666666666668
400.0   60.0   16.666666666666668
350.0   60.0   0.0
350.0   30.0   16.666666666666668
400.0   60.0   16.666666666666668
400.0   30.0   16.666666666666668
400.0   30.0   0.0
350.0   30.0   16.666666666666668
400.0   60.0   16.666666666666668
400.0   30.0   0.0
350.0   60.0   0.0
350.0   30.0   16.666666666666668
400.0   30.0   16.666666666666668
350.0   60.0   16.666666666666668
350.0   30.0   33.333333333333336
400.0   30.0   16.666666666666668
400.0   60.0   16.666666666666668
350.0   60.0   16.666666666666668
400.0   60.0   33.333333333333336
350.0   30.0   33.333333333333336
350.0   60.0   33.333333333333336
400.0   60.0   33.333333333333336
350.0   60.0   16.666666666666668
350.0   30.0   33.333333333333336
400.0   60.0   33.333333333333336
400.0   30.0   33.333333333333336
400.0   30.0   16.666666666666668
350.0   30.0   33.333333333333336
400.0   60.0   33.333333333333336
400.0   30.0   16.666666666666668
350.0   60.0   16.666666666666668
350.0   30.0   33.333333333333336
400.0   30.0   33.333333333333336
350.0   60.0   33.333333333333336
350.0   30.0   50.0
400.0   30.0   33.333333333333336
400.0   60.0   33.333333333333336
350.0   60.0   33.333333333333336
400.0   60.0   50.0
350.0   30.0   50.0
350.0   60.0   50.0
400.0   60.0   50.0
350.0   60.0   33.333333333333336
350.0   30.0   50.0
400.0   60.0   50.0
400.0   30.0   50.0
400.0   30.0   33.333333333333336
350.0   30.0   50.0
400.0   60.0   50.0
400.0   30.0   33.333333333333336
350.0   60.0   33.333333333333336
350.0   60.0   0.0
400.0   60.0   0.0
350.0   90.0   0.0
350.0   60.0   16.666666666666668
400.0   60.0   0.0
400.0   90.0   0.0
350.0   90.0   0.0
400.0   90.0   16.666666666666668
350.0   60.0   16.666666666666668
350.0   90.0   16.666666666666668
400.0   90.0   16.666666666666668
350.0   90.0   0.0
350.0   60.0   16.666666666666668
400.0   90.0   16.666666666666668
400.0   60.0   16.666666666666668
400.0   60.0   0.0
350.0   60.0   16.666666666666668
400.0   90.0   16.666666666666668
400.0   60.0   0.0
350.0   90.0   0.0
350.0   60.0   16.666666666666668
400.0   60.0   16.666666666666668
350.0   90.0   16.666666666666668
350.0   60.0   33.333333333333336
400.0   60.0   16.666666666666668
400.0   90.0   16.666666666666668
350.0   90.0   16.666666666666668
400.0   90.0   33.333333333333336
350.0   60.0   33.333333333333336
350.0   90.0   33.333333333333336
400.0   90.0   33.333333333333336
350.0   90.0   16.666666666666668
350.0   60.0   33.333333333333336
400.0   90.0   33.333333333333336
400.0   60.0   33.333333333333336
400.0   60.0   16.666666666666668
350.0   60.0   33.333333333333336
400.0   90.0   33.333333333333336
400.0   60.0   16.666666666666668
350.0   90.0   16.666666666666668
350.0   60.0   33.333333333333336
400.0   60.0   33.333333333333336
350.0   90.0   33.333333333333336
350.0   60.0   50.0
400.0   60.0   33.333333333333336
400.0   90.0   33.333333333333336
350.0   90.0   33.333333333333336
400.0   90.0   50.0
350.0   60.0   50.0
350.0   90.0   50.0
400.0   90.0   50.0
350.0   90.0   33.333333333333336
350.0   60.0   50.0
400.0   90.0   50.0
400.0   60.0   50.0
400.0   60.0   33.333333333333336
350.0   60.0   50.0
400.0   90.0   50.0
400.0   60.0   33.333333333333336
350.0   90.0   33.333333333333336
350.0   90.0   0.0
400.0   90.0   0.0
350.0   120.0   0.0
350.0   90.0   16.666666666666668
400.0   90.0   0.0
400.0   120.0   0.0
350.0   120.0   0.0
400.0   120.0   16.666666666666668
350.0   90.0   16.666666666666668
350.0   120.0   16.666666666666668
400.0   120.0   16.666666666666668
350.0   120.0   0.0
350.0   90.0   16.666666666666668
400.0   120.0   16.666666666666668
400.0   90.0   16.666666666666668
400.0   90.0   0.0
350.0   90.0   16.666666666666668
400.0   120.0   16.666666666666668
400.0   90.0   0.0
350.0   120.0   0.0
350.0   90.0   16.666666666666668
400.0   90.0   16.666666666666668
350.0   120.0   16.666666666666668
350.0   90.0   33.333333333333336
400.0   90.0   16.666666666666668
400.0   120.0   16.666666666666668
350.0   120.0   16.666666666666668
400.0   120.0   33.333333333333336
350.0   90.0   33.333333333333336
350.0   120.0   33.333333333333336
400.0   120.0   33.333333333333336
350.0   120.0   16.666666666666668
350.0   90.0   33.333333333333336
400.0   120.0   33.333333333333336
400.0   90.0   33.333333333333336
400.0   90.0   16.666666666666668
350.0   90.0   33.333333333333336
400.0   120.0   33.333333333333336
400.0   90.0   16.666666666666668
350.0   120.0   16.666666666666668
350.0   90.0   33.333333333333336
400.0   90.0   33.333333333333336
350.0   120.0   33.333333333333336
350.0   90.0   50.0
400.0   90.0   33.333333333333336
400.0   120.0   33.333333333333336
350.0   120.0   33.333333333333336
400.0   120.0   50.0
350.0   90.0   50.0
350.0   120.0   50.0
400.0   120.0   50.0
350.0   120.0   33.333333333333336
350.0   90.0   50.0
400.0   120.0   50.0
400.0   90.0   50.0
400.0   90.0   33.333333333333336
350.0   90.0   50.0
400.0   120.0   50.0
400.0   90.0   33.333333333333336
350.0   120.0   33.333333333333336
350.0   120.0   0.0
400.0   120.0   0.0
350.0   150.0   0.0
350.0   120.0   16.666666666666668
400.0   120.0   0.0
400.0   150.0   0.0
350.0   150.0   0.0
400.0   150.0   16.666666666666668
350.0   120.0   16.666666666666668
350.0   150.0   16.666666666666668
400.0   150.0   16.666666666666668
350.0   150.0   0.0
350.0   120.0   16.666666666666668
400.0   150.0   16.666666666666668
400.0   120.0   16.666666666666668
400.0   120.0   0.0
350.0   120.0   16.666666666666668
400.0   150.0   16.666666666666668
400.0   120.0   0.0
350.0   150.0   0.0
350.0   120.0   16.666666666666668
400.0   120.0   16.666666666666668
350.0   150.0   16.666666666666668
350.0   120.0   33.333333333333336
400.0   120.0   16.666666666666668
400.0   150.0   16.666666666666668
350.0   150.0   16.666666666666668
400.0   150.0   33.333333333333336
350.0   120.0   33.333333333333336
350.0   150.0   33.333333333333336
400.0   150.0   33.333333333333336
350.0   150.0   16.666666666666668
350.0   120.0   33.333333333333336
400.0   150.0   33.333333333333336
400.0   120.0   33.333333333333336
400.0   120.0   16.666666666666668
350.0   120.0   33.333333333333336
400.0   150.0   33.333333333333336
400.0   120.0   16.666666666666668
350.0   150.0   16.666666666666668
350.0   120.0   33.333333333333336
400.0   120.0   33.333333333333336
350.0   150.0   33.333333333333336
350.0   120.0   50.0
400.0   120.0   33.333333333333336
400.0   150.0   33.333333333333336
350.0   150.0   33.333333333333336
400.0   150.0   50.0
350.0   120.0   50.0
350.0   150.0   50.0
400.0   150.0   50.0
350.0   150.0   33.333333333333336
350.0   120.0   50.0
400.0   150.0   50.0
400.0   120.0   50.0
400.0   120.0   33.333333333333336
350.0   120.0   50.0
400.0   150.0   50.0
400.0   120.0   33.333333333333336
350.0   150.0   33.333333333333336
400.0   0.0   0.0
450.0   0.0   0.0
400.0   30.0   0.0
400.0   0.0   16.666666666666668
450.0   0.0   0.0
450.0   30.0   0.0
400.0   30.0   0.0
450.0   30.0   16.666666666666668
400.0   0.0   16.666666666666668
400.0   30.0   16.666666666666668
450.0   30.0   16.666666666666668
400.0   30.0   0.0
400.0   0.0   16.666666666666668
450.0   30.0   16.666666666666668
450.0   0.0   16.666666666666668
450.0   0.0   0.0
400.0   0.0   16.666666666666668
450.0   30.0   16.666666666666668
450.0   0.0   0.0
400.0   30.0   0.0
400.0   0.0   16.666666666666668
450.0   0.0   16.666666666666668
400.0   30.0   16.666666666666668
400.0   0.0   33.333333333333336
450.0   0.0   16.666666666666668
450.0   30.0   16.666666666666668
400.0   30.0   16.666666666666668
450.0   30.0   33.333333333333336
400.0   0.0   33.333333333333336
400.0   30.0   33.333333333333336
450.0   30.0   33.333333333333336
400.0   30.0   16.666666666666668
400.0   0.0   33.333333333333336
450.0   30.0   33.333333333333336
450.0   0.0   33.333333333333336
450.0   0.0   16.666666666666668
400.0   0.0   33.333333333333336
450.0   30.0   33.333333333333336
450.0   0.0   16.666666666666668
400.0   30.0   16.666666666666668
400.0   0.0   33.333333333333336
450.0   0.0   33.333333333333336
400.0   30.0   33.333333333333336
400.0   0.0   50.0
450.0   0.0   33.333333333333336
450.0   30.0   33.333333333333336
400.0   30.0   33.333333333333336
450.0   30.0   50.0
400.0   0.0   50.0
400.0   30.0   50.0
450.0   30.0   50.0
400.0   30.0   33.333333333333336
400.0   0.0   50.0
450.0   30.0   50.0
450.0   0.0   50.0
450.0   0.0   33.333333333333336
400.0   0.0   50.0
450.0   30.0   50.0
450.0   0.0   33.333333333333336
400.0   30.0   33.333333333333336
400.0   30.0   0.0
450.0   30.0   0.0
400.0   60.0   0.0
400.0   30.0   16.666666666666668
450.0   30.0   0.0
450.0   60.0   0.0
400.0   60.0   0.0
450.0   60.0   16.666666666666668
400.0   30.0   16.666666666666668
400.0   60.0   16.666666666666668
450.0   60.0   16.666666666666668
400.0   60.0   0.0
400.0   30.0   16.666666666666668
450.0   60.0   16.666666666666668
450.0   30.0   16.666666666666668
450.0   30.0   0.0
400.0   30.0   16.666666666666668
450.0   60.0   16.666666666666668
450.0   30.0   0.0
400.0   60.0   0.0
400.0   30.0   16.666666666666668
450.0   30.0   16.666666666666668
400.0   60.0   16.666666666666668
400.0   30.0   33.333333333333336
450.0   30.0   16.666666666666668
450.0   60.0   16.666666666666668
400.0   60.0   16.666666666666668
450.0   60.0   33.333333333333336
400.0   30.0   33.333333333333336
400.0   60.0   33.333333333333336
450.0   60.0   33.333333333333336
400.0   60.0   16.666666666666668
400.0   30.0   33.333333333333336
450.0   60.0   33.333333333333336
450.0   30.0   33.333333333333336
450.0   30.0   16.666666666666668
400.0   30.0   33.333333333333336
450.0   60.0   33.333333333333336
450.0   30.0   16.666666666666668
400.0   60.0   16.666666666666668
400.0   30.0   33.333333333333336
450.0   30.0   33.333333333333336
400.0   60.0   33.333333333333336
400.0   30.0   50.0
450.0   30.0   33.333333333333336
450.0   60.0   33.333333333333336
400.0   60.0   33.333333333333336
450.0   60.0   50.0
400.0   30.0   50.0
400.0   60.0   50.0
450.0   60.0   50.0
400.0   60.0   33.333333333333336
400.0   30.0   50.0
450.0   60.0   50.0
450.0   30.0   50.0
450.0   30.0   33.333333333333336
400.0   30.0   50.0
450.0   60.0   50.0
450.0   30.0   33.333333333333336
400.0   60.0   33.333333333333336
400.0   60.0   0.0
450.0   60.0   0.0
400.0   90.0   0.0
400.0   60.0   16.666666666666668
450.0   60.0   0.0
450.0   90.0   0.0
400.0   90.0   0.0
450.0   90.0   16.666666666666668
400.0   60.0   16.666666666666668
400.0   90.0   16.666666666666668
450.0   90.0   16.666666666666668
400.0   90.0   0.0
400.0   60.0   16.666666666666668
450.0   90.0   16.666666666666668
450.0   60.0   16.666666666666668
450.0   60.0   0.0
400.0   60.0   16.666666666666668
450.0   90.0   16.666666666666668
450.0   60.0   0.0
400.0   90.0   0.0
400.0   60.0   16.666666666666668
450.0   60.0   16.666666666666668
400.0   90.0   16.666666666666668
400.0   60.0   33.333333333333336
450.0   60.0   16.666666666666668
450.0   90.0   16.666666666666668
400.0   90.0   16.666666666666668
450.0   90.0   33.333333333333336
400.0   60.0   33.333333333333336
400.0   90.0   33.333333333333336
450.0   90.0   33.333333333333336
400.0   90.0   16.666666666666668
400.0   60.0   33.333333333333336
450.0   90.0   33.333333333333336
450.0   60.0   33.333333333333336
450.0   60.0   16.666666666666668
400.0   60.0   33.333333333333336
450.0   90.0   33.333333333333336
450.0   60.0   16.666666666666668
400.0   90.0   16.666666666666668
400.0   60.0   33.333333333333336
450.0   60.0   33.333333333333336
400.0   90.0   33.333333333333336
400.0   60.0   50.0
450.0   60.0   33.333333333333336
450.0   90.0   33.333333333333336
400.0   90.0   33.333333333333336
450.0   90.0   50.0
400.0   60.0   50.0
400.0   90.0   50.0
450.0   90.0   50.0
400.0   90.0   33.333333333333336
400.0   60.0   50.0
450.0   90.0   50.0
450.0   60.0   50.0
450.0   60.0   33.333333333333336
400.0   60.0   50.0
450.0   90.0   50.0
450.0   60.0   33.333333333333336
400.0   90.0   33.333333333333336
400.0   90.0   0.0
450.0   90.0   0.0
400.0   120.0   0.0
400.0   90.0   16.666666666666668
450.0   90.0   0.0
450.0   120.0   0.0
400.0   120.0   0.0
450.0   120.0   16.666666666666668
400.0   90.0   16.666666666666668
400.0   120.0   16.666666666666668
450.0   120.0   16.666666666666668
400.0   120.0   0.0
400.0   90.0   16.666666666666668
450.0   120.0   16.666666666666668
450.0   90.0   16.666666666666668
450.0   90.0   0.0
400.0   90.0   16.666666666666668
450.0   120.0   16.666666666666668
450.0   90.0   0.0
400.0   120.0   0.0
400.0   90.0   16.666666666666668
450.0   90.0   16.666666666666668
400.0   120.0   16.666666666666668
400.0   90.0   33.333333333333336
450.0   90.0   16.666666666666668
450.0   120.0   16.666666666666668
400.0   120.0   16.666666666666668
450.0   120.0   33.333333333333336
400.0   90.0   33.333333333333336
400.0   120.0   33.333333333333336
450.0   120.0   33.333333333333336
400.0   120.0   16.666666666666668
400.0   90.0   33.333333333333336
450.0   120.0   33.333333333333336
450.0   90.0   33.333333333333336
450.0   90.0   16.666666666666668
400.0   90.0   33.333333333333336
450.0   120.0   33.333333333333336
450.0   90.0   16.666666666666668
400.0   120.0   16.666666666666668
400.0   90.0   33.333333333333336
450.0   90.0   33.333333333333336
400.0   120.0   33.333333333333336
400.0   90.0   50.0
450.0   90.0   33.333333333333336
450.0   120.0   33.333333333333336
400.0   120.0   33.333333333333336
450.0   120.0   50.0
400.0   90.0   50.0
400.0   120.0   50.0
450.0   120.0   50.0
400.0   120.0   33.333333333333336
400.0   90.0   50.0
450.0   120.0   50.0
450.0   90.0   50.0
450.0   90.0   33.333333333333336
400.0   90.0   50.0
450.0   120.0   50.0
450.0   90.0   33.333333333333336
400.0   120.0   33.333333333333336
400.0   120.0   0.0
450.0   120.0   0.0
400.0   150.0   0.0
400.0   120.0   16.666666666666668
450.0   120.0   0.0
450.0   150.0   0.0
400.0   150.0   0.0
450.0   150.0   16.666666666666668
400.0   120.0   16.666666666666668
400.0   150.0   16.666666666666668
450.0   150.0   16.666666666666668
400.0   150.0   0.0
400.0   120.0   16.666666666666668
450.0   150.0   16.666666666666668
450.0   120.0   16.666666666666668
450.0   120.0   0.0
400.0   120.0   16.666666666666668
450.0   150.0   16.666666666666668
450.0   120.0   0.0
400.0   150.0   0.0
400.0   120.0   16.666666666666668
450.0   120.0   16.666666666666668
400.0   150.0   16.666666666666668
400.0   120.0   33.333333333333336
450.0   120.0   16.666666666666668
450.0   150.0   16.666666666666668
400.0   150.0   16.666666666666668
450.0   150.0   33.333333333333336
400.0   120.0   33.333333333333336
400.0   150.0   33.333333333333336
450.0   150.0   33.333333333333336
400.0   150.0   16.666666666666668
400.0   120.0   33.333333333333336
450.0   150.0   33.333333333333336
450.0   120.0   33.333333333333336
450.0   120.0   16.666666666666668
400.0   120.0   33.333333333333336
450.0   150.0   33.333333333333336
450.0   120.0   16.666666666666668
400.0   150.0   16.666666666666668
400.0   120.0   33.333333333333336
450.0   120.0   33.333333333333336
400.0   150.0   33.333333333333336
400.0   120.0   50.0
450.0   120.0   33.333333333333336
450.0   150.0   33.333333333333336
400.0   150.0   33.333333333333336
450.0   150.0   50.0
400.0   120.0   50.0
400.0   150.0   50.0
450.0   150.0   50.0
400.0   150.0   33.333333333333336
400.0   120.0   50.0
450.0   150.0   50.0
450.0   120.0   50.0
450.0   120.0   33.333333333333336
400.0   120.0   50.0
450.0   150.0   50.0
450.0   120.0   33.333333333333336
400.0   150.0   33.333333333333336
450.0   0.0   0.0
500.0   0.0   0.0
450.0   30.0   0.0
450.0   0.0   16.666666666666668
500.0   0.0   0.0
500.0   30.0   0.0
450.0   30.0   0.0
500.0   30.0   16.666666666666668
450.0   0.0   16.666666666666668
450.0   30.0   16.666666666666668
500.0   30.0   16.666666666666668
450.0   30.0   0.0
450.0   0.0   16.666666666666668
500.0   30.0   16.666666666666668
500.0   0.0   16.666666666666668
500.0   0.0   0.0
450.0   0.0   16.666666666666668
500.0   30.0   16.666666666666668
500.0   0.0   0.0
450.0   30.0   0.0
450.0   0.0   16.666666666666668
500.0   0.0   16.666666666666668
450.0   30.0   16.666666666666668
450.0   0.0   33.333333333333336
500.0   0.0   16.666666666666668
500.0   30.0   16.666666666666668
450.0   30.0   16.666666666666668
500.0   30.0   33.333333333333336
450.0   0.0   33.333333333333336
450.0   30.0   33.333333333333336
500.0   30.0   33.333333333333336
450.0   30.0   16.666666666666668
450.0   0.0   33.333333333333336
500.0   30.0   33.333333333333336
500.0   0.0   33.333333333333336
500.0   0.0   16.666666666666668
450.0   0.0   33.333333333333336
500.0   30.0   33.333333333333336
500.0   0.0   16.666666666666668
450.0   30.0   16.666666666666668
450.0   0.0   33.333333333333336
500.0   0.0   33.333333333333336
450.0   30.0   33.333333333333336
450.0   0.0   50.0
500.0   0.0   33.333333333333336
500.0   30.0   33.333333333333336
450.0   30.0   33.333333333333336
500.0   30.0   50.0
450.0   0.0   50.0
450.0   30.0   50.0
500.0   30.0   50.0
450.0   30.0   33.333333333333336
450.0   0.0   50.0
500.0   30.0   50.0
500.0   0.0   50.0
500.0   0.0   33.333333333333336
450.0   0.0   50.0
500.0   30.0   50.0
500.0   0.0   33.333333333333336
450.0   30.0   33.333333333333336
450.0   30.0   0.0
500.0   30.0   0.0
450.0   60.0   0.0
450.0   30.0   16.666666666666668
500.0   30.0   0.0
500.0   60.0   0.0
450.0   60.0   0.0
500.0   60.0   16.666666666666668
450.0   30.0   16.666666666666668
450.0   60.0   16.666666666666668
500.0   60.0   16.666666666666668
450.0   60.0   0.0
450.0   30.0   16.666666666666668
500.0   60.0   16.666666666666668
500.0   30.0   16.666666666666668
500.0   30.0   0.0
450.0   30.0   16.666666666666668
500.0   60.0   16.666666666666668
500.0   30.0   0.0
450.0   60.0   0.0
450.0   30.0   16.666666666666668
500.0   30.0   16.666666666666668
450.0   60.0   16.666666666666668
450.0   30.0   33.333333333333336
500.0   30.0   16.666666666666668
500.0   60.0   16.666666666666668
450.0   60.0   16.666666666666668
500.0   60.0   33.333333333333336
450.0   30.0   33.333333333333336
450.0   60.0   33.333333333333336
500.0   60.0   33.333333333333336
450.0   60.0   16.666666666666668
450.0   30.0   33.333333333333336
500.0   60.0   33.333333333333336
500.0   30.0   33.333333333333336
500.0   30.0   16.666666666666668
450.0   30.0   33.333333333333336
500.0   60.0   33.333333333333336
500.0   30.0   16.666666666666668
450.0   60.0   16.666666666666668
450.0   30.0   33.333333333333336
500.0   30.0   33.333333333333336
450.0   60.0   33.333333333333336
450.0   30.0   50.0
500.0   30.0   33.333333333333336
500.0   60.0   33.333333333333336
450.0   60.0   33.333333333333336
500.0   60.0   50.0
450.0   30.0   50.0
450.0   60.0   50.0
500.0   60.0   50.0
450.0   60.0   33.333333333333336
450.0   30.0   50.0
500.0   60.0   50.0
500.0   30.0   50.0
500.0   30.0   33.333333333333336
450.0   30.0   50.0
500.0   60.0   50.0
500.0   30.0   33.333333333333336
450.0   60.0   33.333333333333336
450.0   60.0   0.0
500.0   60.0   0.0
450.0   90.0   0.0
450.0   60.0   16.666666666666668
500.0   60.0   0.0
500.0   90.0   0.0
450.0   90.0   0.0
500.0   90.0   16.666666666666668
450.0   60.0   16.666666666666668
450.0   90.0   16.666666666666668
500.0   90.0   16.666666666666668
450.0   90.0   0.0
450.0   60.0   16.666666666666668
500.0   90.0   16.666666666666668
500.0   60.0   16.666666666666668
500.0   60.0   0.0
450.0   60.0   16.666666666666668
500.0   90.0   16.666666666666668
500.0   60.0   0.0
450.0   90.0   0.0
450.0   60.0   16.666666666666668
500.0   60.0   16.666666666666668
450.0   90.0   16.666666666666668
450.0   60.0   33.333333333333336
500.0   60.0   16.666666666666668
500.0   90.0   16.666666666666668
450.0   90.0   16.666666666666668
500.0   90.0   33.333333333333336
450.0   60.0   33.333333333333336
450.0   90.0   33.333333333333336
500.0   90.0   33.333333333333336
450.0   90.0   16.666666666666668
450.0   60.0   33.333333333333336
500.0   90.0   33.333333333333336
500.0   60.0   33.333333333333336
500.0   60.0   16.666666666666668
450.0   60.0   33.333333333333336
500.0   90.0   33.333333333333336
500.0   60.0   16.666666666666668
450.0   90.0   16.666666666666668
450.0   60.0   33.333333333333336
500.0   60.0   33.333333333333336
450.0   90.0   33.333333333333336
450.0   60.0   50.0
500.0   60.0   33.333333333333336
500.0   90.0   33.333333333333336
450.0   90.0   33.333333333333336
500.0   90.0   50.0
450.0   60.0   50.0
450.0   90.0   50.0
500.0   90.0   50.0
450.0   90.0   33.333333333333336
450.0   60.0   50.0
500.0   90.0   50.0
500.0   60.0   50.0
500.0   60.0   33.333333333333336
450.0   60.0   50.0
500.0   90.0   50.0
500.0   60.0   33.333333333333336
450.0   90.0   33.333333333333336
450.0   90.0   0.0
500.0   90.0   0.0
450.0   120.0   0.0
450.0   90.0   16.666666666666668
500.0   90.0   0.0
500.0   120.0   0.0
450.0   120.0   0.0
500.0   120.0   16.666666666666668
450.0   90.0   16.666666666666668
450.0   120.0   16.666666666666668
500.0   120.0   16.666666666666668
450.0   120.0   0.0
450.0   90.0   16.666666666666668
500.0   120.0   16.666666666666668
500.0   90.0   16.666666666666668
500.0   90.0   0.0
450.0   90.0   16.666666666666668
500.0   120.0   16.666666666666668
500.0   90.0   0.0
450.0   120.0   0.0
450.0   90.0   16.666666666666668
500.0   90.0   16.666666666666668
450.0   120.0   16.666666666666668
450.0   90.0   33.333333333333336
500.0   90.0   16.666666666666668
500.0   120.0   16.666666666666668
450.0   120.0   16.666666666666668
500.0   120.0   33.333333333333336
450.0   90.0   33.333333333333336
450.0   120.0   33.333333333333336
500.0   120.0   33.333333333333336
450.0   120.0   16.666666666666668
450.0   90.0   33.333333333333336
500.0   120.0   33.333333333333336
500.0   90.0   33.333333333333336
500.0   90.0   16.666666666666668
450.0   90.0   33.333333333333336
500.0   120.0   33.333333333333336
500.0   90.0   16.666666666666668
450.0   120.0   16.666666666666668
450.0   90.0   33.333333333333336
500.0   90.0   33.333333333333336
450.0   120.0   33.333333333333336
450.0   90.0   50.0
500.0   90.0   33.333333333333336
500.0   120.0   33.333333333333336
450.0   120.0   33.333333333333336
500.0   120.0   50.0
450.0   90.0   50.0
450.0   120.0   50.0
500.0   120.0   50.0
450.0   120.0   33.333333333333336
450.0   90.0   50.0
500.0   120.0   50.0
500.0   90.0   50.0
500.0   90.0   33.333333333333336
450.0   90.0   50.0
500.0   120.0   50.0
500.0   90.0   33.333333333333336
450.0   120.0   33.333333333333336
450.0   120.0   0.0
500.0   120.0   0.0
450.0   150.0   0.0
450.0   120.0   16.666666666666668
500.0   120.0   0.0
500.0   150.0   0.0
450.0   150.0   0.0
500.0   150.0   16.666666666666668
450.0   120.0   16.666666666666668
450.0   150.0   16.666666666666668
500.0   150.0   16.666666666666668
450.0   150.0   0.0
450.0   120.0   16.666666666666668
500.0   150.0   16.666666666666668
500.0   120.0   16.666666666666668
500.0   120.0   0.0
450.0   120.0   16.666666666666668
500.0   150.0   16.666666666666668
500.0   120.0   0.0
450.0   150.0   0.0
450.0   120.0   16.666666666666668
500.0   120.0   16.666666666666668
450.0   150.0   16.666666666666668
450.0   120.0   33.333333333333336
500.0   120.0   16.666666666666668
500.0   150.0   16.666666666666668
450.0   150.0   16.666666666666668
500.0   150.0   33.333333333333336
450.0   120.0   33.333333333333336
450.0   150.0   33.333333333333336
500.0   150.0   33.333333333333336
450.0   150.0   16.666666666666668
450.0   120.0   33.333333333333336
500.0   150.0   33.333333333333336
500.0   120.0   33.333333333333336
500.0   120.0   16.666666666666668
450.0   120.0   33.333333333333336
500.0   150.0   33.333333333333336
500.0   120.0   16.666666666666668
450.0   150.0   16.666666666666668
450.0   120.0   33.333333333333336
500.0   120.0   33.333333333333336
450.0   150.0   33.333333333333336
450.0   120.0   50.0
500.0   120.0   33.333333333333336
500.0   150.0   33.333333333333336
450.0   150.0   33.333333333333336
500.0   150.0   50.0
450.0   120.0   50.0
450.0   150.0   50.0
500.0   150.0   50.0
450.0   150.0   33.333333333333336
450.0   120.0   50.0
500.0   150.0   50.0
500.0   120.0   50.0
500.0   120.0   33.333333333333336
450.0   120.0   50.0
500.0   150.0   50.0
500.0   120.0   33.333333333333336
450.0   150.0   33.333333333333336
             </DataArray>   
          </Points>  
          <Cells>  
             <DataArray type="Int32" Name="connectivity" format="ascii">   
0   1   2   3
4   5   6   7
8   9   10   11
12   13   14   15
16   17   18   19
20   21   22   23
24   25   26   27
28   29   30   31
32   33   34   35
36   37   38   39
40   41   42   43
44   45   46   47
48   49   50   51
52   53   54   55
56   57   58   59
60   61   62   63
64   65   66   67
68   69   70   71
72   73   74   75
76   77   78   79
80   81   82   83
84   85   86   87
88   89   90   91
92   93   94   95
96   97   98   99
100   101   102   103
104   105   106   107
108   109   110   111
112   113   114   115
116   117   118   119
120   121   122   123
124   125   126   127
128   129   130   131
132   133   134   135
136   137   138   139
140   141   142   143
144   145   146   147
148   149   150   151
152   153   154   155
156   157   158   159
160   161   162   163
164   165   166   167
168   169   170   171
172   173   174   175
176   177   178   179
180   181   182   183
184   185   186   187
188   189   190   191
192   193   194   195
196   197   198   199
200   201   202   203
204   205   206   207
208   209   210   211
212   213   214   215
216   217   218   219
220   221   222   223
224   225   226   227
228   229   230   231
232   233   234   235
236   237   238   239
240   241   242   243
244   245   246   247
248   249   250   251
252   253   254   255
256   257   258   259
260   261   262   263
264   265   266   267
268   269   270   271
272   273   274   275
276   277   278   279
280   281   282   283
284   285   286   287
288   289   290   291
292   293   294   295
296   297   298   299
300   301   302   303
304   305   306   307
308   309   310   311
312   313   314   315
316   317   318   319
320   321   322   323
324   325   326   327
328   329   330   331
332   333   334   335
336   337   338   339
340   341   342   343
344   345   346   347
348   349   350   351
352   353   354   355
356   357   358   359
360   361   362   363
364   365   366   367
368   369   370   371
372   373   374   375
376   377   378   379
380   381   382   383
384   385   386   387
388   389   390   391
392   393   394   395
396   397   398   399
400   401   402   403
404   405   406   407
408   409   410   411
412   413   414   415
416   417   418   419
420   421   422   423
424   425   426   427
428   429   430   431
432   433   434   435
436   437   438   439
440   441   442   443
444   445   446   447
448   449   450   451
452   453   454   455
456   457   458   459
460   461   462   463
464   465   466   467
468   469   470   471
472   473   474   475
476   477   478   479
480   481   482   483
484   485   486   487
488   489   490   491
492   493   494   495
496   497   498   499
500   501   502   503
504   505   506   507
508   509   510   511
512   513   514   515
516   517   518   519
520   521   522   523
524   525   526   527
528   529   530   531
532   533   534   535
536   537   538   539
540   541   542   543
544   545   546   547
548   549   550   551
552   553   554   555
556   557   558   559
560   561   562   563
564   565   566   567
568   569   570   571
572   573   574   575
576   577   578   579
580   581   582   583
584   585   586   587
588   589   590   591
592   593   594   595
596   597   598   599
600   601   602   603
604   605   606   607
608   609   610   611
612   613   614   615
616   617   618   619
620   621   622   623
624   625   626   627
628   629   630   631
632   633   634   635
636   637   638   639
640   641   642   643
644   645   646   647
648   649   650   651
652   653   654   655
656   657   658   659
660   661   662   663
664   665   666   667
668   669   670   671
672   673   674   675
676   677   678   679
680   681   682   683
684   685   686   687
688   689   690   691
692   693   694   695
696   697   698   699
700   701   702   703
704   705   706   707
708   709   710   711
712   713   714   715
716   717   718   719
720   721   722   723
724   725   726   727
728   729   730   731
732   733   734   735
736   737   738   739
740   741   742   743
744   745   746   747
748   749   750   751
752   753   754   755
756   757   758   759
760   761   762   763
764   765   766   767
768   769   770   771
772   773   774   775
776   777   778   779
780   781   782   783
784   785   786   787
788   789   790   791
792   793   794   795
796   797   798   799
800   801   802   803
804   805   806   807
808   809   810   811
812   813   814   815
816   817   818   819
820   821   822   823
824   825   826   827
828   829   830   831
832   833   834   835
836   837   838   839
840   841   842   843
844   845   846   847
848   849   850   851
852   853   854   855
856   857   858   859
860   861   862   863
864   865   866   867
868   869   870   871
872   873   874   875
876   877   878   879
880   881   882   883
884   885   886   887
888   889   890   891
892   893   894   895
896   897   898   899
900   901   902   903
904   905   906   907
908   909   910   911
912   913   914   915
916   917   918   919
920   921   922   923
924   925   926   927
928   929   930   931
932   933   934   935
936   937   938   939
940   941   942   943
944   945   946   947
948   949   950   951
952   953   954   955
956   957   958   959
960   961   962   963
964   965   966   967
968   969   970   971
972   973   974   975
976   977   978   979
980   981   982   983
984   985   986   987
988   989   990   991
992   993   994   995
996   997   998   999
1000   1001   1002   1003
1004   1005   1006   1007
1008   1009   1010   1011
1012   1013   1014   1015
1016   1017   1018   1019
1020   1021   1022   1023
1024   1025   1026   1027
1028   1029   1030   1031
1032   1033   1034   1035
1036   1037   1038   1039
1040   1041   1042   1043
1044   1045   1046   1047
1048   1049   1050   1051
1052   1053   1054   1055
1056   1057   1058   1059
1060   1061   1062   1063
1064   1065   1066   1067
1068   1069   1070   1071
1072   1073   1074   1075
1076   1077   1078   1079
1080   1081   1082   1083
1084   1085   1086   1087
1088   1089   1090   1091
1092   1093   1094   1095
1096   1097   1098   1099
1100   1101   1102   1103
1104   1105   1106   1107
1108   1109   1110   1111
1112   1113   1114   1115
1116   1117   1118   1119
1120   1121   1122   1123
1124   1125   1126   1127
1128   1129   1130   1131
1132   1133   1134   1135
1136   1137   1138   1139
1140   1141   1142   1143
1144   1145   1146   1147
1148   1149   1150   1151
1152   1153   1154   1155
1156   1157   1158   1159
1160   1161   1162   1163
1164   1165   1166   1167
1168   1169   1170   1171
1172   1173   1174   1175
1176   1177   1178   1179
1180   1181   1182   1183
1184   1185   1186   1187
1188   1189   1190   1191
1192   1193   1194   1195
1196   1197   1198   1199
1200   1201   1202   1203
1204   1205   1206   1207
1208   1209   1210   1211
1212   1213   1214   1215
1216   1217   1218   1219
1220   1221   1222   1223
1224   1225   1226   1227
1228   1229   1230   1231
1232   1233   1234   1235
1236   1237   1238   1239
1240   1241   1242   1243
1244   1245   1246   1247
1248   1249   1250   1251
1252   1253   1254   1255
1256   1257   1258   1259
1260   1261   1262   1263
1264   1265   1266   1267
1268   1269   1270   1271
1272   1273   1274   1275
1276   1277   1278   1279
1280   1281   1282   1283
1284   1285   1286   1287
1288   1289   1290   1291
1292   1293   1294   1295
1296   1297   1298   1299
1300   1301   1302   1303
1304   1305   1306   1307
1308   1309   1310   1311
1312   1313   1314   1315
1316   1317   1318   1319
1320   1321   1322   1323
1324   1325   1326   1327
1328   1329   1330   1331
1332   1333   1334   1335
1336   1337   1338   1339
1340   1341   1342   1343
1344   1345   1346   1347
1348   1349   1350   1351
1352   1353   1354   1355
1356   1357   1358   1359
1360   1361   1362   1363
1364   1365   1366   1367
1368   1369   1370   1371
1372   1373   1374   1375
1376   1377   1378   1379
1380   1381   1382   1383
1384   1385   1386   1387
1388   1389   1390   1391
1392   1393   1394   1395
1396   1397   1398   1399
1400   1401   1402   1403
1404   1405   1406   1407
1408   1409   1410   1411
1412   1413   1414   1415
1416   1417   1418   1419
1420   1421   1422   1423
1424   1425   1426   1427
1428   1429   1430   1431
1432   1433   1434   1435
1436   1437   1438   1439
1440   1441   1442   1443
1444   1445   1446   1447
1448   1449   1450   1451
1452   1453   1454   1455
1456   1457   1458   1459
1460   1461   1462   1463
1464   1465   1466   1467
1468   1469   1470   1471
1472   1473   1474   1475
1476   1477   1478   1479
1480   1481   1482   1483
1484   1485   1486   1487
1488   1489   1490   1491
1492   1493   1494   1495
1496   1497   1498   1499
1500   1501   1502   1503
1504   1505   1506   1507
1508   1509   1510   1511
1512   1513   1514   1515
1516   1517   1518   1519
1520   1521   1522   1523
1524   1525   1526   1527
1528   1529   1530   1531
1532   1533   1534   1535
1536   1537   1538   1539
1540   1541   1542   1543
1544   1545   1546   1547
1548   1549   1550   1551
1552   1553   1554   1555
1556   1557   1558   1559
1560   1561   1562   1563
1564   1565   1566   1567
1568   1569   1570   1571
1572   1573   1574   1575
1576   1577   1578   1579
1580   1581   1582   1583
1584   1585   1586   1587
1588   1589   1590   1591
1592   1593   1594   1595
1596   1597   1598   1599
1600   1601   1602   1603
1604   1605   1606   1607
1608   1609   1610   1611
1612   1613   1614   1615
1616   1617   1618   1619
1620   1621   1622   1623
1624   1625   1626   1627
1628   1629   1630   1631
1632   1633   1634   1635
1636   1637   1638   1639
1640   1641   1642   1643
1644   1645   1646   1647
1648   1649   1650   1651
1652   1653   1654   1655
1656   1657   1658   1659
1660   1661   1662   1663
1664   1665   1666   1667
1668   1669   1670   1671
1672   1673   1674   1675
1676   1677   1678   1679
1680   1681   1682   1683
1684   1685   1686   1687
1688   1689   1690   1691
1692   1693   1694   1695
1696   1697   1698   1699
1700   1701   1702   1703
1704   1705   1706   1707
1708   1709   1710   1711
1712   1713   1714   1715
1716   1717   1718   1719
1720   1721   1722   1723
1724   1725   1726   1727
1728   1729   1730   1731
1732   1733   1734   1735
1736   1737   1738   1739
1740   1741   1742   1743
1744   1745   1746   1747
1748   1749   1750   1751
1752   1753   1754   1755
1756   1757   1758   1759
1760   1761   1762   1763
1764   1765   1766   1767
1768   1769   1770   1771
1772   1773   1774   1775
1776   1777   1778   1779
1780   1781   1782   1783
1784   1785   1786   1787
1788   1789   1790   1791
1792   1793   1794   1795
1796   1797   1798   1799
1800   1801   1802   1803
1804   1805   1806   1807
1808   1809   1810   1811
1812   1813   1814   1815
1816   1817   1818   1819
1820   1821   1822   1823
1824   1825   1826   1827
1828   1829   1830   1831
1832   1833   1834   1835
1836   1837   1838   1839
1840   1841   1842   1843
1844   1845   1846   1847
1848   1849   1850   1851
1852   1853   1854   1855
1856   1857   1858   1859
1860   1861   1862   1863
1864   1865   1866   1867
1868   1869   1870   1871
1872   1873   1874   1875
1876   1877   1878   1879
1880   1881   1882   1883
1884   1885   1886   1887
1888   1889   1890   1891
1892   1893   1894   1895
1896   1897   1898   1899
1900   1901   1902   1903
1904   1905   1906   1907
1908   1909   1910   1911
1912   1913   1914   1915
1916   1917   1918   1919
1920   1921   1922   1923
1924   1925   1926   1927
1928   1929   1930   1931
1932   1933   1934   1935
1936   1937   1938   1939
1940   1941   1942   1943
1944   1945   1946   1947
1948   1949   1950   1951
1952   1953   1954   1955
1956   1957   1958   1959
1960   1961   1962   1963
1964   1965   1966   1967
1968   1969   1970   1971
1972   1973   1974   1975
1976   1977   1978   1979
1980   1981   1982   1983
1984   1985   1986   1987
1988   1989   1990   1991
1992   1993   1994   1995
1996   1997   1998   1999
2000   2001   2002   2003
2004   2005   2006   2007
2008   2009   2010   2011
2012   2013   2014   2015
2016   2017   2018   2019
2020   2021   2022   2023
2024   2025   2026   2027
2028   2029   2030   2031
2032   2033   2034   2035
2036   2037   2038   2039
2040   2041   2042   2043
2044   2045   2046   2047
2048   2049   2050   2051
2052   2053   2054   2055
2056   2057   2058   2059
2060   2061   2062   2063
2064   2065   2066   2067
2068   2069   2070   2071
2072   2073   2074   2075
2076   2077   2078   2079
2080   2081   2082   2083
2084   2085   2086   2087
2088   2089   2090   2091
2092   2093   2094   2095
2096   2097   2098   2099
2100   2101   2102   2103
2104   2105   2106   2107
2108   2109   2110   2111
2112   2113   2114   2115
2116   2117   2118   2119
2120   2121   2122   2123
2124   2125   2126   2127
2128   2129   2130   2131
2132   2133   2134   2135
2136   2137   2138   2139
2140   2141   2142   2143
2144   2145   2146   2147
2148   2149   2150   2151
2152   2153   2154   2155
2156   2157   2158   2159
2160   2161   2162   2163
2164   2165   2166   2167
2168   2169   2170   2171
2172   2173   2174   2175
2176   2177   2178   2179
2180   2181   2182   2183
2184   2185   2186   2187
2188   2189   2190   2191
2192   2193   2194   2195
2196   2197   2198   2199
2200   2201   2202   2203
2204   2205   2206   2207
2208   2209   2210   2211
2212   2213   2214   2215
2216   2217   2218   2219
2220   2221   2222   2223
2224   2225   2226   2227
2228   2229   2230   2231
2232   2233   2234   2235
2236   2237   2238   2239
2240   2241   2242   2243
2244   2245   2246   2247
2248   2249   2250   2251
2252   2253   2254   2255
2256   2257   2258   2259
2260   2261   2262   2263
2264   2265   2266   2267
2268   2269   2270   2271
2272   2273   2274   2275
2276   2277   2278   2279
2280   2281   2282   2283
2284   2285   2286   2287
2288   2289   2290   2291
2292   2293   2294   2295
2296   2297   2298   2299
2300   2301   2302   2303
2304   2305   2306   2307
2308   2309   2310   2311
2312   2313   2314   2315
2316   2317   2318   2319
2320   2321   2322   2323
2324   2325   2326   2327
2328   2329   2330   2331
2332   2333   2334   2335
2336   2337   2338   2339
2340   2341   2342   2343
2344   2345   2346   2347
2348   2349   2350   2351
2352   2353   2354   2355
2356   2357   2358   2359
2360   2361   2362   2363
2364   2365   2366   2367
2368   2369   2370   2371
2372   2373   2374   2375
2376   2377   2378   2379
2380   2381   2382   2383
2384   2385   2386   2387
2388   2389   2390   2391
2392   2393   2394   2395
2396   2397   2398   2399
2400   2401   2402   2403
2404   2405   2406   2407
2408   2409   2410   2411
2412   2413   2414   2415
2416   2417   2418   2419
2420   2421   2422   2423
2424   2425   2426   2427
2428   2429   2430   2431
2432   2433   2434   2435
2436   2437   2438   2439
2440   2441   2442   2443
2444   2445   2446   2447
2448   2449   2450   2451
2452   2453   2454   2455
2456   2457   2458   2459
2460   2461   2462   2463
2464   2465   2466   2467
2468   2469   2470   2471
2472   2473   2474   2475
2476   2477   2478   2479
2480   2481   2482   2483
2484   2485   2486   2487
2488   2489   2490   2491
2492   2493   2494   2495
2496   2497   2498   2499
2500   2501   2502   2503
2504   2505   2506   2507
2508   2509   2510   2511
2512   2513   2514   2515
2516   2517   2518   2519
2520   2521   2522   2523
2524   2525   2526   2527
2528   2529   2530   2531
2532   2533   2534   2535
2536   2537   2538   2539
2540   2541   2542   2543
2544   2545   2546   2547
2548   2549   2550   2551
2552   2553   2554   2555
2556   2557   2558   2559
2560   2561   2562   2563
2564   2565   2566   2567
2568   2569   2570   2571
2572   2573   2574   2575
2576   2577   2578   2579
2580   2581   2582   2583
2584   2585   2586   2587
2588   2589   2590   2591
2592   2593   2594   2595
2596   2597   2598   2599
2600   2601   2602   2603
2604   2605   2606   2607
2608   2609   2610   2611
2612   2613   2614   2615
2616   2617   2618   2619
2620   2621   2622   2623
2624   2625   2626   2627
2628   2629   2630   2631
2632   2633   2634   2635
2636   2637   2638   2639
2640   2641   2642   2643
2644   2645   2646   2647
2648   2649   2650   2651
2652   2653   2654   2655
2656   2657   2658   2659
2660   2661   2662   2663
2664   2665   2666   2667
2668   2669   2670   2671
2672   2673   2674   2675
2676   2677   2678   2679
2680   2681   2682   2683
2684   2685   2686   2687
2688   2689   2690   2691
2692   2693   2694   2695
2696   2697   2698   2699
2700   2701   2702   2703
2704   2705   2706   2707
2708   2709   2710   2711
2712   2713   2714   2715
2716   2717   2718   2719
2720   2721   2722   2723
2724   2725   2726   2727
2728   2729   2730   2731
2732   2733   2734   2735
2736   2737   2738   2739
2740   2741   2742   2743
2744   2745   2746   2747
2748   2749   2750   2751
2752   2753   2754   2755
2756   2757   2758   2759
2760   2761   2762   2763
2764   2765   2766   2767
2768   2769   2770   2771
2772   2773   2774   2775
2776   2777   2778   2779
2780   2781   2782   2783
2784   2785   2786   2787
2788   2789   2790   2791
2792   2793   2794   2795
2796   2797   2798   2799
2800   2801   2802   2803
2804   2805   2806   2807
2808   2809   2810   2811
2812   2813   2814   2815
2816   2817   2818   2819
2820   2821   2822   2823
2824   2825   2826   2827
2828   2829   2830   2831
2832   2833   2834   2835
2836   2837   2838   2839
2840   2841   2842   2843
2844   2845   2846   2847
2848   2849   2850   2851
2852   2853   2854   2855
2856   2857   2858   2859
2860   2861   2862   2863
2864   2865   2866   2867
2868   2869   2870   2871
2872   2873   2874   2875
2876   2877   2878   2879
2880   2881   2882   2883
2884   2885   2886   2887
2888   2889   2890   2891
2892   2893   2894   2895
2896   2897   2898   2899
2900   2901   2902   2903
2904   2905   2906   2907
2908   2909   2910   2911
2912   2913   2914   2915
2916   2917   2918   2919
2920   2921   2922   2923
2924   2925   2926   2927
2928   2929   2930   2931
2932   2933   2934   2935
2936   2937   2938   2939
2940   2941   2942   2943
2944   2945   2946   2947
2948   2949   2950   2951
2952   2953   2954   2955
2956   2957   2958   2959
2960   2961   2962   2963
2964   2965   2966   2967
2968   2969   2970   2971
2972   2973   2974   2975
2976   2977   2978   2979
2980   2981   2982   2983
2984   2985   2986   2987
2988   2989   2990   2991
2992   2993   2994   2995
2996   2997   2998   2999
3000   3001   3002   3003
3004   3005   3006   3007
3008   3009   3010   3011
3012   3013   3014   3015
3016   3017   3018   3019
3020   3021   3022   3023
3024   3025   3026   3027
3028   3029   3030   3031
3032   3033   3034   3035
3036   3037   3038   3039
3040   3041   3042   3043
3044   3045   3046   3047
3048   3049   3050   3051
3052   3053   3054   3055
3056   3057   3058   3059
3060   3061   3062   3063
3064   3065   3066   3067
3068   3069   3070   3071
3072   3073   3074   3075
3076   3077   3078   3079
3080   3081   3082   3083
3084   3085   3086   3087
3088   3089   3090   3091
3092   3093   3094   3095
3096   3097   3098   3099
3100   3101   3102   3103
3104   3105   3106   3107
3108   3109   3110   3111
3112   3113   3114   3115
3116   3117   3118   3119
3120   3121   3122   3123
3124   3125   3126   3127
3128   3129   3130   3131
3132   3133   3134   3135
3136   3137   3138   3139
3140   3141   3142   3143
3144   3145   3146   3147
3148   3149   3150   3151
3152   3153   3154   3155
3156   3157   3158   3159
3160   3161   3162   3163
3164   3165   3166   3167
3168   3169   3170   3171
3172   3173   3174   3175
3176   3177   3178   3179
3180   3181   3182   3183
3184   3185   3186   3187
3188   3189   3190   3191
3192   3193   3194   3195
3196   3197   3198   3199
3200   3201   3202   3203
3204   3205   3206   3207
3208   3209   3210   3211
3212   3213   3214   3215
3216   3217   3218   3219
3220   3221   3222   3223
3224   3225   3226   3227
3228   3229   3230   3231
3232   3233   3234   3235
3236   3237   3238   3239
3240   3241   3242   3243
3244   3245   3246   3247
3248   3249   3250   3251
3252   3253   3254   3255
3256   3257   3258   3259
3260   3261   3262   3263
3264   3265   3266   3267
3268   3269   3270   3271
3272   3273   3274   3275
3276   3277   3278   3279
3280   3281   3282   3283
3284   3285   3286   3287
3288   3289   3290   3291
3292   3293   3294   3295
3296   3297   3298   3299
3300   3301   3302   3303
3304   3305   3306   3307
3308   3309   3310   3311
3312   3313   3314   3315
3316   3317   3318   3319
3320   3321   3322   3323
3324   3325   3326   3327
3328   3329   3330   3331
3332   3333   3334   3335
3336   3337   3338   3339
3340   3341   3342   3343
3344   3345   3346   3347
3348   3349   3350   3351
3352   3353   3354   3355
3356   3357   3358   3359
3360   3361   3362   3363
3364   3365   3366   3367
3368   3369   3370   3371
3372   3373   3374   3375
3376   3377   3378   3379
3380   3381   3382   3383
3384   3385   3386   3387
3388   3389   3390   3391
3392   3393   3394   3395
3396   3397   3398   3399
3400   3401   3402   3403
3404   3405   3406   3407
3408   3409   3410   3411
3412   3413   3414   3415
3416   3417   3418   3419
3420   3421   3422   3423
3424   3425   3426   3427
3428   3429   3430   3431
3432   3433   3434   3435
3436   3437   3438   3439
3440   3441   3442   3443
3444   3445   3446   3447
3448   3449   3450   3451
3452   3453   3454   3455
3456   3457   3458   3459
3460   3461   3462   3463
3464   3465   3466   3467
3468   3469   3470   3471
3472   3473   3474   3475
3476   3477   3478   3479
3480   3481   3482   3483
3484   3485   3486   3487
3488   3489   3490   3491
3492   3493   3494   3495
3496   3497   3498   3499
3500   3501   3502   3503
3504   3505   3506   3507
3508   3509   3510   3511
3512   3513   3514   3515
3516   3517   3518   3519
3520   3521   3522   3523
3524   3525   3526   3527
3528   3529   3530   3531
3532   3533   3534   3535
3536   3537   3538   3539
3540   3541   3542   3543
3544   3545   3546   3547
3548   3549   3550   3551
3552   3553   3554   3555
3556   3557   3558   3559
3560   3561   3562   3563
3564   3565   3566   3567
3568   3569   3570   3571
3572   3573   3574   3575
3576   3577   3578   3579
3580   3581   3582   3583
3584   3585   3586   3587
3588   3589   3590   3591
3592   3593   3594   3595
3596   3597   3598   3599
3600   3601   3602   3603
3604   3605   3606   3607
3608   3609   3610   3611
3612   3613   3614   3615
3616   3617   3618   3619
3620   3621   3622   3623
3624   3625   3626   3627
3628   3629   3630   3631
3632   3633   3634   3635
3636   3637   3638   3639
3640   3641   3642   3643
3644   3645   3646   3647
3648   3649   3650   3651
3652   3653   3654   3655
3656   3657   3658   3659
3660   3661   3662   3663
3664   3665   3666   3667
3668   3669   3670   3671
3672   3673   3674   3675
3676   3677   3678   3679
3680   3681   3682   3683
3684   3685   3686   3687
3688   3689   3690   3691
3692   3693   3694   3695
3696   3697   3698   3699
3700   3701   3702   3703
3704   3705   3706   3707
3708   3709   3710   3711
3712   3713   3714   3715
3716   3717   3718   3719
3720   3721   3722   3723
3724   3725   3726   3727
3728   3729   3730   3731
3732   3733   3734   3735
3736   3737   3738   3739
3740   3741   3742   3743
3744   3745   3746   3747
3748   3749   3750   3751
3752   3753   3754   3755
3756   3757   3758   3759
3760   3761   3762   3763
3764   3765   3766   3767
3768   3769   3770   3771
3772   3773   3774   3775
3776   3777   3778   3779
3780   3781   3782   3783
3784   3785   3786   3787
3788   3789   3790   3791
3792   3793   3794   3795
3796   3797   3798   3799
3800   3801   3802   3803
3804   3805   3806   3807
3808   3809   3810   3811
3812   3813   3814   3815
3816   3817   3818   3819
3820   3821   3822   3823
3824   3825   3826   3827
3828   3829   3830   3831
3832   3833   3834   3835
3836   3837   3838   3839
3840   3841   3842   3843
3844   3845   3846   3847
3848   3849   3850   3851
3852   3853   3854   3855
3856   3857   3858   3859
3860   3861   3862   3863
3864   3865   3866   3867
3868   3869   3870   3871
3872   3873   3874   3875
3876   3877   3878   3879
3880   3881   3882   3883
3884   3885   3886   3887
3888   3889   3890   3891
3892   3893   3894   3895
3896   3897   3898   3899
3900   3901   3902   3903
3904   3905   3906   3907
3908   3909   3910   3911
3912   3913   3914   3915
3916   3917   3918   3919
3920   3921   3922   3923
3924   3925   3926   3927
3928   3929   3930   3931
3932   3933   3934   3935
3936   3937   3938   3939
3940   3941   3942   3943
3944   3945   3946   3947
3948   3949   3950   3951
3952   3953   3954   3955
3956   3957   3958   3959
3960   3961   3962   3963
3964   3965   3966   3967
3968   3969   3970   3971
3972   3973   3974   3975
3976   3977   3978   3979
3980   3981   3982   3983
3984   3985   3986   3987
3988   3989   3990   3991
3992   3993   3994   3995
3996   3997   3998   3999
4000   4001   4002   4003
4004   4005   4006   4007
4008   4009   4010   4011
4012   4013   4014   4015
4016   4017   4018   4019
4020   4021   4022   4023
4024   4025   4026   4027
4028   4029   4030   4031
4032   4033   4034   4035
4036   4037   4038   4039
4040   4041   4042   4043
4044   4045   4046   4047
4048   4049   4050   4051
4052   4053   4054   4055
4056   4057   4058   4059
4060   4061   4062   4063
4064   4065   4066   4067
4068   4069   4070   4071
4072   4073   4074   4075
4076   4077   4078   4079
4080   4081   4082   4083
4084   4085   4086   4087
4088   4089   4090   4091
4092   4093   4094   4095
4096   4097   4098   4099
4100   4101   4102   4103
4104   4105   4106   4107
4108   4109   4110   4111
4112   4113   4114   4115
4116   4117   4118   4119
4120   4121   4122   4123
4124   4125   4126   4127
4128   4129   4130   4131
4132   4133   4134   4135
4136   4137   4138   4139
4140   4141   4142   4143
4144   4145   4146   4147
4148   4149   4150   4151
4152   4153   4154   4155
4156   4157   4158   4159
4160   4161   4162   4163
4164   4165   4166   4167
4168   4169   4170   4171
4172   4173   4174   4175
4176   4177   4178   4179
4180   4181   4182   4183
4184   4185   4186   4187
4188   4189   4190   4191
4192   4193   4194   4195
4196   4197   4198   4199
4200   4201   4202   4203
4204   4205   4206   4207
4208   4209   4210   4211
4212   4213   4214   4215
4216   4217   4218   4219
4220   4221   4222   4223
4224   4225   4226   4227
4228   4229   4230   4231
4232   4233   4234   4235
4236   4237   4238   4239
4240   4241   4242   4243
4244   4245   4246   4247
4248   4249   4250   4251
4252   4253   4254   4255
4256   4257   4258   4259
4260   4261   4262   4263
4264   4265   4266   4267
4268   4269   4270   4271
4272   4273   4274   4275
4276   4277   4278   4279
4280   4281   4282   4283
4284   4285   4286   4287
4288   4289   4290   4291
4292   4293   4294   4295
4296   4297   4298   4299
4300   4301   4302   4303
4304   4305   4306   4307
4308   4309   4310   4311
4312   4313   4314   4315
4316   4317   4318   4319
4320   4321   4322   4323
4324   4325   4326   4327
4328   4329   4330   4331
4332   4333   4334   4335
4336   4337   4338   4339
4340   4341   4342   4343
4344   4345   4346   4347
4348   4349   4350   4351
4352   4353   4354   4355
4356   4357   4358   4359
4360   4361   4362   4363
4364   4365   4366   4367
4368   4369   4370   4371
4372   4373   4374   4375
4376   4377   4378   4379
4380   4381   4382   4383
4384   4385   4386   4387
4388   4389   4390   4391
4392   4393   4394   4395
4396   4397   4398   4399
4400   4401   4402   4403
4404   4405   4406   4407
4408   4409   4410   4411
4412   4413   4414   4415
4416   4417   4418   4419
4420   4421   4422   4423
4424   4425   4426   4427
4428   4429   4430   4431
4432   4433   4434   4435
4436   4437   4438   4439
4440   4441   4442   4443
4444   4445   4446   4447
4448   4449   4450   4451
4452   4453   4454   4455
4456   4457   4458   4459
4460   4461   4462   4463
4464   4465   4466   4467
4468   4469   4470   4471
4472   4473   4474   4475
4476   4477   4478   4479
4480   4481   4482   4483
4484   4485   4486   4487
4488   4489   4490   4491
4492   4493   4494   4495
4496   4497   4498   4499
4500   4501   4502   4503
4504   4505   4506   4507
4508   4509   4510   4511
4512   4513   4514   4515
4516   4517   4518   4519
4520   4521   4522   4523
4524   4525   4526   4527
4528   4529   4530   4531
4532   4533   4534   4535
4536   4537   4538   4539
4540   4541   4542   4543
4544   4545   4546   4547
4548   4549   4550   4551
4552   4553   4554   4555
4556   4557   4558   4559
4560   4561   4562   4563
4564   4565   4566   4567
4568   4569   4570   4571
4572   4573   4574   4575
4576   4577   4578   4579
4580   4581   4582   4583
4584   4585   4586   4587
4588   4589   4590   4591
4592   4593   4594   4595
4596   4597   4598   4599
4600   4601   4602   4603
4604   4605   4606   4607
4608   4609   4610   4611
4612   4613   4614   4615
4616   4617   4618   4619
4620   4621   4622   4623
4624   4625   4626   4627
4628   4629   4630   4631
4632   4633   4634   4635
4636   4637   4638   4639
4640   4641   4642   4643
4644   4645   4646   4647
4648   4649   4650   4651
4652   4653   4654   4655
4656   4657   4658   4659
4660   4661   4662   4663
4664   4665   4666   4667
4668   4669   4670   4671
4672   4673   4674   4675
4676   4677   4678   4679
4680   4681   4682   4683
4684   4685   4686   4687
4688   4689   4690   4691
4692   4693   4694   4695
4696   4697   4698   4699
4700   4701   4702   4703
4704   4705   4706   4707
4708   4709   4710   4711
4712   4713   4714   4715
4716   4717   4718   4719
4720   4721   4722   4723
4724   4725   4726   4727
4728   4729   4730   4731
4732   4733   4734   4735
4736   4737   4738   4739
4740   4741   4742   4743
4744   4745   4746   4747
4748   4749   4750   4751
4752   4753   4754   4755
4756   4757   4758   4759
4760   4761   4762   4763
4764   4765   4766   4767
4768   4769   4770   4771
4772   4773   4774   4775
4776   4777   4778   4779
4780   4781   4782   4783
4784   4785   4786   4787
4788   4789   4790   4791
4792   4793   4794   4795
4796   4797   4798   4799
4800   4801   4802   4803
4804   4805   4806   4807
4808   4809   4810   4811
4812   4813   4814   4815
4816   4817   4818   4819
4820   4821   4822   4823
4824   4825   4826   4827
4828   4829   4830   4831
4832   4833   4834   4835
4836   4837   4838   4839
4840   4841   4842   4843
4844   4845   4846   4847
4848   4849   4850   4851
4852   4853   4854   4855
4856   4857   4858   4859
4860   4861   4862   4863
4864   4865   4866   4867
4868   4869   4870   4871
4872   4873   4874   4875
4876   4877   4878   4879
4880   4881   4882   4883
4884   4885   4886   4887
4888   4889   4890   4891
4892   4893   4894   4895
4896   4897   4898   4899
4900   4901   4902   4903
4904   4905   4906   4907
4908   4909   4910   4911
4912   4913   4914   4915
4916   4917   4918   4919
4920   4921   4922   4923
4924   4925   4926   4927
4928   4929   4930   4931
4932   4933   4934   4935
4936   4937   4938   4939
4940   4941   4942   4943
4944   4945   4946   4947
4948   4949   4950   4951
4952   4953   4954   4955
4956   4957   4958   4959
4960   4961   4962   4963
4964   4965   4966   4967
4968   4969   4970   4971
4972   4973   4974   4975
4976   4977   4978   4979
4980   4981   4982   4983
4984   4985   4986   4987
4988   4989   4990   4991
4992   4993   4994   4995
4996   4997   4998   4999
5000   5001   5002   5003
5004   5005   5006   5007
5008   5009   5010   5011
5012   5013   5014   5015
5016   5017   5018   5019
5020   5021   5022   5023
5024   5025   5026   5027
5028   5029   5030   5031
5032   5033   5034   5035
5036   5037   5038   5039
5040   5041   5042   5043
5044   5045   5046   5047
5048   5049   5050   5051
5052   5053   5054   5055
5056   5057   5058   5059
5060   5061   5062   5063
5064   5065   5066   5067
5068   5069   5070   5071
5072   5073   5074   5075
5076   5077   5078   5079
5080   5081   5082   5083
5084   5085   5086   5087
5088   5089   5090   5091
5092   5093   5094   5095
5096   5097   5098   5099
5100   5101   5102   5103
5104   5105   5106   5107
5108   5109   5110   5111
5112   5113   5114   5115
5116   5117   5118   5119
5120   5121   5122   5123
5124   5125   5126   5127
5128   5129   5130   5131
5132   5133   5134   5135
5136   5137   5138   5139
5140   5141   5142   5143
5144   5145   5146   5147
5148   5149   5150   5151
5152   5153   5154   5155
5156   5157   5158   5159
5160   5161   5162   5163
5164   5165   5166   5167
5168   5169   5170   5171
5172   5173   5174   5175
5176   5177   5178   5179
5180   5181   5182   5183
5184   5185   5186   5187
5188   5189   5190   5191
5192   5193   5194   5195
5196   5197   5198   5199
5200   5201   5202   5203
5204   5205   5206   5207
5208   5209   5210   5211
5212   5213   5214   5215
5216   5217   5218   5219
5220   5221   5222   5223
5224   5225   5226   5227
5228   5229   5230   5231
5232   5233   5234   5235
5236   5237   5238   5239
5240   5241   5242   5243
5244   5245   5246   5247
5248   5249   5250   5251
5252   5253   5254   5255
5256   5257   5258   5259
5260   5261   5262   5263
5264   5265   5266   5267
5268   5269   5270   5271
5272   5273   5274   5275
5276   5277   5278   5279
5280   5281   5282   5283
5284   5285   5286   5287
5288   5289   5290   5291
5292   5293   5294   5295
5296   5297   5298   5299
5300   5301   5302   5303
5304   5305   5306   5307
5308   5309   5310   5311
5312   5313   5314   5315
5316   5317   5318   5319
5320   5321   5322   5323
5324   5325   5326   5327
5328   5329   5330   5331
5332   5333   5334   5335
5336   5337   5338   5339
5340   5341   5342   5343
5344   5345   5346   5347
5348   5349   5350   5351
5352   5353   5354   5355
5356   5357   5358   5359
5360   5361   5362   5363
5364   5365   5366   5367
5368   5369   5370   5371
5372   5373   5374   5375
5376   5377   5378   5379
5380   5381   5382   5383
5384   5385   5386   5387
5388   5389   5390   5391
5392   5393   5394   5395
5396   5397   5398   5399
5400   5401   5402   5403
5404   5405   5406   5407
5408   5409   5410   5411
5412   5413   5414   5415
5416   5417   5418   5419
5420   5421   5422   5423
5424   5425   5426   5427
5428   5429   5430   5431
5432   5433   5434   5435
5436   5437   5438   5439
5440   5441   5442   5443
5444   5445   5446   5447
5448   5449   5450   5451
5452   5453   5454   5455
5456   5457   5458   5459
5460   5461   5462   5463
5464   5465   5466   5467
5468   5469   5470   5471
5472   5473   5474   5475
5476   5477   5478   5479
5480   5481   5482   5483
5484   5485   5486   5487
5488   5489   5490   5491
5492   5493   5494   5495
5496   5497   5498   5499
5500   5501   5502   5503
5504   5505   5506   5507
5508   5509   5510   5511
5512   5513   5514   5515
5516   5517   5518   5519
5520   5521   5522   5523
5524   5525   5526   5527
5528   5529   5530   5531
5532   5533   5534   5535
5536   5537   5538   5539
5540   5541   5542   5543
5544   5545   5546   5547
5548   5549   5550   5551
5552   5553   5554   5555
5556   5557   5558   5559
5560   5561   5562   5563
5564   5565   5566   5567
5568   5569   5570   5571
5572   5573   5574   5575
5576   5577   5578   5579
5580   5581   5582   5583
5584   5585   5586   5587
5588   5589   5590   5591
5592   5593   5594   5595
5596   5597   5598   5599
5600   5601   5602   5603
5604   5605   5606   5607
5608   5609   5610   5611
5612   5613   5614   5615
5616   5617   5618   5619
5620   5621   5622   5623
5624   5625   5626   5627
5628   5629   5630   5631
5632   5633   5634   5635
5636   5637   5638   5639
5640   5641   5642   5643
5644   5645   5646   5647
5648   5649   5650   5651
5652   5653   5654   5655
5656   5657   5658   5659
5660   5661   5662   5663
5664   5665   5666   5667
5668   5669   5670   5671
5672   5673   5674   5675
5676   5677   5678   5679
5680   5681   5682   5683
5684   5685   5686   5687
5688   5689   5690   5691
5692   5693   5694   5695
5696   5697   5698   5699
5700   5701   5702   5703
5704   5705   5706   5707
5708   5709   5710   5711
5712   5713   5714   5715
5716   5717   5718   5719
5720   5721   5722   5723
5724   5725   5726   5727
5728   5729   5730   5731
5732   5733   5734   5735
5736   5737   5738   5739
5740   5741   5742   5743
5744   5745   5746   5747
5748   5749   5750   5751
5752   5753   5754   5755
5756   5757   5758   5759
5760   5761   5762   5763
5764   5765   5766   5767
5768   5769   5770   5771
5772   5773   5774   5775
5776   5777   5778   5779
5780   5781   5782   5783
5784   5785   5786   5787
5788   5789   5790   5791
5792   5793   5794   5795
5796   5797   5798   5799
5800   5801   5802   5803
5804   5805   5806   5807
5808   5809   5810   5811
5812   5813   5814   5815
5816   5817   5818   5819
5820   5821   5822   5823
5824   5825   5826   5827
5828   5829   5830   5831
5832   5833   5834   5835
5836   5837   5838   5839
5840   5841   5842   5843
5844   5845   5846   5847
5848   5849   5850   5851
5852   5853   5854   5855
5856   5857   5858   5859
5860   5861   5862   5863
5864   5865   5866   5867
5868   5869   5870   5871
5872   5873   5874   5875
5876   5877   5878   5879
5880   5881   5882   5883
5884   5885   5886   5887
5888   5889   5890   5891
5892   5893   5894   5895
5896   5897   5898   5899
5900   5901   5902   5903
5904   5905   5906   5907
5908   5909   5910   5911
5912   5913   5914   5915
5916   5917   5918   5919
5920   5921   5922   5923
5924   5925   5926   5927
5928   5929   5930   5931
5932   5933   5934   5935
5936   5937   5938   5939
5940   5941   5942   5943
5944   5945   5946   5947
5948   5949   5950   5951
5952   5953   5954   5955
5956   5957   5958   5959
5960   5961   5962   5963
5964   5965   5966   5967
5968   5969   5970   5971
5972   5973   5974   5975
5976   5977   5978   5979
5980   5981   5982   5983
5984   5985   5986   5987
5988   5989   5990   5991
5992   5993   5994   5995
5996   5997   5998   5999
              </DataArray>   
              <DataArray type="Int32" Name="offsets" format="ascii">   
4
8
12
16
20
24
28
32
36
40
44
48
52
56
60
64
68
72
76
80
84
88
92
96
100
104
108
112
116
120
124
128
132
136
140
144
148
152
156
160
164
168
172
176
180
184
188
192
196
200
204
208
212
216
220
224
228
232
236
240
244
248
252
256
260
264
268
272
276
280
284
288
292
296
300
304
308
312
316
320
324
328
332
336
340
344
348
352
356
360
364
368
372
376
380
384
388
392
396
400
404
408
412
416
420
424
428
432
436
440
444
448
452
456
460
464
468
472
476
480
484
488
492
496
500
504
508
512
516
520
524
528
532
536
540
544
548
552
556
560
564
568
572
576
580
584
588
592
596
600
604
608
612
616
620
624
628
632
636
640
644
648
652
656
660
664
668
672
676
680
684
688
692
696
700
704
708
712
716
720
724
728
732
736
740
744
748
752
756
760
764
768
772
776
780
784
788
792
796
800
804
808
812
816
820
824
828
832
836
840
844
848
852
856
860
864
868
872
876
880
884
888
892
896
900
904
908
912
916
920
924
928
932
936
940
944
948
952
956
960
964
968
972
976
980
984
988
992
996
1000
1004
1008
1012
1016
1020
1024
1028
1032
1036
1040
1044
1048
1052
1056
1060
1064
1068
1072
1076
1080
1084
1088
1092
1096
1100
1104
1108
1112
1116
1120
1124
1128
1132
1136
1140
1144
1148
1152
1156
1160
1164
1168
1172
1176
1180
1184
1188
1192
1196
1200
1204
1208
1212
1216
1220
1224
1228
1232
1236
1240
1244
1248
1252
1256
1260
1264
1268
1272
1276
1280
1284
1288
1292
1296
1300
1304
1308
1312
1316
1320
1324
1328
1332
1336
1340
1344
1348
1352
1356
1360
1364
1368
1372
1376
1380
1384
1388
1392
1396
1400
1404
1408
1412
1416
1420
1424
1428
1432
1436
1440
1444
1448
1452
1456
1460
1464
1468
1472
1476
1480
1484
1488
1492
1496
1500
1504
1508
1512
1516
1520
1524
1528
1532
1536
1540
1544
1548
1552
1556
1560
1564
1568
1572
1576
1580
1584
1588
1592
1596
1600
1604
1608
1612
1616
1620
1624
1628
1632
1636
1640
1644
1648
1652
1656
1660
1664
1668
1672
1676
1680
1684
1688
1692
1696
1700
1704
1708
1712
1716
1720
1724
1728
1732
1736
1740
1744
1748
1752
1756
1760
1764
1768
1772
1776
1780
1784
1788
1792
1796
1800
1804
1808
1812
1816
1820
1824
1828
1832
1836
1840
1844
1848
1852
1856
1860
1864
1868
1872
1876
1880
1884
1888
1892
1896
1900
1904
1908
1912
1916
1920
1924
1928
1932
1936
1940
1944
1948
1952
1956
1960
1964
1968
1972
1976
1980
1984
1988
1992
1996
2000
2004
2008
2012
2016
2020
2024
2028
2032
2036
2040
2044
2048
2052
2056
2060
2064
2068
2072
2076
2080
2084
2088
2092
2096
2100
2104
2108
2112
2116
2120
2124
2128
2132
2136
2140
2144
2148
2152
2156
2160
2164
2168
2172
2176
2180
2184
2188
2192
2196
2200
2204
2208
2212
2216
2220
2224
2228
2232
2236
2240
2244
2248
2252
2256
2260
2264
2268
2272
2276
2280
2284
2288
2292
2296
2300
2304
2308
2312
2316
2320
2324
2328
2332
2336
2340
2344
2348
2352
2356
2360
2364
2368
2372
2376
2380
2384
2388
2392
2396
2400
2404
2408
2412
2416
2420
2424
2428
2432
2436
2440
2444
2448
2452
2456
2460
2464
2468
2472
2476
2480
2484
2488
2492
2496
2500
2504
2508
2512
2516
2520
2524
2528
2532
2536
2540
2544
2548
2552
2556
2560
2564
2568
2572
2576
2580
2584
2588
2592
2596
2600
2604
2608
2612
2616
2620
2624
2628
2632
2636
2640
2644
2648
2652
2656
2660
2664
2668
2672
2676
2680
2684
2688
2692
2696
2700
2704
2708
2712
2716
2720
2724
2728
2732
2736
2740
2744
2748
2752
2756
2760
2764
2768
2772
2776
2780
2784
2788
2792
2796
2800
2804
2808
2812
2816
2820
2824
2828
2832
2836
2840
2844
2848
2852
2856
2860
2864
2868
2872
2876
2880
2884
2888
2892
2896
2900
2904
2908
2912
2916
2920
2924
2928
2932
2936
2940
2944
2948
2952
2956
2960
2964
2968
2972
2976
2980
2984
2988
2992
2996
3000
3004
3008
3012
3016
3020
3024
3028
3032
3036
3040
3044
3048
3052
3056
3060
3064
3068
3072
3076
3080
3084
3088
3092
3096
3100
3104
3108
3112
3116
3120
3124
3128
3132
3136
3140
3144
3148
3152
3156
3160
3164
3168
3172
3176
3180
3184
3188
3192
3196
3200
3204
3208
3212
3216
3220
3224
3228
3232
3236
3240
3244
3248
3252
3256
3260
3264
3268
3272
3276
3280
3284
3288
3292
3296
3300
3304
3308
3312
3316
3320
3324
3328
3332
3336
3340
3344
3348
3352
3356
3360
3364
3368
3372
3376
3380
3384
3388
3392
3396
3400
3404
3408
3412
3416
3420
3424
3428
3432
3436
3440
3444
3448
3452
3456
3460
3464
3468
3472
3476
3480
3484
3488
3492
3496
3500
3504
3508
3512
3516
3520
3524
3528
3532
3536
3540
3544
3548
3552
3556
3560
3564
3568
3572
3576
3580
3584
3588
3592
3596
3600
3604
3608
3612
3616
3620
3624
3628
3632
3636
3640
3644
3648
3652
3656
3660
3664
3668
3672
3676
3680
3684
3688
3692
3696
3700
3704
3708
3712
3716
3720
3724
3728
3732
3736
3740
3744
3748
3752
3756
3760
3764
3768
3772
3776
3780
3784
3788
3792
3796
3800
3804
3808
3812
3816
3820
3824
3828
3832
3836
3840
3844
3848
3852
3856
3860
3864
3868
3872
3876
3880
3884
3888
3892
3896
3900
3904
3908
3912
3916
3920
3924
3928
3932
3936
3940
3944
3948
3952
3956
3960
3964
3968
3972
3976
3980
3984
3988
3992
3996
4000
4004
4008
4012
4016
4020
4024
4028
4032
4036
4040
4044
4048
4052
4056
4060
4064
4068
4072
4076
4080
4084
4088
4092
4096
4100
4104
4108
4112
4116
4120
4124
4128
4132
4136
4140
4144
4148
4152
4156
4160
4164
4168
4172
4176
4180
4184
4188
4192
4196
4200
4204
4208
4212
4216
4220
4224
4228
4232
4236
4240
4244
4248
4252
4256
4260
4264
4268
4272
4276
4280
4284
4288
4292
4296
4300
4304
4308
4312
4316
4320
4324
4328
4332
4336
4340
4344
4348
4352
4356
4360
4364
4368
4372
4376
4380
4384
4388
4392
4396
4400
4404
4408
4412
4416
4420
4424
4428
4432
4436
4440
4444
4448
4452
4456
4460
4464
4468
4472
4476
4480
4484
4488
4492
4496
4500
4504
4508
4512
4516
4520
4524
4528
4532
4536
4540
4544
4548
4552
4556
4560
4564
4568
4572
4576
4580
4584
4588
4592
4596
4600
4604
4608
4612
4616
4620
4624
4628
4632
4636
4640
4644
4648
4652
4656
4660
4664
4668
4672
4676
4680
4684
4688
4692
4696
4700
4704
4708
4712
4716
4720
4724
4728
4732
4736
4740
4744
4748
4752
4756
4760
4764
4768
4772
4776
4780
4784
4788
4792
4796
4800
4804
4808
4812
4816
4820
4824
4828
4832
4836
4840
4844
4848
4852
4856
4860
4864
4868
4872
4876
4880
4884
4888
4892
4896
4900
4904
4908
4912
4916
4920
4924
4928
4932
4936
4940
4944
4948
4952
4956
4960
4964
4968
4972
4976
4980
4984
4988
4992
4996
5000
5004
5008
5012
5016
5020
5024
5028
5032
5036
5040
5044
5048
5052
5056
5060
5064
5068
5072
5076
5080
5084
5088
5092
5096
5100
5104
5108
5112
5116
5120
5124
5128
5132
5136
5140
5144
5148
5152
5156
5160
5164
5168
5172
5176
5180
5184
5188
5192
5196
5200
5204
5208
5212
5216
5220
5224
5228
5232
5236
5240
5244
5248
5252
5256
5260
5264
5268
5272
5276
5280
5284
5288
5292
5296
5300
5304
5308
5312
5316
5320
5324
5328
5332
5336
5340
5344
5348
5352
5356
5360
5364
5368
5372
5376
5380
5384
5388
5392
5396
5400
5404
5408
5412
5416
5420
5424
5428
5432
5436
5440
5444
5448
5452
5456
5460
5464
5468
5472
5476
5480
5484
5488
5492
5496
5500
5504
5508
5512
5516
5520
5524
5528
5532
5536
5540
5544
5548
5552
5556
5560
5564
5568
5572
5576
5580
5584
5588
5592
5596
5600
5604
5608
5612
5616
5620
5624
5628
5632
5636
5640
5644
5648
5652
5656
5660
5664
5668
5672
5676
5680
5684
5688
5692
5696
5700
5704
5708
5712
5716
5720
5724
5728
5732
5736
5740
5744
5748
5752
5756
5760
5764
5768
5772
5776
5780
5784
5788
5792
5796
5800
5804
5808
5812
5816
5820
5824
5828
5832
5836
5840
5844
5848
5852
5856
5860
5864
5868
5872
5876
5880
5884
5888
5892
5896
5900
5904
5908
5912
5916
5920
5924
5928
5932
5936
5940
5944
5948
5952
5956
5960
5964
5968
5972
5976
5980
5984
5988
5992
5996
6000
              </DataArray>   
              <DataArray type="UInt8" Name="types" format="ascii">   
10
10
10
10
10
10
10
10
10
10
10
10
10
10
10
10
10
10
10
10
10
10
10
10
10
10
10
10
10
10
10
10
10
10
10
10
10
10
10
10
10
10
10
10
10
10
10
10
10
10
10
10
10
10
10
10
10
10
10
10
10
10
10
10
10
10
10
10
10
10
10
10
10
10
10
10
10
10
10
10
10
10
10
10
10
10
10
10
10
10
10
10
10
10
10
10
10
10
10
10
10
10
10
10
10
10
10
10
10
10
10
10
10
10
10
10
10
10
10
10
10
10
10
10
10
10
10
10
10
10
10
10
10
10
10
10
10
10
10
10
10
10
10
10
10
10
10
10
10
10
10
10
10
10
10
10
10
10
10
10
10
10
10
10
10
10
10
10
10
10
10
10
10
10
10
10
10
10
10
10
10
10
10
10
10
10
10
10
10
10
10
10
10
10
10
10
10
10
10
10
10
10
10
10
10
10
10
10
10
10
10
10
10
10
10
10
10
10
10
10
10
10
10
10
10
10
10
10
10
10
10
10
10
10
10
10
10
10
10
10
10
10
10
10
10
10
10
10
10
10
10
10
10
10
10
10
10
10
10
10
10
10
10
10
10
10
10
10
10
10
10
10
10
10
10
10
10
10
10
10
10
10
10
10
10
10
10
10
10
10
10
10
10
10
10
10
10
10
10
10
10
10
10
10
10
10
10
10
10
10
10
10
10
10
10
10
10
10
10
10
10
10
10
10
10
10
10
10
10
10
10
10
10
10
10
10
10
10
10
10
10
10
10
10
10
10
10
10
10
10
10
10
10
10
10
10
10
10
10
10
10
10
10
10
10
10
10
10
10
10
10
10
10
10
10
10
10
10
10
10
10
10
10
10
10
10
10
10
10
10
10
10
10
10
10
10
10
10
10
10
10
10
10
10
10
10
10
10
10
10
10
10
10
10
10
10
10
10
10
10
10
10
10
10
10
10
10
10
10
10
10
10
10
10
10
10
10
10
10
10
10
10
10
10
10
10
10
10
10
10
10
10
10
10
10
10
10
10
10
10
10
10
10
10
10
10
10
10
10
10
10
10
10
10
10
10
10
10
10
10
10
10
10
10
10
10
10
10
10
10
10
10
10
10
10
10
10
10
10
10
10
10
10
10
10
10
10
10
10
10
10
10
10
10
10
10
10
10
10
10
10
10
10
10
10
10
10
10
10
10
10
10
10
10
10
10
10
10
10
10
10
10
10
10
10
10
10
10
10
10
10
10
10
10
10
10
10
10
10
10
10
10
10
10
10
10
10
10
10
10
10
10
10
10
10
10
10
10
10
10
10
10
10
10
10
10
10
10
10
10
10
10
10
10
10
10
10
10
10
10
10
10
10
10
10
10
10
10
10
10
10
10
10
10
10
10
10
10
10
10
10
10
10
10
10
10
10
10
10
10
10
10
10
10
10
10
10
10
10
10
10
10
10
10
10
10
10
10
10
10
10
10
10
10
10
10
10
10
10
10
10
10
10
10
10
10
10
10
10
10
10
10
10
10
10
10
10
10
10
10
10
10
10
10
10
10
10
10
10
10
10
10
10
10
10
10
10
10
10
10
10
10
10
10
10
10
10
10
10
10
10
10
10
10
10
10
10
10
10
10
10
10
10
10
10
10
10
10
10
10
10
10
10
10
10
10
10
10
10
10
10
10
10
10
10
10
10
10
10
10
10
10
10
10
10
10
10
10
10
10
10
10
10
10
10
10
10
10
10
10
10
10
10
10
10
10
10
10
10
10
10
10
10
10
10
10
10
10
10
10
10
10
10
10
10
10
10
10
10
10
10
10
10
10
10
10
10
10
10
10
10
10
10
10
10
10
10
10
10
10
10
10
10
10
10
10
10
10
10
10
10
10
10
10
10
10
10
10
10
10
10
10
10
10
10
10
10
10
10
10
10
10
10
10
10
10
10
10
10
10
10
10
10
10
10
10
10
10
10
10
10
10
10
10
10
10
10
10
10
10
10
10
10
10
10
10
10
10
10
10
10
10
10
10
10
10
10
10
10
10
10
10
10
10
10
10
10
10
10
10
10
10
10
10
10
10
10
10
10
10
10
10
10
10
10
10
10
10
10
10
10
10
10
10
10
10
10
10
10
10
10
10
10
10
10
10
10
10
10
10
10
10
10
10
10
10
10
10
10
10
10
10
10
10
10
10
10
10
10
10
10
10
10
10
10
10
10
10
10
10
10
10
10
10
10
10
10
10
10
10
10
10
10
10
10
10
10
10
10
10
10
10
10
10
10
10
10
10
10
10
10
10
10
10
10
10
10
10
10
10
10
10
10
10
10
10
10
10
10
10
10
10
10
10
10
10
10
10
10
10
10
10
10
10
10
10
10
10
10
10
10
10
10
10
10
10
10
10
10
10
10
10
10
10
10
10
10
10
10
10
10
10
10
10
10
10
10
10
10
10
10
10
10
10
10
10
10
10
10
10
10
10
10
10
10
10
10
10
10
10
10
10
10
10
10
10
10
10
10
10
10
10
10
10
10
10
10
10
10
10
10
10
10
10
10
10
10
10
10
10
10
10
10
10
10
10
10
10
10
10
10
10
10
10
10
10
10
10
10
10
10
10
10
10
10
10
10
10
10
10
10
10
10
10
10
10
10
10
10
10
10
10
10
10
10
10
10
10
10
10
10
10
10
10
10
10
10
10
10
10
10
10
10
10
10
10
10
10
10
10
10
10
10
10
10
10
10
10
10
10
10
10
10
10
10
10
10
10
10
10
10
10
10
10
10
10
10
10
10
10
10
10
10
10
10
10
10
10
10
10
10
10
10
10
10
10
10
10
10
10
10
10
10
10
10
10
10
10
10
10
10
10
10
10
10
10
10
10
10
10
10
10
10
10
10
10
10
10
10
10
10
10
10
10
10
10
10
10
10
10
10
10
10
10
10
10
10
10
10
10
10
10
10
10
10
10
10
10
10
10
10
10
10
10
10
10
10
10
10
10
10
10
10
10
10
10
10
10
10
10
10
10
10
10
10
10
10
10
10
10
10
10
10
10
10
10
10
10
10
10
10
10
10
10
10
10
10
10
10
10
10
10
10
10
10
10
10
10
10
10
10
10
10
10
10
10
10
10
10
10
10
10
10
10
10
10
10
10
10
10
10
10
10
10
10
10
10
10
10
10
10
10
10
10
10
10
10
10
10
10
10
10
10
10
10
10
10
10
10
10
10
10
10
10
10
10
10
10
10
10
10
10
10
10
10
10
10
10
10
10
10
10
10
10
10
10
10
10
10
10
10
10
10
10
10
10
10
10
10
10
10
10
10
10
10
10
10
10
10
10
10
10
10
10
10
10
10
10
10
10
10
10
10
10
10
10
10
10
10
10
10
10
10
10
10
10
10
10
10
10
              </DataArray>   
          </Cells>  
          <PointData>  
             <DataArray type="Float64" NumberOfComponents="3" Name="Strains" format="ascii">   
-0.0001882522263876347   0.0   -0.00012329057942067035
-0.0001882522263876347   0.0   -0.00012329057942067035
-0.0001882522263876347   0.0   -0.00012329057942067035
-0.0001882522263876347   0.0   -0.00012329057942067035
-0.00011981422741191279   2.0889194890093494e-05   3.306269139588693e-06
-0.00011981422741191279   2.0889194890093494e-05   3.306269139588693e-06
-0.00011981422741191279   2.0889194890093494e-05   3.306269139588693e-06
-0.00011981422741191279   2.0889194890093494e-05   3.306269139588693e-06
-0.00011746280529613476   0.0   -0.00011632778217979955
-0.00011746280529613476   0.0   -0.00011632778217979955
-0.00011746280529613476   0.0   -0.00011632778217979955
-0.00011746280529613476   0.0   -0.00011632778217979955
-0.00019703726600587228   2.5051657264955624e-05   1.2653246441235097e-06
-0.00019703726600587228   2.5051657264955624e-05   1.2653246441235097e-06
-0.00019703726600587228   2.5051657264955624e-05   1.2653246441235097e-06
-0.00019703726600587228   2.5051657264955624e-05   1.2653246441235097e-06
-0.00015285751584188446   5.80233103405898e-06   -6.081799655731819e-05
-0.00015285751584188446   5.80233103405898e-06   -6.081799655731819e-05
-0.00015285751584188446   5.80233103405898e-06   -6.081799655731819e-05
-0.00015285751584188446   5.80233103405898e-06   -6.081799655731819e-05
-0.0001970372660058726   0.0   -0.00013135877653877297
-0.0001970372660058726   0.0   -0.00013135877653877297
-0.0001970372660058726   0.0   -0.00013135877653877297
-0.0001970372660058726   0.0   -0.00013135877653877297
-0.00011746280529613476   2.505165726495568e-05   1.6296319003096895e-05
-0.00011746280529613476   2.505165726495568e-05   1.6296319003096895e-05
-0.00011746280529613476   2.505165726495568e-05   1.6296319003096895e-05
-0.00011746280529613476   2.505165726495568e-05   1.6296319003096895e-05
-0.00011781366006389138   0.0   -0.00011918035012310665
-0.00011781366006389138   0.0   -0.00011918035012310665
-0.00011781366006389138   0.0   -0.00011918035012310665
-0.00011781366006389138   0.0   -0.00011918035012310665
-0.00020321590611305598   2.6834595911104175e-05   7.055969078839099e-06
-0.00020321590611305598   2.6834595911104175e-05   7.055969078839099e-06
-0.00020321590611305598   2.6834595911104175e-05   7.055969078839099e-06
-0.00020321590611305598   2.6834595911104175e-05   7.055969078839099e-06
-0.00015742546303488172   1.0148688679721918e-05   -5.9249891712621916e-05
-0.00015742546303488172   1.0148688679721918e-05   -5.9249891712621916e-05
-0.00015742546303488172   1.0148688679721918e-05   -5.9249891712621916e-05
-0.00015742546303488172   1.0148688679721918e-05   -5.9249891712621916e-05
-0.00020321590611305633   0.0   -0.00013528110766976919
-0.00020321590611305633   0.0   -0.00013528110766976919
-0.00020321590611305633   0.0   -0.00013528110766976919
-0.00020321590611305633   0.0   -0.00013528110766976919
-0.00011781366006389138   2.683459591110423e-05   2.3156726625501582e-05
-0.00011781366006389138   2.683459591110423e-05   2.3156726625501582e-05
-0.00011781366006389138   2.683459591110423e-05   2.3156726625501582e-05
-0.00011781366006389138   2.683459591110423e-05   2.3156726625501582e-05
-0.00011777381673098121   0.0   -0.00011991025735687345
-0.00011777381673098121   0.0   -0.00011991025735687345
-0.00011777381673098121   0.0   -0.00011991025735687345
-0.00011777381673098121   0.0   -0.00011991025735687345
-0.0002165069592595137   3.0556117614667026e-05   2.6311309621880976e-05
-0.0002165069592595137   3.0556117614667026e-05   2.6311309621880976e-05
-0.0002165069592595137   3.0556117614667026e-05   2.6311309621880976e-05
-0.0002165069592595137   3.0556117614667026e-05   2.6311309621880976e-05
-0.0001604948614220185   1.2809041927413099e-05   -5.6393941361591895e-05
-0.0001604948614220185   1.2809041927413099e-05   -5.6393941361591895e-05
-0.0001604948614220185   1.2809041927413099e-05   -5.6393941361591895e-05
-0.0001604948614220185   1.2809041927413099e-05   -5.6393941361591895e-05
-0.00011981422741191299   0.0   -0.00011075706248661423
-0.00011981422741191299   0.0   -0.00011075706248661423
-0.00011981422741191299   0.0   -0.00011075706248661423
-0.00011981422741191299   0.0   -0.00011075706248661423
-5.454139396751711e-05   7.667983768673857e-06   2.631783515249814e-06
-5.454139396751711e-05   7.667983768673857e-06   2.631783515249814e-06
-5.454139396751711e-05   7.667983768673857e-06   2.631783515249814e-06
-5.454139396751711e-05   7.667983768673857e-06   2.631783515249814e-06
-5.247623317216766e-05   0.0   -0.00010978449288478934
-5.247623317216766e-05   0.0   -0.00010978449288478934
-5.247623317216766e-05   0.0   -0.00010978449288478934
-5.247623317216766e-05   0.0   -0.00010978449288478934
-0.00011746280529613476   1.0905482158350346e-05   -8.016828639854446e-06
-0.00011746280529613476   1.0905482158350346e-05   -8.016828639854446e-06
-0.00011746280529613476   1.0905482158350346e-05   -8.016828639854446e-06
-0.00011746280529613476   1.0905482158350346e-05   -8.016828639854446e-06
-8.614523029204018e-05   8.104746681874062e-07   -5.415578248591388e-05
-8.614523029204018e-05   8.104746681874062e-07   -5.415578248591388e-05
-8.614523029204018e-05   8.104746681874062e-07   -5.415578248591388e-05
-8.614523029204018e-05   8.104746681874062e-07   -5.415578248591388e-05
-0.00011746280529613465   0.0   -0.00011632778217979946
-0.00011746280529613465   0.0   -0.00011632778217979946
-0.00011746280529613465   0.0   -0.00011632778217979946
-0.00011746280529613465   0.0   -0.00011632778217979946
-5.247623317216766e-05   1.0905482158350346e-05   -1.4735393448442216e-06
-5.247623317216766e-05   1.0905482158350346e-05   -1.4735393448442216e-06
-5.247623317216766e-05   1.0905482158350346e-05   -1.4735393448442216e-06
-5.247623317216766e-05   1.0905482158350346e-05   -1.4735393448442216e-06
-5.132438272180554e-05   0.0   -0.00011116663546199055
-5.132438272180554e-05   0.0   -0.00011116663546199055
-5.132438272180554e-05   0.0   -0.00011116663546199055
-5.132438272180554e-05   0.0   -0.00011116663546199055
-0.00011781366006389138   1.3356191101860152e-05   -8.364887886296946e-06
-0.00011781366006389138   1.3356191101860152e-05   -8.364887886296946e-06
-0.00011781366006389138   1.3356191101860152e-05   -8.364887886296946e-06
-0.00011781366006389138   1.3356191101860152e-05   -8.364887886296946e-06
-8.439359400896999e-05   4.300955598174168e-06   -5.863185667562054e-05
-8.439359400896999e-05   4.300955598174168e-06   -5.863185667562054e-05
-8.439359400896999e-05   4.300955598174168e-06   -5.863185667562054e-05
-8.439359400896999e-05   4.300955598174168e-06   -5.863185667562054e-05
-0.00011781366006389138   0.0   -0.00011918035012310665
-0.00011781366006389138   0.0   -0.00011918035012310665
-0.00011781366006389138   0.0   -0.00011918035012310665
-0.00011781366006389138   0.0   -0.00011918035012310665
-5.132438272180554e-05   1.3356191101860152e-05   -3.511732251808465e-07
-5.132438272180554e-05   1.3356191101860152e-05   -3.511732251808465e-07
-5.132438272180554e-05   1.3356191101860152e-05   -3.511732251808465e-07
-5.132438272180554e-05   1.3356191101860152e-05   -3.511732251808465e-07
-5.027876863573775e-05   0.0   -0.00011058815293852574
-5.027876863573775e-05   0.0   -0.00011058815293852574
-5.027876863573775e-05   0.0   -0.00011058815293852574
-5.027876863573775e-05   0.0   -0.00011058815293852574
-0.00011777381673098091   1.553684069724597e-05   -7.4185105314676354e-06
-0.00011777381673098091   1.553684069724597e-05   -7.4185105314676354e-06
-0.00011777381673098091   1.553684069724597e-05   -7.4185105314676354e-06
-0.00011777381673098091   1.553684069724597e-05   -7.4185105314676354e-06
-8.404621434981454e-05   7.1601643204840105e-06   -5.860517534068816e-05
-8.404621434981454e-05   7.1601643204840105e-06   -5.860517534068816e-05
-8.404621434981454e-05   7.1601643204840105e-06   -5.860517534068816e-05
-8.404621434981454e-05   7.1601643204840105e-06   -5.860517534068816e-05
-5.4541393967517204e-05   0.0   -0.0001061562722254099
-5.4541393967517204e-05   0.0   -0.0001061562722254099
-5.4541393967517204e-05   0.0   -0.0001061562722254099
-5.4541393967517204e-05   0.0   -0.0001061562722254099
7.1459130657662064e-06   -9.773774144557408e-07   -3.930520285277577e-06
7.1459130657662064e-06   -9.773774144557408e-07   -3.930520285277577e-06
7.1459130657662064e-06   -9.773774144557408e-07   -3.930520285277577e-06
7.1459130657662064e-06   -9.773774144557408e-07   -3.930520285277577e-06
8.455021258481913e-06   0.0   -0.00010862577887699062
8.455021258481913e-06   0.0   -0.00010862577887699062
8.455021258481913e-06   0.0   -0.00010862577887699062
8.455021258481913e-06   0.0   -0.00010862577887699062
-5.247623317216766e-05   1.931190012997245e-06   -8.232402167040025e-06
-5.247623317216766e-05   1.931190012997245e-06   -8.232402167040025e-06
-5.247623317216766e-05   1.931190012997245e-06   -8.232402167040025e-06
-5.247623317216766e-05   1.931190012997245e-06   -8.232402167040025e-06
-2.304318635451759e-05   -2.0579222096508997e-06   -5.48940128628677e-05
-2.304318635451759e-05   -2.0579222096508997e-06   -5.48940128628677e-05
-2.304318635451759e-05   -2.0579222096508997e-06   -5.48940128628677e-05
-2.304318635451759e-05   -2.0579222096508997e-06   -5.48940128628677e-05
-5.247623317216766e-05   0.0   -0.00010978449288478934
-5.247623317216766e-05   0.0   -0.00010978449288478934
-5.247623317216766e-05   0.0   -0.00010978449288478934
-5.247623317216766e-05   0.0   -0.00010978449288478934
8.455021258481928e-06   1.931190012997245e-06   -7.073688159241664e-06
8.455021258481928e-06   1.931190012997245e-06   -7.073688159241664e-06
8.455021258481928e-06   1.931190012997245e-06   -7.073688159241664e-06
8.455021258481928e-06   1.931190012997245e-06   -7.073688159241664e-06
9.485663279450708e-06   0.0   -0.00010847187761044093
9.485663279450708e-06   0.0   -0.00010847187761044093
9.485663279450708e-06   0.0   -0.00010847187761044093
9.485663279450708e-06   0.0   -0.00010847187761044093
-5.132438272180545e-05   4.491263085915732e-06   -9.816558793230114e-06
-5.132438272180545e-05   4.491263085915732e-06   -9.816558793230114e-06
-5.132438272180545e-05   4.491263085915732e-06   -9.816558793230114e-06
-5.132438272180545e-05   4.491263085915732e-06   -9.816558793230114e-06
-2.149528494635847e-05   1.093846061956847e-06   -5.749327153793321e-05
-2.149528494635847e-05   1.093846061956847e-06   -5.749327153793321e-05
-2.149528494635847e-05   1.093846061956847e-06   -5.749327153793321e-05
-2.149528494635847e-05   1.093846061956847e-06   -5.749327153793321e-05
-5.132438272180554e-05   0.0   -0.00011116663546199055
-5.132438272180554e-05   0.0   -0.00011116663546199055
-5.132438272180554e-05   0.0   -0.00011116663546199055
-5.132438272180554e-05   0.0   -0.00011116663546199055
9.485663279450723e-06   4.491263085915732e-06   -7.121800941680697e-06
9.485663279450723e-06   4.491263085915732e-06   -7.121800941680697e-06
9.485663279450723e-06   4.491263085915732e-06   -7.121800941680697e-06
9.485663279450723e-06   4.491263085915732e-06   -7.121800941680697e-06
1.0878899688203405e-05   0.0   -0.0001061135660280006
1.0878899688203405e-05   0.0   -0.0001061135660280006
1.0878899688203405e-05   0.0   -0.0001061135660280006
1.0878899688203405e-05   0.0   -0.0001061135660280006
-5.02787686357377e-05   7.4576448508750564e-06   -8.658705731957137e-06
-5.02787686357377e-05   7.4576448508750564e-06   -8.658705731957137e-06
-5.02787686357377e-05   7.4576448508750564e-06   -8.658705731957137e-06
-5.02787686357377e-05   7.4576448508750564e-06   -8.658705731957137e-06
-2.0222741516801023e-05   4.210891194991463e-06   -5.680403206998806e-05
-2.0222741516801023e-05   4.210891194991463e-06   -5.680403206998806e-05
-2.0222741516801023e-05   4.210891194991463e-06   -5.680403206998806e-05
-2.0222741516801023e-05   4.210891194991463e-06   -5.680403206998806e-05
7.145913065766218e-06   0.0   -0.00010674269867408335
7.145913065766218e-06   0.0   -0.00010674269867408335
7.145913065766218e-06   0.0   -0.00010674269867408335
7.145913065766218e-06   0.0   -0.00010674269867408335
7.40898857468014e-05   -8.689883624322052e-06   -3.8334104695124534e-07
7.40898857468014e-05   -8.689883624322052e-06   -3.8334104695124534e-07
7.40898857468014e-05   -8.689883624322052e-06   -3.8334104695124534e-07
7.40898857468014e-05   -8.689883624322052e-06   -3.8334104695124534e-07
7.419589039171166e-05   0.0   -0.00011255970517822779
7.419589039171166e-05   0.0   -0.00011255970517822779
7.419589039171166e-05   0.0   -0.00011255970517822779
7.419589039171166e-05   0.0   -0.00011255970517822779
8.455021258481942e-06   -6.556543835394642e-06   9.423363450585218e-07
8.455021258481942e-06   -6.556543835394642e-06   9.423363450585218e-07
8.455021258481942e-06   -6.556543835394642e-06   9.423363450585218e-07
8.455021258481942e-06   -6.556543835394642e-06   9.423363450585218e-07
4.067090172873894e-05   -4.847505420120364e-06   -5.3776220821201e-05
4.067090172873894e-05   -4.847505420120364e-06   -5.3776220821201e-05
4.067090172873894e-05   -4.847505420120364e-06   -5.3776220821201e-05
4.067090172873894e-05   -4.847505420120364e-06   -5.3776220821201e-05
8.455021258481942e-06   0.0   -0.00010862577887699099
8.455021258481942e-06   0.0   -0.00010862577887699099
8.455021258481942e-06   0.0   -0.00010862577887699099
8.455021258481942e-06   0.0   -0.00010862577887699099
7.419589039171166e-05   -6.556543835394642e-06   -2.991589956178269e-06
7.419589039171166e-05   -6.556543835394642e-06   -2.991589956178269e-06
7.419589039171166e-05   -6.556543835394642e-06   -2.991589956178269e-06
7.419589039171166e-05   -6.556543835394642e-06   -2.991589956178269e-06
7.385593822333017e-05   0.0   -0.00011095221068477075
7.385593822333017e-05   0.0   -0.00011095221068477075
7.385593822333017e-05   0.0   -0.00011095221068477075
7.385593822333017e-05   0.0   -0.00011095221068477075
9.485663279450723e-06   -4.1338884572160505e-06   -1.1880860373087365e-06
9.485663279450723e-06   -4.1338884572160505e-06   -1.1880860373087365e-06
9.485663279450723e-06   -4.1338884572160505e-06   -1.1880860373087365e-06
9.485663279450723e-06   -4.1338884572160505e-06   -1.1880860373087365e-06
4.115547974090605e-05   -1.9386931731498006e-06   -5.5288230643507314e-05
4.115547974090605e-05   -1.9386931731498006e-06   -5.5288230643507314e-05
4.115547974090605e-05   -1.9386931731498006e-06   -5.5288230643507314e-05
4.115547974090605e-05   -1.9386931731498006e-06   -5.5288230643507314e-05
9.485663279450715e-06   0.0   -0.00010847187761044102
9.485663279450715e-06   0.0   -0.00010847187761044102
9.485663279450715e-06   0.0   -0.00010847187761044102
9.485663279450715e-06   0.0   -0.00010847187761044102
7.385593822333017e-05   -4.1338884572160505e-06   -3.668419111638372e-06
7.385593822333017e-05   -4.1338884572160505e-06   -3.668419111638372e-06
7.385593822333017e-05   -4.1338884572160505e-06   -3.668419111638372e-06
7.385593822333017e-05   -4.1338884572160505e-06   -3.668419111638372e-06
7.526499162172094e-05   0.0   -0.00010663978332640556
7.526499162172094e-05   0.0   -0.00010663978332640556
7.526499162172094e-05   0.0   -0.00010663978332640556
7.526499162172094e-05   0.0   -0.00010663978332640556
1.0878899688203423e-05   -8.770288306746219e-07   1.1965871945283898e-06
1.0878899688203423e-05   -8.770288306746219e-07   1.1965871945283898e-06
1.0878899688203423e-05   -8.770288306746219e-07   1.1965871945283898e-06
1.0878899688203423e-05   -8.770288306746219e-07   1.1965871945283898e-06
4.23753274505858e-05   1.5267452366962995e-06   -5.273972351653142e-05
4.23753274505858e-05   1.5267452366962995e-06   -5.273972351653142e-05
4.23753274505858e-05   1.5267452366962995e-06   -5.273972351653142e-05
4.23753274505858e-05   1.5267452366962995e-06   -5.273972351653142e-05
7.40898857468014e-05   0.0   -0.00011195662884867659
7.40898857468014e-05   0.0   -0.00011195662884867659
7.40898857468014e-05   0.0   -0.00011195662884867659
7.40898857468014e-05   0.0   -0.00011195662884867659
0.0001671324014789834   -2.201149883433902e-05   2.9907331404357594e-05
0.0001671324014789834   -2.201149883433902e-05   2.9907331404357594e-05
0.0001671324014789834   -2.201149883433902e-05   2.9907331404357594e-05
0.0001671324014789834   -2.201149883433902e-05   2.9907331404357594e-05
0.00015693086265523607   0.0   -0.00012380483191392933
0.00015693086265523607   0.0   -0.00012380483191392933
0.00015693086265523607   0.0   -0.00012380483191392933
0.00015693086265523607   0.0   -0.00012380483191392933
7.419589039171166e-05   -1.874187789283589e-05   2.533191526097952e-05
7.419589039171166e-05   -1.874187789283589e-05   2.533191526097952e-05
7.419589039171166e-05   -1.874187789283589e-05   2.533191526097952e-05
7.419589039171166e-05   -1.874187789283589e-05   2.533191526097952e-05
0.00011551037420101873   -9.873502554377282e-06   -4.884658295760736e-05
0.00011551037420101873   -9.873502554377282e-06   -4.884658295760736e-05
0.00011551037420101873   -9.873502554377282e-06   -4.884658295760736e-05
0.00011551037420101873   -9.873502554377282e-06   -4.884658295760736e-05
7.41958903917116e-05   0.0   -0.00011255970517822769
7.41958903917116e-05   0.0   -0.00011255970517822769
7.41958903917116e-05   0.0   -0.00011255970517822769
7.41958903917116e-05   0.0   -0.00011255970517822769
0.00015693086265523552   -1.8741877892835835e-05   1.408678852527791e-05
0.00015693086265523552   -1.8741877892835835e-05   1.408678852527791e-05
0.00015693086265523552   -1.8741877892835835e-05   1.408678852527791e-05
0.00015693086265523552   -1.8741877892835835e-05   1.408678852527791e-05
0.0001522165058461248   0.0   -0.00012123061854655525
0.0001522165058461248   0.0   -0.00012123061854655525
0.0001522165058461248   0.0   -0.00012123061854655525
0.0001522165058461248   0.0   -0.00012123061854655525
7.385593822333017e-05   -1.7130679769640825e-05   1.9648735353220277e-05
7.385593822333017e-05   -1.7130679769640825e-05   1.9648735353220277e-05
7.385593822333017e-05   -1.7130679769640825e-05   1.9648735353220277e-05
7.385593822333017e-05   -1.7130679769640825e-05   1.9648735353220277e-05
0.00011320619811891816   -7.225761140272879e-06   -5.1877982317047154e-05
0.00011320619811891816   -7.225761140272879e-06   -5.1877982317047154e-05
0.00011320619811891816   -7.225761140272879e-06   -5.1877982317047154e-05
0.00011320619811891816   -7.225761140272879e-06   -5.1877982317047154e-05
7.385593822333017e-05   0.0   -0.00011095221068477075
7.385593822333017e-05   0.0   -0.00011095221068477075
7.385593822333017e-05   0.0   -0.00011095221068477075
7.385593822333017e-05   0.0   -0.00011095221068477075
0.0001522165058461243   -1.7130679769640744e-05   9.370327491435798e-06
0.0001522165058461243   -1.7130679769640744e-05   9.370327491435798e-06
0.0001522165058461243   -1.7130679769640744e-05   9.370327491435798e-06
0.0001522165058461243   -1.7130679769640744e-05   9.370327491435798e-06
0.00014521365852967127   0.0   -0.00011463799735430287
0.00014521365852967127   0.0   -0.00011463799735430287
0.00014521365852967127   0.0   -0.00011463799735430287
0.00014521365852967127   0.0   -0.00011463799735430287
7.526499162172094e-05   -1.3330356713162544e-05   9.941328186845394e-06
7.526499162172094e-05   -1.3330356713162544e-05   9.941328186845394e-06
7.526499162172094e-05   -1.3330356713162544e-05   9.941328186845394e-06
7.526499162172094e-05   -1.3330356713162544e-05   9.941328186845394e-06
0.00010953479837650084   -3.071488891276934e-06   -5.3330337097585745e-05
0.00010953479837650084   -3.071488891276934e-06   -5.3330337097585745e-05
0.00010953479837650084   -3.071488891276934e-06   -5.3330337097585745e-05
0.00010953479837650084   -3.071488891276934e-06   -5.3330337097585745e-05
-0.0001635278109712271   2.0889194890093466e-05   -0.00010712266365014913
-0.0001635278109712271   2.0889194890093466e-05   -0.00010712266365014913
-0.0001635278109712271   2.0889194890093466e-05   -0.00010712266365014913
-0.0001635278109712271   2.0889194890093466e-05   -0.00010712266365014913
-0.00010472094159085772   1.8796934326032735e-05   -1.0366571021303201e-05
-0.00010472094159085772   1.8796934326032735e-05   -1.0366571021303201e-05
-0.00010472094159085772   1.8796934326032735e-05   -1.0366571021303201e-05
-0.00010472094159085772   1.8796934326032735e-05   -1.0366571021303201e-05
-0.00010736673318724787   2.5051657264955597e-05   -8.994944059620582e-05
-0.00010736673318724787   2.5051657264955597e-05   -8.994944059620582e-05
-0.00010736673318724787   2.5051657264955597e-05   -8.994944059620582e-05
-0.00010736673318724787   2.5051657264955597e-05   -8.994944059620582e-05
-0.0001653209877168672   2.2550002683166168e-05   8.141976368900255e-06
-0.0001653209877168672   2.2550002683166168e-05   8.141976368900255e-06
-0.0001653209877168672   2.2550002683166168e-05   8.141976368900255e-06
-0.0001653209877168672   2.2550002683166168e-05   8.141976368900255e-06
-0.00012987904121222968   2.1814137325232557e-05   -5.048641525740293e-05
-0.00012987904121222968   2.1814137325232557e-05   -5.048641525740293e-05
-0.00012987904121222968   2.1814137325232557e-05   -5.048641525740293e-05
-0.00012987904121222968   2.1814137325232557e-05   -5.048641525740293e-05
-0.0001653209877168672   2.5051657264955597e-05   -8.844844784713221e-05
-0.0001653209877168672   2.5051657264955597e-05   -8.844844784713221e-05
-0.0001653209877168672   2.5051657264955597e-05   -8.844844784713221e-05
-0.0001653209877168672   2.5051657264955597e-05   -8.844844784713221e-05
-0.00010736673318724825   2.2550002683166277e-05   6.640983619826679e-06
-0.00010736673318724825   2.2550002683166277e-05   6.640983619826679e-06
-0.00010736673318724825   2.2550002683166277e-05   6.640983619826679e-06
-0.00010736673318724825   2.2550002683166277e-05   6.640983619826679e-06
-0.00010793261851684889   2.6834595911104175e-05   -8.08577837875353e-05
-0.00010793261851684889   2.6834595911104175e-05   -8.08577837875353e-05
-0.00010793261851684889   2.6834595911104175e-05   -8.08577837875353e-05
-0.00010793261851684889   2.6834595911104175e-05   -8.08577837875353e-05
-0.0001665042885477792   2.424345569099933e-05   1.8316350396077596e-05
-0.0001665042885477792   2.424345569099933e-05   1.8316350396077596e-05
-0.0001665042885477792   2.424345569099933e-05   1.8316350396077596e-05
-0.0001665042885477792   2.424345569099933e-05   1.8316350396077596e-05
-0.00013371291044714473   2.417453366626777e-05   -3.6294593223473574e-05
-0.00013371291044714473   2.417453366626777e-05   -3.6294593223473574e-05
-0.00013371291044714473   2.417453366626777e-05   -3.6294593223473574e-05
-0.00013371291044714473   2.417453366626777e-05   -3.6294593223473574e-05
-0.0001665042885477789   2.6834595911104175e-05   -7.930309965547232e-05
-0.0001665042885477789   2.6834595911104175e-05   -7.930309965547232e-05
-0.0001665042885477789   2.6834595911104175e-05   -7.930309965547232e-05
-0.0001665042885477789   2.6834595911104175e-05   -7.930309965547232e-05
-0.00010793261851684906   2.424345569099933e-05   1.6761666264014728e-05
-0.00010793261851684906   2.424345569099933e-05   1.6761666264014728e-05
-0.00010793261851684906   2.424345569099933e-05   1.6761666264014728e-05
-0.00010793261851684906   2.424345569099933e-05   1.6761666264014728e-05
-0.0001073323403035367   3.055611761466697e-05   -5.970802484171387e-05
-0.0001073323403035367   3.055611761466697e-05   -5.970802484171387e-05
-0.0001073323403035367   3.055611761466697e-05   -5.970802484171387e-05
-0.0001073323403035367   3.055611761466697e-05   -5.970802484171387e-05
-0.00016191608971210465   2.5584356707075815e-05   3.4247947383786817e-05
-0.00016191608971210465   2.5584356707075815e-05   3.4247947383786817e-05
-0.00016191608971210465   2.5584356707075815e-05   3.4247947383786817e-05
-0.00016191608971210465   2.5584356707075815e-05   3.4247947383786817e-05
-0.0001302528661859741   2.650945177522896e-05   -1.9079148867322466e-05
-0.0001302528661859741   2.650945177522896e-05   -1.9079148867322466e-05
-0.0001302528661859741   2.650945177522896e-05   -1.9079148867322466e-05
-0.0001302528661859741   2.650945177522896e-05   -1.9079148867322466e-05
-0.00010472094159085772   7.66798376867383e-06   -0.0001136532958741288
-0.00010472094159085772   7.66798376867383e-06   -0.0001136532958741288
-0.00010472094159085772   7.66798376867383e-06   -0.0001136532958741288
-0.00010472094159085772   7.66798376867383e-06   -0.0001136532958741288
-4.959186941176811e-05   8.7461377834574e-06   -2.1124616500109192e-05
-4.959186941176811e-05   8.7461377834574e-06   -2.1124616500109192e-05
-4.959186941176811e-05   8.7461377834574e-06   -2.1124616500109192e-05
-4.959186941176811e-05   8.7461377834574e-06   -2.1124616500109192e-05
-5.078839749013318e-05   1.090548215835032e-05   -0.00011348733131383992
-5.078839749013318e-05   1.090548215835032e-05   -0.00011348733131383992
-5.078839749013318e-05   1.090548215835032e-05   -0.00011348733131383992
-5.078839749013318e-05   1.090548215835032e-05   -0.00011348733131383992
-0.00010736673318724787   1.2197577033878828e-05   -1.996536207729896e-05
-0.00010736673318724787   1.2197577033878828e-05   -1.996536207729896e-05
-0.00010736673318724787   1.2197577033878828e-05   -1.996536207729896e-05
-0.00010736673318724787   1.2197577033878828e-05   -1.996536207729896e-05
-7.789780020070992e-05   9.822621931014814e-06   -6.765527732647774e-05
-7.789780020070992e-05   9.822621931014814e-06   -6.765527732647774e-05
-7.789780020070992e-05   9.822621931014814e-06   -6.765527732647774e-05
-7.789780020070992e-05   9.822621931014814e-06   -6.765527732647774e-05
-0.00010736673318724779   1.090548215835032e-05   -0.0001142625882391569
-0.00010736673318724779   1.090548215835032e-05   -0.0001142625882391569
-0.00010736673318724779   1.090548215835032e-05   -0.0001142625882391569
-0.00010736673318724779   1.090548215835032e-05   -0.0001142625882391569
-5.078839749013326e-05   1.2197577033878936e-05   -1.9190105151981873e-05
-5.078839749013326e-05   1.2197577033878936e-05   -1.9190105151981873e-05
-5.078839749013326e-05   1.2197577033878936e-05   -1.9190105151981873e-05
-5.078839749013326e-05   1.2197577033878936e-05   -1.9190105151981873e-05
-5.117385126167285e-05   1.3356191101860125e-05   -0.00011136123392088178
-5.117385126167285e-05   1.3356191101860125e-05   -0.00011136123392088178
-5.117385126167285e-05   1.3356191101860125e-05   -0.00011136123392088178
-5.117385126167285e-05   1.3356191101860125e-05   -0.00011136123392088178
-0.00010793261851684889   1.5053131732613214e-05   -1.778145287404043e-05
-0.00010793261851684889   1.5053131732613214e-05   -1.778145287404043e-05
-0.00010793261851684889   1.5053131732613214e-05   -1.778145287404043e-05
-0.00010793261851684889   1.5053131732613214e-05   -1.778145287404043e-05
-7.851893961540108e-05   1.2461541314614404e-05   -6.524929679232045e-05
-7.851893961540108e-05   1.2461541314614404e-05   -6.524929679232045e-05
-7.851893961540108e-05   1.2461541314614404e-05   -6.524929679232045e-05
-7.851893961540108e-05   1.2461541314614404e-05   -6.524929679232045e-05
-0.00010793261851684889   1.3356191101860125e-05   -0.00011237939829933368
-0.00010793261851684889   1.3356191101860125e-05   -0.00011237939829933368
-0.00010793261851684889   1.3356191101860125e-05   -0.00011237939829933368
-0.00010793261851684889   1.3356191101860125e-05   -0.00011237939829933368
-5.117385126167303e-05   1.5053131732613322e-05   -1.676328849558853e-05
-5.117385126167303e-05   1.5053131732613322e-05   -1.676328849558853e-05
-5.117385126167303e-05   1.5053131732613322e-05   -1.676328849558853e-05
-5.117385126167303e-05   1.5053131732613322e-05   -1.676328849558853e-05
-5.1061888863026685e-05   1.553684069724597e-05   -0.00011021893181164475
-5.1061888863026685e-05   1.553684069724597e-05   -0.00011021893181164475
-5.1061888863026685e-05   1.553684069724597e-05   -0.00011021893181164475
-5.1061888863026685e-05   1.553684069724597e-05   -0.00011021893181164475
-0.0001073323403035366   1.812448028427568e-05   -1.7987429829679406e-05
-0.0001073323403035366   1.812448028427568e-05   -1.7987429829679406e-05
-0.0001073323403035366   1.812448028427568e-05   -1.7987429829679406e-05
-0.0001073323403035366   1.812448028427568e-05   -1.7987429829679406e-05
-7.899436831335907e-05   1.4850000815463753e-05   -6.325269546535509e-05
-7.899436831335907e-05   1.4850000815463753e-05   -6.325269546535509e-05
-7.899436831335907e-05   1.4850000815463753e-05   -6.325269546535509e-05
-7.899436831335907e-05   1.4850000815463753e-05   -6.325269546535509e-05
-4.959186941176803e-05   -9.773774144557408e-07   -0.00011898228081711264
-4.959186941176803e-05   -9.773774144557408e-07   -0.00011898228081711264
-4.959186941176803e-05   -9.773774144557408e-07   -0.00011898228081711264
-4.959186941176803e-05   -9.773774144557408e-07   -0.00011898228081711264
4.843789927092608e-06   -2.574304220491659e-07   -2.7824213723567594e-05
4.843789927092608e-06   -2.574304220491659e-07   -2.7824213723567594e-05
4.843789927092608e-06   -2.574304220491659e-07   -2.7824213723567594e-05
4.843789927092608e-06   -2.574304220491659e-07   -2.7824213723567594e-05
4.607528893692282e-06   1.931190012997245e-06   -0.00011965172269235694
4.607528893692282e-06   1.931190012997245e-06   -0.00011965172269235694
4.607528893692282e-06   1.931190012997245e-06   -0.00011965172269235694
4.607528893692282e-06   1.931190012997245e-06   -0.00011965172269235694
-5.078839749013318e-05   2.921975752462249e-06   -2.7919650162993106e-05
-5.078839749013318e-05   2.921975752462249e-06   -2.7919650162993106e-05
-5.078839749013318e-05   2.921975752462249e-06   -2.7919650162993106e-05
-5.078839749013318e-05   2.921975752462249e-06   -2.7919650162993106e-05
-2.2870196560354788e-05   9.691111291141815e-07   -7.327826627194853e-05
-2.2870196560354788e-05   9.691111291141815e-07   -7.327826627194853e-05
-2.2870196560354788e-05   9.691111291141815e-07   -7.327826627194853e-05
-2.2870196560354788e-05   9.691111291141815e-07   -7.327826627194853e-05
-5.078839749013318e-05   1.931190012997245e-06   -0.00012024619413603578
-5.078839749013318e-05   1.931190012997245e-06   -0.00012024619413603578
-5.078839749013318e-05   1.931190012997245e-06   -0.00012024619413603578
-5.078839749013318e-05   1.931190012997245e-06   -0.00012024619413603578
4.607528893692282e-06   2.921975752462249e-06   -2.7325178719314142e-05
4.607528893692282e-06   2.921975752462249e-06   -2.7325178719314142e-05
4.607528893692282e-06   2.921975752462249e-06   -2.7325178719314142e-05
4.607528893692282e-06   2.921975752462249e-06   -2.7325178719314142e-05
4.289306377275096e-06   4.491263085915705e-06   -0.0001199045225144152
4.289306377275096e-06   4.491263085915705e-06   -0.0001199045225144152
4.289306377275096e-06   4.491263085915705e-06   -0.0001199045225144152
4.289306377275096e-06   4.491263085915705e-06   -0.0001199045225144152
-5.117385126167285e-05   6.02809137677544e-06   -2.8388023424017893e-05
-5.117385126167285e-05   6.02809137677544e-06   -2.8388023424017893e-05
-5.117385126167285e-05   6.02809137677544e-06   -2.8388023424017893e-05
-5.117385126167285e-05   6.02809137677544e-06   -2.8388023424017893e-05
-2.331014977112571e-05   3.6642979416311216e-06   -7.340924984717632e-05
-2.331014977112571e-05   3.6642979416311216e-06   -7.340924984717632e-05
-2.331014977112571e-05   3.6642979416311216e-06   -7.340924984717632e-05
-2.331014977112571e-05   3.6642979416311216e-06   -7.340924984717632e-05
-5.117385126167285e-05   4.491263085915705e-06   -0.00012082661948893104
-5.117385126167285e-05   4.491263085915705e-06   -0.00012082661948893104
-5.117385126167285e-05   4.491263085915705e-06   -0.00012082661948893104
-5.117385126167285e-05   4.491263085915705e-06   -0.00012082661948893104
4.289306377275103e-06   6.02809137677544e-06   -2.7465926449502057e-05
4.289306377275103e-06   6.02809137677544e-06   -2.7465926449502057e-05
4.289306377275103e-06   6.02809137677544e-06   -2.7465926449502057e-05
4.289306377275103e-06   6.02809137677544e-06   -2.7465926449502057e-05
3.6626077214072346e-06   7.4576448508750564e-06   -0.00011969691747398131
3.6626077214072346e-06   7.4576448508750564e-06   -0.00011969691747398131
3.6626077214072346e-06   7.4576448508750564e-06   -0.00011969691747398131
3.6626077214072346e-06   7.4576448508750564e-06   -0.00011969691747398131
-5.106188886302673e-05   9.26483477837602e-06   -2.9573737123092053e-05
-5.106188886302673e-05   9.26483477837602e-06   -2.9573737123092053e-05
-5.106188886302673e-05   9.26483477837602e-06   -2.9573737123092053e-05
-5.106188886302673e-05   9.26483477837602e-06   -2.9573737123092053e-05
-2.3581810608790334e-05   6.433063532679955e-06   -7.367480479940163e-05
-2.3581810608790334e-05   6.433063532679955e-06   -7.367480479940163e-05
-2.3581810608790334e-05   6.433063532679955e-06   -7.367480479940163e-05
-2.3581810608790334e-05   6.433063532679955e-06   -7.367480479940163e-05
4.843789927092608e-06   -8.689883624322025e-06   -0.00010978920320874916
4.843789927092608e-06   -8.689883624322025e-06   -0.00010978920320874916
4.843789927092608e-06   -8.689883624322025e-06   -0.00010978920320874916
4.843789927092608e-06   -8.689883624322025e-06   -0.00010978920320874916
6.094112920249183e-05   -8.935039161919538e-06   -1.6440731072308917e-05
6.094112920249183e-05   -8.935039161919538e-06   -1.6440731072308917e-05
6.094112920249183e-05   -8.935039161919538e-06   -1.6440731072308917e-05
6.094112920249183e-05   -8.935039161919538e-06   -1.6440731072308917e-05
6.142581300890861e-05   -6.5565438353946146e-06   -0.00011133076451070915
6.142581300890861e-05   -6.5565438353946146e-06   -0.00011133076451070915
6.142581300890861e-05   -6.5565438353946146e-06   -0.00011133076451070915
6.142581300890861e-05   -6.5565438353946146e-06   -0.00011133076451070915
4.607528893692282e-06   -6.048321039815968e-06   -1.6938557996028953e-05
4.607528893692282e-06   -6.048321039815968e-06   -1.6938557996028953e-05
4.607528893692282e-06   -6.048321039815968e-06   -1.6938557996028953e-05
4.607528893692282e-06   -6.048321039815968e-06   -1.6938557996028953e-05
3.2533249694097926e-05   -7.2368709984288e-06   -6.276829602153756e-05
3.2533249694097926e-05   -7.2368709984288e-06   -6.276829602153756e-05
3.2533249694097926e-05   -7.2368709984288e-06   -6.276829602153756e-05
3.2533249694097926e-05   -7.2368709984288e-06   -6.276829602153756e-05
4.607528893692273e-06   -6.5565438353946146e-06   -0.00011163569818805662
4.607528893692273e-06   -6.5565438353946146e-06   -0.00011163569818805662
4.607528893692273e-06   -6.5565438353946146e-06   -0.00011163569818805662
4.607528893692273e-06   -6.5565438353946146e-06   -0.00011163569818805662
6.14258130089087e-05   -6.048321039815968e-06   -1.6633624318681715e-05
6.14258130089087e-05   -6.048321039815968e-06   -1.6633624318681715e-05
6.14258130089087e-05   -6.048321039815968e-06   -1.6633624318681715e-05
6.14258130089087e-05   -6.048321039815968e-06   -1.6633624318681715e-05
6.110657238626349e-05   -4.1338884572160505e-06   -0.00011342207456996434
6.110657238626349e-05   -4.1338884572160505e-06   -0.00011342207456996434
6.110657238626349e-05   -4.1338884572160505e-06   -0.00011342207456996434
6.110657238626349e-05   -4.1338884572160505e-06   -0.00011342207456996434
4.289306377275096e-06   -3.2193333904181887e-06   -1.9275364261729203e-05
4.289306377275096e-06   -3.2193333904181887e-06   -1.9275364261729203e-05
4.289306377275096e-06   -3.2193333904181887e-06   -1.9275364261729203e-05
4.289306377275096e-06   -3.2193333904181887e-06   -1.9275364261729203e-05
3.2171753545302804e-05   -4.930260090464189e-06   -6.471955352174763e-05
3.2171753545302804e-05   -4.930260090464189e-06   -6.471955352174763e-05
3.2171753545302804e-05   -4.930260090464189e-06   -6.471955352174763e-05
3.2171753545302804e-05   -4.930260090464189e-06   -6.471955352174763e-05
4.289306377275093e-06   -4.1338884572160505e-06   -0.0001139708076100431
4.289306377275093e-06   -4.1338884572160505e-06   -0.0001139708076100431
4.289306377275093e-06   -4.1338884572160505e-06   -0.0001139708076100431
4.289306377275093e-06   -4.1338884572160505e-06   -0.0001139708076100431
6.110657238626369e-05   -3.2193333904181887e-06   -1.8726631221650575e-05
6.110657238626369e-05   -3.2193333904181887e-06   -1.8726631221650575e-05
6.110657238626369e-05   -3.2193333904181887e-06   -1.8726631221650575e-05
6.110657238626369e-05   -3.2193333904181887e-06   -1.8726631221650575e-05
5.930797704094978e-05   -8.770288306746219e-07   -0.00011362115109140625
5.930797704094978e-05   -8.770288306746219e-07   -0.00011362115109140625
5.930797704094978e-05   -8.770288306746219e-07   -0.00011362115109140625
5.930797704094978e-05   -8.770288306746219e-07   -0.00011362115109140625
3.6626077214072346e-06   2.8140511368270494e-07   -2.1573929258783195e-05
3.6626077214072346e-06   2.8140511368270494e-07   -2.1573929258783195e-05
3.6626077214072346e-06   2.8140511368270494e-07   -2.1573929258783195e-05
3.6626077214072346e-06   2.8140511368270494e-07   -2.1573929258783195e-05
3.180655020393153e-05   -2.236046252911952e-06   -6.697002924303341e-05
3.180655020393153e-05   -2.236046252911952e-06   -6.697002924303341e-05
3.180655020393153e-05   -2.236046252911952e-06   -6.697002924303341e-05
3.180655020393153e-05   -2.236046252911952e-06   -6.697002924303341e-05
6.094112920249183e-05   -2.201149883433902e-05   -6.643872477939543e-05
6.094112920249183e-05   -2.201149883433902e-05   -6.643872477939543e-05
6.094112920249183e-05   -2.201149883433902e-05   -6.643872477939543e-05
6.094112920249183e-05   -2.201149883433902e-05   -6.643872477939543e-05
0.00011633227257139587   -1.6617587186064115e-05   2.911619449107606e-05
0.00011633227257139587   -1.6617587186064115e-05   2.911619449107606e-05
0.00011633227257139587   -1.6617587186064115e-05   2.911619449107606e-05
0.00011633227257139587   -1.6617587186064115e-05   2.911619449107606e-05
0.0001207194517141702   -1.874187789283589e-05   -8.081360634897914e-05
0.0001207194517141702   -1.874187789283589e-05   -8.081360634897914e-05
0.0001207194517141702   -1.874187789283589e-05   -8.081360634897914e-05
0.0001207194517141702   -1.874187789283589e-05   -8.081360634897914e-05
6.142581300890881e-05   -1.5085789651881503e-05   1.581547188188415e-05
6.142581300890881e-05   -1.5085789651881503e-05   1.581547188188415e-05
6.142581300890881e-05   -1.5085789651881503e-05   1.581547188188415e-05
6.142581300890881e-05   -1.5085789651881503e-05   1.581547188188415e-05
8.567651872400198e-05   -1.8039723742882053e-05   -2.2830010522004326e-05
8.567651872400198e-05   -1.8039723742882053e-05   -2.2830010522004326e-05
8.567651872400198e-05   -1.8039723742882053e-05   -2.2830010522004326e-05
8.567651872400198e-05   -1.8039723742882053e-05   -2.2830010522004326e-05
6.142581300890865e-05   -1.8741877892835835e-05   -8.30072592935515e-05
6.142581300890865e-05   -1.8741877892835835e-05   -8.30072592935515e-05
6.142581300890865e-05   -1.8741877892835835e-05   -8.30072592935515e-05
6.142581300890865e-05   -1.8741877892835835e-05   -8.30072592935515e-05
0.0001207194517141702   -1.5085789651881503e-05   1.8009124826456825e-05
0.0001207194517141702   -1.5085789651881503e-05   1.8009124826456825e-05
0.0001207194517141702   -1.5085789651881503e-05   1.8009124826456825e-05
0.0001207194517141702   -1.5085789651881503e-05   1.8009124826456825e-05
0.00012024165941323256   -1.7130679769640798e-05   -8.79010099043592e-05
0.00012024165941323256   -1.7130679769640798e-05   -8.79010099043592e-05
0.00012024165941323256   -1.7130679769640798e-05   -8.79010099043592e-05
0.00012024165941323256   -1.7130679769640798e-05   -8.79010099043592e-05
6.110657238626369e-05   -1.345749610172928e-05   8.453558273175174e-06
6.110657238626369e-05   -1.345749610172928e-05   8.453558273175174e-06
6.110657238626369e-05   -1.345749610172928e-05   8.453558273175174e-06
6.110657238626369e-05   -1.345749610172928e-05   8.453558273175174e-06
8.86465338907057e-05   -1.5938842339230765e-05   -3.5957569825060545e-05
8.86465338907057e-05   -1.5938842339230765e-05   -3.5957569825060545e-05
8.86465338907057e-05   -1.5938842339230765e-05   -3.5957569825060545e-05
8.86465338907057e-05   -1.5938842339230765e-05   -3.5957569825060545e-05
6.11065723862636e-05   -1.713067976964077e-05   -9.010492010510593e-05
6.11065723862636e-05   -1.713067976964077e-05   -9.010492010510593e-05
6.11065723862636e-05   -1.713067976964077e-05   -9.010492010510593e-05
6.11065723862636e-05   -1.713067976964077e-05   -9.010492010510593e-05
0.00012024165941323256   -1.345749610172928e-05   1.0657468473922052e-05
0.00012024165941323256   -1.345749610172928e-05   1.0657468473922052e-05
0.00012024165941323256   -1.345749610172928e-05   1.0657468473922052e-05
0.00012024165941323256   -1.345749610172928e-05   1.0657468473922052e-05
0.00011948440936199119   -1.3330356713162517e-05   -0.00010232349641948035
0.00011948440936199119   -1.3330356713162517e-05   -0.00010232349641948035
0.00011948440936199119   -1.3330356713162517e-05   -0.00010232349641948035
0.00011948440936199119   -1.3330356713162517e-05   -0.00010232349641948035
5.930797704094998e-05   -9.952529411154918e-06   -4.056138932282945e-06
5.930797704094998e-05   -9.952529411154918e-06   -4.056138932282945e-06
5.930797704094998e-05   -9.952529411154918e-06   -4.056138932282945e-06
5.930797704094998e-05   -9.952529411154918e-06   -4.056138932282945e-06
8.608954051670542e-05   -1.3729469732763459e-05   -4.6425913865576776e-05
8.608954051670542e-05   -1.3729469732763459e-05   -4.6425913865576776e-05
8.608954051670542e-05   -1.3729469732763459e-05   -4.6425913865576776e-05
8.608954051670542e-05   -1.3729469732763459e-05   -4.6425913865576776e-05
-0.00013042285615484005   1.8796934326032735e-05   -8.990419026612661e-05
-0.00013042285615484005   1.8796934326032735e-05   -8.990419026612661e-05
-0.00013042285615484005   1.8796934326032735e-05   -8.990419026612661e-05
-0.00013042285615484005   1.8796934326032735e-05   -8.990419026612661e-05
-8.54659082139694e-05   1.4376448089723501e-05   -1.762823543979418e-05
-8.54659082139694e-05   1.4376448089723501e-05   -1.762823543979418e-05
-8.54659082139694e-05   1.4376448089723501e-05   -1.762823543979418e-05
-8.54659082139694e-05   1.4376448089723501e-05   -1.762823543979418e-05
-8.588605106907057e-05   2.2550002683166168e-05   -7.46405912666389e-05
-8.588605106907057e-05   2.2550002683166168e-05   -7.46405912666389e-05
-8.588605106907057e-05   2.2550002683166168e-05   -7.46405912666389e-05
-8.588605106907057e-05   2.2550002683166168e-05   -7.46405912666389e-05
-0.00012846700052797887   1.7383966052615012e-05   -5.727201901277023e-07
-0.00012846700052797887   1.7383966052615012e-05   -5.727201901277023e-07
-0.00012846700052797887   1.7383966052615012e-05   -5.727201901277023e-07
-0.00012846700052797887   1.7383966052615012e-05   -5.727201901277023e-07
-0.00010301253017032247   1.911001366630325e-05   -4.403246602110143e-05
-0.00010301253017032247   1.911001366630325e-05   -4.403246602110143e-05
-0.00010301253017032247   1.911001366630325e-05   -4.403246602110143e-05
-0.00010301253017032247   1.911001366630325e-05   -4.403246602110143e-05
-0.00012846700052797887   2.2550002683166168e-05   -7.154096928830813e-05
-0.00012846700052797887   2.2550002683166168e-05   -7.154096928830813e-05
-0.00012846700052797887   2.2550002683166168e-05   -7.154096928830813e-05
-0.00012846700052797887   2.2550002683166168e-05   -7.154096928830813e-05
-8.588605106907057e-05   1.7383966052615012e-05   -3.672342168458201e-06
-8.588605106907057e-05   1.7383966052615012e-05   -3.672342168458201e-06
-8.588605106907057e-05   1.7383966052615012e-05   -3.672342168458201e-06
-8.588605106907057e-05   1.7383966052615012e-05   -3.672342168458201e-06
-8.580645958203143e-05   2.424345569099933e-05   -6.385071320224363e-05
-8.580645958203143e-05   2.424345569099933e-05   -6.385071320224363e-05
-8.580645958203143e-05   2.424345569099933e-05   -6.385071320224363e-05
-8.580645958203143e-05   2.424345569099933e-05   -6.385071320224363e-05
-0.0001265566740712393   1.8704060008649338e-05   7.389948355845683e-06
-0.0001265566740712393   1.8704060008649338e-05   7.389948355845683e-06
-0.0001265566740712393   1.8704060008649338e-05   7.389948355845683e-06
-0.0001265566740712393   1.8704060008649338e-05   7.389948355845683e-06
-0.00010391412963463627   2.0853608091112225e-05   -3.163735455463592e-05
-0.00010391412963463627   2.0853608091112225e-05   -3.163735455463592e-05
-0.00010391412963463627   2.0853608091112225e-05   -3.163735455463592e-05
-0.00010391412963463627   2.0853608091112225e-05   -3.163735455463592e-05
-0.0001265566740712393   2.424345569099933e-05   -6.0527075792833705e-05
-0.0001265566740712393   2.424345569099933e-05   -6.0527075792833705e-05
-0.0001265566740712393   2.424345569099933e-05   -6.0527075792833705e-05
-0.0001265566740712393   2.424345569099933e-05   -6.0527075792833705e-05
-8.580645958203157e-05   1.8704060008649555e-05   4.0663109464361864e-06
-8.580645958203157e-05   1.8704060008649555e-05   4.0663109464361864e-06
-8.580645958203157e-05   1.8704060008649555e-05   4.0663109464361864e-06
-8.580645958203157e-05   1.8704060008649555e-05   4.0663109464361864e-06
-8.58993831106514e-05   2.5584356707075815e-05   -4.873081590112734e-05
-8.58993831106514e-05   2.5584356707075815e-05   -4.873081590112734e-05
-8.58993831106514e-05   2.5584356707075815e-05   -4.873081590112734e-05
-8.58993831106514e-05   2.5584356707075815e-05   -4.873081590112734e-05
-0.00012405667972993433   1.999921895989745e-05   1.8215761112650472e-05
-0.00012405667972993433   1.999921895989745e-05   1.8215761112650472e-05
-0.00012405667972993433   1.999921895989745e-05   1.8215761112650472e-05
-0.00012405667972993433   1.999921895989745e-05   1.8215761112650472e-05
-0.0001015565406624426   2.1767767418507983e-05   -2.03455997416672e-05
-0.0001015565406624426   2.1767767418507983e-05   -2.03455997416672e-05
-0.0001015565406624426   2.1767767418507983e-05   -2.03455997416672e-05
-0.0001015565406624426   2.1767767418507983e-05   -2.03455997416672e-05
-8.54659082139694e-05   8.746137783457292e-06   -0.0001039614198955881
-8.54659082139694e-05   8.746137783457292e-06   -0.0001039614198955881
-8.54659082139694e-05   8.746137783457292e-06   -0.0001039614198955881
-8.54659082139694e-05   8.746137783457292e-06   -0.0001039614198955881
-4.345757301874392e-05   7.163368322391818e-06   -3.489718958018487e-05
-4.345757301874392e-05   7.163368322391818e-06   -3.489718958018487e-05
-4.345757301874392e-05   7.163368322391818e-06   -3.489718958018487e-05
-4.345757301874392e-05   7.163368322391818e-06   -3.489718958018487e-05
-4.399125740033605e-05   1.2197577033878828e-05   -0.00010249340114920939
-4.399125740033605e-05   1.2197577033878828e-05   -0.00010249340114920939
-4.399125740033605e-05   1.2197577033878828e-05   -0.00010249340114920939
-4.399125740033605e-05   1.2197577033878828e-05   -0.00010249340114920939
-8.588605106907046e-05   1.0120136724804185e-05   -3.142228084920698e-05
-8.588605106907046e-05   1.0120136724804185e-05   -3.142228084920698e-05
-8.588605106907046e-05   1.0120136724804185e-05   -3.142228084920698e-05
-8.588605106907046e-05   1.0120136724804185e-05   -3.142228084920698e-05
-6.414708170835457e-05   1.0079925533988936e-05   -6.762976973591117e-05
-6.414708170835457e-05   1.0079925533988936e-05   -6.762976973591117e-05
-6.414708170835457e-05   1.0079925533988936e-05   -6.762976973591117e-05
-6.414708170835457e-05   1.0079925533988936e-05   -6.762976973591117e-05
-8.588605106907055e-05   1.2197577033878828e-05   -0.00010124693696376421
-8.588605106907055e-05   1.2197577033878828e-05   -0.00010124693696376421
-8.588605106907055e-05   1.2197577033878828e-05   -0.00010124693696376421
-8.588605106907055e-05   1.2197577033878828e-05   -0.00010124693696376421
-4.3991257400336146e-05   1.0120136724804185e-05   -3.266874503465167e-05
-4.3991257400336146e-05   1.0120136724804185e-05   -3.266874503465167e-05
-4.3991257400336146e-05   1.0120136724804185e-05   -3.266874503465167e-05
-4.3991257400336146e-05   1.0120136724804185e-05   -3.266874503465167e-05
-4.433936202874265e-05   1.5053131732613214e-05   -9.97784957245954e-05
-4.433936202874265e-05   1.5053131732613214e-05   -9.97784957245954e-05
-4.433936202874265e-05   1.5053131732613214e-05   -9.97784957245954e-05
-4.433936202874265e-05   1.5053131732613214e-05   -9.97784957245954e-05
-8.580645958203143e-05   1.2745359425452062e-05   -2.9282003084817932e-05
-8.580645958203143e-05   1.2745359425452062e-05   -2.9282003084817932e-05
-8.580645958203143e-05   1.2745359425452062e-05   -2.9282003084817932e-05
-8.580645958203143e-05   1.2745359425452062e-05   -2.9282003084817932e-05
-6.427113816081655e-05   1.2511365448970553e-05   -6.503380906761936e-05
-6.427113816081655e-05   1.2511365448970553e-05   -6.503380906761936e-05
-6.427113816081655e-05   1.2511365448970553e-05   -6.503380906761936e-05
-6.427113816081655e-05   1.2511365448970553e-05   -6.503380906761936e-05
-8.580645958203143e-05   1.5053131732613214e-05   -9.839383234029885e-05
-8.580645958203143e-05   1.5053131732613214e-05   -9.839383234029885e-05
-8.580645958203143e-05   1.5053131732613214e-05   -9.839383234029885e-05
-8.580645958203143e-05   1.5053131732613214e-05   -9.839383234029885e-05
-4.433936202874281e-05   1.2745359425452062e-05   -3.066666646911432e-05
-4.433936202874281e-05   1.2745359425452062e-05   -3.066666646911432e-05
-4.433936202874281e-05   1.2745359425452062e-05   -3.066666646911432e-05
-4.433936202874281e-05   1.2745359425452062e-05   -3.066666646911432e-05
-4.4787631392150955e-05   1.8124480284275788e-05   -9.953608812961158e-05
-4.4787631392150955e-05   1.8124480284275788e-05   -9.953608812961158e-05
-4.4787631392150955e-05   1.8124480284275788e-05   -9.953608812961158e-05
-4.4787631392150955e-05   1.8124480284275788e-05   -9.953608812961158e-05
-8.589938311065132e-05   1.553622768498829e-05   -2.9463550372538314e-05
-8.589938311065132e-05   1.553622768498829e-05   -2.9463550372538314e-05
-8.589938311065132e-05   1.553622768498829e-05   -2.9463550372538314e-05
-8.589938311065132e-05   1.553622768498829e-05   -2.9463550372538314e-05
-6.50383180178453e-05   1.4918238769446104e-05   -6.38611988445557e-05
-6.50383180178453e-05   1.4918238769446104e-05   -6.38611988445557e-05
-6.50383180178453e-05   1.4918238769446104e-05   -6.38611988445557e-05
-6.50383180178453e-05   1.4918238769446104e-05   -6.38611988445557e-05
-4.345757301874384e-05   -2.5743042204927433e-07   -0.0001120426469911298
-4.345757301874384e-05   -2.5743042204927433e-07   -0.0001120426469911298
-4.345757301874384e-05   -2.5743042204927433e-07   -0.0001120426469911298
-4.345757301874384e-05   -2.5743042204927433e-07   -0.0001120426469911298
-1.925456662189799e-06   3.8036420701688736e-07   -4.2439776286100036e-05
-1.925456662189799e-06   3.8036420701688736e-07   -4.2439776286100036e-05
-1.925456662189799e-06   3.8036420701688736e-07   -4.2439776286100036e-05
-1.925456662189799e-06   3.8036420701688736e-07   -4.2439776286100036e-05
-2.3544078912720007e-06   2.921975752462249e-06   -0.00011100249621167767
-2.3544078912720007e-06   2.921975752462249e-06   -0.00011100249621167767
-2.3544078912720007e-06   2.921975752462249e-06   -0.00011100249621167767
-2.3544078912720007e-06   2.921975752462249e-06   -0.00011100249621167767
-4.399125740033605e-05   3.289392333366819e-06   -4.1828196978447164e-05
-4.399125740033605e-05   3.289392333366819e-06   -4.1828196978447164e-05
-4.399125740033605e-05   3.289392333366819e-06   -4.1828196978447164e-05
-4.399125740033605e-05   3.289392333366819e-06   -4.1828196978447164e-05
-2.2803883233842423e-05   1.91543381151244e-06   -7.631611214282383e-05
-2.2803883233842423e-05   1.91543381151244e-06   -7.631611214282383e-05
-2.2803883233842423e-05   1.91543381151244e-06   -7.631611214282383e-05
-2.2803883233842423e-05   1.91543381151244e-06   -7.631611214282383e-05
-4.399125740033605e-05   2.921975752462249e-06   -0.0001112229461602206
-4.399125740033605e-05   2.921975752462249e-06   -0.0001112229461602206
-4.399125740033605e-05   2.921975752462249e-06   -0.0001112229461602206
-4.399125740033605e-05   2.921975752462249e-06   -0.0001112229461602206
-2.3544078912720058e-06   3.289392333366819e-06   -4.160774702990417e-05
-2.3544078912720058e-06   3.289392333366819e-06   -4.160774702990417e-05
-2.3544078912720058e-06   3.289392333366819e-06   -4.160774702990417e-05
-2.3544078912720058e-06   3.289392333366819e-06   -4.160774702990417e-05
-2.666400757157109e-06   6.02809137677544e-06   -0.00011130632595553766
-2.666400757157109e-06   6.02809137677544e-06   -0.00011130632595553766
-2.666400757157109e-06   6.02809137677544e-06   -0.00011130632595553766
-2.666400757157109e-06   6.02809137677544e-06   -0.00011130632595553766
-4.4339362028742715e-05   6.189599205920753e-06   -4.194829520038268e-05
-4.4339362028742715e-05   6.189599205920753e-06   -4.194829520038268e-05
-4.4339362028742715e-05   6.189599205920753e-06   -4.194829520038268e-05
-4.4339362028742715e-05   6.189599205920753e-06   -4.194829520038268e-05
-2.3355817665882e-05   4.480518699453246e-06   -7.589542083460274e-05
-2.3355817665882e-05   4.480518699453246e-06   -7.589542083460274e-05
-2.3355817665882e-05   4.480518699453246e-06   -7.589542083460274e-05
-2.3355817665882e-05   4.480518699453246e-06   -7.589542083460274e-05
-4.4339362028742715e-05   6.02809137677544e-06   -0.00011140323065302504
-4.4339362028742715e-05   6.02809137677544e-06   -0.00011140323065302504
-4.4339362028742715e-05   6.02809137677544e-06   -0.00011140323065302504
-4.4339362028742715e-05   6.02809137677544e-06   -0.00011140323065302504
-2.666400757157114e-06   6.189599205920753e-06   -4.185139050289497e-05
-2.666400757157114e-06   6.189599205920753e-06   -4.185139050289497e-05
-2.666400757157114e-06   6.189599205920753e-06   -4.185139050289497e-05
-2.666400757157114e-06   6.189599205920753e-06   -4.185139050289497e-05
-3.153264553553416e-06   9.26483477837602e-06   -0.00011273944594606831
-3.153264553553416e-06   9.26483477837602e-06   -0.00011273944594606831
-3.153264553553416e-06   9.26483477837602e-06   -0.00011273944594606831
-3.153264553553416e-06   9.26483477837602e-06   -0.00011273944594606831
-4.4787631392150914e-05   9.157390160331649e-06   -4.3284367777579754e-05
-4.4787631392150914e-05   9.157390160331649e-06   -4.3284367777579754e-05
-4.4787631392150914e-05   9.157390160331649e-06   -4.3284367777579754e-05
-4.4787631392150914e-05   9.157390160331649e-06   -4.3284367777579754e-05
-2.394183265706259e-05   7.076059683135778e-06   -7.677856738307553e-05
-2.394183265706259e-05   7.076059683135778e-06   -7.677856738307553e-05
-2.394183265706259e-05   7.076059683135778e-06   -7.677856738307553e-05
-2.394183265706259e-05   7.076059683135778e-06   -7.677856738307553e-05
-1.9254566621898008e-06   -8.93503916191943e-06   -0.0001001293942398728
-1.9254566621898008e-06   -8.93503916191943e-06   -0.0001001293942398728
-1.9254566621898008e-06   -8.93503916191943e-06   -0.0001001293942398728
-1.9254566621898008e-06   -8.93503916191943e-06   -0.0001001293942398728
3.9407443947167775e-05   -5.999954526407373e-06   -2.948017577630304e-05
3.9407443947167775e-05   -5.999954526407373e-06   -2.948017577630304e-05
3.9407443947167775e-05   -5.999954526407373e-06   -2.948017577630304e-05
3.9407443947167775e-05   -5.999954526407373e-06   -2.948017577630304e-05
3.9371378390867074e-05   -6.048321039815968e-06   -9.898820613449358e-05
3.9371378390867074e-05   -6.048321039815968e-06   -9.898820613449358e-05
3.9371378390867074e-05   -6.048321039815968e-06   -9.898820613449358e-05
3.9371378390867074e-05   -6.048321039815968e-06   -9.898820613449358e-05
-2.3544078912720058e-06   -3.3355387833171497e-06   -3.1072898351494305e-05
-2.3544078912720058e-06   -3.3355387833171497e-06   -3.1072898351494305e-05
-2.3544078912720058e-06   -3.3355387833171497e-06   -3.1072898351494305e-05
-2.3544078912720058e-06   -3.3355387833171497e-06   -3.1072898351494305e-05
1.8481881510344484e-05   -5.871025140845635e-06   -6.427875553967136e-05
1.8481881510344484e-05   -5.871025140845635e-06   -6.427875553967136e-05
1.8481881510344484e-05   -5.871025140845635e-06   -6.427875553967136e-05
1.8481881510344484e-05   -5.871025140845635e-06   -6.427875553967136e-05
-2.3544078912720058e-06   -6.048321039815968e-06   -0.00010061587548839258
-2.3544078912720058e-06   -6.048321039815968e-06   -0.00010061587548839258
-2.3544078912720058e-06   -6.048321039815968e-06   -0.00010061587548839258
-2.3544078912720058e-06   -6.048321039815968e-06   -0.00010061587548839258
3.9371378390867074e-05   -3.3355387833173666e-06   -2.944522899759488e-05
3.9371378390867074e-05   -3.3355387833173666e-06   -2.944522899759488e-05
3.9371378390867074e-05   -3.3355387833173666e-06   -2.944522899759488e-05
3.9371378390867074e-05   -3.3355387833173666e-06   -2.944522899759488e-05
3.954898926735446e-05   -3.2193333904181887e-06   -0.00010161354602931526
3.954898926735446e-05   -3.2193333904181887e-06   -0.00010161354602931526
3.954898926735446e-05   -3.2193333904181887e-06   -0.00010161354602931526
3.954898926735446e-05   -3.2193333904181887e-06   -0.00010161354602931526
-2.666400757157119e-06   -7.156371596684329e-07   -3.2756780393579466e-05
-2.666400757157119e-06   -7.156371596684329e-07   -3.2756780393579466e-05
-2.666400757157119e-06   -7.156371596684329e-07   -3.2756780393579466e-05
-2.666400757157119e-06   -7.156371596684329e-07   -3.2756780393579466e-05
1.7911484540252084e-05   -3.5602022553600293e-06   -6.534651683184596e-05
1.7911484540252084e-05   -3.5602022553600293e-06   -6.534651683184596e-05
1.7911484540252084e-05   -3.5602022553600293e-06   -6.534651683184596e-05
1.7911484540252084e-05   -3.5602022553600293e-06   -6.534651683184596e-05
-2.6664007571571124e-06   -3.2193333904181887e-06   -0.00010311576376776467
-2.6664007571571124e-06   -3.2193333904181887e-06   -0.00010311576376776467
-2.6664007571571124e-06   -3.2193333904181887e-06   -0.00010311576376776467
-2.6664007571571124e-06   -3.2193333904181887e-06   -0.00010311576376776467
3.954898926735446e-05   -7.15637159668216e-07   -3.125456265512896e-05
3.954898926735446e-05   -7.15637159668216e-07   -3.125456265512896e-05
3.954898926735446e-05   -7.15637159668216e-07   -3.125456265512896e-05
3.954898926735446e-05   -7.15637159668216e-07   -3.125456265512896e-05
3.923869745241199e-05   2.8140511368270494e-07   -0.00010458310807237863
3.923869745241199e-05   2.8140511368270494e-07   -0.00010458310807237863
3.923869745241199e-05   2.8140511368270494e-07   -0.00010458310807237863
3.923869745241199e-05   2.8140511368270494e-07   -0.00010458310807237863
-3.153264553553423e-06   2.349478390152376e-06   -3.51706820283184e-05
-3.153264553553423e-06   2.349478390152376e-06   -3.51706820283184e-05
-3.153264553553423e-06   2.349478390152376e-06   -3.51706820283184e-05
-3.153264553553423e-06   2.349478390152376e-06   -3.51706820283184e-05
1.770810849772348e-05   -1.0860848091454609e-06   -6.787829919420056e-05
1.770810849772348e-05   -1.0860848091454609e-06   -6.787829919420056e-05
1.770810849772348e-05   -1.0860848091454609e-06   -6.787829919420056e-05
1.770810849772348e-05   -1.0860848091454609e-06   -6.787829919420056e-05
3.9407443947167694e-05   -1.6617587186064007e-05   -5.6047764884145646e-05
3.9407443947167694e-05   -1.6617587186064007e-05   -5.6047764884145646e-05
3.9407443947167694e-05   -1.6617587186064007e-05   -5.6047764884145646e-05
3.9407443947167694e-05   -1.6617587186064007e-05   -5.6047764884145646e-05
7.815150204488162e-05   -1.0895075865441448e-05   1.1959172071084566e-05
7.815150204488162e-05   -1.0895075865441448e-05   1.1959172071084566e-05
7.815150204488162e-05   -1.0895075865441448e-05   1.1959172071084566e-05
7.815150204488162e-05   -1.0895075865441448e-05   1.1959172071084566e-05
8.076530848235268e-05   -1.5085789651881503e-05   -6.31053938075854e-05
8.076530848235268e-05   -1.5085789651881503e-05   -6.31053938075854e-05
8.076530848235268e-05   -1.5085789651881503e-05   -6.31053938075854e-05
8.076530848235268e-05   -1.5085789651881503e-05   -6.31053938075854e-05
3.937137839086702e-05   -9.362929441311413e-06   2.45077355188225e-06
3.937137839086702e-05   -9.362929441311413e-06   2.45077355188225e-06
3.937137839086702e-05   -9.362929441311413e-06   2.45077355188225e-06
3.937137839086702e-05   -9.362929441311413e-06   2.45077355188225e-06
5.688385214860983e-05   -1.2837145671421566e-05   -2.4652152972956466e-05
5.688385214860983e-05   -1.2837145671421566e-05   -2.4652152972956466e-05
5.688385214860983e-05   -1.2837145671421566e-05   -2.4652152972956466e-05
5.688385214860983e-05   -1.2837145671421566e-05   -2.4652152972956466e-05
3.9371378390866966e-05   -1.5085789651881503e-05   -6.653910993392726e-05
3.9371378390866966e-05   -1.5085789651881503e-05   -6.653910993392726e-05
3.9371378390866966e-05   -1.5085789651881503e-05   -6.653910993392726e-05
3.9371378390866966e-05   -1.5085789651881503e-05   -6.653910993392726e-05
8.076530848235268e-05   -9.362929441311413e-06   5.884489678224347e-06
8.076530848235268e-05   -9.362929441311413e-06   5.884489678224347e-06
8.076530848235268e-05   -9.362929441311413e-06   5.884489678224347e-06
8.076530848235268e-05   -9.362929441311413e-06   5.884489678224347e-06
8.277033376213129e-05   -1.345749610172928e-05   -7.118597471322724e-05
8.277033376213129e-05   -1.345749610172928e-05   -7.118597471322724e-05
8.277033376213129e-05   -1.345749610172928e-05   -7.118597471322724e-05
8.277033376213129e-05   -1.345749610172928e-05   -7.118597471322724e-05
3.9548989267354295e-05   -8.045193066292481e-06   -2.397782376527995e-06
3.9548989267354295e-05   -8.045193066292481e-06   -2.397782376527995e-06
3.9548989267354295e-05   -8.045193066292481e-06   -2.397782376527995e-06
3.9548989267354295e-05   -8.045193066292481e-06   -2.397782376527995e-06
5.880437791698788e-05   -1.184825752757919e-05   -3.2208258115811535e-05
5.880437791698788e-05   -1.184825752757919e-05   -3.2208258115811535e-05
5.880437791698788e-05   -1.184825752757919e-05   -3.2208258115811535e-05
5.880437791698788e-05   -1.184825752757919e-05   -3.2208258115811535e-05
3.95489892673544e-05   -1.345749610172928e-05   -7.443335653448932e-05
3.95489892673544e-05   -1.345749610172928e-05   -7.443335653448932e-05
3.95489892673544e-05   -1.345749610172928e-05   -7.443335653448932e-05
3.95489892673544e-05   -1.345749610172928e-05   -7.443335653448932e-05
8.277033376213118e-05   -8.045193066292264e-06   8.495994447345508e-07
8.277033376213118e-05   -8.045193066292264e-06   8.495994447345508e-07
8.277033376213118e-05   -8.045193066292264e-06   8.495994447345508e-07
8.277033376213118e-05   -8.045193066292264e-06   8.495994447345508e-07
8.490357199644993e-05   -9.952529411154918e-06   -8.492525798570595e-05
8.490357199644993e-05   -9.952529411154918e-06   -8.492525798570595e-05
8.490357199644993e-05   -9.952529411154918e-06   -8.492525798570595e-05
8.490357199644993e-05   -9.952529411154918e-06   -8.492525798570595e-05
3.9238697452411884e-05   -5.227329199844043e-06   -1.1652253872429497e-05
3.9238697452411884e-05   -5.227329199844043e-06   -1.1652253872429497e-05
3.9238697452411884e-05   -5.227329199844043e-06   -1.1652253872429497e-05
3.9238697452411884e-05   -5.227329199844043e-06   -1.1652253872429497e-05
5.854100292151632e-05   -1.0211381436939205e-05   -4.083233164534604e-05
5.854100292151632e-05   -1.0211381436939205e-05   -4.083233164534604e-05
5.854100292151632e-05   -1.0211381436939205e-05   -4.083233164534604e-05
5.854100292151632e-05   -1.0211381436939205e-05   -4.083233164534604e-05
-9.385554488005156e-05   1.4376448089723501e-05   -7.131942857858096e-05
-9.385554488005156e-05   1.4376448089723501e-05   -7.131942857858096e-05
-9.385554488005156e-05   1.4376448089723501e-05   -7.131942857858096e-05
-9.385554488005156e-05   1.4376448089723501e-05   -7.131942857858096e-05
-6.385528746840127e-05   9.15796491128616e-06   -2.445008946622639e-05
-6.385528746840127e-05   9.15796491128616e-06   -2.445008946622639e-05
-6.385528746840127e-05   9.15796491128616e-06   -2.445008946622639e-05
-6.385528746840127e-05   9.15796491128616e-06   -2.445008946622639e-05
-6.362384854820296e-05   1.7383966052615012e-05   -6.0586340096706716e-05
-6.362384854820296e-05   1.7383966052615012e-05   -6.0586340096706716e-05
-6.362384854820296e-05   1.7383966052615012e-05   -6.0586340096706716e-05
-6.362384854820296e-05   1.7383966052615012e-05   -6.0586340096706716e-05
-9.106044019618063e-05   1.165024102072875e-05   -1.1418452330945504e-05
-9.106044019618063e-05   1.165024102072875e-05   -1.1418452330945504e-05
-9.106044019618063e-05   1.165024102072875e-05   -1.1418452330945504e-05
-9.106044019618063e-05   1.165024102072875e-05   -1.1418452330945504e-05
-7.478577251347543e-05   1.3841324693142712e-05   -3.985754867223603e-05
-7.478577251347543e-05   1.3841324693142712e-05   -3.985754867223603e-05
-7.478577251347543e-05   1.3841324693142712e-05   -3.985754867223603e-05
-7.478577251347543e-05   1.3841324693142712e-05   -3.985754867223603e-05
-9.106044019618063e-05   1.7383966052615012e-05   -5.714610507757522e-05
-9.106044019618063e-05   1.7383966052615012e-05   -5.714610507757522e-05
-9.106044019618063e-05   1.7383966052615012e-05   -5.714610507757522e-05
-9.106044019618063e-05   1.7383966052615012e-05   -5.714610507757522e-05
-6.362384854820307e-05   1.1650241020728968e-05   -1.4858687350077326e-05
-6.362384854820307e-05   1.1650241020728968e-05   -1.4858687350077326e-05
-6.362384854820307e-05   1.1650241020728968e-05   -1.4858687350077326e-05
-6.362384854820307e-05   1.1650241020728968e-05   -1.4858687350077326e-05
-6.314201395164499e-05   1.8704060008649338e-05   -5.2830149539917796e-05
-6.314201395164499e-05   1.8704060008649338e-05   -5.2830149539917796e-05
-6.314201395164499e-05   1.8704060008649338e-05   -5.2830149539917796e-05
-6.314201395164499e-05   1.8704060008649338e-05   -5.2830149539917796e-05
-8.896891101447754e-05   1.2809769081674992e-05   -6.248746545678831e-06
-8.896891101447754e-05   1.2809769081674992e-05   -6.248746545678831e-06
-8.896891101447754e-05   1.2809769081674992e-05   -6.248746545678831e-06
-8.896891101447754e-05   1.2809769081674992e-05   -6.248746545678831e-06
-7.479399413839425e-05   1.5231662268906047e-05   -3.132674391815638e-05
-7.479399413839425e-05   1.5231662268906047e-05   -3.132674391815638e-05
-7.479399413839425e-05   1.5231662268906047e-05   -3.132674391815638e-05
-7.479399413839425e-05   1.5231662268906047e-05   -3.132674391815638e-05
-8.896891101447754e-05   1.8704060008649338e-05   -4.92935749837331e-05
-8.896891101447754e-05   1.8704060008649338e-05   -4.92935749837331e-05
-8.896891101447754e-05   1.8704060008649338e-05   -4.92935749837331e-05
-8.896891101447754e-05   1.8704060008649338e-05   -4.92935749837331e-05
-6.31420139516451e-05   1.2809769081674775e-05   -9.785321101863091e-06
-6.31420139516451e-05   1.2809769081674775e-05   -9.785321101863091e-06
-6.31420139516451e-05   1.2809769081674775e-05   -9.785321101863091e-06
-6.31420139516451e-05   1.2809769081674775e-05   -9.785321101863091e-06
-6.29477540321156e-05   1.999921895989745e-05   -4.208727308184935e-05
-6.29477540321156e-05   1.999921895989745e-05   -4.208727308184935e-05
-6.29477540321156e-05   1.999921895989745e-05   -4.208727308184935e-05
-6.29477540321156e-05   1.999921895989745e-05   -4.208727308184935e-05
-8.622986232713467e-05   1.4265262198907835e-05   1.5661479977648052e-07
-8.622986232713467e-05   1.4265262198907835e-05   1.5661479977648052e-07
-8.622986232713467e-05   1.4265262198907835e-05   1.5661479977648052e-07
-8.622986232713467e-05   1.4265262198907835e-05   1.5661479977648052e-07
-7.25833035297564e-05   1.5981810531565024e-05   -2.36175788621149e-05
-7.25833035297564e-05   1.5981810531565024e-05   -2.36175788621149e-05
-7.25833035297564e-05   1.5981810531565024e-05   -2.36175788621149e-05
-7.25833035297564e-05   1.5981810531565024e-05   -2.36175788621149e-05
-6.385528746840117e-05   7.163368322391818e-06   -9.076981094939486e-05
-6.385528746840117e-05   7.163368322391818e-06   -9.076981094939486e-05
-6.385528746840117e-05   7.163368322391818e-06   -9.076981094939486e-05
-6.385528746840117e-05   7.163368322391818e-06   -9.076981094939486e-05
-3.6678579253469115e-05   4.726432085556389e-06   -4.693745899994259e-05
-3.6678579253469115e-05   4.726432085556389e-06   -4.693745899994259e-05
-3.6678579253469115e-05   4.726432085556389e-06   -4.693745899994259e-05
-3.6678579253469115e-05   4.726432085556389e-06   -4.693745899994259e-05
-3.669590747956166e-05   1.0120136724804185e-05   -8.999449700703051e-05
-3.669590747956166e-05   1.0120136724804185e-05   -8.999449700703051e-05
-3.669590747956166e-05   1.0120136724804185e-05   -8.999449700703051e-05
-3.669590747956166e-05   1.0120136724804185e-05   -8.999449700703051e-05
-6.362384854820296e-05   7.35643967551239e-06   -4.345637699638657e-05
-6.362384854820296e-05   7.35643967551239e-06   -4.345637699638657e-05
-6.362384854820296e-05   7.35643967551239e-06   -4.345637699638657e-05
-6.362384854820296e-05   7.35643967551239e-06   -4.345637699638657e-05
-4.975086713842883e-05   7.830263210144121e-06   -6.68623068001228e-05
-4.975086713842883e-05   7.830263210144121e-06   -6.68623068001228e-05
-4.975086713842883e-05   7.830263210144121e-06   -6.68623068001228e-05
-4.975086713842883e-05   7.830263210144121e-06   -6.68623068001228e-05
-6.362384854820285e-05   1.0120136724804185e-05   -8.833627877745506e-05
-6.362384854820285e-05   1.0120136724804185e-05   -8.833627877745506e-05
-6.362384854820285e-05   1.0120136724804185e-05   -8.833627877745506e-05
-6.362384854820285e-05   1.0120136724804185e-05   -8.833627877745506e-05
-3.669590747956166e-05   7.356439675512173e-06   -4.5114595225961634e-05
-3.669590747956166e-05   7.356439675512173e-06   -4.5114595225961634e-05
-3.669590747956166e-05   7.356439675512173e-06   -4.5114595225961634e-05
-3.669590747956166e-05   7.356439675512173e-06   -4.5114595225961634e-05
-3.666801266389948e-05   1.2745359425452062e-05   -8.797694906132326e-05
-3.666801266389948e-05   1.2745359425452062e-05   -8.797694906132326e-05
-3.666801266389948e-05   1.2745359425452062e-05   -8.797694906132326e-05
-3.666801266389948e-05   1.2745359425452062e-05   -8.797694906132326e-05
-6.314201395164499e-05   9.7478836085321e-06   -4.2055128091595534e-05
-6.314201395164499e-05   9.7478836085321e-06   -4.2055128091595534e-05
-6.314201395164499e-05   9.7478836085321e-06   -4.2055128091595534e-05
-6.314201395164499e-05   9.7478836085321e-06   -4.2055128091595534e-05
-4.9518210275684e-05   9.988521920885254e-06   -6.490585053894161e-05
-4.9518210275684e-05   9.988521920885254e-06   -6.490585053894161e-05
-4.9518210275684e-05   9.988521920885254e-06   -6.490585053894161e-05
-4.9518210275684e-05   9.988521920885254e-06   -6.490585053894161e-05
-6.314201395164499e-05   1.2745359425452062e-05   -8.617846357117159e-05
-6.314201395164499e-05   1.2745359425452062e-05   -8.617846357117159e-05
-6.314201395164499e-05   1.2745359425452062e-05   -8.617846357117159e-05
-6.314201395164499e-05   1.2745359425452062e-05   -8.617846357117159e-05
-3.6668012663899506e-05   9.747883608532317e-06   -4.385361358174715e-05
-3.6668012663899506e-05   9.747883608532317e-06   -4.385361358174715e-05
-3.6668012663899506e-05   9.747883608532317e-06   -4.385361358174715e-05
-3.6668012663899506e-05   9.747883608532317e-06   -4.385361358174715e-05
-3.6696217332905296e-05   1.553622768498829e-05   -8.83309694105364e-05
-3.6696217332905296e-05   1.553622768498829e-05   -8.83309694105364e-05
-3.6696217332905296e-05   1.553622768498829e-05   -8.83309694105364e-05
-3.6696217332905296e-05   1.553622768498829e-05   -8.83309694105364e-05
-6.294775403211566e-05   1.2343781865313107e-05   -4.266294075338042e-05
-6.294775403211566e-05   1.2343781865313107e-05   -4.266294075338042e-05
-6.294775403211566e-05   1.2343781865313107e-05   -4.266294075338042e-05
-6.294775403211566e-05   1.2343781865313107e-05   -4.266294075338042e-05
-4.983806109042336e-05   1.212188715616117e-05   -6.437929216404306e-05
-4.983806109042336e-05   1.212188715616117e-05   -6.437929216404306e-05
-4.983806109042336e-05   1.212188715616117e-05   -6.437929216404306e-05
-4.983806109042336e-05   1.212188715616117e-05   -6.437929216404306e-05
-3.667857925346906e-05   3.803642070171042e-07   -0.00010015723617485075
-3.667857925346906e-05   3.803642070171042e-07   -0.00010015723617485075
-3.667857925346906e-05   3.803642070171042e-07   -0.00010015723617485075
-3.667857925346906e-05   3.803642070171042e-07   -0.00010015723617485075
-9.887091592183025e-06   8.085755805824733e-07   -5.524782991523497e-05
-9.887091592183025e-06   8.085755805824733e-07   -5.524782991523497e-05
-9.887091592183025e-06   8.085755805824733e-07   -5.524782991523497e-05
-9.887091592183025e-06   8.085755805824733e-07   -5.524782991523497e-05
-9.90503764282761e-06   3.289392333366819e-06   -9.905693018143983e-05
-9.90503764282761e-06   3.289392333366819e-06   -9.905693018143983e-05
-9.90503764282761e-06   3.289392333366819e-06   -9.905693018143983e-05
-9.90503764282761e-06   3.289392333366819e-06   -9.905693018143983e-05
-3.66959074795616e-05   3.4510902823432516e-06   -5.4502499222935724e-05
-3.66959074795616e-05   3.4510902823432516e-06   -5.4502499222935724e-05
-3.66959074795616e-05   3.4510902823432516e-06   -5.4502499222935724e-05
-3.66959074795616e-05   3.4510902823432516e-06   -5.4502499222935724e-05
-2.3137334650727833e-05   2.3227060496442287e-06   -7.64230900647058e-05
-2.3137334650727833e-05   2.3227060496442287e-06   -7.64230900647058e-05
-2.3137334650727833e-05   2.3227060496442287e-06   -7.64230900647058e-05
-2.3137334650727833e-05   2.3227060496442287e-06   -7.64230900647058e-05
-3.66959074795616e-05   3.289392333366819e-06   -9.915394895082573e-05
-3.66959074795616e-05   3.289392333366819e-06   -9.915394895082573e-05
-3.66959074795616e-05   3.289392333366819e-06   -9.915394895082573e-05
-3.66959074795616e-05   3.289392333366819e-06   -9.915394895082573e-05
-9.90503764282761e-06   3.4510902823432516e-06   -5.4405480453549875e-05
-9.90503764282761e-06   3.4510902823432516e-06   -5.4405480453549875e-05
-9.90503764282761e-06   3.4510902823432516e-06   -5.4405480453549875e-05
-9.90503764282761e-06   3.4510902823432516e-06   -5.4405480453549875e-05
-9.869207252827206e-06   6.189599205920753e-06   -9.931112233238179e-05
-9.869207252827206e-06   6.189599205920753e-06   -9.931112233238179e-05
-9.869207252827206e-06   6.189599205920753e-06   -9.931112233238179e-05
-9.869207252827206e-06   6.189599205920753e-06   -9.931112233238179e-05
-3.666801266389948e-05   6.102024972936063e-06   -5.4593902107470725e-05
-3.666801266389948e-05   6.102024972936063e-06   -5.4593902107470725e-05
-3.666801266389948e-05   6.102024972936063e-06   -5.4593902107470725e-05
-3.666801266389948e-05   6.102024972936063e-06   -5.4593902107470725e-05
-2.329149007206905e-05   4.633331023554035e-06   -7.6006890057559e-05
-2.329149007206905e-05   4.633331023554035e-06   -7.6006890057559e-05
-2.329149007206905e-05   4.633331023554035e-06   -7.6006890057559e-05
-2.329149007206905e-05   4.633331023554035e-06   -7.6006890057559e-05
-3.666801266389948e-05   6.189599205920753e-06   -9.925857779259097e-05
-3.666801266389948e-05   6.189599205920753e-06   -9.925857779259097e-05
-3.666801266389948e-05   6.189599205920753e-06   -9.925857779259097e-05
-3.666801266389948e-05   6.189599205920753e-06   -9.925857779259097e-05
-9.869207252827222e-06   6.102024972935846e-06   -5.464644664726138e-05
-9.869207252827222e-06   6.102024972935846e-06   -5.464644664726138e-05
-9.869207252827222e-06   6.102024972935846e-06   -5.464644664726138e-05
-9.869207252827222e-06   6.102024972935846e-06   -5.464644664726138e-05
-9.884401830318916e-06   9.157390160331865e-06   -0.00010081368357796382
-9.884401830318916e-06   9.157390160331865e-06   -0.00010081368357796382
-9.884401830318916e-06   9.157390160331865e-06   -0.00010081368357796382
-9.884401830318916e-06   9.157390160331865e-06   -0.00010081368357796382
-3.669621733290527e-05   8.799309623734293e-06   -5.591247608502771e-05
-3.669621733290527e-05   8.799309623734293e-06   -5.591247608502771e-05
-3.669621733290527e-05   8.799309623734293e-06   -5.591247608502771e-05
-3.669621733290527e-05   8.799309623734293e-06   -5.591247608502771e-05
-2.3491023829517765e-05   6.974285924228607e-06   -7.68261177043036e-05
-2.3491023829517765e-05   6.974285924228607e-06   -7.68261177043036e-05
-2.3491023829517765e-05   6.974285924228607e-06   -7.68261177043036e-05
-2.3491023829517765e-05   6.974285924228607e-06   -7.68261177043036e-05
-9.887091592183008e-06   -5.999954526407373e-06   -8.870175962222184e-05
-9.887091592183008e-06   -5.999954526407373e-06   -8.870175962222184e-05
-9.887091592183008e-06   -5.999954526407373e-06   -8.870175962222184e-05
-9.887091592183008e-06   -5.999954526407373e-06   -8.870175962222184e-05
1.6526131788584437e-05   -2.7759252587812675e-06   -4.274530309370092e-05
1.6526131788584437e-05   -2.7759252587812675e-06   -4.274530309370092e-05
1.6526131788584437e-05   -2.7759252587812675e-06   -4.274530309370092e-05
1.6526131788584437e-05   -2.7759252587812675e-06   -4.274530309370092e-05
1.67422120340185e-05   -3.3355387833171497e-06   -8.669399456374299e-05
1.67422120340185e-05   -3.3355387833171497e-06   -8.669399456374299e-05
1.67422120340185e-05   -3.3355387833171497e-06   -8.669399456374299e-05
1.67422120340185e-05   -3.3355387833171497e-06   -8.669399456374299e-05
-9.90503764282761e-06   -2.8872721783931334e-07   -4.410999870828616e-05
-9.90503764282761e-06   -2.8872721783931334e-07   -4.410999870828616e-05
-9.90503764282761e-06   -2.8872721783931334e-07   -4.410999870828616e-05
-9.90503764282761e-06   -2.8872721783931334e-07   -4.410999870828616e-05
3.3829237033143987e-06   -2.8706187794537603e-06   -6.47074660148876e-05
3.3829237033143987e-06   -2.8706187794537603e-06   -6.47074660148876e-05
3.3829237033143987e-06   -2.8706187794537603e-06   -6.47074660148876e-05
3.3829237033143987e-06   -2.8706187794537603e-06   -6.47074660148876e-05
-9.90503764282761e-06   -3.3355387833171497e-06   -8.852208150302964e-05
-9.90503764282761e-06   -3.3355387833171497e-06   -8.852208150302964e-05
-9.90503764282761e-06   -3.3355387833171497e-06   -8.852208150302964e-05
-9.90503764282761e-06   -3.3355387833171497e-06   -8.852208150302964e-05
1.674221203401858e-05   -2.8872721783931334e-07   -4.2281911768999626e-05
1.674221203401858e-05   -2.8872721783931334e-07   -4.2281911768999626e-05
1.674221203401858e-05   -2.8872721783931334e-07   -4.2281911768999626e-05
1.674221203401858e-05   -2.8872721783931334e-07   -4.2281911768999626e-05
1.724856887275154e-05   -7.156371596684329e-07   -8.852371087981787e-05
1.724856887275154e-05   -7.156371596684329e-07   -8.852371087981787e-05
1.724856887275154e-05   -7.156371596684329e-07   -8.852371087981787e-05
1.724856887275154e-05   -7.156371596684329e-07   -8.852371087981787e-05
-9.869207252827222e-06   2.10569841241153e-06   -4.502021868043469e-05
-9.869207252827222e-06   2.10569841241153e-06   -4.502021868043469e-05
-9.869207252827222e-06   2.10569841241153e-06   -4.502021868043469e-05
-9.869207252827222e-06   2.10569841241153e-06   -4.502021868043469e-05
3.230761338359096e-06   -8.019339060305608e-07   -6.51089202746799e-05
3.230761338359096e-06   -8.019339060305608e-07   -6.51089202746799e-05
3.230761338359096e-06   -8.019339060305608e-07   -6.51089202746799e-05
3.230761338359096e-06   -8.019339060305608e-07   -6.51089202746799e-05
-9.869207252827213e-06   -7.156371596684329e-07   -9.021651222306578e-05
-9.869207252827213e-06   -7.156371596684329e-07   -9.021651222306578e-05
-9.869207252827213e-06   -7.156371596684329e-07   -9.021651222306578e-05
-9.869207252827213e-06   -7.156371596684329e-07   -9.021651222306578e-05
1.7248568872751594e-05   2.1056984124117467e-06   -4.332741733718663e-05
1.7248568872751594e-05   2.1056984124117467e-06   -4.332741733718663e-05
1.7248568872751594e-05   2.1056984124117467e-06   -4.332741733718663e-05
1.7248568872751594e-05   2.1056984124117467e-06   -4.332741733718663e-05
1.749564896309788e-05   2.349478390152376e-06   -9.113408050946301e-05
1.749564896309788e-05   2.349478390152376e-06   -9.113408050946301e-05
1.749564896309788e-05   2.349478390152376e-06   -9.113408050946301e-05
1.749564896309788e-05   2.349478390152376e-06   -9.113408050946301e-05
-9.8844018303189e-06   4.851895970839999e-06   -4.700211306884728e-05
-9.8844018303189e-06   4.851895970839999e-06   -4.700211306884728e-05
-9.8844018303189e-06   4.851895970839999e-06   -4.700211306884728e-05
-9.8844018303189e-06   4.851895970839999e-06   -4.700211306884728e-05
3.323466995958297e-06   1.4127077631802092e-06   -6.695171485471355e-05
3.323466995958297e-06   1.4127077631802092e-06   -6.695171485471355e-05
3.323466995958297e-06   1.4127077631802092e-06   -6.695171485471355e-05
3.323466995958297e-06   1.4127077631802092e-06   -6.695171485471355e-05
1.652613178858441e-05   -1.0895075865441665e-05   -4.876150100663215e-05
1.652613178858441e-05   -1.0895075865441665e-05   -4.876150100663215e-05
1.652613178858441e-05   -1.0895075865441665e-05   -4.876150100663215e-05
1.652613178858441e-05   -1.0895075865441665e-05   -4.876150100663215e-05
4.002812671811528e-05   -5.111173748102412e-06   -6.121168187010317e-06
4.002812671811528e-05   -5.111173748102412e-06   -6.121168187010317e-06
4.002812671811528e-05   -5.111173748102412e-06   -6.121168187010317e-06
4.002812671811528e-05   -5.111173748102412e-06   -6.121168187010317e-06
4.280416345347007e-05   -9.362929441311413e-06   -5.1237546411615645e-05
4.280416345347007e-05   -9.362929441311413e-06   -5.1237546411615645e-05
4.280416345347007e-05   -9.362929441311413e-06   -5.1237546411615645e-05
4.280416345347007e-05   -9.362929441311413e-06   -5.1237546411615645e-05
1.6742212034018527e-05   -3.42885343689427e-06   -1.136140631518022e-05
1.6742212034018527e-05   -3.42885343689427e-06   -1.136140631518022e-05
1.6742212034018527e-05   -3.42885343689427e-06   -1.136140631518022e-05
1.6742212034018527e-05   -3.42885343689427e-06   -1.136140631518022e-05
2.7787559551762723e-05   -6.976851409572519e-06   -2.764152006114694e-05
2.7787559551762723e-05   -6.976851409572519e-06   -2.764152006114694e-05
2.7787559551762723e-05   -6.976851409572519e-06   -2.764152006114694e-05
2.7787559551762723e-05   -6.976851409572519e-06   -2.764152006114694e-05
1.6742212034018527e-05   -9.362929441311413e-06   -5.479799201426553e-05
1.6742212034018527e-05   -9.362929441311413e-06   -5.479799201426553e-05
1.6742212034018527e-05   -9.362929441311413e-06   -5.479799201426553e-05
1.6742212034018527e-05   -9.362929441311413e-06   -5.479799201426553e-05
4.280416345346996e-05   -3.42885343689427e-06   -7.80096071253001e-06
4.280416345346996e-05   -3.42885343689427e-06   -7.80096071253001e-06
4.280416345346996e-05   -3.42885343689427e-06   -7.80096071253001e-06
4.280416345346996e-05   -3.42885343689427e-06   -7.80096071253001e-06
4.493909560284229e-05   -8.045193066292264e-06   -5.619903791820335e-05
4.493909560284229e-05   -8.045193066292264e-06   -5.619903791820335e-05
4.493909560284229e-05   -8.045193066292264e-06   -5.619903791820335e-05
4.493909560284229e-05   -8.045193066292264e-06   -5.619903791820335e-05
1.7248568872751594e-05   -2.265371927936575e-06   -1.351605271773229e-05
1.7248568872751594e-05   -2.265371927936575e-06   -1.351605271773229e-05
1.7248568872751594e-05   -2.265371927936575e-06   -1.351605271773229e-05
1.7248568872751594e-05   -2.265371927936575e-06   -1.351605271773229e-05
2.9487882860564614e-05   -6.113902401900899e-06   -3.160579107970872e-05
2.9487882860564614e-05   -6.113902401900899e-06   -3.160579107970872e-05
2.9487882860564614e-05   -6.113902401900899e-06   -3.160579107970872e-05
2.9487882860564614e-05   -6.113902401900899e-06   -3.160579107970872e-05
1.724856887275154e-05   -8.045193066292264e-06   -5.966693060121663e-05
1.724856887275154e-05   -8.045193066292264e-06   -5.966693060121663e-05
1.724856887275154e-05   -8.045193066292264e-06   -5.966693060121663e-05
1.724856887275154e-05   -8.045193066292264e-06   -5.966693060121663e-05
4.493909560284218e-05   -2.265371927936792e-06   -1.0048160034718465e-05
4.493909560284218e-05   -2.265371927936792e-06   -1.0048160034718465e-05
4.493909560284218e-05   -2.265371927936792e-06   -1.0048160034718465e-05
4.493909560284218e-05   -2.265371927936792e-06   -1.0048160034718465e-05
4.777371679119501e-05   -5.227329199844043e-06   -6.570463981190369e-05
4.777371679119501e-05   -5.227329199844043e-06   -6.570463981190369e-05
4.777371679119501e-05   -5.227329199844043e-06   -6.570463981190369e-05
4.777371679119501e-05   -5.227329199844043e-06   -6.570463981190369e-05
1.7495648963097908e-05   2.576497941039757e-08   -1.8393049939294194e-05
1.7495648963097908e-05   2.576497941039757e-08   -1.8393049939294194e-05
1.7495648963097908e-05   2.576497941039757e-08   -1.8393049939294194e-05
1.7495648963097908e-05   2.576497941039757e-08   -1.8393049939294194e-05
3.004763014621798e-05   -4.824594681542569e-06   -3.6402802781256125e-05
3.004763014621798e-05   -4.824594681542569e-06   -3.6402802781256125e-05
3.004763014621798e-05   -4.824594681542569e-06   -3.6402802781256125e-05
3.004763014621798e-05   -4.824594681542569e-06   -3.6402802781256125e-05
-5.6926302192790977e-05   9.157964911286377e-06   -5.327418463072701e-05
-5.6926302192790977e-05   9.157964911286377e-06   -5.327418463072701e-05
-5.6926302192790977e-05   9.157964911286377e-06   -5.327418463072701e-05
-5.6926302192790977e-05   9.157964911286377e-06   -5.327418463072701e-05
-4.196986685104119e-05   3.7418376147356318e-06   -3.159646877240777e-05
-4.196986685104119e-05   3.7418376147356318e-06   -3.159646877240777e-05
-4.196986685104119e-05   3.7418376147356318e-06   -3.159646877240777e-05
-4.196986685104119e-05   3.7418376147356318e-06   -3.159646877240777e-05
-4.1349063498468406e-05   1.165024102072875e-05   -4.6997051136282286e-05
-4.1349063498468406e-05   1.165024102072875e-05   -4.6997051136282286e-05
-4.1349063498468406e-05   1.165024102072875e-05   -4.6997051136282286e-05
-4.1349063498468406e-05   1.165024102072875e-05   -4.6997051136282286e-05
-5.3840902663945854e-05   5.81793423305851e-06   -2.2677935121216816e-05
-5.3840902663945854e-05   5.81793423305851e-06   -2.2677935121216816e-05
-5.3840902663945854e-05   5.81793423305851e-06   -2.2677935121216816e-05
-5.3840902663945854e-05   5.81793423305851e-06   -2.2677935121216816e-05
-4.6465591526814276e-05   8.212571659111604e-06   -3.640690280540368e-05
-4.6465591526814276e-05   8.212571659111604e-06   -3.640690280540368e-05
-4.6465591526814276e-05   8.212571659111604e-06   -3.640690280540368e-05
-4.6465591526814276e-05   8.212571659111604e-06   -3.640690280540368e-05
-5.3840902663945854e-05   1.165024102072875e-05   -4.349766706367988e-05
-5.3840902663945854e-05   1.165024102072875e-05   -4.349766706367988e-05
-5.3840902663945854e-05   1.165024102072875e-05   -4.349766706367988e-05
-5.3840902663945854e-05   1.165024102072875e-05   -4.349766706367988e-05
-4.1349063498468514e-05   5.817934233058944e-06   -2.617731919381933e-05
-4.1349063498468514e-05   5.817934233058944e-06   -2.617731919381933e-05
-4.1349063498468514e-05   5.817934233058944e-06   -2.617731919381933e-05
-4.1349063498468514e-05   5.817934233058944e-06   -2.617731919381933e-05
-4.0464110198890416e-05   1.2809769081674992e-05   -4.1967299881634675e-05
-4.0464110198890416e-05   1.2809769081674992e-05   -4.1967299881634675e-05
-4.0464110198890416e-05   1.2809769081674992e-05   -4.1967299881634675e-05
-4.0464110198890416e-05   1.2809769081674992e-05   -4.1967299881634675e-05
-5.137664654221994e-05   6.864928681485968e-06   -2.0212835069305076e-05
-5.137664654221994e-05   6.864928681485968e-06   -2.0212835069305076e-05
-5.137664654221994e-05   6.864928681485968e-06   -2.0212835069305076e-05
-5.137664654221994e-05   6.864928681485968e-06   -2.0212835069305076e-05
-4.5650120788472105e-05   9.332017583611567e-06   -3.123729800016029e-05
-4.5650120788472105e-05   9.332017583611567e-06   -3.123729800016029e-05
-4.5650120788472105e-05   9.332017583611567e-06   -3.123729800016029e-05
-4.5650120788472105e-05   9.332017583611567e-06   -3.123729800016029e-05
-5.137664654221983e-05   1.2809769081674992e-05   -3.840039564152135e-05
-5.137664654221983e-05   1.2809769081674992e-05   -3.840039564152135e-05
-5.137664654221983e-05   1.2809769081674992e-05   -3.840039564152135e-05
-5.137664654221983e-05   1.2809769081674992e-05   -3.840039564152135e-05
-4.046411019889047e-05   6.864928681485968e-06   -2.3779739309418512e-05
-4.046411019889047e-05   6.864928681485968e-06   -2.3779739309418512e-05
-4.046411019889047e-05   6.864928681485968e-06   -2.3779739309418512e-05
-4.046411019889047e-05   6.864928681485968e-06   -2.3779739309418512e-05
-3.985837942719261e-05   1.4265262198907835e-05   -3.5510584158771584e-05
-3.985837942719261e-05   1.4265262198907835e-05   -3.5510584158771584e-05
-3.985837942719261e-05   1.4265262198907835e-05   -3.5510584158771584e-05
-3.985837942719261e-05   1.4265262198907835e-05   -3.5510584158771584e-05
-4.8238002963440075e-05   8.522454563475359e-06   -1.8098860350432202e-05
-4.8238002963440075e-05   8.522454563475359e-06   -1.8098860350432202e-05
-4.8238002963440075e-05   8.522454563475359e-06   -1.8098860350432202e-05
-4.8238002963440075e-05   8.522454563475359e-06   -1.8098860350432202e-05
-4.3514878375072876e-05   1.0105040182489117e-05   -2.6920286035787225e-05
-4.3514878375072876e-05   1.0105040182489117e-05   -2.6920286035787225e-05
-4.3514878375072876e-05   1.0105040182489117e-05   -2.6920286035787225e-05
-4.3514878375072876e-05   1.0105040182489117e-05   -2.6920286035787225e-05
-4.196986685104119e-05   4.726432085556389e-06   -7.754906880027244e-05
-4.196986685104119e-05   4.726432085556389e-06   -7.754906880027244e-05
-4.196986685104119e-05   4.726432085556389e-06   -7.754906880027244e-05
-4.196986685104119e-05   4.726432085556389e-06   -7.754906880027244e-05
-2.9825270847746717e-05   2.1377104339297126e-06   -5.886130845242463e-05
-2.9825270847746717e-05   2.1377104339297126e-06   -5.886130845242463e-05
-2.9825270847746717e-05   2.1377104339297126e-06   -5.886130845242463e-05
-2.9825270847746717e-05   2.1377104339297126e-06   -5.886130845242463e-05
-2.9416382426319037e-05   7.35643967551239e-06   -7.729827828630042e-05
-2.9416382426319037e-05   7.35643967551239e-06   -7.729827828630042e-05
-2.9416382426319037e-05   7.35643967551239e-06   -7.729827828630042e-05
-2.9416382426319037e-05   7.35643967551239e-06   -7.729827828630042e-05
-4.134906349846857e-05   4.517210502664234e-06   -5.570693899567525e-05
-4.134906349846857e-05   4.517210502664234e-06   -5.570693899567525e-05
-4.134906349846857e-05   4.517210502664234e-06   -5.570693899567525e-05
-4.134906349846857e-05   4.517210502664234e-06   -5.570693899567525e-05
-3.5292777876272876e-05   5.138353635489833e-06   -6.617343424569826e-05
-3.5292777876272876e-05   5.138353635489833e-06   -6.617343424569826e-05
-3.5292777876272876e-05   5.138353635489833e-06   -6.617343424569826e-05
-3.5292777876272876e-05   5.138353635489833e-06   -6.617343424569826e-05
-4.1349063498468406e-05   7.356439675512173e-06   -7.559474078259109e-05
-4.1349063498468406e-05   7.356439675512173e-06   -7.559474078259109e-05
-4.1349063498468406e-05   7.356439675512173e-06   -7.559474078259109e-05
-4.1349063498468406e-05   7.356439675512173e-06   -7.559474078259109e-05
-2.9416382426319037e-05   4.5172105026638e-06   -5.7410476499384256e-05
-2.9416382426319037e-05   4.5172105026638e-06   -5.7410476499384256e-05
-2.9416382426319037e-05   4.5172105026638e-06   -5.7410476499384256e-05
-2.9416382426319037e-05   4.5172105026638e-06   -5.7410476499384256e-05
-2.896513183437964e-05   9.7478836085321e-06   -7.604895869096928e-05
-2.896513183437964e-05   9.7478836085321e-06   -7.604895869096928e-05
-2.896513183437964e-05   9.7478836085321e-06   -7.604895869096928e-05
-2.896513183437964e-05   9.7478836085321e-06   -7.604895869096928e-05
-4.0464110198890524e-05   6.728130575861871e-06   -5.5072142930515273e-05
-4.0464110198890524e-05   6.728130575861871e-06   -5.5072142930515273e-05
-4.0464110198890524e-05   6.728130575861871e-06   -5.5072142930515273e-05
-4.0464110198890524e-05   6.728130575861871e-06   -5.5072142930515273e-05
-3.475634722650478e-05   7.060451051931621e-06   -6.478447350346628e-05
-3.475634722650478e-05   7.060451051931621e-06   -6.478447350346628e-05
-3.475634722650478e-05   7.060451051931621e-06   -6.478447350346628e-05
-3.475634722650478e-05   7.060451051931621e-06   -6.478447350346628e-05
-4.0464110198890416e-05   9.7478836085321e-06   -7.423710687136679e-05
-4.0464110198890416e-05   9.7478836085321e-06   -7.423710687136679e-05
-4.0464110198890416e-05   9.7478836085321e-06   -7.423710687136679e-05
-4.0464110198890416e-05   9.7478836085321e-06   -7.423710687136679e-05
-2.8965131834379586e-05   6.728130575861871e-06   -5.688399475011743e-05
-2.8965131834379586e-05   6.728130575861871e-06   -5.688399475011743e-05
-2.8965131834379586e-05   6.728130575861871e-06   -5.688399475011743e-05
-2.8965131834379586e-05   6.728130575861871e-06   -5.688399475011743e-05
-2.8562888400144562e-05   1.2343781865313107e-05   -7.678609298139355e-05
-2.8562888400144562e-05   1.2343781865313107e-05   -7.678609298139355e-05
-2.8562888400144562e-05   1.2343781865313107e-05   -7.678609298139355e-05
-2.8562888400144562e-05   1.2343781865313107e-05   -7.678609298139355e-05
-3.985837942719272e-05   9.183236321881616e-06   -5.6063947276920826e-05
-3.985837942719272e-05   9.183236321881616e-06   -5.6063947276920826e-05
-3.985837942719272e-05   9.183236321881616e-06   -5.6063947276920826e-05
-3.985837942719272e-05   9.183236321881616e-06   -5.6063947276920826e-05
-3.4543677041933325e-05   9.005504707499182e-06   -6.481514561705782e-05
-3.4543677041933325e-05   9.005504707499182e-06   -6.481514561705782e-05
-3.4543677041933325e-05   9.005504707499182e-06   -6.481514561705782e-05
-3.4543677041933325e-05   9.005504707499182e-06   -6.481514561705782e-05
-2.9825270847746635e-05   8.085755805822565e-07   -8.766959953068038e-05
-2.9825270847746635e-05   8.085755805822565e-07   -8.766959953068038e-05
-2.9825270847746635e-05   8.085755805822565e-07   -8.766959953068038e-05
-2.9825270847746635e-05   8.085755805822565e-07   -8.766959953068038e-05
-1.799748643641594e-05   1.2181764809482236e-06   -6.771086497157647e-05
-1.799748643641594e-05   1.2181764809482236e-06   -6.771086497157647e-05
-1.799748643641594e-05   1.2181764809482236e-06   -6.771086497157647e-05
-1.799748643641594e-05   1.2181764809482236e-06   -6.771086497157647e-05
-1.7598420078844306e-05   3.4510902823432516e-06   -8.657289735597017e-05
-1.7598420078844306e-05   3.4510902823432516e-06   -8.657289735597017e-05
-1.7598420078844306e-05   3.4510902823432516e-06   -8.657289735597017e-05
-1.7598420078844306e-05   3.4510902823432516e-06   -8.657289735597017e-05
-2.9416382426319037e-05   3.639898494517662e-06   -6.698957837081608e-05
-2.9416382426319037e-05   3.639898494517662e-06   -6.698957837081608e-05
-2.9416382426319037e-05   3.639898494517662e-06   -6.698957837081608e-05
-2.9416382426319037e-05   3.639898494517662e-06   -6.698957837081608e-05
-2.3557680578151037e-05   2.6155156183185237e-06   -7.613945172537843e-05
-2.3557680578151037e-05   2.6155156183185237e-06   -7.613945172537843e-05
-2.3557680578151037e-05   2.6155156183185237e-06   -7.613945172537843e-05
-2.3557680578151037e-05   2.6155156183185237e-06   -7.613945172537843e-05
-2.9416382426318983e-05   3.4510902823434685e-06   -8.668618228327451e-05
-2.9416382426318983e-05   3.4510902823434685e-06   -8.668618228327451e-05
-2.9416382426318983e-05   3.4510902823434685e-06   -8.668618228327451e-05
-2.9416382426318983e-05   3.4510902823434685e-06   -8.668618228327451e-05
-1.7598420078844306e-05   3.6398984945180957e-06   -6.687629344351179e-05
-1.7598420078844306e-05   3.6398984945180957e-06   -6.687629344351179e-05
-1.7598420078844306e-05   3.6398984945180957e-06   -6.687629344351179e-05
-1.7598420078844306e-05   3.6398984945180957e-06   -6.687629344351179e-05
-1.7150471180789847e-05   6.102024972936063e-06   -8.680071005653239e-05
-1.7150471180789847e-05   6.102024972936063e-06   -8.680071005653239e-05
-1.7150471180789847e-05   6.102024972936063e-06   -8.680071005653239e-05
-1.7150471180789847e-05   6.102024972936063e-06   -8.680071005653239e-05
-2.8965131834379586e-05   6.0829202398692515e-06   -6.709814612737612e-05
-2.8965131834379586e-05   6.0829202398692515e-06   -6.709814612737612e-05
-2.8965131834379586e-05   6.0829202398692515e-06   -6.709814612737612e-05
-2.8965131834379586e-05   6.0829202398692515e-06   -6.709814612737612e-05
-2.3288391722259953e-05   4.694909257440139e-06   -7.572657305811802e-05
-2.3288391722259953e-05   4.694909257440139e-06   -7.572657305811802e-05
-2.3288391722259953e-05   4.694909257440139e-06   -7.572657305811802e-05
-2.3288391722259953e-05   4.694909257440139e-06   -7.572657305811802e-05
-2.896513183437953e-05   6.102024972935846e-06   -8.678924721669209e-05
-2.896513183437953e-05   6.102024972935846e-06   -8.678924721669209e-05
-2.896513183437953e-05   6.102024972935846e-06   -8.678924721669209e-05
-2.896513183437953e-05   6.102024972935846e-06   -8.678924721669209e-05
-1.7150471180789877e-05   6.082920239869685e-06   -6.710960896721605e-05
-1.7150471180789877e-05   6.082920239869685e-06   -6.710960896721605e-05
-1.7150471180789877e-05   6.082920239869685e-06   -6.710960896721605e-05
-1.7150471180789877e-05   6.082920239869685e-06   -6.710960896721605e-05
-1.674772617018829e-05   8.799309623734076e-06   -8.82621186328134e-05
-1.674772617018829e-05   8.799309623734076e-06   -8.82621186328134e-05
-1.674772617018829e-05   8.799309623734076e-06   -8.82621186328134e-05
-1.674772617018829e-05   8.799309623734076e-06   -8.82621186328134e-05
-2.8562888400144616e-05   8.562713271105526e-06   -6.842822377130833e-05
-2.8562888400144616e-05   8.562713271105526e-06   -6.842822377130833e-05
-2.8562888400144616e-05   8.562713271105526e-06   -6.842822377130833e-05
-2.8562888400144616e-05   8.562713271105526e-06   -6.842822377130833e-05
-2.3064740538935442e-05   6.80191760893227e-06   -7.653532614268724e-05
-2.3064740538935442e-05   6.80191760893227e-06   -7.653532614268724e-05
-2.3064740538935442e-05   6.80191760893227e-06   -7.653532614268724e-05
-2.3064740538935442e-05   6.80191760893227e-06   -7.653532614268724e-05
-1.7997486436415877e-05   -2.7759252587810507e-06   -7.685572972950232e-05
-1.7997486436415877e-05   -2.7759252587810507e-06   -7.685572972950232e-05
-1.7997486436415877e-05   -2.7759252587810507e-06   -7.685572972950232e-05
-1.7997486436415877e-05   -2.7759252587810507e-06   -7.685572972950232e-05
-6.514174086764588e-06   5.081531544819107e-07   -5.574642876545908e-05
-6.514174086764588e-06   5.081531544819107e-07   -5.574642876545908e-05
-6.514174086764588e-06   5.081531544819107e-07   -5.574642876545908e-05
-6.514174086764588e-06   5.081531544819107e-07   -5.574642876545908e-05
-5.9203818376398734e-06   -2.8872721783931334e-07   -7.439264198869024e-05
-5.9203818376398734e-06   -2.8872721783931334e-07   -7.439264198869024e-05
-5.9203818376398734e-06   -2.8872721783931334e-07   -7.439264198869024e-05
-5.9203818376398734e-06   -2.8872721783931334e-07   -7.439264198869024e-05
-1.7598420078844275e-05   2.852562152187016e-06   -5.681401854203166e-05
-1.7598420078844275e-05   2.852562152187016e-06   -5.681401854203166e-05
-1.7598420078844275e-05   2.852562152187016e-06   -5.681401854203166e-05
-1.7598420078844275e-05   2.852562152187016e-06   -5.681401854203166e-05
-1.1886557506591893e-05   3.1920068337609395e-07   -6.481377261450006e-05
-1.1886557506591893e-05   3.1920068337609395e-07   -6.481377261450006e-05
-1.1886557506591893e-05   3.1920068337609395e-07   -6.481377261450006e-05
-1.1886557506591893e-05   3.1920068337609395e-07   -6.481377261450006e-05
-1.759842007884424e-05   -2.8872721783931334e-07   -7.627741561070604e-05
-1.759842007884424e-05   -2.8872721783931334e-07   -7.627741561070604e-05
-1.759842007884424e-05   -2.8872721783931334e-07   -7.627741561070604e-05
-1.759842007884424e-05   -2.8872721783931334e-07   -7.627741561070604e-05
-5.920381837639928e-06   2.8525621521865822e-06   -5.492924492001613e-05
-5.920381837639928e-06   2.8525621521865822e-06   -5.492924492001613e-05
-5.920381837639928e-06   2.8525621521865822e-06   -5.492924492001613e-05
-5.920381837639928e-06   2.8525621521865822e-06   -5.492924492001613e-05
-5.042775784671661e-06   2.1056984124117467e-06   -7.539996256985529e-05
-5.042775784671661e-06   2.1056984124117467e-06   -7.539996256985529e-05
-5.042775784671661e-06   2.1056984124117467e-06   -7.539996256985529e-05
-5.042775784671661e-06   2.1056984124117467e-06   -7.539996256985529e-05
-1.7150471180789847e-05   5.063230945495396e-06   -5.6994989762841595e-05
-1.7150471180789847e-05   5.063230945495396e-06   -5.6994989762841595e-05
-1.7150471180789847e-05   5.063230945495396e-06   -5.6994989762841595e-05
-1.7150471180789847e-05   5.063230945495396e-06   -5.6994989762841595e-05
-1.1526338983994523e-05   2.211199387540993e-06   -6.465732448939494e-05
-1.1526338983994523e-05   2.211199387540993e-06   -6.465732448939494e-05
-1.1526338983994523e-05   2.211199387540993e-06   -6.465732448939494e-05
-1.1526338983994523e-05   2.211199387540993e-06   -6.465732448939494e-05
-1.7150471180789803e-05   2.1056984124117467e-06   -7.717448208970513e-05
-1.7150471180789803e-05   2.1056984124117467e-06   -7.717448208970513e-05
-1.7150471180789803e-05   2.1056984124117467e-06   -7.717448208970513e-05
-1.7150471180789803e-05   2.1056984124117467e-06   -7.717448208970513e-05
-5.042775784671688e-06   5.063230945494962e-06   -5.52204702429916e-05
-5.042775784671688e-06   5.063230945494962e-06   -5.52204702429916e-05
-5.042775784671688e-06   5.063230945494962e-06   -5.52204702429916e-05
-5.042775784671688e-06   5.063230945494962e-06   -5.52204702429916e-05
-4.429352628299656e-06   4.851895970839999e-06   -7.7509217177906e-05
-4.429352628299656e-06   4.851895970839999e-06   -7.7509217177906e-05
-4.429352628299656e-06   4.851895970839999e-06   -7.7509217177906e-05
-4.429352628299656e-06   4.851895970839999e-06   -7.7509217177906e-05
-1.674772617018829e-05   7.564712832119989e-06   -5.8606284724859644e-05
-1.674772617018829e-05   7.564712832119989e-06   -5.8606284724859644e-05
-1.674772617018829e-05   7.564712832119989e-06   -5.8606284724859644e-05
-1.674772617018829e-05   7.564712832119989e-06   -5.8606284724859644e-05
-1.1148528429802776e-05   4.196008299396474e-06   -6.591705823920138e-05
-1.1148528429802776e-05   4.196008299396474e-06   -6.591705823920138e-05
-1.1148528429802776e-05   4.196008299396474e-06   -6.591705823920138e-05
-1.1148528429802776e-05   4.196008299396474e-06   -6.591705823920138e-05
-6.514174086764588e-06   -5.111173748102412e-06   -4.173148904525756e-05
-6.514174086764588e-06   -5.111173748102412e-06   -4.173148904525756e-05
-6.514174086764588e-06   -5.111173748102412e-06   -4.173148904525756e-05
-6.514174086764588e-06   -5.111173748102412e-06   -4.173148904525756e-05
2.030995443535685e-06   6.906275017704022e-07   -2.4008459078166816e-05
2.030995443535685e-06   6.906275017704022e-07   -2.4008459078166816e-05
2.030995443535685e-06   6.906275017704022e-07   -2.4008459078166816e-05
2.030995443535685e-06   6.906275017704022e-07   -2.4008459078166816e-05
5.138163077429887e-06   -3.42885343689427e-06   -3.9889721065954e-05
5.138163077429887e-06   -3.42885343689427e-06   -3.9889721065954e-05
5.138163077429887e-06   -3.42885343689427e-06   -3.9889721065954e-05
5.138163077429887e-06   -3.42885343689427e-06   -3.9889721065954e-05
-5.9203818376398734e-06   2.541839011300541e-06   -2.5041228343087283e-05
-5.9203818376398734e-06   2.541839011300541e-06   -2.5041228343087283e-05
-5.9203818376398734e-06   2.541839011300541e-06   -2.5041228343087283e-05
-5.9203818376398734e-06   2.541839011300541e-06   -2.5041228343087283e-05
-1.2856153289715313e-06   -1.0751796533465738e-06   -3.059562799208077e-05
-1.2856153289715313e-06   -1.0751796533465738e-06   -3.059562799208077e-05
-1.2856153289715313e-06   -1.0751796533465738e-06   -3.059562799208077e-05
-1.2856153289715313e-06   -1.0751796533465738e-06   -3.059562799208077e-05
-5.9203818376398734e-06   -3.42885343689427e-06   -4.347213653487056e-05
-5.9203818376398734e-06   -3.42885343689427e-06   -4.347213653487056e-05
-5.9203818376398734e-06   -3.42885343689427e-06   -4.347213653487056e-05
-5.9203818376398734e-06   -3.42885343689427e-06   -4.347213653487056e-05
5.138163077429887e-06   2.541839011300541e-06   -2.145881287417056e-05
5.138163077429887e-06   2.541839011300541e-06   -2.145881287417056e-05
5.138163077429887e-06   2.541839011300541e-06   -2.145881287417056e-05
5.138163077429887e-06   2.541839011300541e-06   -2.145881287417056e-05
7.590970994146768e-06   -2.265371927936792e-06   -4.207903953846895e-05
7.590970994146768e-06   -2.265371927936792e-06   -4.207903953846895e-05
7.590970994146768e-06   -2.265371927936792e-06   -4.207903953846895e-05
7.590970994146768e-06   -2.265371927936792e-06   -4.207903953846895e-05
-5.042775784671661e-06   3.583892091949502e-06   -2.4532353319036586e-05
-5.042775784671661e-06   3.583892091949502e-06   -2.4532353319036586e-05
-5.042775784671661e-06   3.583892091949502e-06   -2.4532353319036586e-05
-5.042775784671661e-06   3.583892091949502e-06   -2.4532353319036586e-05
2.968112757072833e-07   -1.9041156723055563e-07   -3.1167082890826495e-05
2.968112757072833e-07   -1.9041156723055563e-07   -3.1167082890826495e-05
2.968112757072833e-07   -1.9041156723055563e-07   -3.1167082890826495e-05
2.968112757072833e-07   -1.9041156723055563e-07   -3.1167082890826495e-05
-5.042775784671661e-06   -2.265371927936792e-06   -4.558859795040062e-05
-5.042775784671661e-06   -2.265371927936792e-06   -4.558859795040062e-05
-5.042775784671661e-06   -2.265371927936792e-06   -4.558859795040062e-05
-5.042775784671661e-06   -2.265371927936792e-06   -4.558859795040062e-05
7.590970994146768e-06   3.583892091949502e-06   -2.1022794907104648e-05
7.590970994146768e-06   3.583892091949502e-06   -2.1022794907104648e-05
7.590970994146768e-06   3.583892091949502e-06   -2.1022794907104648e-05
7.590970994146768e-06   3.583892091949502e-06   -2.1022794907104648e-05
1.0682238764825108e-05   2.576497941039757e-08   -4.7155338558893273e-05
1.0682238764825108e-05   2.576497941039757e-08   -4.7155338558893273e-05
1.0682238764825108e-05   2.576497941039757e-08   -4.7155338558893273e-05
1.0682238764825108e-05   2.576497941039757e-08   -4.7155338558893273e-05
-4.429352628299656e-06   5.436208375864896e-06   -2.5215618941557168e-05
-4.429352628299656e-06   5.436208375864896e-06   -2.5215618941557168e-05
-4.429352628299656e-06   5.436208375864896e-06   -2.5215618941557168e-05
-4.429352628299656e-06   5.436208375864896e-06   -2.5215618941557168e-05
1.6499893533245772e-06   8.238630651927203e-07   -3.2580448391195365e-05
1.6499893533245772e-06   8.238630651927203e-07   -3.2580448391195365e-05
1.6499893533245772e-06   8.238630651927203e-07   -3.2580448391195365e-05
1.6499893533245772e-06   8.238630651927203e-07   -3.2580448391195365e-05
-1.9948575109167096e-05   3.7418376147356318e-06   -3.55994098992082e-05
-1.9948575109167096e-05   3.7418376147356318e-06   -3.55994098992082e-05
-1.9948575109167096e-05   3.7418376147356318e-06   -3.55994098992082e-05
-1.9948575109167096e-05   3.7418376147356318e-06   -3.55994098992082e-05
-2.01044098232558e-05   -1.7232137243649442e-06   -3.913816522615001e-05
-2.01044098232558e-05   -1.7232137243649442e-06   -3.913816522615001e-05
-2.01044098232558e-05   -1.7232137243649442e-06   -3.913816522615001e-05
-2.01044098232558e-05   -1.7232137243649442e-06   -3.913816522615001e-05
-1.9090876183236515e-05   5.81793423305851e-06   -3.3445478025022346e-05
-1.9090876183236515e-05   5.81793423305851e-06   -3.3445478025022346e-05
-1.9090876183236515e-05   5.81793423305851e-06   -3.3445478025022346e-05
-1.9090876183236515e-05   5.81793423305851e-06   -3.3445478025022346e-05
-1.648339520525467e-05   -4.152494391092623e-08   -3.4275604148809816e-05
-1.648339520525467e-05   -4.152494391092623e-08   -3.4275604148809816e-05
-1.648339520525467e-05   -4.152494391092623e-08   -3.4275604148809816e-05
-1.648339520525467e-05   -4.152494391092623e-08   -3.4275604148809816e-05
-1.8079932415522533e-05   2.575403511608128e-06   -3.318486587167667e-05
-1.8079932415522533e-05   2.575403511608128e-06   -3.318486587167667e-05
-1.8079932415522533e-05   2.575403511608128e-06   -3.318486587167667e-05
-1.8079932415522533e-05   2.575403511608128e-06   -3.318486587167667e-05
-1.648339520525467e-05   5.81793423305851e-06   -2.9929802518840597e-05
-1.648339520525467e-05   5.81793423305851e-06   -2.9929802518840597e-05
-1.648339520525467e-05   5.81793423305851e-06   -2.9929802518840597e-05
-1.648339520525467e-05   5.81793423305851e-06   -2.9929802518840597e-05
-1.9090876183236515e-05   -4.152494391092623e-08   -3.779127965499189e-05
-1.9090876183236515e-05   -4.152494391092623e-08   -3.779127965499189e-05
-1.9090876183236515e-05   -4.152494391092623e-08   -3.779127965499189e-05
-1.9090876183236515e-05   -4.152494391092623e-08   -3.779127965499189e-05
-1.781371774015614e-05   6.864928681485968e-06   -3.103867833277986e-05
-1.781371774015614e-05   6.864928681485968e-06   -3.103867833277986e-05
-1.781371774015614e-05   6.864928681485968e-06   -3.103867833277986e-05
-1.781371774015614e-05   6.864928681485968e-06   -3.103867833277986e-05
-1.3614073611094876e-05   9.075309972089544e-07   -3.446364660398215e-05
-1.3614073611094876e-05   9.075309972089544e-07   -3.446364660398215e-05
-1.3614073611094876e-05   9.075309972089544e-07   -3.446364660398215e-05
-1.3614073611094876e-05   9.075309972089544e-07   -3.446364660398215e-05
-1.643582224083331e-05   3.4375509682322072e-06   -3.127874420370011e-05
-1.643582224083331e-05   3.4375509682322072e-06   -3.127874420370011e-05
-1.643582224083331e-05   3.4375509682322072e-06   -3.127874420370011e-05
-1.643582224083331e-05   3.4375509682322072e-06   -3.127874420370011e-05
-1.3614073611094876e-05   6.864928681485968e-06   -2.7464239722213265e-05
-1.3614073611094876e-05   6.864928681485968e-06   -2.7464239722213265e-05
-1.3614073611094876e-05   6.864928681485968e-06   -2.7464239722213265e-05
-1.3614073611094876e-05   6.864928681485968e-06   -2.7464239722213265e-05
-1.7813717740156195e-05   9.075309972085208e-07   -3.8038085214548096e-05
-1.7813717740156195e-05   9.075309972085208e-07   -3.8038085214548096e-05
-1.7813717740156195e-05   9.075309972085208e-07   -3.8038085214548096e-05
-1.7813717740156195e-05   9.075309972085208e-07   -3.8038085214548096e-05
-1.6814434223561925e-05   8.522454563474925e-06   -2.8796301651738514e-05
-1.6814434223561925e-05   8.522454563474925e-06   -2.8796301651738514e-05
-1.6814434223561925e-05   8.522454563474925e-06   -2.8796301651738514e-05
-1.6814434223561925e-05   8.522454563474925e-06   -2.8796301651738514e-05
-1.007138809860312e-05   2.8011420891926007e-06   -3.6601924375433874e-05
-1.007138809860312e-05   2.8011420891926007e-06   -3.6601924375433874e-05
-1.007138809860312e-05   2.8011420891926007e-06   -3.6601924375433874e-05
-1.007138809860312e-05   2.8011420891926007e-06   -3.6601924375433874e-05
-1.4378075711236031e-05   4.260922775397181e-06   -3.029998009943522e-05
-1.4378075711236031e-05   4.260922775397181e-06   -3.029998009943522e-05
-1.4378075711236031e-05   4.260922775397181e-06   -3.029998009943522e-05
-1.4378075711236031e-05   4.260922775397181e-06   -3.029998009943522e-05
-2.0104409823255745e-05   2.1377104339297126e-06   -6.459004739170927e-05
-2.0104409823255745e-05   2.1377104339297126e-06   -6.459004739170927e-05
-2.0104409823255745e-05   2.1377104339297126e-06   -6.459004739170927e-05
-2.0104409823255745e-05   2.1377104339297126e-06   -6.459004739170927e-05
-2.3077396533631786e-05   -3.806489088948456e-07   -7.105604084803037e-05
-2.3077396533631786e-05   -3.806489088948456e-07   -7.105604084803037e-05
-2.3077396533631786e-05   -3.806489088948456e-07   -7.105604084803037e-05
-2.3077396533631786e-05   -3.806489088948456e-07   -7.105604084803037e-05
-2.225600159316463e-05   4.517210502664234e-06   -6.464157481134202e-05
-2.225600159316463e-05   4.517210502664234e-06   -6.464157481134202e-05
-2.225600159316463e-05   4.517210502664234e-06   -6.464157481134202e-05
-2.225600159316463e-05   4.517210502664234e-06   -6.464157481134202e-05
-1.909087618323657e-05   1.7397488618906345e-06   -6.825030684342443e-05
-1.909087618323657e-05   1.7397488618906345e-06   -6.825030684342443e-05
-1.909087618323657e-05   1.7397488618906345e-06   -6.825030684342443e-05
-1.909087618323657e-05   1.7397488618906345e-06   -6.825030684342443e-05
-2.088581641137553e-05   2.466772905172169e-06   -6.569495422249609e-05
-2.088581641137553e-05   2.466772905172169e-06   -6.569495422249609e-05
-2.088581641137553e-05   2.466772905172169e-06   -6.569495422249609e-05
-2.088581641137553e-05   2.466772905172169e-06   -6.569495422249609e-05
-1.909087618323646e-05   4.517210502664234e-06   -6.29750978268773e-05
-1.909087618323646e-05   4.517210502664234e-06   -6.29750978268773e-05
-1.909087618323646e-05   4.517210502664234e-06   -6.29750978268773e-05
-1.909087618323646e-05   4.517210502664234e-06   -6.29750978268773e-05
-2.2256001593164604e-05   1.7397488618910682e-06   -6.991678382788882e-05
-2.2256001593164604e-05   1.7397488618910682e-06   -6.991678382788882e-05
-2.2256001593164604e-05   1.7397488618910682e-06   -6.991678382788882e-05
-2.2256001593164604e-05   1.7397488618910682e-06   -6.991678382788882e-05
-2.140193252545854e-05   6.728130575861871e-06   -6.410012083749939e-05
-2.140193252545854e-05   6.728130575861871e-06   -6.410012083749939e-05
-2.140193252545854e-05   6.728130575861871e-06   -6.410012083749939e-05
-2.140193252545854e-05   6.728130575861871e-06   -6.410012083749939e-05
-1.781371774015625e-05   3.7797324364901262e-06   -6.831143992937975e-05
-1.781371774015625e-05   3.7797324364901262e-06   -6.831143992937975e-05
-1.781371774015625e-05   3.7797324364901262e-06   -6.831143992937975e-05
-1.781371774015625e-05   3.7797324364901262e-06   -6.831143992937975e-05
-2.0062505268247528e-05   4.1743205690218665e-06   -6.480021359541355e-05
-2.0062505268247528e-05   4.1743205690218665e-06   -6.480021359541355e-05
-2.0062505268247528e-05   4.1743205690218665e-06   -6.480021359541355e-05
-2.0062505268247528e-05   4.1743205690218665e-06   -6.480021359541355e-05
-1.781371774015614e-05   6.728130575861871e-06   -6.233108195387608e-05
-1.781371774015614e-05   6.728130575861871e-06   -6.233108195387608e-05
-1.781371774015614e-05   6.728130575861871e-06   -6.233108195387608e-05
-1.781371774015614e-05   6.728130575861871e-06   -6.233108195387608e-05
-2.1401932525458458e-05   3.7797324364901262e-06   -7.008047881300263e-05
-2.1401932525458458e-05   3.7797324364901262e-06   -7.008047881300263e-05
-2.1401932525458458e-05   3.7797324364901262e-06   -7.008047881300263e-05
-2.1401932525458458e-05   3.7797324364901262e-06   -7.008047881300263e-05
-2.059668735895551e-05   9.183236321881616e-06   -6.516105808282045e-05
-2.059668735895551e-05   9.183236321881616e-06   -6.516105808282045e-05
-2.059668735895551e-05   9.183236321881616e-06   -6.516105808282045e-05
-2.059668735895551e-05   9.183236321881616e-06   -6.516105808282045e-05
-1.681443422356198e-05   6.107646178792753e-06   -6.961945922262264e-05
-1.681443422356198e-05   6.107646178792753e-06   -6.961945922262264e-05
-1.681443422356198e-05   6.107646178792753e-06   -6.961945922262264e-05
-1.681443422356198e-05   6.107646178792753e-06   -6.961945922262264e-05
-1.9337123960703106e-05   5.96381837238277e-06   -6.532867964354199e-05
-1.9337123960703106e-05   5.96381837238277e-06   -6.532867964354199e-05
-1.9337123960703106e-05   5.96381837238277e-06   -6.532867964354199e-05
-1.9337123960703106e-05   5.96381837238277e-06   -6.532867964354199e-05
-2.3077396533631705e-05   1.2181764809482236e-06   -7.519638005677493e-05
-2.3077396533631705e-05   1.2181764809482236e-06   -7.519638005677493e-05
-2.3077396533631705e-05   1.2181764809482236e-06   -7.519638005677493e-05
-2.3077396533631705e-05   1.2181764809482236e-06   -7.519638005677493e-05
-2.6219816966577048e-05   1.7481877988669361e-06   -8.01157406542664e-05
-2.6219816966577048e-05   1.7481877988669361e-06   -8.01157406542664e-05
-2.6219816966577048e-05   1.7481877988669361e-06   -8.01157406542664e-05
-2.6219816966577048e-05   1.7481877988669361e-06   -8.01157406542664e-05
-2.5411996645097734e-05   3.639898494517662e-06   -7.404189007177665e-05
-2.5411996645097734e-05   3.639898494517662e-06   -7.404189007177665e-05
-2.5411996645097734e-05   3.639898494517662e-06   -7.404189007177665e-05
-2.5411996645097734e-05   3.639898494517662e-06   -7.404189007177665e-05
-2.225600159316463e-05   3.9378761795133554e-06   -7.948066843599567e-05
-2.225600159316463e-05   3.9378761795133554e-06   -7.948066843599567e-05
-2.225600159316463e-05   3.9378761795133554e-06   -7.948066843599567e-05
-2.225600159316463e-05   3.9378761795133554e-06   -7.948066843599567e-05
-2.409544273614827e-05   2.9765184385182643e-06   -7.583811855309329e-05
-2.409544273614827e-05   2.9765184385182643e-06   -7.583811855309329e-05
-2.409544273614827e-05   2.9765184385182643e-06   -7.583811855309329e-05
-2.409544273614827e-05   2.9765184385182643e-06   -7.583811855309329e-05
-2.2256001593164577e-05   3.639898494517662e-06   -7.422067668277389e-05
-2.2256001593164577e-05   3.639898494517662e-06   -7.422067668277389e-05
-2.2256001593164577e-05   3.639898494517662e-06   -7.422067668277389e-05
-2.2256001593164577e-05   3.639898494517662e-06   -7.422067668277389e-05
-2.5411996645097778e-05   3.9378761795133554e-06   -7.930188182499859e-05
-2.5411996645097778e-05   3.9378761795133554e-06   -7.930188182499859e-05
-2.5411996645097778e-05   3.9378761795133554e-06   -7.930188182499859e-05
-2.5411996645097778e-05   3.9378761795133554e-06   -7.930188182499859e-05
-2.4563230949454136e-05   6.0829202398692515e-06   -7.425842138494365e-05
-2.4563230949454136e-05   6.0829202398692515e-06   -7.425842138494365e-05
-2.4563230949454136e-05   6.0829202398692515e-06   -7.425842138494365e-05
-2.4563230949454136e-05   6.0829202398692515e-06   -7.425842138494365e-05
-2.140193252545854e-05   6.1760049562265e-06   -7.958310292141693e-05
-2.140193252545854e-05   6.1760049562265e-06   -7.958310292141693e-05
-2.140193252545854e-05   6.1760049562265e-06   -7.958310292141693e-05
-2.140193252545854e-05   6.1760049562265e-06   -7.958310292141693e-05
-2.341623203695742e-05   4.848332575517478e-06   -7.542933364049475e-05
-2.341623203695742e-05   4.848332575517478e-06   -7.542933364049475e-05
-2.341623203695742e-05   4.848332575517478e-06   -7.542933364049475e-05
-2.341623203695742e-05   4.848332575517478e-06   -7.542933364049475e-05
-2.1401932525458458e-05   6.0829202398692515e-06   -7.43142722147577e-05
-2.1401932525458458e-05   6.0829202398692515e-06   -7.43142722147577e-05
-2.1401932525458458e-05   6.0829202398692515e-06   -7.43142722147577e-05
-2.1401932525458458e-05   6.0829202398692515e-06   -7.43142722147577e-05
-2.4563230949454136e-05   6.1760049562265e-06   -7.952725209160261e-05
-2.4563230949454136e-05   6.1760049562265e-06   -7.952725209160261e-05
-2.4563230949454136e-05   6.1760049562265e-06   -7.952725209160261e-05
-2.4563230949454136e-05   6.1760049562265e-06   -7.952725209160261e-05
-2.37625003937657e-05   8.562713271105526e-06   -7.569965870710712e-05
-2.37625003937657e-05   8.562713271105526e-06   -7.569965870710712e-05
-2.37625003937657e-05   8.562713271105526e-06   -7.569965870710712e-05
-2.37625003937657e-05   8.562713271105526e-06   -7.569965870710712e-05
-2.059668735895551e-05   8.444960844508805e-06   -8.090536230916594e-05
-2.059668735895551e-05   8.444960844508805e-06   -8.090536230916594e-05
-2.059668735895551e-05   8.444960844508805e-06   -8.090536230916594e-05
-2.059668735895551e-05   8.444960844508805e-06   -8.090536230916594e-05
-2.2790277208080357e-05   6.74627453538636e-06   -7.623016744181757e-05
-2.2790277208080357e-05   6.74627453538636e-06   -7.623016744181757e-05
-2.2790277208080357e-05   6.74627453538636e-06   -7.623016744181757e-05
-2.2790277208080357e-05   6.74627453538636e-06   -7.623016744181757e-05
-2.6219816966576953e-05   5.08153154481477e-07   -6.48843841078643e-05
-2.6219816966576953e-05   5.08153154481477e-07   -6.48843841078643e-05
-2.6219816966576953e-05   5.08153154481477e-07   -6.48843841078643e-05
-2.6219816966576953e-05   5.08153154481477e-07   -6.48843841078643e-05
-2.952971053691428e-05   3.889661393511549e-06   -6.837196844834193e-05
-2.952971053691428e-05   3.889661393511549e-06   -6.837196844834193e-05
-2.952971053691428e-05   3.889661393511549e-06   -6.837196844834193e-05
-2.952971053691428e-05   3.889661393511549e-06   -6.837196844834193e-05
-2.8553981974343483e-05   2.852562152187016e-06   -6.203971594662236e-05
-2.8553981974343483e-05   2.852562152187016e-06   -6.203971594662236e-05
-2.8553981974343483e-05   2.852562152187016e-06   -6.203971594662236e-05
-2.8553981974343483e-05   2.852562152187016e-06   -6.203971594662236e-05
-2.5411996645097734e-05   6.085727524978487e-06   -6.921625738570621e-05
-2.5411996645097734e-05   6.085727524978487e-06   -6.921625738570621e-05
-2.5411996645097734e-05   6.085727524978487e-06   -6.921625738570621e-05
-2.5411996645097734e-05   6.085727524978487e-06   -6.921625738570621e-05
-2.7217159894247738e-05   3.579415631556164e-06   -6.470386483440382e-05
-2.7217159894247738e-05   3.579415631556164e-06   -6.470386483440382e-05
-2.7217159894247738e-05   3.579415631556164e-06   -6.470386483440382e-05
-2.7217159894247738e-05   3.579415631556164e-06   -6.470386483440382e-05
-2.541199664509769e-05   2.852562152187016e-06   -6.39796151702969e-05
-2.541199664509769e-05   2.852562152187016e-06   -6.39796151702969e-05
-2.541199664509769e-05   2.852562152187016e-06   -6.39796151702969e-05
-2.541199664509769e-05   2.852562152187016e-06   -6.39796151702969e-05
-2.8553981974343483e-05   6.085727524978487e-06   -6.727635816203194e-05
-2.8553981974343483e-05   6.085727524978487e-06   -6.727635816203194e-05
-2.8553981974343483e-05   6.085727524978487e-06   -6.727635816203194e-05
-2.8553981974343483e-05   6.085727524978487e-06   -6.727635816203194e-05
-2.7296978054179615e-05   5.063230945495396e-06   -6.231402139501765e-05
-2.7296978054179615e-05   5.063230945495396e-06   -6.231402139501765e-05
-2.7296978054179615e-05   5.063230945495396e-06   -6.231402139501765e-05
-2.7296978054179615e-05   5.063230945495396e-06   -6.231402139501765e-05
-2.4563230949454095e-05   8.11286558808147e-06   -6.870004735511134e-05
-2.4563230949454095e-05   8.11286558808147e-06   -6.870004735511134e-05
-2.4563230949454095e-05   8.11286558808147e-06   -6.870004735511134e-05
-2.4563230949454095e-05   8.11286558808147e-06   -6.870004735511134e-05
-2.6345399824418337e-05   5.3206482359602e-06   -6.405443548556625e-05
-2.6345399824418337e-05   5.3206482359602e-06   -6.405443548556625e-05
-2.6345399824418337e-05   5.3206482359602e-06   -6.405443548556625e-05
-2.6345399824418337e-05   5.3206482359602e-06   -6.405443548556625e-05
-2.4563230949454034e-05   5.063230945494962e-06   -6.414380218056873e-05
-2.4563230949454034e-05   5.063230945494962e-06   -6.414380218056873e-05
-2.4563230949454034e-05   5.063230945494962e-06   -6.414380218056873e-05
-2.4563230949454034e-05   5.063230945494962e-06   -6.414380218056873e-05
-2.7296978054179642e-05   8.112865588081036e-06   -6.687026656955974e-05
-2.7296978054179642e-05   8.112865588081036e-06   -6.687026656955974e-05
-2.7296978054179642e-05   8.112865588081036e-06   -6.687026656955974e-05
-2.7296978054179642e-05   8.112865588081036e-06   -6.687026656955974e-05
-2.6308486504983712e-05   7.564712832119555e-06   -6.404262741024056e-05
-2.6308486504983712e-05   7.564712832119555e-06   -6.404262741024056e-05
-2.6308486504983712e-05   7.564712832119555e-06   -6.404262741024056e-05
-2.6308486504983712e-05   7.564712832119555e-06   -6.404262741024056e-05
-2.37625003937657e-05   1.038660356352146e-05   -6.997907203444428e-05
-2.37625003937657e-05   1.038660356352146e-05   -6.997907203444428e-05
-2.37625003937657e-05   1.038660356352146e-05   -6.997907203444428e-05
-2.37625003937657e-05   1.038660356352146e-05   -6.997907203444428e-05
-2.568913617959169e-05   7.1018326762281245e-06   -6.479714985902432e-05
-2.568913617959169e-05   7.1018326762281245e-06   -6.479714985902432e-05
-2.568913617959169e-05   7.1018326762281245e-06   -6.479714985902432e-05
-2.568913617959169e-05   7.1018326762281245e-06   -6.479714985902432e-05
-2.9529710536914172e-05   6.906275017704022e-07   -3.4598590227077983e-05
-2.9529710536914172e-05   6.906275017704022e-07   -3.4598590227077983e-05
-2.9529710536914172e-05   6.906275017704022e-07   -3.4598590227077983e-05
-2.9529710536914172e-05   6.906275017704022e-07   -3.4598590227077983e-05
-3.569014830390887e-05   6.52871451937943e-06   -4.1363134294837393e-05
-3.569014830390887e-05   6.52871451937943e-06   -4.1363134294837393e-05
-3.569014830390887e-05   6.52871451937943e-06   -4.1363134294837393e-05
-3.569014830390887e-05   6.52871451937943e-06   -4.1363134294837393e-05
-3.224990021287547e-05   2.541839011300541e-06   -2.8566031787238258e-05
-3.224990021287547e-05   2.541839011300541e-06   -2.8566031787238258e-05
-3.224990021287547e-05   2.541839011300541e-06   -2.8566031787238258e-05
-3.224990021287547e-05   2.541839011300541e-06   -2.8566031787238258e-05
-2.8553981974343456e-05   8.517951648725954e-06   -3.831156310057975e-05
-2.8553981974343456e-05   8.517951648725954e-06   -3.831156310057975e-05
-2.8553981974343456e-05   8.517951648725954e-06   -3.831156310057975e-05
-2.8553981974343456e-05   8.517951648725954e-06   -3.831156310057975e-05
-3.0230727506814286e-05   4.812593433954626e-06   -3.3293772284266696e-05
-3.0230727506814286e-05   4.812593433954626e-06   -3.3293772284266696e-05
-3.0230727506814286e-05   4.812593433954626e-06   -3.3293772284266696e-05
-3.0230727506814286e-05   4.812593433954626e-06   -3.3293772284266696e-05
-2.8553981974343374e-05   2.541839011300541e-06   -3.2151699369693245e-05
-2.8553981974343374e-05   2.541839011300541e-06   -3.2151699369693245e-05
-2.8553981974343374e-05   2.541839011300541e-06   -3.2151699369693245e-05
-2.8553981974343374e-05   2.541839011300541e-06   -3.2151699369693245e-05
-3.224990021287542e-05   8.517951648725954e-06   -3.472589551812514e-05
-3.224990021287542e-05   8.517951648725954e-06   -3.472589551812514e-05
-3.224990021287542e-05   8.517951648725954e-06   -3.472589551812514e-05
-3.224990021287542e-05   8.517951648725954e-06   -3.472589551812514e-05
-2.9451736928500264e-05   3.583892091949502e-06   -2.8118886984187207e-05
-2.9451736928500264e-05   3.583892091949502e-06   -2.8118886984187207e-05
-2.9451736928500264e-05   3.583892091949502e-06   -2.8118886984187207e-05
-2.9451736928500264e-05   3.583892091949502e-06   -2.8118886984187207e-05
-2.7296978054179615e-05   9.428921236741532e-06   -3.521716926159675e-05
-2.7296978054179615e-05   9.428921236741532e-06   -3.521716926159675e-05
-2.7296978054179615e-05   9.428921236741532e-06   -3.521716926159675e-05
-2.7296978054179615e-05   9.428921236741532e-06   -3.521716926159675e-05
-2.8753741822093717e-05   5.731549124744512e-06   -3.05708063812085e-05
-2.8753741822093717e-05   5.731549124744512e-06   -3.05708063812085e-05
-2.8753741822093717e-05   5.731549124744512e-06   -3.05708063812085e-05
-2.8753741822093717e-05   5.731549124744512e-06   -3.05708063812085e-05
-2.729697805417956e-05   3.583892091949502e-06   -3.1625904471062685e-05
-2.729697805417956e-05   3.583892091949502e-06   -3.1625904471062685e-05
-2.729697805417956e-05   3.583892091949502e-06   -3.1625904471062685e-05
-2.729697805417956e-05   3.583892091949502e-06   -3.1625904471062685e-05
-2.9451736928500264e-05   9.428921236741532e-06   -3.171015177472116e-05
-2.9451736928500264e-05   9.428921236741532e-06   -3.171015177472116e-05
-2.9451736928500264e-05   9.428921236741532e-06   -3.171015177472116e-05
-2.9451736928500264e-05   9.428921236741532e-06   -3.171015177472116e-05
-2.603368888103475e-05   5.436208375864896e-06   -2.903424350763923e-05
-2.603368888103475e-05   5.436208375864896e-06   -2.903424350763923e-05
-2.603368888103475e-05   5.436208375864896e-06   -2.903424350763923e-05
-2.603368888103475e-05   5.436208375864896e-06   -2.903424350763923e-05
-2.6308486504983685e-05   1.0845222102642913e-05   -3.1821655703791034e-05
-2.6308486504983685e-05   1.0845222102642913e-05   -3.1821655703791034e-05
-2.6308486504983685e-05   1.0845222102642913e-05   -3.1821655703791034e-05
-2.6308486504983685e-05   1.0845222102642913e-05   -3.1821655703791034e-05
-2.659615329720616e-05   6.477600563423603e-06   -2.872163812655561e-05
-2.659615329720616e-05   6.477600563423603e-06   -2.872163812655561e-05
-2.659615329720616e-05   6.477600563423603e-06   -2.872163812655561e-05
-2.659615329720616e-05   6.477600563423603e-06   -2.872163812655561e-05
1.7395140590039954e-05   -1.723213724365378e-06   -1.8129305495718758e-05
1.7395140590039954e-05   -1.723213724365378e-06   -1.8129305495718758e-05
1.7395140590039954e-05   -1.723213724365378e-06   -1.8129305495718758e-05
1.7395140590039954e-05   -1.723213724365378e-06   -1.8129305495718758e-05
1.7641109878747258e-06   -7.296032085997873e-06   -4.752471251630655e-05
1.7641109878747258e-06   -7.296032085997873e-06   -4.752471251630655e-05
1.7641109878747258e-06   -7.296032085997873e-06   -4.752471251630655e-05
1.7641109878747258e-06   -7.296032085997873e-06   -4.752471251630655e-05
3.1551942768098286e-06   -4.152494391049255e-08   -2.0004464656260632e-05
3.1551942768098286e-06   -4.152494391049255e-08   -2.0004464656260632e-05
3.1551942768098286e-06   -4.152494391049255e-08   -2.0004464656260632e-05
3.1551942768098286e-06   -4.152494391049255e-08   -2.0004464656260632e-05
2.1259892856933496e-05   -5.993000434404393e-06   -4.660807699550379e-05
2.1259892856933496e-05   -5.993000434404393e-06   -4.660807699550379e-05
2.1259892856933496e-05   -5.993000434404393e-06   -4.660807699550379e-05
2.1259892856933496e-05   -5.993000434404393e-06   -4.660807699550379e-05
1.0489137532157592e-05   -3.039363353291285e-06   -3.0429000369544676e-05
1.0489137532157592e-05   -3.039363353291285e-06   -3.0429000369544676e-05
1.0489137532157592e-05   -3.039363353291285e-06   -3.0429000369544676e-05
1.0489137532157592e-05   -3.039363353291285e-06   -3.0429000369544676e-05
2.1259892856933496e-05   -4.152494391049255e-08   -1.6433579361964162e-05
2.1259892856933496e-05   -4.152494391049255e-08   -1.6433579361964162e-05
2.1259892856933496e-05   -4.152494391049255e-08   -1.6433579361964162e-05
2.1259892856933496e-05   -4.152494391049255e-08   -1.6433579361964162e-05
3.1551942768098286e-06   -5.993000434404393e-06   -5.0178962289799825e-05
3.1551942768098286e-06   -5.993000434404393e-06   -5.0178962289799825e-05
3.1551942768098286e-06   -5.993000434404393e-06   -5.0178962289799825e-05
3.1551942768098286e-06   -5.993000434404393e-06   -5.0178962289799825e-05
4.793856704190939e-06   9.075309972089544e-07   -2.0149561928306525e-05
4.793856704190939e-06   9.075309972089544e-07   -2.0149561928306525e-05
4.793856704190939e-06   9.075309972089544e-07   -2.0149561928306525e-05
4.793856704190939e-06   9.075309972089544e-07   -2.0149561928306525e-05
2.4530587810956414e-05   -5.126926801728507e-06   -4.942343909355323e-05
2.4530587810956414e-05   -5.126926801728507e-06   -4.942343909355323e-05
2.4530587810956414e-05   -5.126926801728507e-06   -4.942343909355323e-05
2.4530587810956414e-05   -5.126926801728507e-06   -4.942343909355323e-05
1.2943527436894603e-05   -2.432128712894204e-06   -3.172855065675193e-05
1.2943527436894603e-05   -2.432128712894204e-06   -3.172855065675193e-05
1.2943527436894603e-05   -2.432128712894204e-06   -3.172855065675193e-05
1.2943527436894603e-05   -2.432128712894204e-06   -3.172855065675193e-05
2.4530587810956523e-05   9.075309972089544e-07   -1.6528887248944265e-05
2.4530587810956523e-05   9.075309972089544e-07   -1.6528887248944265e-05
2.4530587810956523e-05   9.075309972089544e-07   -1.6528887248944265e-05
2.4530587810956523e-05   9.075309972089544e-07   -1.6528887248944265e-05
4.793856704190939e-06   -5.126926801728073e-06   -5.304411377291592e-05
4.793856704190939e-06   -5.126926801728073e-06   -5.304411377291592e-05
4.793856704190939e-06   -5.126926801728073e-06   -5.304411377291592e-05
4.793856704190939e-06   -5.126926801728073e-06   -5.304411377291592e-05
6.14585619552663e-06   2.8011420891926007e-06   -2.2057101752972607e-05
6.14585619552663e-06   2.8011420891926007e-06   -2.2057101752972607e-05
6.14585619552663e-06   2.8011420891926007e-06   -2.2057101752972607e-05
6.14585619552663e-06   2.8011420891926007e-06   -2.2057101752972607e-05
2.84591709504375e-05   -2.9420659480149797e-06   -5.5800034855499076e-05
2.84591709504375e-05   -2.9420659480149797e-06   -5.5800034855499076e-05
2.84591709504375e-05   -2.9420659480149797e-06   -5.5800034855499076e-05
2.84591709504375e-05   -2.9420659480149797e-06   -5.5800034855499076e-05
1.4902699211385094e-05   -1.5427233438902038e-06   -3.40455208528884e-05
1.4902699211385094e-05   -1.5427233438902038e-06   -3.40455208528884e-05
1.4902699211385094e-05   -1.5427233438902038e-06   -3.40455208528884e-05
1.4902699211385094e-05   -1.5427233438902038e-06   -3.40455208528884e-05
1.7641109878747258e-06   -3.806489088944119e-07   -5.1879856528884395e-05
1.7641109878747258e-06   -3.806489088944119e-07   -5.1879856528884395e-05
1.7641109878747258e-06   -3.806489088944119e-07   -5.1879856528884395e-05
1.7641109878747258e-06   -3.806489088944119e-07   -5.1879856528884395e-05
-1.6526136945779854e-05   -2.8967778487229943e-06   -8.387328044887196e-05
-1.6526136945779854e-05   -2.8967778487229943e-06   -8.387328044887196e-05
-1.6526136945779854e-05   -2.8967778487229943e-06   -8.387328044887196e-05
-1.6526136945779854e-05   -2.8967778487229943e-06   -8.387328044887196e-05
-1.5303625559414692e-05   1.7397488618906345e-06   -5.217523939302603e-05
-1.5303625559414692e-05   1.7397488618906345e-06   -5.217523939302603e-05
-1.5303625559414692e-05   1.7397488618906345e-06   -5.217523939302603e-05
-1.5303625559414692e-05   1.7397488618906345e-06   -5.217523939302603e-05
3.1551942768098286e-06   -1.1131637186641286e-06   -8.122819157173366e-05
3.1551942768098286e-06   -1.1131637186641286e-06   -8.122819157173366e-05
3.1551942768098286e-06   -1.1131637186641286e-06   -8.122819157173366e-05
3.1551942768098286e-06   -1.1131637186641286e-06   -8.122819157173366e-05
-6.571437338711336e-06   -1.174911521163724e-07   -6.561454241912727e-05
-6.571437338711336e-06   -1.174911521163724e-07   -6.561454241912727e-05
-6.571437338711336e-06   -1.174911521163724e-07   -6.561454241912727e-05
-6.571437338711336e-06   -1.174911521163724e-07   -6.561454241912727e-05
3.1551942768098286e-06   1.7397488618906345e-06   -5.046349184469295e-05
3.1551942768098286e-06   1.7397488618906345e-06   -5.046349184469295e-05
3.1551942768098286e-06   1.7397488618906345e-06   -5.046349184469295e-05
3.1551942768098286e-06   1.7397488618906345e-06   -5.046349184469295e-05
-1.5303625559414692e-05   -1.1131637186641286e-06   -8.293993912006727e-05
-1.5303625559414692e-05   -1.1131637186641286e-06   -8.293993912006727e-05
-1.5303625559414692e-05   -1.1131637186641286e-06   -8.293993912006727e-05
-1.5303625559414692e-05   -1.1131637186641286e-06   -8.293993912006727e-05
-1.4074237756836721e-05   3.7797324364901262e-06   -5.2252631906210545e-05
-1.4074237756836721e-05   3.7797324364901262e-06   -5.2252631906210545e-05
-1.4074237756836721e-05   3.7797324364901262e-06   -5.2252631906210545e-05
-1.4074237756836721e-05   3.7797324364901262e-06   -5.2252631906210545e-05
4.793856704190939e-06   7.302069980359011e-07   -8.186974074485048e-05
4.793856704190939e-06   7.302069980359011e-07   -8.186974074485048e-05
4.793856704190939e-06   7.302069980359011e-07   -8.186974074485048e-05
4.793856704190939e-06   7.302069980359011e-07   -8.186974074485048e-05
-5.487167341600521e-06   1.3455839356669996e-06   -6.510392683110996e-05
-5.487167341600521e-06   1.3455839356669996e-06   -6.510392683110996e-05
-5.487167341600521e-06   1.3455839356669996e-06   -6.510392683110996e-05
-5.487167341600521e-06   1.3455839356669996e-06   -6.510392683110996e-05
4.793856704190939e-06   3.7797324364901262e-06   -5.042291664313775e-05
4.793856704190939e-06   3.7797324364901262e-06   -5.042291664313775e-05
4.793856704190939e-06   3.7797324364901262e-06   -5.042291664313775e-05
4.793856704190939e-06   3.7797324364901262e-06   -5.042291664313775e-05
-1.4074237756836721e-05   7.302069980354674e-07   -8.369945600792371e-05
-1.4074237756836721e-05   7.302069980354674e-07   -8.369945600792371e-05
-1.4074237756836721e-05   7.302069980354674e-07   -8.369945600792371e-05
-1.4074237756836721e-05   7.302069980354674e-07   -8.369945600792371e-05
-1.289878464128723e-05   6.107646178792319e-06   -5.35593548620073e-05
-1.289878464128723e-05   6.107646178792319e-06   -5.35593548620073e-05
-1.289878464128723e-05   6.107646178792319e-06   -5.35593548620073e-05
-1.289878464128723e-05   6.107646178792319e-06   -5.35593548620073e-05
6.14585619552663e-06   2.911803268100012e-06   -8.338291717694811e-05
6.14585619552663e-06   2.911803268100012e-06   -8.338291717694811e-05
6.14585619552663e-06   2.911803268100012e-06   -8.338291717694811e-05
6.14585619552663e-06   2.911803268100012e-06   -8.338291717694811e-05
-4.28140455474098e-06   2.9659368646728183e-06   -6.603662941778049e-05
-4.28140455474098e-06   2.9659368646728183e-06   -6.603662941778049e-05
-4.28140455474098e-06   2.9659368646728183e-06   -6.603662941778049e-05
-4.28140455474098e-06   2.9659368646728183e-06   -6.603662941778049e-05
-1.652613694577988e-05   1.7481877988669361e-06   -6.276724048976832e-05
-1.652613694577988e-05   1.7481877988669361e-06   -6.276724048976832e-05
-1.652613694577988e-05   1.7481877988669361e-06   -6.276724048976832e-05
-1.652613694577988e-05   1.7481877988669361e-06   -6.276724048976832e-05
-3.466177862567519e-05   2.204386185662016e-06   -9.271959092418285e-05
-3.466177862567519e-05   2.204386185662016e-06   -9.271959092418285e-05
-3.466177862567519e-05   2.204386185662016e-06   -9.271959092418285e-05
-3.466177862567519e-05   2.204386185662016e-06   -9.271959092418285e-05
-3.343007019844331e-05   3.9378761795133554e-06   -6.164806755338398e-05
-3.343007019844331e-05   3.9378761795133554e-06   -6.164806755338398e-05
-3.343007019844331e-05   3.9378761795133554e-06   -6.164806755338398e-05
-3.343007019844331e-05   3.9378761795133554e-06   -6.164806755338398e-05
-1.530362555941472e-05   4.089636925762655e-06   -9.194986506618136e-05
-1.530362555941472e-05   4.089636925762655e-06   -9.194986506618136e-05
-1.530362555941472e-05   4.089636925762655e-06   -9.194986506618136e-05
-1.530362555941472e-05   4.089636925762655e-06   -9.194986506618136e-05
-2.483563702838909e-05   3.3799357036148198e-06   -7.563735855126814e-05
-2.483563702838909e-05   3.3799357036148198e-06   -7.563735855126814e-05
-2.483563702838909e-05   3.3799357036148198e-06   -7.563735855126814e-05
-2.483563702838909e-05   3.3799357036148198e-06   -7.563735855126814e-05
-1.530362555941472e-05   3.9378761795133554e-06   -6.173912400113369e-05
-1.530362555941472e-05   3.9378761795133554e-06   -6.173912400113369e-05
-1.530362555941472e-05   3.9378761795133554e-06   -6.173912400113369e-05
-1.530362555941472e-05   3.9378761795133554e-06   -6.173912400113369e-05
-3.343007019844331e-05   4.089636925762655e-06   -9.185880861843198e-05
-3.343007019844331e-05   4.089636925762655e-06   -9.185880861843198e-05
-3.343007019844331e-05   4.089636925762655e-06   -9.185880861843198e-05
-3.343007019844331e-05   4.089636925762655e-06   -9.185880861843198e-05
-3.217929552096388e-05   6.1760049562265e-06   -6.180899474871396e-05
-3.217929552096388e-05   6.1760049562265e-06   -6.180899474871396e-05
-3.217929552096388e-05   6.1760049562265e-06   -6.180899474871396e-05
-3.217929552096388e-05   6.1760049562265e-06   -6.180899474871396e-05
-1.4074237756836748e-05   6.0864403994111485e-06   -9.193035228817004e-05
-1.4074237756836748e-05   6.0864403994111485e-06   -9.193035228817004e-05
-1.4074237756836748e-05   6.0864403994111485e-06   -9.193035228817004e-05
-1.4074237756836748e-05   6.0864403994111485e-06   -9.193035228817004e-05
-2.3750727991868558e-05   5.024457866215602e-06   -7.516567904320088e-05
-2.3750727991868558e-05   5.024457866215602e-06   -7.516567904320088e-05
-2.3750727991868558e-05   5.024457866215602e-06   -7.516567904320088e-05
-2.3750727991868558e-05   5.024457866215602e-06   -7.516567904320088e-05
-1.4074237756836748e-05   6.1760049562265e-06   -6.175525601462479e-05
-1.4074237756836748e-05   6.1760049562265e-06   -6.175525601462479e-05
-1.4074237756836748e-05   6.1760049562265e-06   -6.175525601462479e-05
-1.4074237756836748e-05   6.1760049562265e-06   -6.175525601462479e-05
-3.2179295520963825e-05   6.086440399411582e-06   -9.198409102225921e-05
-3.2179295520963825e-05   6.086440399411582e-06   -9.198409102225921e-05
-3.2179295520963825e-05   6.086440399411582e-06   -9.198409102225921e-05
-3.2179295520963825e-05   6.086440399411582e-06   -9.198409102225921e-05
-3.0986469444369016e-05   8.444960844508805e-06   -6.319628244462125e-05
-3.0986469444369016e-05   8.444960844508805e-06   -6.319628244462125e-05
-3.0986469444369016e-05   8.444960844508805e-06   -6.319628244462125e-05
-3.0986469444369016e-05   8.444960844508805e-06   -6.319628244462125e-05
-1.2898784641287285e-05   8.117663207968338e-06   -9.314604520116644e-05
-1.2898784641287285e-05   8.117663207968338e-06   -9.314604520116644e-05
-1.2898784641287285e-05   8.117663207968338e-06   -9.314604520116644e-05
-1.2898784641287285e-05   8.117663207968338e-06   -9.314604520116644e-05
-2.2740671654478416e-05   6.693844358356127e-06   -7.588860886941547e-05
-2.2740671654478416e-05   6.693844358356127e-06   -7.588860886941547e-05
-2.2740671654478416e-05   6.693844358356127e-06   -7.588860886941547e-05
-2.2740671654478416e-05   6.693844358356127e-06   -7.588860886941547e-05
-3.466177862567525e-05   3.889661393511549e-06   -5.277865419518464e-05
-3.466177862567525e-05   3.889661393511549e-06   -5.277865419518464e-05
-3.466177862567525e-05   3.889661393511549e-06   -5.277865419518464e-05
-3.466177862567525e-05   3.889661393511549e-06   -5.277865419518464e-05
-5.256538289519906e-05   7.150829131518689e-06   -8.066129400158707e-05
-5.256538289519906e-05   7.150829131518689e-06   -8.066129400158707e-05
-5.256538289519906e-05   7.150829131518689e-06   -8.066129400158707e-05
-5.256538289519906e-05   7.150829131518689e-06   -8.066129400158707e-05
-5.1159303257096195e-05   6.085727524978487e-06   -4.971607748109792e-05
-5.1159303257096195e-05   6.085727524978487e-06   -4.971607748109792e-05
-5.1159303257096195e-05   6.085727524978487e-06   -4.971607748109792e-05
-5.1159303257096195e-05   6.085727524978487e-06   -4.971607748109792e-05
-3.343007019844331e-05   9.163003579967886e-06   -8.111116487851335e-05
-3.343007019844331e-05   9.163003579967886e-06   -8.111116487851335e-05
-3.343007019844331e-05   9.163003579967886e-06   -8.111116487851335e-05
-3.343007019844331e-05   9.163003579967886e-06   -8.111116487851335e-05
-4.265684724462741e-05   6.835137007766851e-06   -6.433648319155197e-05
-4.265684724462741e-05   6.835137007766851e-06   -6.433648319155197e-05
-4.265684724462741e-05   6.835137007766851e-06   -6.433648319155197e-05
-4.265684724462741e-05   6.835137007766851e-06   -6.433648319155197e-05
-3.343007019844337e-05   6.085727524978487e-06   -5.1562443114091866e-05
-3.343007019844337e-05   6.085727524978487e-06   -5.1562443114091866e-05
-3.343007019844337e-05   6.085727524978487e-06   -5.1562443114091866e-05
-3.343007019844337e-05   6.085727524978487e-06   -5.1562443114091866e-05
-5.115930325709629e-05   9.163003579967886e-06   -7.926479924551992e-05
-5.115930325709629e-05   9.163003579967886e-06   -7.926479924551992e-05
-5.115930325709629e-05   9.163003579967886e-06   -7.926479924551992e-05
-5.115930325709629e-05   9.163003579967886e-06   -7.926479924551992e-05
-4.9479349144730954e-05   8.112865588081036e-06   -4.926362452384249e-05
-4.9479349144730954e-05   8.112865588081036e-06   -4.926362452384249e-05
-4.9479349144730954e-05   8.112865588081036e-06   -4.926362452384249e-05
-4.9479349144730954e-05   8.112865588081036e-06   -4.926362452384249e-05
-3.217929552096388e-05   1.0976474735381863e-05   -7.981521271850096e-05
-3.217929552096388e-05   1.0976474735381863e-05   -7.981521271850096e-05
-3.217929552096388e-05   1.0976474735381863e-05   -7.981521271850096e-05
-3.217929552096388e-05   1.0976474735381863e-05   -7.981521271850096e-05
-4.124150303410671e-05   8.422738055401634e-06   -6.317929152194253e-05
-4.124150303410671e-05   8.422738055401634e-06   -6.317929152194253e-05
-4.124150303410671e-05   8.422738055401634e-06   -6.317929152194253e-05
-4.124150303410671e-05   8.422738055401634e-06   -6.317929152194253e-05
-3.2179295520963845e-05   8.112865588081036e-06   -5.098179001222216e-05
-3.2179295520963845e-05   8.112865588081036e-06   -5.098179001222216e-05
-3.2179295520963845e-05   8.112865588081036e-06   -5.098179001222216e-05
-3.2179295520963845e-05   8.112865588081036e-06   -5.098179001222216e-05
-4.9479349144730954e-05   1.097647473538143e-05   -7.809704723012135e-05
-4.9479349144730954e-05   1.097647473538143e-05   -7.809704723012135e-05
-4.9479349144730954e-05   1.097647473538143e-05   -7.809704723012135e-05
-4.9479349144730954e-05   1.097647473538143e-05   -7.809704723012135e-05
-4.807882003928707e-05   1.038660356352146e-05   -5.062672218966659e-05
-4.807882003928707e-05   1.038660356352146e-05   -5.062672218966659e-05
-4.807882003928707e-05   1.038660356352146e-05   -5.062672218966659e-05
-4.807882003928707e-05   1.038660356352146e-05   -5.062672218966659e-05
-3.0986469444369016e-05   1.3007634437313224e-05   -8.068659170547182e-05
-3.0986469444369016e-05   1.3007634437313224e-05   -8.068659170547182e-05
-3.0986469444369016e-05   1.3007634437313224e-05   -8.068659170547182e-05
-3.0986469444369016e-05   1.3007634437313224e-05   -8.068659170547182e-05
-4.0288454735744446e-05   9.988393749093497e-06   -6.337173847358084e-05
-4.0288454735744446e-05   9.988393749093497e-06   -6.337173847358084e-05
-4.0288454735744446e-05   9.988393749093497e-06   -6.337173847358084e-05
-4.0288454735744446e-05   9.988393749093497e-06   -6.337173847358084e-05
-5.256538289519906e-05   6.52871451937943e-06   -2.7315971609441318e-05
-5.256538289519906e-05   6.52871451937943e-06   -2.7315971609441318e-05
-5.256538289519906e-05   6.52871451937943e-06   -2.7315971609441318e-05
-5.256538289519906e-05   6.52871451937943e-06   -2.7315971609441318e-05
-7.29524161171583e-05   1.2290936093949188e-05   -5.783702736796492e-05
-7.29524161171583e-05   1.2290936093949188e-05   -5.783702736796492e-05
-7.29524161171583e-05   1.2290936093949188e-05   -5.783702736796492e-05
-7.29524161171583e-05   1.2290936093949188e-05   -5.783702736796492e-05
-6.911048460500987e-05   8.517951648725954e-06   -1.7235109363234824e-05
-6.911048460500987e-05   8.517951648725954e-06   -1.7235109363234824e-05
-6.911048460500987e-05   8.517951648725954e-06   -1.7235109363234824e-05
-6.911048460500987e-05   8.517951648725954e-06   -1.7235109363234824e-05
-5.1159303257096195e-05   1.4378240076079463e-05   -5.0669917999502626e-05
-5.1159303257096195e-05   1.4378240076079463e-05   -5.0669917999502626e-05
-5.1159303257096195e-05   1.4378240076079463e-05   -5.0669917999502626e-05
-5.1159303257096195e-05   1.4378240076079463e-05   -5.0669917999502626e-05
-5.894659611779253e-05   1.0670335977247276e-05   -3.546635410570976e-05
-5.894659611779253e-05   1.0670335977247276e-05   -3.546635410570976e-05
-5.894659611779253e-05   1.0670335977247276e-05   -3.546635410570976e-05
-5.894659611779253e-05   1.0670335977247276e-05   -3.546635410570976e-05
-5.115930325709625e-05   8.517951648725954e-06   -2.0751282419646756e-05
-5.115930325709625e-05   8.517951648725954e-06   -2.0751282419646756e-05
-5.115930325709625e-05   8.517951648725954e-06   -2.0751282419646756e-05
-5.115930325709625e-05   8.517951648725954e-06   -2.0751282419646756e-05
-6.91104846050096e-05   1.4378240076079029e-05   -4.7153744943090586e-05
-6.91104846050096e-05   1.4378240076079029e-05   -4.7153744943090586e-05
-6.91104846050096e-05   1.4378240076079029e-05   -4.7153744943090586e-05
-6.91104846050096e-05   1.4378240076079029e-05   -4.7153744943090586e-05
-6.593494822987057e-05   9.428921236741532e-06   -1.4192540305892152e-05
-6.593494822987057e-05   9.428921236741532e-06   -1.4192540305892152e-05
-6.593494822987057e-05   9.428921236741532e-06   -1.4192540305892152e-05
-6.593494822987057e-05   9.428921236741532e-06   -1.4192540305892152e-05
-4.9479349144730846e-05   1.5125566086720416e-05   -4.503652569111174e-05
-4.9479349144730846e-05   1.5125566086720416e-05   -4.503652569111174e-05
-4.9479349144730846e-05   1.5125566086720416e-05   -4.503652569111174e-05
-4.9479349144730846e-05   1.5125566086720416e-05   -4.503652569111174e-05
-5.752742843204953e-05   1.1606562339100575e-05   -2.951165796367521e-05
-5.752742843204953e-05   1.1606562339100575e-05   -2.951165796367521e-05
-5.752742843204953e-05   1.1606562339100575e-05   -2.951165796367521e-05
-5.752742843204953e-05   1.1606562339100575e-05   -2.951165796367521e-05
-4.9479349144730954e-05   9.428921236741966e-06   -1.761052721587896e-05
-4.9479349144730954e-05   9.428921236741966e-06   -1.761052721587896e-05
-4.9479349144730954e-05   9.428921236741966e-06   -1.761052721587896e-05
-4.9479349144730954e-05   9.428921236741966e-06   -1.761052721587896e-05
-6.593494822987046e-05   1.512556608672085e-05   -4.161853878112496e-05
-6.593494822987046e-05   1.512556608672085e-05   -4.161853878112496e-05
-6.593494822987046e-05   1.512556608672085e-05   -4.161853878112496e-05
-6.593494822987046e-05   1.512556608672085e-05   -4.161853878112496e-05
-6.218417326414209e-05   1.084522210264248e-05   -1.1022505681575895e-05
-6.218417326414209e-05   1.084522210264248e-05   -1.1022505681575895e-05
-6.218417326414209e-05   1.084522210264248e-05   -1.1022505681575895e-05
-6.218417326414209e-05   1.084522210264248e-05   -1.1022505681575895e-05
-4.807882003928707e-05   1.60784464631066e-05   -3.7671362339278806e-05
-4.807882003928707e-05   1.60784464631066e-05   -3.7671362339278806e-05
-4.807882003928707e-05   1.60784464631066e-05   -3.7671362339278806e-05
-4.807882003928707e-05   1.60784464631066e-05   -3.7671362339278806e-05
-5.454780278490057e-05   1.206053844956612e-05   -2.447897962179962e-05
-5.454780278490057e-05   1.206053844956612e-05   -2.447897962179962e-05
-5.454780278490057e-05   1.206053844956612e-05   -2.447897962179962e-05
-5.454780278490057e-05   1.206053844956612e-05   -2.447897962179962e-05
5.5563333935735844e-05   -7.296032085998307e-06   -6.024592880665008e-07
5.5563333935735844e-05   -7.296032085998307e-06   -6.024592880665008e-07
5.5563333935735844e-05   -7.296032085998307e-06   -6.024592880665008e-07
5.5563333935735844e-05   -7.296032085998307e-06   -6.024592880665008e-07
2.3712032637138657e-05   -1.3185394338520798e-05   -5.722157880390854e-05
2.3712032637138657e-05   -1.3185394338520798e-05   -5.722157880390854e-05
2.3712032637138657e-05   -1.3185394338520798e-05   -5.722157880390854e-05
2.3712032637138657e-05   -1.3185394338520798e-05   -5.722157880390854e-05
2.540988045338625e-05   -5.993000434403959e-06   -6.457268991246889e-06
2.540988045338625e-05   -5.993000434403959e-06   -6.457268991246889e-06
2.540988045338625e-05   -5.993000434403959e-06   -6.457268991246889e-06
2.540988045338625e-05   -5.993000434403959e-06   -6.457268991246889e-06
5.979656324880771e-05   -1.225967853712897e-05   -6.000840012198119e-05
5.979656324880771e-05   -1.225967853712897e-05   -6.000840012198119e-05
5.979656324880771e-05   -1.225967853712897e-05   -6.000840012198119e-05
5.979656324880771e-05   -1.225967853712897e-05   -6.000840012198119e-05
3.946374280431445e-05   -8.682234373278037e-06   -2.826683254613673e-05
3.946374280431445e-05   -8.682234373278037e-06   -2.826683254613673e-05
3.946374280431445e-05   -8.682234373278037e-06   -2.826683254613673e-05
3.946374280431445e-05   -8.682234373278037e-06   -2.826683254613673e-05
5.979656324880782e-05   -5.993000434403959e-06   -2.697262129611709e-06
5.979656324880782e-05   -5.993000434403959e-06   -2.697262129611709e-06
5.979656324880782e-05   -5.993000434403959e-06   -2.697262129611709e-06
5.979656324880782e-05   -5.993000434403959e-06   -2.697262129611709e-06
2.5409880453386143e-05   -1.225967853712897e-05   -6.376840698361593e-05
2.5409880453386143e-05   -1.225967853712897e-05   -6.376840698361593e-05
2.5409880453386143e-05   -1.225967853712897e-05   -6.376840698361593e-05
2.5409880453386143e-05   -1.225967853712897e-05   -6.376840698361593e-05
2.7289775098515376e-05   -5.126926801728507e-06   -9.019099303350132e-06
2.7289775098515376e-05   -5.126926801728507e-06   -9.019099303350132e-06
2.7289775098515376e-05   -5.126926801728507e-06   -9.019099303350132e-06
2.7289775098515376e-05   -5.126926801728507e-06   -9.019099303350132e-06
6.335658093719731e-05   -1.1467671359295661e-05   -6.532599563328e-05
6.335658093719731e-05   -1.1467671359295661e-05   -6.532599563328e-05
6.335658093719731e-05   -1.1467671359295661e-05   -6.532599563328e-05
6.335658093719731e-05   -1.1467671359295661e-05   -6.532599563328e-05
4.264380556667297e-05   -8.329929021213753e-06   -3.268734875192208e-05
4.264380556667297e-05   -8.329929021213753e-06   -3.268734875192208e-05
4.264380556667297e-05   -8.329929021213753e-06   -3.268734875192208e-05
4.264380556667297e-05   -8.329929021213753e-06   -3.268734875192208e-05
6.335658093719742e-05   -5.126926801728507e-06   -5.2146525688101e-06
6.335658093719742e-05   -5.126926801728507e-06   -5.2146525688101e-06
6.335658093719742e-05   -5.126926801728507e-06   -5.2146525688101e-06
6.335658093719742e-05   -5.126926801728507e-06   -5.2146525688101e-06
2.7289775098515267e-05   -1.1467671359294794e-05   -6.91304423678209e-05
2.7289775098515267e-05   -1.1467671359294794e-05   -6.91304423678209e-05
2.7289775098515267e-05   -1.1467671359294794e-05   -6.91304423678209e-05
2.7289775098515267e-05   -1.1467671359294794e-05   -6.91304423678209e-05
2.8846743381131298e-05   -2.9420659480149797e-06   -1.4943437927801995e-05
2.8846743381131298e-05   -2.9420659480149797e-06   -1.4943437927801995e-05
2.8846743381131298e-05   -2.9420659480149797e-06   -1.4943437927801995e-05
2.8846743381131298e-05   -2.9420659480149797e-06   -1.4943437927801995e-05
6.748960979738544e-05   -8.959015928991856e-06   -7.573804529964045e-05
6.748960979738544e-05   -8.959015928991856e-06   -7.573804529964045e-05
6.748960979738544e-05   -8.959015928991856e-06   -7.573804529964045e-05
6.748960979738544e-05   -8.959015928991856e-06   -7.573804529964045e-05
4.437784754323518e-05   -7.353443574231039e-06   -3.81817849555812e-05
4.437784754323518e-05   -7.353443574231039e-06   -3.81817849555812e-05
4.437784754323518e-05   -7.353443574231039e-06   -3.81817849555812e-05
4.437784754323518e-05   -7.353443574231039e-06   -3.81817849555812e-05
2.371203263713871e-05   -2.8967778487229943e-06   -3.897496720824817e-05
2.371203263713871e-05   -2.8967778487229943e-06   -3.897496720824817e-05
2.371203263713871e-05   -2.8967778487229943e-06   -3.897496720824817e-05
2.371203263713871e-05   -2.8967778487229943e-06   -3.897496720824817e-05
-1.0038367927429708e-05   -6.193341469377771e-06   -9.720357298825528e-05
-1.0038367927429708e-05   -6.193341469377771e-06   -9.720357298825528e-05
-1.0038367927429708e-05   -6.193341469377771e-06   -9.720357298825528e-05
-1.0038367927429708e-05   -6.193341469377771e-06   -9.720357298825528e-05
-8.456487874701523e-06   -1.1131637186645622e-06   -3.9786543315811166e-05
-8.456487874701523e-06   -1.1131637186645622e-06   -3.9786543315811166e-05
-8.456487874701523e-06   -1.1131637186645622e-06   -3.9786543315811166e-05
-8.456487874701523e-06   -1.1131637186645622e-06   -3.9786543315811166e-05
2.5409880453386197e-05   -4.913238789715051e-06   -9.395044548666078e-05
2.5409880453386197e-05   -4.913238789715051e-06   -9.395044548666078e-05
2.5409880453386197e-05   -4.913238789715051e-06   -9.395044548666078e-05
2.5409880453386197e-05   -4.913238789715051e-06   -9.395044548666078e-05
7.741806376992272e-06   -2.998045306033814e-06   -6.565277144954555e-05
7.741806376992272e-06   -2.998045306033814e-06   -6.565277144954555e-05
7.741806376992272e-06   -2.998045306033814e-06   -6.565277144954555e-05
7.741806376992272e-06   -2.998045306033814e-06   -6.565277144954555e-05
2.540988045338625e-05   -1.1131637186645622e-06   -3.7506498273181046e-05
2.540988045338625e-05   -1.1131637186645622e-06   -3.7506498273181046e-05
2.540988045338625e-05   -1.1131637186645622e-06   -3.7506498273181046e-05
2.540988045338625e-05   -1.1131637186645622e-06   -3.7506498273181046e-05
-8.456487874701469e-06   -4.913238789715051e-06   -9.623049052929046e-05
-8.456487874701469e-06   -4.913238789715051e-06   -9.623049052929046e-05
-8.456487874701469e-06   -4.913238789715051e-06   -9.623049052929046e-05
-8.456487874701469e-06   -4.913238789715051e-06   -9.623049052929046e-05
-6.946040446566151e-06   7.302069980359011e-07   -4.0291626316256695e-05
-6.946040446566151e-06   7.302069980359011e-07   -4.0291626316256695e-05
-6.946040446566151e-06   7.302069980359011e-07   -4.0291626316256695e-05
-6.946040446566151e-06   7.302069980359011e-07   -4.0291626316256695e-05
2.7289775098515267e-05   -3.347959736916574e-06   -9.490441885042118e-05
2.7289775098515267e-05   -3.347959736916574e-06   -9.490441885042118e-05
2.7289775098515267e-05   -3.347959736916574e-06   -9.490441885042118e-05
2.7289775098515267e-05   -3.347959736916574e-06   -9.490441885042118e-05
8.999637089421406e-06   -1.867188079575366e-06   -6.530931849633471e-05
8.999637089421406e-06   -1.867188079575366e-06   -6.530931849633471e-05
8.999637089421406e-06   -1.867188079575366e-06   -6.530931849633471e-05
8.999637089421406e-06   -1.867188079575366e-06   -6.530931849633471e-05
2.7289775098515376e-05   7.302069980359011e-07   -3.784472627528512e-05
2.7289775098515376e-05   7.302069980359011e-07   -3.784472627528512e-05
2.7289775098515376e-05   7.302069980359011e-07   -3.784472627528512e-05
2.7289775098515376e-05   7.302069980359011e-07   -3.784472627528512e-05
-6.946040446566151e-06   -3.3479597369174413e-06   -9.735131889139254e-05
-6.946040446566151e-06   -3.3479597369174413e-06   -9.735131889139254e-05
-6.946040446566151e-06   -3.3479597369174413e-06   -9.735131889139254e-05
-6.946040446566151e-06   -3.3479597369174413e-06   -9.735131889139254e-05
-5.52648861842079e-06   2.911803268100012e-06   -4.165529633841413e-05
-5.52648861842079e-06   2.911803268100012e-06   -4.165529633841413e-05
-5.52648861842079e-06   2.911803268100012e-06   -4.165529633841413e-05
-5.52648861842079e-06   2.911803268100012e-06   -4.165529633841413e-05
2.8846743381131244e-05   -1.3796982510447947e-06   -9.636911542618056e-05
2.8846743381131244e-05   -1.3796982510447947e-06   -9.636911542618056e-05
2.8846743381131244e-05   -1.3796982510447947e-06   -9.636911542618056e-05
2.8846743381131244e-05   -1.3796982510447947e-06   -9.636911542618056e-05
1.056442946596129e-05   -4.733205470801652e-07   -6.644241885661085e-05
1.056442946596129e-05   -4.733205470801652e-07   -6.644241885661085e-05
1.056442946596129e-05   -4.733205470801652e-07   -6.644241885661085e-05
1.056442946596129e-05   -4.733205470801652e-07   -6.644241885661085e-05
-1.0038367927429762e-05   2.204386185662016e-06   -5.0072934888028935e-05
-1.0038367927429762e-05   2.204386185662016e-06   -5.0072934888028935e-05
-1.0038367927429762e-05   2.204386185662016e-06   -5.0072934888028935e-05
-1.0038367927429762e-05   2.204386185662016e-06   -5.0072934888028935e-05
-4.3194438229918953e-05   1.0906813852603128e-06   -0.00010600127493908635
-4.3194438229918953e-05   1.0906813852603128e-06   -0.00010600127493908635
-4.3194438229918953e-05   1.0906813852603128e-06   -0.00010600127493908635
-4.3194438229918953e-05   1.0906813852603128e-06   -0.00010600127493908635
-4.149150051262585e-05   4.089636925762655e-06   -4.97340006416218e-05
-4.149150051262585e-05   4.089636925762655e-06   -4.97340006416218e-05
-4.149150051262585e-05   4.089636925762655e-06   -4.97340006416218e-05
-4.149150051262585e-05   4.089636925762655e-06   -4.97340006416218e-05
-8.456487874701469e-06   2.5270846262682306e-06   -0.00010385482365846599
-8.456487874701469e-06   2.5270846262682306e-06   -0.00010385482365846599
-8.456487874701469e-06   2.5270846262682306e-06   -0.00010385482365846599
-8.456487874701469e-06   2.5270846262682306e-06   -0.00010385482365846599
-2.5617869155871883e-05   3.0209426939518252e-06   -7.554883636379228e-05
-2.5617869155871883e-05   3.0209426939518252e-06   -7.554883636379228e-05
-2.5617869155871883e-05   3.0209426939518252e-06   -7.554883636379228e-05
-2.5617869155871883e-05   3.0209426939518252e-06   -7.554883636379228e-05
-8.456487874701523e-06   4.089636925762655e-06   -4.879646926192515e-05
-8.456487874701523e-06   4.089636925762655e-06   -4.879646926192515e-05
-8.456487874701523e-06   4.089636925762655e-06   -4.879646926192515e-05
-8.456487874701523e-06   4.089636925762655e-06   -4.879646926192515e-05
-4.149150051262585e-05   2.5270846262682306e-06   -0.00010479235503816275
-4.149150051262585e-05   2.5270846262682306e-06   -0.00010479235503816275
-4.149150051262585e-05   2.5270846262682306e-06   -0.00010479235503816275
-4.149150051262585e-05   2.5270846262682306e-06   -0.00010479235503816275
-3.984946587211484e-05   6.0864403994111485e-06   -4.965892579436365e-05
-3.984946587211484e-05   6.0864403994111485e-06   -4.965892579436365e-05
-3.984946587211484e-05   6.0864403994111485e-06   -4.965892579436365e-05
-3.984946587211484e-05   6.0864403994111485e-06   -4.965892579436365e-05
-6.946040446566151e-06   4.192435069643591e-06   -0.00010336156497241754
-6.946040446566151e-06   4.192435069643591e-06   -0.00010336156497241754
-6.946040446566151e-06   4.192435069643591e-06   -0.00010336156497241754
-6.946040446566151e-06   4.192435069643591e-06   -0.00010336156497241754
-2.415155088763666e-05   4.365363813967765e-06   -7.478947148389443e-05
-2.415155088763666e-05   4.365363813967765e-06   -7.478947148389443e-05
-2.415155088763666e-05   4.365363813967765e-06   -7.478947148389443e-05
-2.415155088763666e-05   4.365363813967765e-06   -7.478947148389443e-05
-6.946040446566151e-06   6.0864403994111485e-06   -4.8522522596503026e-05
-6.946040446566151e-06   6.0864403994111485e-06   -4.8522522596503026e-05
-6.946040446566151e-06   6.0864403994111485e-06   -4.8522522596503026e-05
-6.946040446566151e-06   6.0864403994111485e-06   -4.8522522596503026e-05
-3.984946587211484e-05   4.192435069643591e-06   -0.0001044979681702786
-3.984946587211484e-05   4.192435069643591e-06   -0.0001044979681702786
-3.984946587211484e-05   4.192435069643591e-06   -0.0001044979681702786
-3.984946587211484e-05   4.192435069643591e-06   -0.0001044979681702786
-3.833205522657101e-05   8.117663207968338e-06   -5.082318136571777e-05
-3.833205522657101e-05   8.117663207968338e-06   -5.082318136571777e-05
-3.833205522657101e-05   8.117663207968338e-06   -5.082318136571777e-05
-3.833205522657101e-05   8.117663207968338e-06   -5.082318136571777e-05
-5.52648861842079e-06   5.9138919587999744e-06   -0.00010417686296313442
-5.52648861842079e-06   5.9138919587999744e-06   -0.00010417686296313442
-5.52648861842079e-06   5.9138919587999744e-06   -0.00010417686296313442
-5.52648861842079e-06   5.9138919587999744e-06   -0.00010417686296313442
-2.2840679409921414e-05   5.744923866433244e-06   -7.52184974552145e-05
-2.2840679409921414e-05   5.744923866433244e-06   -7.52184974552145e-05
-2.2840679409921414e-05   5.744923866433244e-06   -7.52184974552145e-05
-2.2840679409921414e-05   5.744923866433244e-06   -7.52184974552145e-05
-4.319443822991902e-05   7.150829131518689e-06   -4.063956148847841e-05
-4.319443822991902e-05   7.150829131518689e-06   -4.063956148847841e-05
-4.319443822991902e-05   7.150829131518689e-06   -4.063956148847841e-05
-4.319443822991902e-05   7.150829131518689e-06   -4.063956148847841e-05
-7.571538710249523e-05   8.634605903829265e-06   -9.395087687938527e-05
-7.571538710249523e-05   8.634605903829265e-06   -9.395087687938527e-05
-7.571538710249523e-05   8.634605903829265e-06   -9.395087687938527e-05
-7.571538710249523e-05   8.634605903829265e-06   -9.395087687938527e-05
-7.366413489287408e-05   9.163003579967886e-06   -3.8207473339334046e-05
-7.366413489287408e-05   9.163003579967886e-06   -3.8207473339334046e-05
-7.366413489287408e-05   9.163003579967886e-06   -3.8207473339334046e-05
-7.366413489287408e-05   9.163003579967886e-06   -3.8207473339334046e-05
-4.149150051262592e-05   1.0461142850583596e-05   -9.260741420211754e-05
-4.149150051262592e-05   1.0461142850583596e-05   -9.260741420211754e-05
-4.149150051262592e-05   1.0461142850583596e-05   -9.260741420211754e-05
-4.149150051262592e-05   1.0461142850583596e-05   -9.260741420211754e-05
-5.808840725920288e-05   9.236769529491484e-06   -6.421127896516764e-05
-5.808840725920288e-05   9.236769529491484e-06   -6.421127896516764e-05
-5.808840725920288e-05   9.236769529491484e-06   -6.421127896516764e-05
-5.808840725920288e-05   9.236769529491484e-06   -6.421127896516764e-05
-4.149150051262592e-05   9.163003579967886e-06   -3.8986356901703906e-05
-4.149150051262592e-05   9.163003579967886e-06   -3.8986356901703906e-05
-4.149150051262592e-05   9.163003579967886e-06   -3.8986356901703906e-05
-4.149150051262592e-05   9.163003579967886e-06   -3.8986356901703906e-05
-7.36641348928742e-05   1.0461142850583596e-05   -9.182853063974825e-05
-7.36641348928742e-05   1.0461142850583596e-05   -9.182853063974825e-05
-7.36641348928742e-05   1.0461142850583596e-05   -9.182853063974825e-05
-7.36641348928742e-05   1.0461142850583596e-05   -9.182853063974825e-05
-7.139724109516035e-05   1.0976474735381863e-05   -3.6855215225934865e-05
-7.139724109516035e-05   1.0976474735381863e-05   -3.6855215225934865e-05
-7.139724109516035e-05   1.0976474735381863e-05   -3.6855215225934865e-05
-7.139724109516035e-05   1.0976474735381863e-05   -3.6855215225934865e-05
-3.9849465872114924e-05   1.2034528509833296e-05   -9.006967286234849e-05
-3.9849465872114924e-05   1.2034528509833296e-05   -9.006967286234849e-05
-3.9849465872114924e-05   1.2034528509833296e-05   -9.006967286234849e-05
-3.9849465872114924e-05   1.2034528509833296e-05   -9.006967286234849e-05
-5.6016574448969763e-05   1.065736734602845e-05   -6.229819520264066e-05
-5.6016574448969763e-05   1.065736734602845e-05   -6.229819520264066e-05
-5.6016574448969763e-05   1.065736734602845e-05   -6.229819520264066e-05
-5.6016574448969763e-05   1.065736734602845e-05   -6.229819520264066e-05
-3.98494658721149e-05   1.0976474735381863e-05   -3.7490047490605465e-05
-3.98494658721149e-05   1.0976474735381863e-05   -3.7490047490605465e-05
-3.98494658721149e-05   1.0976474735381863e-05   -3.7490047490605465e-05
-3.98494658721149e-05   1.0976474735381863e-05   -3.7490047490605465e-05
-7.139724109516035e-05   1.2034528509833296e-05   -8.943484059767762e-05
-7.139724109516035e-05   1.2034528509833296e-05   -8.943484059767762e-05
-7.139724109516035e-05   1.2034528509833296e-05   -8.943484059767762e-05
-7.139724109516035e-05   1.2034528509833296e-05   -8.943484059767762e-05
-6.948095416336013e-05   1.3007634437313224e-05   -3.770568036990697e-05
-6.948095416336013e-05   1.3007634437313224e-05   -3.770568036990697e-05
-6.948095416336013e-05   1.3007634437313224e-05   -3.770568036990697e-05
-6.948095416336013e-05   1.3007634437313224e-05   -3.770568036990697e-05
-3.8332055226571077e-05   1.3777082634300851e-05   -9.008218084941426e-05
-3.8332055226571077e-05   1.3777082634300851e-05   -9.008218084941426e-05
-3.8332055226571077e-05   1.3777082634300851e-05   -9.008218084941426e-05
-3.8332055226571077e-05   1.3777082634300851e-05   -9.008218084941426e-05
-5.4720755458932036e-05   1.1966653412468636e-05   -6.168142292904696e-05
-5.4720755458932036e-05   1.1966653412468636e-05   -6.168142292904696e-05
-5.4720755458932036e-05   1.1966653412468636e-05   -6.168142292904696e-05
-5.4720755458932036e-05   1.1966653412468636e-05   -6.168142292904696e-05
-7.571538710249523e-05   1.2290936093949188e-05   -2.038236173621151e-05
-7.571538710249523e-05   1.2290936093949188e-05   -2.038236173621151e-05
-7.571538710249523e-05   1.2290936093949188e-05   -2.038236173621151e-05
-7.571538710249523e-05   1.2290936093949188e-05   -2.038236173621151e-05
-0.00010994161812128678   1.6999746850814013e-05   -7.460079364674573e-05
-0.00010994161812128678   1.6999746850814013e-05   -7.460079364674573e-05
-0.00010994161812128678   1.6999746850814013e-05   -7.460079364674573e-05
-0.00010994161812128678   1.6999746850814013e-05   -7.460079364674573e-05
-0.00010525045599098576   1.4378240076079463e-05   -6.583780307517495e-06
-0.00010525045599098576   1.4378240076079463e-05   -6.583780307517495e-06
-0.00010525045599098576   1.4378240076079463e-05   -6.583780307517495e-06
-0.00010525045599098576   1.4378240076079463e-05   -6.583780307517495e-06
-7.366413489287408e-05   1.9426259719079048e-05   -6.225646059017007e-05
-7.366413489287408e-05   1.9426259719079048e-05   -6.225646059017007e-05
-7.366413489287408e-05   1.9426259719079048e-05   -6.225646059017007e-05
-7.366413489287408e-05   1.9426259719079048e-05   -6.225646059017007e-05
-8.737365797740556e-05   1.6196562694107026e-05   -3.7469437234301164e-05
-8.737365797740556e-05   1.6196562694107026e-05   -3.7469437234301164e-05
-8.737365797740556e-05   1.6196562694107026e-05   -3.7469437234301164e-05
-8.737365797740556e-05   1.6196562694107026e-05   -3.7469437234301164e-05
-7.366413489287414e-05   1.4378240076079463e-05   -9.612592093316639e-06
-7.366413489287414e-05   1.4378240076079463e-05   -9.612592093316639e-06
-7.366413489287414e-05   1.4378240076079463e-05   -9.612592093316639e-06
-7.366413489287414e-05   1.4378240076079463e-05   -9.612592093316639e-06
-0.00010525045599098557   1.9426259719079048e-05   -5.9227648804370276e-05
-0.00010525045599098557   1.9426259719079048e-05   -5.9227648804370276e-05
-0.00010525045599098557   1.9426259719079048e-05   -5.9227648804370276e-05
-0.00010525045599098557   1.9426259719079048e-05   -5.9227648804370276e-05
-0.00010138973175688272   1.5125566086720416e-05   -8.319958496091212e-07
-0.00010138973175688272   1.5125566086720416e-05   -8.319958496091212e-07
-0.00010138973175688272   1.5125566086720416e-05   -8.319958496091212e-07
-0.00010138973175688272   1.5125566086720416e-05   -8.319958496091212e-07
-7.139724109516035e-05   2.0063395815583286e-05   -5.378217812313035e-05
-7.139724109516035e-05   2.0063395815583286e-05   -5.378217812313035e-05
-7.139724109516035e-05   2.0063395815583286e-05   -5.378217812313035e-05
-7.139724109516035e-05   2.0063395815583286e-05   -5.378217812313035e-05
-8.575944488205764e-05   1.7159376498876878e-05   -2.8102760221610174e-05
-8.575944488205764e-05   1.7159376498876878e-05   -2.8102760221610174e-05
-8.575944488205764e-05   1.7159376498876878e-05   -2.8102760221610174e-05
-8.575944488205764e-05   1.7159376498876878e-05   -2.8102760221610174e-05
-7.139724109516035e-05   1.5125566086720416e-05   -3.7946936869265833e-06
-7.139724109516035e-05   1.5125566086720416e-05   -3.7946936869265833e-06
-7.139724109516035e-05   1.5125566086720416e-05   -3.7946936869265833e-06
-7.139724109516035e-05   1.5125566086720416e-05   -3.7946936869265833e-06
-0.00010138973175688237   2.0063395815583286e-05   -5.081948028581298e-05
-0.00010138973175688237   2.0063395815583286e-05   -5.081948028581298e-05
-0.00010138973175688237   2.0063395815583286e-05   -5.081948028581298e-05
-0.00010138973175688237   2.0063395815583286e-05   -5.081948028581298e-05
-9.722977342504021e-05   1.60784464631066e-05   6.460782025801554e-06
-9.722977342504021e-05   1.60784464631066e-05   6.460782025801554e-06
-9.722977342504021e-05   1.60784464631066e-05   6.460782025801554e-06
-9.722977342504021e-05   1.60784464631066e-05   6.460782025801554e-06
-6.948095416336013e-05   2.061819905275694e-05   -4.251110163078914e-05
-6.948095416336013e-05   2.061819905275694e-05   -4.251110163078914e-05
-6.948095416336013e-05   2.061819905275694e-05   -4.251110163078914e-05
-6.948095416336013e-05   2.061819905275694e-05   -4.251110163078914e-05
-8.185442591042193e-05   1.7317454508634488e-05   -1.990820199254651e-05
-8.185442591042193e-05   1.7317454508634488e-05   -1.990820199254651e-05
-8.185442591042193e-05   1.7317454508634488e-05   -1.990820199254651e-05
-8.185442591042193e-05   1.7317454508634488e-05   -1.990820199254651e-05
9.4481300404186e-05   -1.3185394338520798e-05   1.8546982170368834e-05
9.4481300404186e-05   -1.3185394338520798e-05   1.8546982170368834e-05
9.4481300404186e-05   -1.3185394338520798e-05   1.8546982170368834e-05
9.4481300404186e-05   -1.3185394338520798e-05   1.8546982170368834e-05
4.5573279176914854e-05   -1.9551649408810177e-05   -6.678613958392352e-05
4.5573279176914854e-05   -1.9551649408810177e-05   -6.678613958392352e-05
4.5573279176914854e-05   -1.9551649408810177e-05   -6.678613958392352e-05
4.5573279176914854e-05   -1.9551649408810177e-05   -6.678613958392352e-05
4.745607366599949e-05   -1.225967853712897e-05   8.846967302400793e-06
4.745607366599949e-05   -1.225967853712897e-05   8.846967302400793e-06
4.745607366599949e-05   -1.225967853712897e-05   8.846967302400793e-06
4.745607366599949e-05   -1.225967853712897e-05   8.846967302400793e-06
9.883590428773695e-05   -1.9091753142665147e-05   -7.268683897050741e-05
9.883590428773695e-05   -1.9091753142665147e-05   -7.268683897050741e-05
9.883590428773695e-05   -1.9091753142665147e-05   -7.268683897050741e-05
9.883590428773695e-05   -1.9091753142665147e-05   -7.268683897050741e-05
6.867813189643393e-05   -1.444322899819047e-05   -2.521299947168677e-05
6.867813189643393e-05   -1.444322899819047e-05   -2.521299947168677e-05
6.867813189643393e-05   -1.444322899819047e-05   -2.521299947168677e-05
6.867813189643393e-05   -1.444322899819047e-05   -2.521299947168677e-05
9.883590428773711e-05   -1.225967853712897e-05   1.2946212065721979e-05
9.883590428773711e-05   -1.225967853712897e-05   1.2946212065721979e-05
9.883590428773711e-05   -1.225967853712897e-05   1.2946212065721979e-05
9.883590428773711e-05   -1.225967853712897e-05   1.2946212065721979e-05
4.7456073665999435e-05   -1.9091753142665147e-05   -7.678608373382859e-05
4.7456073665999435e-05   -1.9091753142665147e-05   -7.678608373382859e-05
4.7456073665999435e-05   -1.9091753142665147e-05   -7.678608373382859e-05
4.7456073665999435e-05   -1.9091753142665147e-05   -7.678608373382859e-05
4.932859960783394e-05   -1.1467671359295661e-05   4.109047095089517e-06
4.932859960783394e-05   -1.1467671359295661e-05   4.109047095089517e-06
4.932859960783394e-05   -1.1467671359295661e-05   4.109047095089517e-06
4.932859960783394e-05   -1.1467671359295661e-05   4.109047095089517e-06
0.00010218091609780281   -1.8430051393127436e-05   -7.980071903455942e-05
0.00010218091609780281   -1.8430051393127436e-05   -7.980071903455942e-05
0.00010218091609780281   -1.8430051393127436e-05   -7.980071903455942e-05
0.00010218091609780281   -1.8430051393127436e-05   -7.980071903455942e-05
7.234282681916674e-05   -1.439624262201955e-05   -3.24908554994968e-05
7.234282681916674e-05   -1.439624262201955e-05   -3.24908554994968e-05
7.234282681916674e-05   -1.439624262201955e-05   -3.24908554994968e-05
7.234282681916674e-05   -1.439624262201955e-05   -3.24908554994968e-05
0.00010218091609780281   -1.1467671359295661e-05   8.286475115389016e-06
0.00010218091609780281   -1.1467671359295661e-05   8.286475115389016e-06
0.00010218091609780281   -1.1467671359295661e-05   8.286475115389016e-06
0.00010218091609780281   -1.1467671359295661e-05   8.286475115389016e-06
4.932859960783394e-05   -1.8430051393127436e-05   -8.397814705485935e-05
4.932859960783394e-05   -1.8430051393127436e-05   -8.397814705485935e-05
4.932859960783394e-05   -1.8430051393127436e-05   -8.397814705485935e-05
4.932859960783394e-05   -1.8430051393127436e-05   -8.397814705485935e-05
5.0603254372624286e-05   -8.959015928990989e-06   -5.447239243640094e-06
5.0603254372624286e-05   -8.959015928990989e-06   -5.447239243640094e-06
5.0603254372624286e-05   -8.959015928990989e-06   -5.447239243640094e-06
5.0603254372624286e-05   -8.959015928990989e-06   -5.447239243640094e-06
0.00010571711626457817   -1.5845076622380758e-05   -9.317203931419641e-05
0.00010571711626457817   -1.5845076622380758e-05   -9.317203931419641e-05
0.00010571711626457817   -1.5845076622380758e-05   -9.317203931419641e-05
0.00010571711626457817   -1.5845076622380758e-05   -9.317203931419641e-05
7.338024033049848e-05   -1.3291869763572273e-05   -4.080917020601697e-05
7.338024033049848e-05   -1.3291869763572273e-05   -4.080917020601697e-05
7.338024033049848e-05   -1.3291869763572273e-05   -4.080917020601697e-05
7.338024033049848e-05   -1.3291869763572273e-05   -4.080917020601697e-05
4.557327917691491e-05   -6.193341469377771e-06   -2.3276826883758973e-05
4.557327917691491e-05   -6.193341469377771e-06   -2.3276826883758973e-05
4.557327917691491e-05   -6.193341469377771e-06   -2.3276826883758973e-05
4.557327917691491e-05   -6.193341469377771e-06   -2.3276826883758973e-05
-2.682773751618169e-06   -1.2716117377962674e-05   -0.00010761724730979846
-2.682773751618169e-06   -1.2716117377962674e-05   -0.00010761724730979846
-2.682773751618169e-06   -1.2716117377962674e-05   -0.00010761724730979846
-2.682773751618169e-06   -1.2716117377962674e-05   -0.00010761724730979846
-7.48448894053995e-07   -4.913238789715051e-06   -2.5655367610937646e-05
-7.48448894053995e-07   -4.913238789715051e-06   -2.5655367610937646e-05
-7.48448894053995e-07   -4.913238789715051e-06   -2.5655367610937646e-05
-7.48448894053995e-07   -4.913238789715051e-06   -2.5655367610937646e-05
4.745607366599949e-05   -1.21137328068701e-05   -0.00010167594213406615
4.745607366599949e-05   -1.21137328068701e-05   -0.00010167594213406615
4.745607366599949e-05   -1.21137328068701e-05   -0.00010167594213406615
4.745607366599949e-05   -1.21137328068701e-05   -0.00010167594213406615
2.2468465255444484e-05   -7.691102163344399e-06   -6.268350650258999e-05
2.2468465255444484e-05   -7.691102163344399e-06   -6.268350650258999e-05
2.2468465255444484e-05   -7.691102163344399e-06   -6.268350650258999e-05
2.2468465255444484e-05   -7.691102163344399e-06   -6.268350650258999e-05
4.7456073665999435e-05   -4.913238789715051e-06   -2.1335071200643402e-05
4.7456073665999435e-05   -4.913238789715051e-06   -2.1335071200643402e-05
4.7456073665999435e-05   -4.913238789715051e-06   -2.1335071200643402e-05
4.7456073665999435e-05   -4.913238789715051e-06   -2.1335071200643402e-05
-7.48448894053995e-07   -1.21137328068701e-05   -0.00010599623854435974
-7.48448894053995e-07   -1.21137328068701e-05   -0.00010599623854435974
-7.48448894053995e-07   -1.21137328068701e-05   -0.00010599623854435974
-7.48448894053995e-07   -1.21137328068701e-05   -0.00010599623854435974
9.56250891705505e-07   -3.3479597369174413e-06   -2.6248675085276726e-05
9.56250891705505e-07   -3.3479597369174413e-06   -2.6248675085276726e-05
9.56250891705505e-07   -3.3479597369174413e-06   -2.6248675085276726e-05
9.56250891705505e-07   -3.3479597369174413e-06   -2.6248675085276726e-05
4.932859960783394e-05   -1.0987535899859707e-05   -0.0001022855105810589
4.932859960783394e-05   -1.0987535899859707e-05   -0.0001022855105810589
4.932859960783394e-05   -1.0987535899859707e-05   -0.0001022855105810589
4.932859960783394e-05   -1.0987535899859707e-05   -0.0001022855105810589
2.3789155756367004e-05   -7.066917715826959e-06   -6.207214173903147e-05
2.3789155756367004e-05   -7.066917715826959e-06   -6.207214173903147e-05
2.3789155756367004e-05   -7.066917715826959e-06   -6.207214173903147e-05
2.3789155756367004e-05   -7.066917715826959e-06   -6.207214173903147e-05
4.932859960783394e-05   -3.347959736916574e-06   -2.1664929387511193e-05
4.932859960783394e-05   -3.347959736916574e-06   -2.1664929387511193e-05
4.932859960783394e-05   -3.347959736916574e-06   -2.1664929387511193e-05
4.932859960783394e-05   -3.347959736916574e-06   -2.1664929387511193e-05
9.562508917055593e-07   -1.098753589985884e-05   -0.000106869256278824
9.562508917055593e-07   -1.098753589985884e-05   -0.000106869256278824
9.562508917055593e-07   -1.098753589985884e-05   -0.000106869256278824
9.562508917055593e-07   -1.098753589985884e-05   -0.000106869256278824
2.1714497933105923e-06   -1.379698251045662e-06   -2.7271666603523835e-05
2.1714497933105923e-06   -1.379698251045662e-06   -2.7271666603523835e-05
2.1714497933105923e-06   -1.379698251045662e-06   -2.7271666603523835e-05
2.1714497933105923e-06   -1.379698251045662e-06   -2.7271666603523835e-05
5.060325437262445e-05   -9.385576954260184e-06   -0.00010318781368045139
5.060325437262445e-05   -9.385576954260184e-06   -0.00010318781368045139
5.060325437262445e-05   -9.385576954260184e-06   -0.00010318781368045139
5.060325437262445e-05   -9.385576954260184e-06   -0.00010318781368045139
2.5364102699250982e-05   -5.9641044481010055e-06   -6.317544439519247e-05
2.5364102699250982e-05   -5.9641044481010055e-06   -6.317544439519247e-05
2.5364102699250982e-05   -5.9641044481010055e-06   -6.317544439519247e-05
2.5364102699250982e-05   -5.9641044481010055e-06   -6.317544439519247e-05
-2.682773751618169e-06   1.0906813852603128e-06   -3.531997149949957e-05
-2.682773751618169e-06   1.0906813852603128e-06   -3.531997149949957e-05
-2.682773751618169e-06   1.0906813852603128e-06   -3.531997149949957e-05
-2.682773751618169e-06   1.0906813852603128e-06   -3.531997149949957e-05
-5.0225751817831665e-05   -6.748566753064615e-06   -0.00011926181715951698
-5.0225751817831665e-05   -6.748566753064615e-06   -0.00011926181715951698
-5.0225751817831665e-05   -6.748566753064615e-06   -0.00011926181715951698
-5.0225751817831665e-05   -6.748566753064615e-06   -0.00011926181715951698
-4.7905541224838326e-05   2.5270846262682306e-06   -3.8420437579149945e-05
-4.7905541224838326e-05   2.5270846262682306e-06   -3.8420437579149945e-05
-4.7905541224838326e-05   2.5270846262682306e-06   -3.8420437579149945e-05
-4.7905541224838326e-05   2.5270846262682306e-06   -3.8420437579149945e-05
-7.48448894053995e-07   -6.040810105460703e-06   -0.00011187485462475332
-7.48448894053995e-07   -6.040810105460703e-06   -0.00011187485462475332
-7.48448894053995e-07   -6.040810105460703e-06   -0.00011187485462475332
-7.48448894053995e-07   -6.040810105460703e-06   -0.00011187485462475332
-2.5086563591789872e-05   -1.351488439606599e-06   -7.412492312803914e-05
-2.5086563591789872e-05   -1.351488439606599e-06   -7.412492312803914e-05
-2.5086563591789872e-05   -1.351488439606599e-06   -7.412492312803914e-05
-2.5086563591789872e-05   -1.351488439606599e-06   -7.412492312803914e-05
-7.48448894053995e-07   2.5270846262682306e-06   -3.3279700740112845e-05
-7.48448894053995e-07   2.5270846262682306e-06   -3.3279700740112845e-05
-7.48448894053995e-07   2.5270846262682306e-06   -3.3279700740112845e-05
-7.48448894053995e-07   2.5270846262682306e-06   -3.3279700740112845e-05
-4.7905541224838326e-05   -6.040810105460703e-06   -0.00011701559146379053
-4.7905541224838326e-05   -6.040810105460703e-06   -0.00011701559146379053
-4.7905541224838326e-05   -6.040810105460703e-06   -0.00011701559146379053
-4.7905541224838326e-05   -6.040810105460703e-06   -0.00011701559146379053
-4.57767919317278e-05   4.192435069643591e-06   -3.773373120745339e-05
-4.57767919317278e-05   4.192435069643591e-06   -3.773373120745339e-05
-4.57767919317278e-05   4.192435069643591e-06   -3.773373120745339e-05
-4.57767919317278e-05   4.192435069643591e-06   -3.773373120745339e-05
9.562508917055593e-07   -4.932248332274909e-06   -0.00011014732587202408
9.562508917055593e-07   -4.932248332274909e-06   -0.00011014732587202408
9.562508917055593e-07   -4.932248332274909e-06   -0.00011014732587202408
9.562508917055593e-07   -4.932248332274909e-06   -0.00011014732587202408
-2.3195400820931557e-05   -5.386532969378285e-07   -7.253073003883202e-05
-2.3195400820931557e-05   -5.386532969378285e-07   -7.253073003883202e-05
-2.3195400820931557e-05   -5.386532969378285e-07   -7.253073003883202e-05
-2.3195400820931557e-05   -5.386532969378285e-07   -7.253073003883202e-05
9.562508917055593e-07   4.192435069643591e-06   -3.2258921166301944e-05
9.562508917055593e-07   4.192435069643591e-06   -3.2258921166301944e-05
9.562508917055593e-07   4.192435069643591e-06   -3.2258921166301944e-05
9.562508917055593e-07   4.192435069643591e-06   -3.2258921166301944e-05
-4.577679193172787e-05   -4.932248332274909e-06   -0.0001156221359131758
-4.577679193172787e-05   -4.932248332274909e-06   -0.0001156221359131758
-4.577679193172787e-05   -4.932248332274909e-06   -0.0001156221359131758
-4.577679193172787e-05   -4.932248332274909e-06   -0.0001156221359131758
-4.43409008154378e-05   5.9138919587999744e-06   -3.838202609430944e-05
-4.43409008154378e-05   5.9138919587999744e-06   -3.838202609430944e-05
-4.43409008154378e-05   5.9138919587999744e-06   -3.838202609430944e-05
-4.43409008154378e-05   5.9138919587999744e-06   -3.838202609430944e-05
2.1714497933105923e-06   -3.881962816733309e-06   -0.00011002509757690416
2.1714497933105923e-06   -3.881962816733309e-06   -0.00011002509757690416
2.1714497933105923e-06   -3.881962816733309e-06   -0.00011002509757690416
2.1714497933105923e-06   -3.881962816733309e-06   -0.00011002509757690416
-2.1845027126519718e-05   3.7474875380725386e-07   -7.255166298617845e-05
-2.1845027126519718e-05   3.7474875380725386e-07   -7.255166298617845e-05
-2.1845027126519718e-05   3.7474875380725386e-07   -7.255166298617845e-05
-2.1845027126519718e-05   3.7474875380725386e-07   -7.255166298617845e-05
-5.022575181783157e-05   8.634605903829265e-06   -2.8863388386180487e-05
-5.022575181783157e-05   8.634605903829265e-06   -2.8863388386180487e-05
-5.022575181783157e-05   8.634605903829265e-06   -2.8863388386180487e-05
-5.022575181783157e-05   8.634605903829265e-06   -2.8863388386180487e-05
-9.842218067605834e-05   1.5598171066010663e-06   -0.00011343564309489575
-9.842218067605834e-05   1.5598171066010663e-06   -0.00011343564309489575
-9.842218067605834e-05   1.5598171066010663e-06   -0.00011343564309489575
-9.842218067605834e-05   1.5598171066010663e-06   -0.00011343564309489575
-9.511985708423869e-05   1.0461142850583596e-05   -3.078534224579916e-05
-9.511985708423869e-05   1.0461142850583596e-05   -3.078534224579916e-05
-9.511985708423869e-05   1.0461142850583596e-05   -3.078534224579916e-05
-9.511985708423869e-05   1.0461142850583596e-05   -3.078534224579916e-05
-4.790554122483823e-05   2.878067012759486e-06   -0.0001049260231754386
-4.790554122483823e-05   2.878067012759486e-06   -0.0001049260231754386
-4.790554122483823e-05   2.878067012759486e-06   -0.0001049260231754386
-4.790554122483823e-05   2.878067012759486e-06   -0.0001049260231754386
-7.215776790267745e-05   6.515589082085535e-06   -6.668815862063618e-05
-7.215776790267745e-05   6.515589082085535e-06   -6.668815862063618e-05
-7.215776790267745e-05   6.515589082085535e-06   -6.668815862063618e-05
-7.215776790267745e-05   6.515589082085535e-06   -6.668815862063618e-05
-4.790554122483823e-05   1.0461142850583596e-05   -2.6235496743104436e-05
-4.790554122483823e-05   1.0461142850583596e-05   -2.6235496743104436e-05
-4.790554122483823e-05   1.0461142850583596e-05   -2.6235496743104436e-05
-4.790554122483823e-05   1.0461142850583596e-05   -2.6235496743104436e-05
-9.511985708423886e-05   2.878067012759486e-06   -0.0001094758686781337
-9.511985708423886e-05   2.878067012759486e-06   -0.0001094758686781337
-9.511985708423886e-05   2.878067012759486e-06   -0.0001094758686781337
-9.511985708423886e-05   2.878067012759486e-06   -0.0001094758686781337
-9.193071218321798e-05   1.2034528509833296e-05   -2.8070594769739367e-05
-9.193071218321798e-05   1.2034528509833296e-05   -2.8070594769739367e-05
-9.193071218321798e-05   1.2034528509833296e-05   -2.8070594769739367e-05
-9.193071218321798e-05   1.2034528509833296e-05   -2.8070594769739367e-05
-4.577679193172787e-05   4.092597059471986e-06   -0.00010022863631867386
-4.577679193172787e-05   4.092597059471986e-06   -0.00010022863631867386
-4.577679193172787e-05   4.092597059471986e-06   -0.00010022863631867386
-4.577679193172787e-05   4.092597059471986e-06   -0.00010022863631867386
-6.91779007705033e-05   7.662404175999386e-06   -6.336867252396374e-05
-6.91779007705033e-05   7.662404175999386e-06   -6.336867252396374e-05
-6.91779007705033e-05   7.662404175999386e-06   -6.336867252396374e-05
-6.91779007705033e-05   7.662404175999386e-06   -6.336867252396374e-05
-4.577679193172776e-05   1.2034528509833296e-05   -2.330543589952258e-05
-4.577679193172776e-05   1.2034528509833296e-05   -2.330543589952258e-05
-4.577679193172776e-05   1.2034528509833296e-05   -2.330543589952258e-05
-4.577679193172776e-05   1.2034528509833296e-05   -2.330543589952258e-05
-9.193071218321813e-05   4.092597059471986e-06   -0.00010499379518888984
-9.193071218321813e-05   4.092597059471986e-06   -0.00010499379518888984
-9.193071218321813e-05   4.092597059471986e-06   -0.00010499379518888984
-9.193071218321813e-05   4.092597059471986e-06   -0.00010499379518888984
-8.950688219382948e-05   1.3777082634300851e-05   -2.815807116974883e-05
-8.950688219382948e-05   1.3777082634300851e-05   -2.815807116974883e-05
-8.950688219382948e-05   1.3777082634300851e-05   -2.815807116974883e-05
-8.950688219382948e-05   1.3777082634300851e-05   -2.815807116974883e-05
-4.434090081543788e-05   5.122099403200714e-06   -9.824171686174168e-05
-4.434090081543788e-05   5.122099403200714e-06   -9.824171686174168e-05
-4.434090081543788e-05   5.122099403200714e-06   -9.824171686174168e-05
-4.434090081543788e-05   5.122099403200714e-06   -9.824171686174168e-05
-6.749794436084493e-05   8.462240897060859e-06   -6.165072918237917e-05
-6.749794436084493e-05   8.462240897060859e-06   -6.165072918237917e-05
-6.749794436084493e-05   8.462240897060859e-06   -6.165072918237917e-05
-6.749794436084493e-05   8.462240897060859e-06   -6.165072918237917e-05
-9.842218067605834e-05   1.699974685081488e-05   -1.6583464885997455e-05
-9.842218067605834e-05   1.699974685081488e-05   -1.6583464885997455e-05
-9.842218067605834e-05   1.699974685081488e-05   -1.6583464885997455e-05
-9.842218067605834e-05   1.699974685081488e-05   -1.6583464885997455e-05
-0.00014874971941812516   1.601941357801638e-05   -0.0001010508960864547
-0.00014874971941812516   1.601941357801638e-05   -0.0001010508960864547
-0.00014874971941812516   1.601941357801638e-05   -0.0001010508960864547
-0.00014874971941812516   1.601941357801638e-05   -0.0001010508960864547
-0.00014226051368953122   1.9426259719079048e-05   -6.771406676478117e-07
-0.00014226051368953122   1.9426259719079048e-05   -6.771406676478117e-07
-0.00014226051368953122   1.9426259719079048e-05   -6.771406676478117e-07
-0.00014226051368953122   1.9426259719079048e-05   -6.771406676478117e-07
-9.511985708423852e-05   2.0319812266700495e-05   -7.978103320504258e-05
-9.511985708423852e-05   2.0319812266700495e-05   -7.978103320504258e-05
-9.511985708423852e-05   2.0319812266700495e-05   -7.978103320504258e-05
-9.511985708423852e-05   2.0319812266700495e-05   -7.978103320504258e-05
-0.00011591212865311984   1.916488866225176e-05   -4.4434293094238185e-05
-0.00011591212865311984   1.916488866225176e-05   -4.4434293094238185e-05
-0.00011591212865311984   1.916488866225176e-05   -4.4434293094238185e-05
-0.00011591212865311984   1.916488866225176e-05   -4.4434293094238185e-05
-9.511985708423878e-05   1.9426259719079048e-05   -1.213272196221634e-06
-9.511985708423878e-05   1.9426259719079048e-05   -1.213272196221634e-06
-9.511985708423878e-05   1.9426259719079048e-05   -1.213272196221634e-06
-9.511985708423878e-05   1.9426259719079048e-05   -1.213272196221634e-06
-0.00014226051368953122   2.0319812266700495e-05   -7.924490167646918e-05
-0.00014226051368953122   2.0319812266700495e-05   -7.924490167646918e-05
-0.00014226051368953122   2.0319812266700495e-05   -7.924490167646918e-05
-0.00014226051368953122   2.0319812266700495e-05   -7.924490167646918e-05
-0.00013687456430919984   2.0063395815583286e-05   8.314701935291293e-06
-0.00013687456430919984   2.0063395815583286e-05   8.314701935291293e-06
-0.00013687456430919984   2.0063395815583286e-05   8.314701935291293e-06
-0.00013687456430919984   2.0063395815583286e-05   8.314701935291293e-06
-9.193071218321798e-05   2.1284452866390108e-05   -6.732435250516225e-05
-9.193071218321798e-05   2.1284452866390108e-05   -6.732435250516225e-05
-9.193071218321798e-05   2.1284452866390108e-05   -6.732435250516225e-05
-9.193071218321798e-05   2.1284452866390108e-05   -6.732435250516225e-05
-0.00011343280703570372   2.056146270743714e-05   -3.105373365564694e-05
-0.00011343280703570372   2.056146270743714e-05   -3.105373365564694e-05
-0.00011343280703570372   2.056146270743714e-05   -3.105373365564694e-05
-0.00011343280703570372   2.056146270743714e-05   -3.105373365564694e-05
-9.193071218321813e-05   2.0063395815584154e-05   7.582067704807807e-06
-9.193071218321813e-05   2.0063395815584154e-05   7.582067704807807e-06
-9.193071218321813e-05   2.0063395815584154e-05   7.582067704807807e-06
-9.193071218321813e-05   2.0063395815584154e-05   7.582067704807807e-06
-0.00013687456430919957   2.1284452866390108e-05   -6.659171827467841e-05
-0.00013687456430919957   2.1284452866390108e-05   -6.659171827467841e-05
-0.00013687456430919957   2.1284452866390108e-05   -6.659171827467841e-05
-0.00013687456430919957   2.1284452866390108e-05   -6.659171827467841e-05
-0.00013124571344152867   2.061819905275694e-05   2.035237166124384e-05
-0.00013124571344152867   2.061819905275694e-05   2.035237166124384e-05
-0.00013124571344152867   2.061819905275694e-05   2.035237166124384e-05
-0.00013124571344152867   2.061819905275694e-05   2.035237166124384e-05
-8.950688219382948e-05   2.2953253270357847e-05   -5.0613379615481815e-05
-8.950688219382948e-05   2.2953253270357847e-05   -5.0613379615481815e-05
-8.950688219382948e-05   2.2953253270357847e-05   -5.0613379615481815e-05
-8.950688219382948e-05   2.2953253270357847e-05   -5.0613379615481815e-05
-0.00010800729576267412   2.103572559314544e-05   -1.8628840394414322e-05
-0.00010800729576267412   2.103572559314544e-05   -1.8628840394414322e-05
-0.00010800729576267412   2.103572559314544e-05   -1.8628840394414322e-05
-0.00010800729576267412   2.103572559314544e-05   -1.8628840394414322e-05
0.0001300365900049345   -1.955164940880931e-05   4.421590791027757e-05
0.0001300365900049345   -1.955164940880931e-05   4.421590791027757e-05
0.0001300365900049345   -1.955164940880931e-05   4.421590791027757e-05
0.0001300365900049345   -1.955164940880931e-05   4.421590791027757e-05
6.540882318296058e-05   -2.4748096068192248e-05   -6.661490478864201e-05
6.540882318296058e-05   -2.4748096068192248e-05   -6.661490478864201e-05
6.540882318296058e-05   -2.4748096068192248e-05   -6.661490478864201e-05
6.540882318296058e-05   -2.4748096068192248e-05   -6.661490478864201e-05
6.702180998405634e-05   -1.909175314266428e-05   3.168034465107295e-05
6.702180998405634e-05   -1.909175314266428e-05   3.168034465107295e-05
6.702180998405634e-05   -1.909175314266428e-05   3.168034465107295e-05
6.702180998405634e-05   -1.909175314266428e-05   3.168034465107295e-05
0.00013329621078294365   -2.5367044523254972e-05   -7.501181518538484e-05
0.00013329621078294365   -2.5367044523254972e-05   -7.501181518538484e-05
0.00013329621078294365   -2.5367044523254972e-05   -7.501181518538484e-05
0.00013329621078294365   -2.5367044523254972e-05   -7.501181518538484e-05
9.500274015860342e-05   -1.997228222537506e-05   -1.4426221523546252e-05
9.500274015860342e-05   -1.997228222537506e-05   -1.4426221523546252e-05
9.500274015860342e-05   -1.997228222537506e-05   -1.4426221523546252e-05
9.500274015860342e-05   -1.997228222537506e-05   -1.4426221523546252e-05
0.00013329621078294365   -1.909175314266428e-05   3.5445519479427624e-05
0.00013329621078294365   -1.909175314266428e-05   3.5445519479427624e-05
0.00013329621078294365   -1.909175314266428e-05   3.5445519479427624e-05
0.00013329621078294365   -1.909175314266428e-05   3.5445519479427624e-05
6.702180998405634e-05   -2.5367044523254972e-05   -7.877699001373941e-05
6.702180998405634e-05   -2.5367044523254972e-05   -7.877699001373941e-05
6.702180998405634e-05   -2.5367044523254972e-05   -7.877699001373941e-05
6.702180998405634e-05   -2.5367044523254972e-05   -7.877699001373941e-05
6.838553044631406e-05   -1.8430051393127436e-05   2.497835348023265e-05
6.838553044631406e-05   -1.8430051393127436e-05   2.497835348023265e-05
6.838553044631406e-05   -1.8430051393127436e-05   2.497835348023265e-05
6.838553044631406e-05   -1.8430051393127436e-05   2.497835348023265e-05
0.00013532915151583   -2.5140132849890695e-05   -8.256829942823631e-05
0.00013532915151583   -2.5140132849890695e-05   -8.256829942823631e-05
0.00013532915151583   -2.5140132849890695e-05   -8.256829942823631e-05
0.00013532915151583   -2.5140132849890695e-05   -8.256829942823631e-05
9.836520255189444e-05   -2.0606684870741118e-05   -2.3681786609166698e-05
9.836520255189444e-05   -2.0606684870741118e-05   -2.3681786609166698e-05
9.836520255189444e-05   -2.0606684870741118e-05   -2.3681786609166698e-05
9.836520255189444e-05   -2.0606684870741118e-05   -2.3681786609166698e-05
0.00013532915151583   -1.8430051393127436e-05   2.900440235429052e-05
0.00013532915151583   -1.8430051393127436e-05   2.900440235429052e-05
0.00013532915151583   -1.8430051393127436e-05   2.900440235429052e-05
0.00013532915151583   -1.8430051393127436e-05   2.900440235429052e-05
6.838553044631406e-05   -2.5140132849890695e-05   -8.659434830229386e-05
6.838553044631406e-05   -2.5140132849890695e-05   -8.659434830229386e-05
6.838553044631406e-05   -2.5140132849890695e-05   -8.659434830229386e-05
6.838553044631406e-05   -2.5140132849890695e-05   -8.659434830229386e-05
6.981248836487115e-05   -1.5845076622381625e-05   1.1957130386046951e-05
6.981248836487115e-05   -1.5845076622381625e-05   1.1957130386046951e-05
6.981248836487115e-05   -1.5845076622381625e-05   1.1957130386046951e-05
6.981248836487115e-05   -1.5845076622381625e-05   1.1957130386046951e-05
0.00013733072035420377   -2.374998979201657e-05   -9.583030836105976e-05
0.00013733072035420377   -2.374998979201657e-05   -9.583030836105976e-05
0.00013733072035420377   -2.374998979201657e-05   -9.583030836105976e-05
0.00013733072035420377   -2.374998979201657e-05   -9.583030836105976e-05
9.842820233464284e-05   -1.9836352854325258e-05   -3.334096049107337e-05
9.842820233464284e-05   -1.9836352854325258e-05   -3.334096049107337e-05
9.842820233464284e-05   -1.9836352854325258e-05   -3.334096049107337e-05
9.842820233464284e-05   -1.9836352854325258e-05   -3.334096049107337e-05
6.540882318296058e-05   -1.2716117377962674e-05   4.180597733924752e-06
6.540882318296058e-05   -1.2716117377962674e-05   4.180597733924752e-06
6.540882318296058e-05   -1.2716117377962674e-05   4.180597733924752e-06
6.540882318296058e-05   -1.2716117377962674e-05   4.180597733924752e-06
7.88095146690899e-06   -2.4939404441044755e-05   -9.903316069734356e-05
7.88095146690899e-06   -2.4939404441044755e-05   -9.903316069734356e-05
7.88095146690899e-06   -2.4939404441044755e-05   -9.903316069734356e-05
7.88095146690899e-06   -2.4939404441044755e-05   -9.903316069734356e-05
9.762304475877798e-06   -1.2113732806870968e-05   -8.314424959389444e-07
9.762304475877798e-06   -1.2113732806870968e-05   -8.314424959389444e-07
9.762304475877798e-06   -1.2113732806870968e-05   -8.314424959389444e-07
9.762304475877798e-06   -1.2113732806870968e-05   -8.314424959389444e-07
6.702180998405645e-05   -2.481694738482726e-05   -8.864202292946263e-05
6.702180998405645e-05   -2.481694738482726e-05   -8.864202292946263e-05
6.702180998405645e-05   -2.481694738482726e-05   -8.864202292946263e-05
6.702180998405645e-05   -2.481694738482726e-05   -8.864202292946263e-05
3.766737912767301e-05   -1.6818890001341763e-05   -4.451680593224854e-05
3.766737912767301e-05   -1.6818890001341763e-05   -4.451680593224854e-05
3.766737912767301e-05   -1.6818890001341763e-05   -4.451680593224854e-05
3.766737912767301e-05   -1.6818890001341763e-05   -4.451680593224854e-05
6.702180998405629e-05   -1.2113732806870968e-05   6.790486250835177e-06
6.702180998405629e-05   -1.2113732806870968e-05   6.790486250835177e-06
6.702180998405629e-05   -1.2113732806870968e-05   6.790486250835177e-06
6.702180998405629e-05   -1.2113732806870968e-05   6.790486250835177e-06
9.762304475877798e-06   -2.4816947384828127e-05   -9.626395167623659e-05
9.762304475877798e-06   -2.4816947384828127e-05   -9.626395167623659e-05
9.762304475877798e-06   -2.4816947384828127e-05   -9.626395167623659e-05
9.762304475877798e-06   -2.4816947384828127e-05   -9.626395167623659e-05
1.1460714716518501e-05   -1.098753589985884e-05   -1.4312164770846104e-06
1.1460714716518501e-05   -1.098753589985884e-05   -1.4312164770846104e-06
1.1460714716518501e-05   -1.098753589985884e-05   -1.4312164770846104e-06
1.1460714716518501e-05   -1.098753589985884e-05   -1.4312164770846104e-06
6.838553044631406e-05   -2.449121328505343e-05   -8.820370292895937e-05
6.838553044631406e-05   -2.449121328505343e-05   -8.820370292895937e-05
6.838553044631406e-05   -2.449121328505343e-05   -8.820370292895937e-05
6.838553044631406e-05   -2.449121328505343e-05   -8.820370292895937e-05
3.874034274976451e-05   -1.7010609958511246e-05   -4.3283418763968135e-05
3.874034274976451e-05   -1.7010609958511246e-05   -4.3283418763968135e-05
3.874034274976451e-05   -1.7010609958511246e-05   -4.3283418763968135e-05
3.874034274976451e-05   -1.7010609958511246e-05   -4.3283418763968135e-05
6.838553044631406e-05   -1.098753589985884e-05   6.670989954033098e-06
6.838553044631406e-05   -1.098753589985884e-05   6.670989954033098e-06
6.838553044631406e-05   -1.098753589985884e-05   6.670989954033098e-06
6.838553044631406e-05   -1.098753589985884e-05   6.670989954033098e-06
1.1460714716518501e-05   -2.449121328505343e-05   -9.630590936007648e-05
1.1460714716518501e-05   -2.449121328505343e-05   -9.630590936007648e-05
1.1460714716518501e-05   -2.449121328505343e-05   -9.630590936007648e-05
1.1460714716518501e-05   -2.449121328505343e-05   -9.630590936007648e-05
1.3994346765502057e-05   -9.385576954260184e-06   -2.5970572240566724e-06
1.3994346765502057e-05   -9.385576954260184e-06   -2.5970572240566724e-06
1.3994346765502057e-05   -9.385576954260184e-06   -2.5970572240566724e-06
1.3994346765502057e-05   -9.385576954260184e-06   -2.5970572240566724e-06
6.981248836487105e-05   -2.3835659720730998e-05   -8.695724356312239e-05
6.981248836487105e-05   -2.3835659720730998e-05   -8.695724356312239e-05
6.981248836487105e-05   -2.3835659720730998e-05   -8.695724356312239e-05
6.981248836487105e-05   -2.3835659720730998e-05   -8.695724356312239e-05
4.077428867299412e-05   -1.6755345928484017e-05   -4.2808432352009094e-05
4.077428867299412e-05   -1.6755345928484017e-05   -4.2808432352009094e-05
4.077428867299412e-05   -1.6755345928484017e-05   -4.2808432352009094e-05
4.077428867299412e-05   -1.6755345928484017e-05   -4.2808432352009094e-05
7.88095146690899e-06   -6.7485667530654825e-06   -1.0094395470647537e-05
7.88095146690899e-06   -6.7485667530654825e-06   -1.0094395470647537e-05
7.88095146690899e-06   -6.7485667530654825e-06   -1.0094395470647537e-05
7.88095146690899e-06   -6.7485667530654825e-06   -1.0094395470647537e-05
-4.905710043076928e-05   -3.0204064261958423e-05   -0.00011906444713878118
-4.905710043076928e-05   -3.0204064261958423e-05   -0.00011906444713878118
-4.905710043076928e-05   -3.0204064261958423e-05   -0.00011906444713878118
-4.905710043076928e-05   -3.0204064261958423e-05   -0.00011906444713878118
-4.612783833457507e-05   -6.040810105459836e-06   -2.161392974225993e-05
-4.612783833457507e-05   -6.040810105459836e-06   -2.161392974225993e-05
-4.612783833457507e-05   -6.040810105459836e-06   -2.161392974225993e-05
-4.612783833457507e-05   -6.040810105459836e-06   -2.161392974225993e-05
9.762304475877798e-06   -3.088059538200634e-05   -9.986029659375336e-05
9.762304475877798e-06   -3.088059538200634e-05   -9.986029659375336e-05
9.762304475877798e-06   -3.088059538200634e-05   -9.986029659375336e-05
9.762304475877798e-06   -3.088059538200634e-05   -9.986029659375336e-05
-1.872290666968013e-05   -1.710690244491938e-05   -6.064916044674245e-05
-1.872290666968013e-05   -1.710690244491938e-05   -6.064916044674245e-05
-1.872290666968013e-05   -1.710690244491938e-05   -6.064916044674245e-05
-1.872290666968013e-05   -1.710690244491938e-05   -6.064916044674245e-05
9.762304475877798e-06   -6.040810105459836e-06   -6.710058576332202e-06
9.762304475877798e-06   -6.040810105459836e-06   -6.710058576332202e-06
9.762304475877798e-06   -6.040810105459836e-06   -6.710058576332202e-06
9.762304475877798e-06   -6.040810105459836e-06   -6.710058576332202e-06
-4.612783833457513e-05   -3.088059538200721e-05   -0.00011476416775968185
-4.612783833457513e-05   -3.088059538200721e-05   -0.00011476416775968185
-4.612783833457513e-05   -3.088059538200721e-05   -0.00011476416775968185
-4.612783833457513e-05   -3.088059538200721e-05   -0.00011476416775968185
-4.3605124530649275e-05   -4.932248332274909e-06   -2.0197810728923675e-05
-4.3605124530649275e-05   -4.932248332274909e-06   -2.0197810728923675e-05
-4.3605124530649275e-05   -4.932248332274909e-06   -2.0197810728923675e-05
-4.3605124530649275e-05   -4.932248332274909e-06   -2.0197810728923675e-05
1.1460714716518501e-05   -3.0746456096674216e-05   -9.648568481556422e-05
1.1460714716518501e-05   -3.0746456096674216e-05   -9.648568481556422e-05
1.1460714716518501e-05   -3.0746456096674216e-05   -9.648568481556422e-05
1.1460714716518501e-05   -3.0746456096674216e-05   -9.648568481556422e-05
-1.6642165681751e-05   -1.7502001417234354e-05   -5.759422362611188e-05
-1.6642165681751e-05   -1.7502001417234354e-05   -5.759422362611188e-05
-1.6642165681751e-05   -1.7502001417234354e-05   -5.759422362611188e-05
-1.6642165681751e-05   -1.7502001417234354e-05   -5.759422362611188e-05
1.1460714716518501e-05   -4.932248332274909e-06   -4.709286070284525e-06
1.1460714716518501e-05   -4.932248332274909e-06   -4.709286070284525e-06
1.1460714716518501e-05   -4.932248332274909e-06   -4.709286070284525e-06
1.1460714716518501e-05   -4.932248332274909e-06   -4.709286070284525e-06
-4.360512453064944e-05   -3.0746456096674216e-05   -0.00011197420947420354
-4.360512453064944e-05   -3.0746456096674216e-05   -0.00011197420947420354
-4.360512453064944e-05   -3.0746456096674216e-05   -0.00011197420947420354
-4.360512453064944e-05   -3.0746456096674216e-05   -0.00011197420947420354
-3.925345475843235e-05   -3.881962816732441e-06   -2.010988662182493e-05
-3.925345475843235e-05   -3.881962816732441e-06   -2.010988662182493e-05
-3.925345475843235e-05   -3.881962816732441e-06   -2.010988662182493e-05
-3.925345475843235e-05   -3.881962816732441e-06   -2.010988662182493e-05
1.3994346765502057e-05   -2.9680417355473776e-05   -9.337714977180489e-05
1.3994346765502057e-05   -2.9680417355473776e-05   -9.337714977180489e-05
1.3994346765502057e-05   -2.9680417355473776e-05   -9.337714977180489e-05
1.3994346765502057e-05   -2.9680417355473776e-05   -9.337714977180489e-05
-1.3938726078268067e-05   -1.7123283652701986e-05   -5.435630858718432e-05
-1.3938726078268067e-05   -1.7123283652701986e-05   -5.435630858718432e-05
-1.3938726078268067e-05   -1.7123283652701986e-05   -5.435630858718432e-05
-1.3938726078268067e-05   -1.7123283652701986e-05   -5.435630858718432e-05
-4.90571004307692e-05   1.5598171066010663e-06   -1.4096646633025237e-05
-4.90571004307692e-05   1.5598171066010663e-06   -1.4096646633025237e-05
-4.90571004307692e-05   1.5598171066010663e-06   -1.4096646633025237e-05
-4.90571004307692e-05   1.5598171066010663e-06   -1.4096646633025237e-05
-0.00011262912506967278   -3.777551914257819e-05   -0.0001436512227807052
-0.00011262912506967278   -3.777551914257819e-05   -0.0001436512227807052
-0.00011262912506967278   -3.777551914257819e-05   -0.0001436512227807052
-0.00011262912506967278   -3.777551914257819e-05   -0.0001436512227807052
-0.00010913993213056105   2.8780670127586186e-06   -3.653097319456259e-05
-0.00010913993213056105   2.8780670127586186e-06   -3.653097319456259e-05
-0.00010913993213056105   2.8780670127586186e-06   -3.653097319456259e-05
-0.00010913993213056105   2.8780670127586186e-06   -3.653097319456259e-05
-4.612783833457507e-05   -4.2132952554996966e-05   -0.00011454451778055113
-4.612783833457507e-05   -4.2132952554996966e-05   -0.00011454451778055113
-4.612783833457507e-05   -4.2132952554996966e-05   -0.00011454451778055113
-4.612783833457507e-05   -4.2132952554996966e-05   -0.00011454451778055113
-7.809242323289427e-05   -1.9271032985409067e-05   -7.498736135843937e-05
-7.809242323289427e-05   -1.9271032985409067e-05   -7.498736135843937e-05
-7.809242323289427e-05   -1.9271032985409067e-05   -7.498736135843937e-05
-7.809242323289427e-05   -1.9271032985409067e-05   -7.498736135843937e-05
-4.612783833457507e-05   2.8780670127586186e-06   -9.524361453908375e-06
-4.612783833457507e-05   2.8780670127586186e-06   -9.524361453908375e-06
-4.612783833457507e-05   2.8780670127586186e-06   -9.524361453908375e-06
-4.612783833457507e-05   2.8780670127586186e-06   -9.524361453908375e-06
-0.00010913993213056105   -4.2132952554996966e-05   -0.00014155112952120557
-0.00010913993213056105   -4.2132952554996966e-05   -0.00014155112952120557
-0.00010913993213056105   -4.2132952554996966e-05   -0.00014155112952120557
-0.00010913993213056105   -4.2132952554996966e-05   -0.00014155112952120557
-0.00010579420959190661   4.092597059471986e-06   -3.268696187727063e-05
-0.00010579420959190661   4.092597059471986e-06   -3.268696187727063e-05
-0.00010579420959190661   4.092597059471986e-06   -3.268696187727063e-05
-0.00010579420959190661   4.092597059471986e-06   -3.268696187727063e-05
-4.3605124530649356e-05   -4.237848751194231e-05   -0.00010845278623651755
-4.3605124530649356e-05   -4.237848751194231e-05   -0.00010845278623651755
-4.3605124530649356e-05   -4.237848751194231e-05   -0.00010845278623651755
-4.3605124530649356e-05   -4.237848751194231e-05   -0.00010845278623651755
-7.469060022576089e-05   -1.9345789809686008e-05   -7.046327869935205e-05
-7.469060022576089e-05   -1.9345789809686008e-05   -7.046327869935205e-05
-7.469060022576089e-05   -1.9345789809686008e-05   -7.046327869935205e-05
-7.469060022576089e-05   -1.9345789809686008e-05   -7.046327869935205e-05
-4.36051245306493e-05   4.092597059471986e-06   -4.804311134421792e-06
-4.36051245306493e-05   4.092597059471986e-06   -4.804311134421792e-06
-4.36051245306493e-05   4.092597059471986e-06   -4.804311134421792e-06
-4.36051245306493e-05   4.092597059471986e-06   -4.804311134421792e-06
-0.00010579420959190677   -4.237848751194231e-05   -0.00013633543697936677
-0.00010579420959190677   -4.237848751194231e-05   -0.00013633543697936677
-0.00010579420959190677   -4.237848751194231e-05   -0.00013633543697936677
-0.00010579420959190677   -4.237848751194231e-05   -0.00013633543697936677
-0.00010031724721008763   5.122099403200714e-06   -2.8764703702704748e-05
-0.00010031724721008763   5.122099403200714e-06   -2.8764703702704748e-05
-0.00010031724721008763   5.122099403200714e-06   -2.8764703702704748e-05
-0.00010031724721008763   5.122099403200714e-06   -2.8764703702704748e-05
-3.925345475843249e-05   -3.873741836573578e-05   -0.00010422198046076872
-3.925345475843249e-05   -3.873741836573578e-05   -0.00010422198046076872
-3.925345475843249e-05   -3.873741836573578e-05   -0.00010422198046076872
-3.925345475843249e-05   -3.873741836573578e-05   -0.00010422198046076872
-7.13233237318855e-05   -1.7131484849129686e-05   -6.373575894830902e-05
-7.13233237318855e-05   -1.7131484849129686e-05   -6.373575894830902e-05
-7.13233237318855e-05   -1.7131484849129686e-05   -6.373575894830902e-05
-7.13233237318855e-05   -1.7131484849129686e-05   -6.373575894830902e-05
-0.00011262912506967278   1.601941357801725e-05   -2.47249014104136e-05
-0.00011262912506967278   1.601941357801725e-05   -2.47249014104136e-05
-0.00011262912506967278   1.601941357801725e-05   -2.47249014104136e-05
-0.00011262912506967278   1.601941357801725e-05   -2.47249014104136e-05
-0.00019416735828248192   0.0   -0.00017023360491190626
-0.00019416735828248192   0.0   -0.00017023360491190626
-0.00019416735828248192   0.0   -0.00017023360491190626
-0.00019416735828248192   0.0   -0.00017023360491190626
-0.0001890538795878089   2.0319812266701362e-05   -1.9028025081492365e-05
-0.0001890538795878089   2.0319812266701362e-05   -1.9028025081492365e-05
-0.0001890538795878089   2.0319812266701362e-05   -1.9028025081492365e-05
-0.0001890538795878089   2.0319812266701362e-05   -1.9028025081492365e-05
-0.00010913993213056086   0.0   -0.00014002605015021852
-0.00010913993213056086   0.0   -0.00014002605015021852
-0.00010913993213056086   0.0   -0.00014002605015021852
-0.00010913993213056086   0.0   -0.00014002605015021852
-0.00014481884273067852   6.187399868509344e-06   -8.427363907112791e-05
-0.00014481884273067852   6.187399868509344e-06   -8.427363907112791e-05
-0.00014481884273067852   6.187399868509344e-06   -8.427363907112791e-05
-0.00014481884273067852   6.187399868509344e-06   -8.427363907112791e-05
-0.00010913993213056094   2.0319812266701362e-05   -6.8361377214714615e-06
-0.00010913993213056094   2.0319812266701362e-05   -6.8361377214714615e-06
-0.00010913993213056094   2.0319812266701362e-05   -6.8361377214714615e-06
-0.00010913993213056094   2.0319812266701362e-05   -6.8361377214714615e-06
-0.00018905387958780855   0.0   -0.00015221793751023878
-0.00018905387958780855   0.0   -0.00015221793751023878
-0.00018905387958780855   0.0   -0.00015221793751023878
-0.00018905387958780855   0.0   -0.00015221793751023878
-0.00018473332061910182   2.1284452866390108e-05   -7.788190913377013e-06
-0.00018473332061910182   2.1284452866390108e-05   -7.788190913377013e-06
-0.00018473332061910182   2.1284452866390108e-05   -7.788190913377013e-06
-0.00018473332061910182   2.1284452866390108e-05   -7.788190913377013e-06
-0.00010579420959190677   0.0   -0.0001265827042388689
-0.00010579420959190677   0.0   -0.0001265827042388689
-0.00010579420959190677   0.0   -0.0001265827042388689
-0.00010579420959190677   0.0   -0.0001265827042388689
-0.00014327382047416026   9.834294071427163e-06   -7.001726254463378e-05
-0.00014327382047416026   9.834294071427163e-06   -7.001726254463378e-05
-0.00014327382047416026   9.834294071427163e-06   -7.001726254463378e-05
-0.00014327382047416026   9.834294071427163e-06   -7.001726254463378e-05
-0.00010579420959190677   2.1284452866390108e-05   4.982480806456444e-06
-0.00010579420959190677   2.1284452866390108e-05   4.982480806456444e-06
-0.00010579420959190677   2.1284452866390108e-05   4.982480806456444e-06
-0.00010579420959190677   2.1284452866390108e-05   4.982480806456444e-06
-0.0001847333206191015   0.0   -0.00013935337595870215
-0.0001847333206191015   0.0   -0.00013935337595870215
-0.0001847333206191015   0.0   -0.00013935337595870215
-0.0001847333206191015   0.0   -0.00013935337595870215
-0.000176118223112509   2.2953253270357847e-05   1.0284671519999924e-05
-0.000176118223112509   2.2953253270357847e-05   1.0284671519999924e-05
-0.000176118223112509   2.2953253270357847e-05   1.0284671519999924e-05
-0.000176118223112509   2.2953253270357847e-05   1.0284671519999924e-05
-0.00010031724721008782   0.0   -0.00010227833635515415
-0.00010031724721008782   0.0   -0.00010227833635515415
-0.00010031724721008782   0.0   -0.00010227833635515415
-0.00010031724721008782   0.0   -0.00010227833635515415
-0.00013577278886336725   1.2138935638435731e-05   -5.04691283160833e-05
-0.00013577278886336725   1.2138935638435731e-05   -5.04691283160833e-05
-0.00013577278886336725   1.2138935638435731e-05   -5.04691283160833e-05
-0.00013577278886336725   1.2138935638435731e-05   -5.04691283160833e-05
0.00014386829879773735   -2.4748096068192248e-05   8.595860283043023e-05
0.00014386829879773735   -2.4748096068192248e-05   8.595860283043023e-05
0.00014386829879773735   -2.4748096068192248e-05   8.595860283043023e-05
0.00014386829879773735   -2.4748096068192248e-05   8.595860283043023e-05
7.469695510844352e-05   -1.902947926428738e-05   -2.5895799902716718e-05
7.469695510844352e-05   -1.902947926428738e-05   -2.5895799902716718e-05
7.469695510844352e-05   -1.902947926428738e-05   -2.5895799902716718e-05
7.469695510844352e-05   -1.902947926428738e-05   -2.5895799902716718e-05
7.280691459412265e-05   -2.5367044523254972e-05   7.596508671275752e-05
7.280691459412265e-05   -2.5367044523254972e-05   7.596508671275752e-05
7.280691459412265e-05   -2.5367044523254972e-05   7.596508671275752e-05
7.280691459412265e-05   -2.5367044523254972e-05   7.596508671275752e-05
0.00014231455215666554   -2.0929857280420523e-05   -4.2543288237181657e-05
0.00014231455215666554   -2.0929857280420523e-05   -4.2543288237181657e-05
0.00014231455215666554   -2.0929857280420523e-05   -4.2543288237181657e-05
0.00014231455215666554   -2.0929857280420523e-05   -4.2543288237181657e-05
0.0001039878298715813   -2.1302786992816354e-05   2.1558340065395954e-05
0.0001039878298715813   -2.1302786992816354e-05   2.1558340065395954e-05
0.0001039878298715813   -2.1302786992816354e-05   2.1558340065395954e-05
0.0001039878298715813   -2.1302786992816354e-05   2.1558340065395954e-05
0.00014231455215666554   -2.5367044523254972e-05   7.33027743670565e-05
0.00014231455215666554   -2.5367044523254972e-05   7.33027743670565e-05
0.00014231455215666554   -2.5367044523254972e-05   7.33027743670565e-05
0.00014231455215666554   -2.5367044523254972e-05   7.33027743670565e-05
7.280691459412265e-05   -2.0929857280420523e-05   -3.988097589148086e-05
7.280691459412265e-05   -2.0929857280420523e-05   -3.988097589148086e-05
7.280691459412265e-05   -2.0929857280420523e-05   -3.988097589148086e-05
7.280691459412265e-05   -2.0929857280420523e-05   -3.988097589148086e-05
7.109815063707192e-05   -2.5140132849890695e-05   6.822793888453362e-05
7.109815063707192e-05   -2.5140132849890695e-05   6.822793888453362e-05
7.109815063707192e-05   -2.5140132849890695e-05   6.822793888453362e-05
7.109815063707192e-05   -2.5140132849890695e-05   6.822793888453362e-05
0.00014052149021866777   -2.110777665900558e-05   -4.9897040799323637e-05
0.00014052149021866777   -2.110777665900558e-05   -4.9897040799323637e-05
0.00014052149021866777   -2.110777665900558e-05   -4.9897040799323637e-05
0.00014052149021866777   -2.110777665900558e-05   -4.9897040799323637e-05
0.00010389607319882001   -2.1676289927429274e-05   1.1486428861476772e-05
0.00010389607319882001   -2.1676289927429274e-05   1.1486428861476772e-05
0.00010389607319882001   -2.1676289927429274e-05   1.1486428861476772e-05
0.00010389607319882001   -2.1676289927429274e-05   1.1486428861476772e-05
0.00014052149021866805   -2.5140132849890695e-05   6.58085251700022e-05
0.00014052149021866805   -2.5140132849890695e-05   6.58085251700022e-05
0.00014052149021866805   -2.5140132849890695e-05   6.58085251700022e-05
0.00014052149021866805   -2.5140132849890695e-05   6.58085251700022e-05
7.109815063707192e-05   -2.110777665900558e-05   -4.747762708479271e-05
7.109815063707192e-05   -2.110777665900558e-05   -4.747762708479271e-05
7.109815063707192e-05   -2.110777665900558e-05   -4.747762708479271e-05
7.109815063707192e-05   -2.110777665900558e-05   -4.747762708479271e-05
6.901395937653989e-05   -2.374998979201657e-05   5.564041530199985e-05
6.901395937653989e-05   -2.374998979201657e-05   5.564041530199985e-05
6.901395937653989e-05   -2.374998979201657e-05   5.564041530199985e-05
6.901395937653989e-05   -2.374998979201657e-05   5.564041530199985e-05
0.00013771243617468693   -2.0677727236843857e-05   -6.0700403561349226e-05
0.00013771243617468693   -2.0677727236843857e-05   -6.0700403561349226e-05
0.00013771243617468693   -2.0677727236843857e-05   -6.0700403561349226e-05
0.00013771243617468693   -2.0677727236843857e-05   -6.0700403561349226e-05
0.00010033780173198783   -2.061314436202326e-05   1.5519041182567419e-06
0.00010033780173198783   -2.061314436202326e-05   1.5519041182567419e-06
0.00010033780173198783   -2.061314436202326e-05   1.5519041182567419e-06
0.00010033780173198783   -2.061314436202326e-05   1.5519041182567419e-06
7.469695510844352e-05   -2.4939404441044755e-05   6.430548924192016e-05
7.469695510844352e-05   -2.4939404441044755e-05   6.430548924192016e-05
7.469695510844352e-05   -2.4939404441044755e-05   6.430548924192016e-05
7.469695510844352e-05   -2.4939404441044755e-05   6.430548924192016e-05
1.6060945927276644e-05   -1.1813203308711287e-05   -2.5545472047291528e-05
1.6060945927276644e-05   -1.1813203308711287e-05   -2.5545472047291528e-05
1.6060945927276644e-05   -1.1813203308711287e-05   -2.5545472047291528e-05
1.6060945927276644e-05   -1.1813203308711287e-05   -2.5545472047291528e-05
1.3069458869191254e-05   -2.4816947384828127e-05   7.347052782343379e-05
1.3069458869191254e-05   -2.4816947384828127e-05   7.347052782343379e-05
1.3069458869191254e-05   -2.4816947384828127e-05   7.347052782343379e-05
1.3069458869191254e-05   -2.4816947384828127e-05   7.347052782343379e-05
7.280691459412265e-05   -1.2532824007495044e-05   -3.346237241118452e-05
7.280691459412265e-05   -1.2532824007495044e-05   -3.346237241118452e-05
7.280691459412265e-05   -1.2532824007495044e-05   -3.346237241118452e-05
7.280691459412265e-05   -1.2532824007495044e-05   -3.346237241118452e-05
4.4099205391007735e-05   -1.7840639323314644e-05   1.7568498783498315e-05
4.4099205391007735e-05   -1.7840639323314644e-05   1.7568498783498315e-05
4.4099205391007735e-05   -1.7840639323314644e-05   1.7568498783498315e-05
4.4099205391007735e-05   -1.7840639323314644e-05   1.7568498783498315e-05
7.280691459412268e-05   -2.481694738482726e-05   6.61000537970349e-05
7.280691459412268e-05   -2.481694738482726e-05   6.61000537970349e-05
7.280691459412268e-05   -2.481694738482726e-05   6.61000537970349e-05
7.280691459412268e-05   -2.481694738482726e-05   6.61000537970349e-05
1.3069458869191254e-05   -1.2532824007495044e-05   -2.609189838478519e-05
1.3069458869191254e-05   -1.2532824007495044e-05   -2.609189838478519e-05
1.3069458869191254e-05   -1.2532824007495044e-05   -2.609189838478519e-05
1.3069458869191254e-05   -1.2532824007495044e-05   -2.609189838478519e-05
1.0937845757958385e-05   -2.449121328505343e-05   7.359920234940084e-05
1.0937845757958385e-05   -2.449121328505343e-05   7.359920234940084e-05
1.0937845757958385e-05   -2.449121328505343e-05   7.359920234940084e-05
1.0937845757958385e-05   -2.449121328505343e-05   7.359920234940084e-05
7.109815063707192e-05   -1.2856849799166258e-05   -3.364859054065457e-05
7.109815063707192e-05   -1.2856849799166258e-05   -3.364859054065457e-05
7.109815063707192e-05   -1.2856849799166258e-05   -3.364859054065457e-05
7.109815063707192e-05   -1.2856849799166258e-05   -3.364859054065457e-05
4.153880546470903e-05   -1.7478193454270423e-05   1.8389790939680724e-05
4.153880546470903e-05   -1.7478193454270423e-05   1.8389790939680724e-05
4.153880546470903e-05   -1.7478193454270423e-05   1.8389790939680724e-05
4.153880546470903e-05   -1.7478193454270423e-05   1.8389790939680724e-05
7.109815063707203e-05   -2.4491213285054297e-05   6.661858425786827e-05
7.109815063707203e-05   -2.4491213285054297e-05   6.661858425786827e-05
7.109815063707203e-05   -2.4491213285054297e-05   6.661858425786827e-05
7.109815063707203e-05   -2.4491213285054297e-05   6.661858425786827e-05
1.0937845757958385e-05   -1.2856849799166258e-05   -2.6667972449121845e-05
1.0937845757958385e-05   -1.2856849799166258e-05   -2.6667972449121845e-05
1.0937845757958385e-05   -1.2856849799166258e-05   -2.6667972449121845e-05
1.0937845757958385e-05   -1.2856849799166258e-05   -2.6667972449121845e-05
8.565952090437072e-06   -2.3835659720730998e-05   7.60133473407731e-05
8.565952090437072e-06   -2.3835659720730998e-05   7.60133473407731e-05
8.565952090437072e-06   -2.3835659720730998e-05   7.60133473407731e-05
8.565952090437072e-06   -2.3835659720730998e-05   7.60133473407731e-05
6.901395937653984e-05   -1.2574127488972076e-05   -3.149025080845388e-05
6.901395937653984e-05   -1.2574127488972076e-05   -3.149025080845388e-05
6.901395937653984e-05   -1.2574127488972076e-05   -3.149025080845388e-05
6.901395937653984e-05   -1.2574127488972076e-05   -3.149025080845388e-05
3.9969738496053816e-05   -1.6716931523525803e-05   1.9402466413088234e-05
3.9969738496053816e-05   -1.6716931523525803e-05   1.9402466413088234e-05
3.9969738496053816e-05   -1.6716931523525803e-05   1.9402466413088234e-05
3.9969738496053816e-05   -1.6716931523525803e-05   1.9402466413088234e-05
1.6060945927276726e-05   -3.0204064261958423e-05   6.62232219852195e-05
1.6060945927276726e-05   -3.0204064261958423e-05   6.62232219852195e-05
1.6060945927276726e-05   -3.0204064261958423e-05   6.62232219852195e-05
1.6060945927276726e-05   -3.0204064261958423e-05   6.62232219852195e-05
-4.0255589254562326e-05   -5.03978618557506e-06   -1.2539103138683137e-05
-4.0255589254562326e-05   -5.03978618557506e-06   -1.2539103138683137e-05
-4.0255589254562326e-05   -5.03978618557506e-06   -1.2539103138683137e-05
-4.0255589254562326e-05   -5.03978618557506e-06   -1.2539103138683137e-05
-4.491043461903743e-05   -3.088059538200721e-05   8.520811823440385e-05
-4.491043461903743e-05   -3.088059538200721e-05   8.520811823440385e-05
-4.491043461903743e-05   -3.088059538200721e-05   8.520811823440385e-05
-4.491043461903743e-05   -3.088059538200721e-05   8.520811823440385e-05
1.3069458869191281e-05   -5.324036501195423e-06   -2.6758972907797555e-05
1.3069458869191281e-05   -5.324036501195423e-06   -2.6758972907797555e-05
1.3069458869191281e-05   -5.324036501195423e-06   -2.6758972907797555e-05
1.3069458869191281e-05   -5.324036501195423e-06   -2.6758972907797555e-05
-1.3500253038114756e-05   -1.7289614358120126e-05   2.4703226985201953e-05
-1.3500253038114756e-05   -1.7289614358120126e-05   2.4703226985201953e-05
-1.3500253038114756e-05   -1.7289614358120126e-05   2.4703226985201953e-05
-1.3500253038114756e-05   -1.7289614358120126e-05   2.4703226985201953e-05
1.3069458869191254e-05   -3.088059538200634e-05   6.987418290591669e-05
1.3069458869191254e-05   -3.088059538200634e-05   6.987418290591669e-05
1.3069458869191254e-05   -3.088059538200634e-05   6.987418290591669e-05
1.3069458869191254e-05   -3.088059538200634e-05   6.987418290591669e-05
-4.4910434619037295e-05   -5.324036501194555e-06   -1.1425037579310127e-05
-4.4910434619037295e-05   -5.324036501194555e-06   -1.1425037579310127e-05
-4.4910434619037295e-05   -5.324036501194555e-06   -1.1425037579310127e-05
-4.4910434619037295e-05   -5.324036501194555e-06   -1.1425037579310127e-05
-4.7752779759150694e-05   -3.0746456096674216e-05   8.846463966086194e-05
-4.7752779759150694e-05   -3.0746456096674216e-05   8.846463966086194e-05
-4.7752779759150694e-05   -3.0746456096674216e-05   8.846463966086194e-05
-4.7752779759150694e-05   -3.0746456096674216e-05   8.846463966086194e-05
1.0937845757958385e-05   -5.671101485093394e-06   -2.4398282301268427e-05
1.0937845757958385e-05   -5.671101485093394e-06   -2.4398282301268427e-05
1.0937845757958385e-05   -5.671101485093394e-06   -2.4398282301268427e-05
1.0937845757958385e-05   -5.671101485093394e-06   -2.4398282301268427e-05
-1.6650264317702394e-05   -1.724202324154475e-05   2.852445421203749e-05
-1.6650264317702394e-05   -1.724202324154475e-05   2.852445421203749e-05
-1.6650264317702394e-05   -1.724202324154475e-05   2.852445421203749e-05
-1.6650264317702394e-05   -1.724202324154475e-05   2.852445421203749e-05
1.0937845757958358e-05   -3.0746456096674216e-05   7.341942689391336e-05
1.0937845757958358e-05   -3.0746456096674216e-05   7.341942689391336e-05
1.0937845757958358e-05   -3.0746456096674216e-05   7.341942689391336e-05
1.0937845757958358e-05   -3.0746456096674216e-05   7.341942689391336e-05
-4.775277975915061e-05   -5.671101485093394e-06   -9.353069534319414e-06
-4.775277975915061e-05   -5.671101485093394e-06   -9.353069534319414e-06
-4.775277975915061e-05   -5.671101485093394e-06   -9.353069534319414e-06
-4.775277975915061e-05   -5.671101485093394e-06   -9.353069534319414e-06
-5.109901537966806e-05   -2.9680417355473776e-05   9.26856702049019e-05
-5.109901537966806e-05   -2.9680417355473776e-05   9.26856702049019e-05
-5.109901537966806e-05   -2.9680417355473776e-05   9.26856702049019e-05
-5.109901537966806e-05   -2.9680417355473776e-05   9.26856702049019e-05
8.565952090437099e-06   -5.643451667259637e-06   -2.117812165820164e-05
8.565952090437099e-06   -5.643451667259637e-06   -2.117812165820164e-05
8.565952090437099e-06   -5.643451667259637e-06   -2.117812165820164e-05
8.565952090437099e-06   -5.643451667259637e-06   -2.117812165820164e-05
-1.92139220065492e-05   -1.6565630645544102e-05   3.16749758904123e-05
-1.92139220065492e-05   -1.6565630645544102e-05   3.16749758904123e-05
-1.92139220065492e-05   -1.6565630645544102e-05   3.16749758904123e-05
-1.92139220065492e-05   -1.6565630645544102e-05   3.16749758904123e-05
-4.025558925456238e-05   -3.777551914257819e-05   8.033621493863229e-05
-4.025558925456238e-05   -3.777551914257819e-05   8.033621493863229e-05
-4.025558925456238e-05   -3.777551914257819e-05   8.033621493863229e-05
-4.025558925456238e-05   -3.777551914257819e-05   8.033621493863229e-05
-0.0001044660322928847   5.2130292473064055e-06   -8.880610913083314e-07
-0.0001044660322928847   5.2130292473064055e-06   -8.880610913083314e-07
-0.0001044660322928847   5.2130292473064055e-06   -8.880610913083314e-07
-0.0001044660322928847   5.2130292473064055e-06   -8.880610913083314e-07
-0.00011004956453826141   -4.2132952554996966e-05   0.00011363734694283447
-0.00011004956453826141   -4.2132952554996966e-05   0.00011363734694283447
-0.00011004956453826141   -4.2132952554996966e-05   0.00011363734694283447
-0.00011004956453826141   -4.2132952554996966e-05   0.00011363734694283447
-4.4910434619037295e-05   4.883011993836277e-06   -2.3137448318505806e-05
-4.4910434619037295e-05   4.883011993836277e-06   -2.3137448318505806e-05
-4.4910434619037295e-05   4.883011993836277e-06   -2.3137448318505806e-05
-4.4910434619037295e-05   4.883011993836277e-06   -2.3137448318505806e-05
-7.386651842718234e-05   -1.5775677148700817e-05   3.7517904847258576e-05
-7.386651842718234e-05   -1.5775677148700817e-05   3.7517904847258576e-05
-7.386651842718234e-05   -1.5775677148700817e-05   3.7517904847258576e-05
-7.386651842718234e-05   -1.5775677148700817e-05   3.7517904847258576e-05
-4.491043461903743e-05   -4.2132952554996966e-05   8.542776821353392e-05
-4.491043461903743e-05   -4.2132952554996966e-05   8.542776821353392e-05
-4.491043461903743e-05   -4.2132952554996966e-05   8.542776821353392e-05
-4.491043461903743e-05   -4.2132952554996966e-05   8.542776821353392e-05
-0.00011004956453826141   4.883011993837144e-06   5.072130410794639e-06
-0.00011004956453826141   4.883011993837144e-06   5.072130410794639e-06
-0.00011004956453826141   4.883011993837144e-06   5.072130410794639e-06
-0.00011004956453826141   4.883011993837144e-06   5.072130410794639e-06
-0.00011345480404354312   -4.237848751194231e-05   0.00011998577674889694
-0.00011345480404354312   -4.237848751194231e-05   0.00011998577674889694
-0.00011345480404354312   -4.237848751194231e-05   0.00011998577674889694
-0.00011345480404354312   -4.237848751194231e-05   0.00011998577674889694
-4.775277975915061e-05   4.2877022386391545e-06   -1.751731090877197e-05
-4.775277975915061e-05   4.2877022386391545e-06   -1.751731090877197e-05
-4.775277975915061e-05   4.2877022386391545e-06   -1.751731090877197e-05
-4.775277975915061e-05   4.2877022386391545e-06   -1.751731090877197e-05
-7.750069122644591e-05   -1.8129402100790573e-05   4.551280414037738e-05
-7.750069122644591e-05   -1.8129402100790573e-05   4.551280414037738e-05
-7.750069122644591e-05   -1.8129402100790573e-05   4.551280414037738e-05
-7.750069122644591e-05   -1.8129402100790573e-05   4.551280414037738e-05
-4.7752779759150586e-05   -4.237848751194231e-05   9.198606289854885e-05
-4.7752779759150586e-05   -4.237848751194231e-05   9.198606289854885e-05
-4.7752779759150586e-05   -4.237848751194231e-05   9.198606289854885e-05
-4.7752779759150586e-05   -4.237848751194231e-05   9.198606289854885e-05
-0.00011345480404354296   4.2877022386391545e-06   1.0482402941576398e-05
-0.00011345480404354296   4.2877022386391545e-06   1.0482402941576398e-05
-0.00011345480404354296   4.2877022386391545e-06   1.0482402941576398e-05
-0.00011345480404354296   4.2877022386391545e-06   1.0482402941576398e-05
-0.00011712146997508685   -3.873741836573578e-05   0.00012273158629455723
-0.00011712146997508685   -3.873741836573578e-05   0.00012273158629455723
-0.00011712146997508685   -3.873741836573578e-05   0.00012273158629455723
-0.00011712146997508685   -3.873741836573578e-05   0.00012273158629455723
-5.1099015379667896e-05   3.6153717265551347e-06   -1.2717512086515316e-05
-5.1099015379667896e-05   3.6153717265551347e-06   -1.2717512086515316e-05
-5.1099015379667896e-05   3.6153717265551347e-06   -1.2717512086515316e-05
-5.1099015379667896e-05   3.6153717265551347e-06   -1.2717512086515316e-05
-8.123661642383459e-05   -1.8271429117953236e-05   5.0643903493802623e-05
-8.123661642383459e-05   -1.8271429117953236e-05   5.0643903493802623e-05
-8.123661642383459e-05   -1.8271429117953236e-05   5.0643903493802623e-05
-8.123661642383459e-05   -1.8271429117953236e-05   5.0643903493802623e-05
-0.00010446603229288435   0.0   8.915860998817086e-05
-0.00010446603229288435   0.0   8.915860998817086e-05
-0.00010446603229288435   0.0   8.915860998817086e-05
-0.00010446603229288435   0.0   8.915860998817086e-05
-0.00018422826264829486   2.4128344251766846e-05   -2.9301434053119208e-05
-0.00018422826264829486   2.4128344251766846e-05   -2.9301434053119208e-05
-0.00018422826264829486   2.4128344251766846e-05   -2.9301434053119208e-05
-0.00018422826264829486   2.4128344251766846e-05   -2.9301434053119208e-05
-0.00019194767015681295   0.0   0.00012912140514278114
-0.00019194767015681295   0.0   0.00012912140514278114
-0.00019194767015681295   0.0   0.00012912140514278114
-0.00019194767015681295   0.0   0.00012912140514278114
-0.00011004956453826122   2.326496471493321e-05   -2.1334416383765055e-05
-0.00011004956453826122   2.326496471493321e-05   -2.1334416383765055e-05
-0.00011004956453826122   2.326496471493321e-05   -2.1334416383765055e-05
-0.00011004956453826122   2.326496471493321e-05   -2.1334416383765055e-05
-0.00014137204874900585   1.4316766862611068e-05   3.6238642678869176e-05
-0.00014137204874900585   1.4316766862611068e-05   3.6238642678869176e-05
-0.00014137204874900585   1.4316766862611068e-05   3.6238642678869176e-05
-0.00014137204874900585   1.4316766862611068e-05   3.6238642678869176e-05
-0.00011004956453826111   0.0   0.0001151624263138213
-0.00011004956453826111   0.0   0.0001151624263138213
-0.00011004956453826111   0.0   0.0001151624263138213
-0.00011004956453826111   0.0   0.0001151624263138213
-0.00019194767015681325   2.326496471493321e-05   -7.375437554805325e-06
-0.00019194767015681325   2.326496471493321e-05   -7.375437554805325e-06
-0.00019194767015681325   2.326496471493321e-05   -7.375437554805325e-06
-0.00019194767015681325   2.326496471493321e-05   -7.375437554805325e-06
-0.00019583776236998526   0.0   0.0001433344434922973
-0.00019583776236998526   0.0   0.0001433344434922973
-0.00019583776236998526   0.0   0.0001433344434922973
-0.00019583776236998526   0.0   0.0001433344434922973
-0.00011345480404354296   2.2659890004837584e-05   -7.566421054676505e-06
-0.00011345480404354296   2.2659890004837584e-05   -7.566421054676505e-06
-0.00011345480404354296   2.2659890004837584e-05   -7.566421054676505e-06
-0.00011345480404354296   2.2659890004837584e-05   -7.566421054676505e-06
-0.00014879343933842584   1.1948280660681668e-05   5.775827004329023e-05
-0.00014879343933842584   1.1948280660681668e-05   5.775827004329023e-05
-0.00014879343933842584   1.1948280660681668e-05   5.775827004329023e-05
-0.00014879343933842584   1.1948280660681668e-05   5.775827004329023e-05
-0.00011345480404354296   0.0   0.00012973850948939459
-0.00011345480404354296   0.0   0.00012973850948939459
-0.00011345480404354296   0.0   0.00012973850948939459
-0.00011345480404354296   0.0   0.00012973850948939459
-0.00019583776236998588   2.265989000483845e-05   6.0295129482262726e-06
-0.00019583776236998588   2.265989000483845e-05   6.0295129482262726e-06
-0.00019583776236998588   2.265989000483845e-05   6.0295129482262726e-06
-0.00019583776236998588   2.265989000483845e-05   6.0295129482262726e-06
-0.00020017862735893853   0.0   0.00016229199792762179
-0.00020017862735893853   0.0   0.00016229199792762179
-0.00020017862735893853   0.0   0.00016229199792762179
-0.00020017862735893853   0.0   0.00016229199792762179
-0.00011712146997508685   1.8835094776814033e-05   1.2562345421779808e-05
-0.00011712146997508685   1.8835094776814033e-05   1.2562345421779808e-05
-0.00011712146997508685   1.8835094776814033e-05   1.2562345421779808e-05
-0.00011712146997508685   1.8835094776814033e-05   1.2562345421779808e-05
-0.00015006422065001344   8.370976334002092e-06   7.374540094567857e-05
-0.00015006422065001344   8.370976334002092e-06   7.374540094567857e-05
-0.00015006422065001344   8.370976334002092e-06   7.374540094567857e-05
-0.00015006422065001344   8.370976334002092e-06   7.374540094567857e-05
0.00012636149348733112   -1.902947926428738e-05   8.986763352050947e-05
0.00012636149348733112   -1.902947926428738e-05   8.986763352050947e-05
0.00012636149348733112   -1.902947926428738e-05   8.986763352050947e-05
0.00012636149348733112   -1.902947926428738e-05   8.986763352050947e-05
6.394564891197354e-05   -1.4318512609055173e-05   -1.1332194111947618e-05
6.394564891197354e-05   -1.4318512609055173e-05   -1.1332194111947618e-05
6.394564891197354e-05   -1.4318512609055173e-05   -1.1332194111947618e-05
6.394564891197354e-05   -1.4318512609055173e-05   -1.1332194111947618e-05
6.224772359386121e-05   -2.0929857280420523e-05   7.847765472162715e-05
6.224772359386121e-05   -2.0929857280420523e-05   7.847765472162715e-05
6.224772359386121e-05   -2.0929857280420523e-05   7.847765472162715e-05
6.224772359386121e-05   -2.0929857280420523e-05   7.847765472162715e-05
0.00012332552718694306   -1.623736413562324e-05   -2.6134180487054668e-05
0.00012332552718694306   -1.623736413562324e-05   -2.6134180487054668e-05
0.00012332552718694306   -1.623736413562324e-05   -2.6134180487054668e-05
0.00012332552718694306   -1.623736413562324e-05   -2.6134180487054668e-05
8.978668477962299e-05   -1.6921529046497186e-05   3.0174389138336842e-05
8.978668477962299e-05   -1.6921529046497186e-05   3.0174389138336842e-05
8.978668477962299e-05   -1.6921529046497186e-05   3.0174389138336842e-05
8.978668477962299e-05   -1.6921529046497186e-05   3.0174389138336842e-05
0.00012332552718694284   -2.0929857280420523e-05   7.566215883474808e-05
0.00012332552718694284   -2.0929857280420523e-05   7.566215883474808e-05
0.00012332552718694284   -2.0929857280420523e-05   7.566215883474808e-05
0.00012332552718694284   -2.0929857280420523e-05   7.566215883474808e-05
6.224772359386132e-05   -1.623736413562324e-05   -2.3318684600176064e-05
6.224772359386132e-05   -1.623736413562324e-05   -2.3318684600176064e-05
6.224772359386132e-05   -1.623736413562324e-05   -2.3318684600176064e-05
6.224772359386132e-05   -1.623736413562324e-05   -2.3318684600176064e-05
6.0059640611571794e-05   -2.110777665900558e-05   7.0462598395187e-05
6.0059640611571794e-05   -2.110777665900558e-05   7.0462598395187e-05
6.0059640611571794e-05   -2.110777665900558e-05   7.0462598395187e-05
6.0059640611571794e-05   -2.110777665900558e-05   7.0462598395187e-05
0.00012025718258506748   -1.652476393200833e-05   -3.261644586350447e-05
0.00012025718258506748   -1.652476393200833e-05   -3.261644586350447e-05
0.00012025718258506748   -1.652476393200833e-05   -3.261644586350447e-05
0.00012025718258506748   -1.652476393200833e-05   -3.261644586350447e-05
8.892445469168206e-05   -1.766253620386158e-05   2.0287430655249435e-05
8.892445469168206e-05   -1.766253620386158e-05   2.0287430655249435e-05
8.892445469168206e-05   -1.766253620386158e-05   2.0287430655249435e-05
8.892445469168206e-05   -1.766253620386158e-05   2.0287430655249435e-05
0.00012025718258506748   -2.110777665900558e-05   6.771279075898839e-05
0.00012025718258506748   -2.110777665900558e-05   6.771279075898839e-05
0.00012025718258506748   -2.110777665900558e-05   6.771279075898839e-05
0.00012025718258506748   -2.110777665900558e-05   6.771279075898839e-05
6.0059640611571794e-05   -1.652476393200833e-05   -2.9866638227306428e-05
6.0059640611571794e-05   -1.652476393200833e-05   -2.9866638227306428e-05
6.0059640611571794e-05   -1.652476393200833e-05   -2.9866638227306428e-05
6.0059640611571794e-05   -1.652476393200833e-05   -2.9866638227306428e-05
5.7764742105994926e-05   -2.0677727236843857e-05   5.858169030686358e-05
5.7764742105994926e-05   -2.0677727236843857e-05   5.858169030686358e-05
5.7764742105994926e-05   -2.0677727236843857e-05   5.858169030686358e-05
5.7764742105994926e-05   -2.0677727236843857e-05   5.858169030686358e-05
0.00011641692696582763   -1.6429933950172504e-05   -4.172062709819377e-05
0.00011641692696582763   -1.6429933950172504e-05   -4.172062709819377e-05
0.00011641692696582763   -1.6429933950172504e-05   -4.172062709819377e-05
0.00011641692696582763   -1.6429933950172504e-05   -4.172062709819377e-05
8.494347067163974e-05   -1.7203414341660297e-05   1.1199221627014117e-05
8.494347067163974e-05   -1.7203414341660297e-05   1.1199221627014117e-05
8.494347067163974e-05   -1.7203414341660297e-05   1.1199221627014117e-05
8.494347067163974e-05   -1.7203414341660297e-05   1.1199221627014117e-05
6.394564891197362e-05   -1.181320330871042e-05   8.516882068967382e-05
6.394564891197362e-05   -1.181320330871042e-05   8.516882068967382e-05
6.394564891197362e-05   -1.181320330871042e-05   8.516882068967382e-05
6.394564891197362e-05   -1.181320330871042e-05   8.516882068967382e-05
7.100745654020635e-06   -5.0638856285709424e-06   -5.523094132163335e-06
7.100745654020635e-06   -5.0638856285709424e-06   -5.523094132163335e-06
7.100745654020635e-06   -5.0638856285709424e-06   -5.523094132163335e-06
7.100745654020635e-06   -5.0638856285709424e-06   -5.523094132163335e-06
5.415107797941785e-06   -1.2532824007495044e-05   8.875767791436057e-05
5.415107797941785e-06   -1.2532824007495044e-05   8.875767791436057e-05
5.415107797941785e-06   -1.2532824007495044e-05   8.875767791436057e-05
5.415107797941785e-06   -1.2532824007495044e-05   8.875767791436057e-05
6.224772359386132e-05   -6.097124486765561e-06   -9.824768124609782e-06
6.224772359386132e-05   -6.097124486765561e-06   -9.824768124609782e-06
6.224772359386132e-05   -6.097124486765561e-06   -9.824768124609782e-06
6.224772359386132e-05   -6.097124486765561e-06   -9.824768124609782e-06
3.434565348526568e-05   -8.252507999496894e-06   3.79719121640223e-05
3.434565348526568e-05   -8.252507999496894e-06   3.79719121640223e-05
3.434565348526568e-05   -8.252507999496894e-06   3.79719121640223e-05
3.434565348526568e-05   -8.252507999496894e-06   3.79719121640223e-05
6.224772359386126e-05   -1.2532824007495044e-05   8.489625820192305e-05
6.224772359386126e-05   -1.2532824007495044e-05   8.489625820192305e-05
6.224772359386126e-05   -1.2532824007495044e-05   8.489625820192305e-05
6.224772359386126e-05   -1.2532824007495044e-05   8.489625820192305e-05
5.415107797941785e-06   -6.097124486765561e-06   -5.963348412171832e-06
5.415107797941785e-06   -6.097124486765561e-06   -5.963348412171832e-06
5.415107797941785e-06   -6.097124486765561e-06   -5.963348412171832e-06
5.415107797941785e-06   -6.097124486765561e-06   -5.963348412171832e-06
3.26220149840658e-06   -1.2856849799166258e-05   8.793921705839685e-05
3.26220149840658e-06   -1.2856849799166258e-05   8.793921705839685e-05
3.26220149840658e-06   -1.2856849799166258e-05   8.793921705839685e-05
3.26220149840658e-06   -1.2856849799166258e-05   8.793921705839685e-05
6.0059640611571794e-05   -6.7775462673797665e-06   -1.037076358261738e-05
6.0059640611571794e-05   -6.7775462673797665e-06   -1.037076358261738e-05
6.0059640611571794e-05   -6.7775462673797665e-06   -1.037076358261738e-05
6.0059640611571794e-05   -6.7775462673797665e-06   -1.037076358261738e-05
3.220996325771139e-05   -8.645150943984575e-06   3.716592814644742e-05
3.220996325771139e-05   -8.645150943984575e-06   3.716592814644742e-05
3.220996325771139e-05   -8.645150943984575e-06   3.716592814644742e-05
3.220996325771139e-05   -8.645150943984575e-06   3.716592814644742e-05
6.005964061157166e-05   -1.2856849799166258e-05   8.429163493932487e-05
6.005964061157166e-05   -1.2856849799166258e-05   8.429163493932487e-05
6.005964061157166e-05   -1.2856849799166258e-05   8.429163493932487e-05
6.005964061157166e-05   -1.2856849799166258e-05   8.429163493932487e-05
3.26220149840658e-06   -6.7775462673797665e-06   -6.723181463544857e-06
3.26220149840658e-06   -6.7775462673797665e-06   -6.723181463544857e-06
3.26220149840658e-06   -6.7775462673797665e-06   -6.723181463544857e-06
3.26220149840658e-06   -6.7775462673797665e-06   -6.723181463544857e-06
8.837850709356133e-07   -1.2574127488972076e-05   8.924901281090903e-05
8.837850709356133e-07   -1.2574127488972076e-05   8.924901281090903e-05
8.837850709356133e-07   -1.2574127488972076e-05   8.924901281090903e-05
8.837850709356133e-07   -1.2574127488972076e-05   8.924901281090903e-05
5.7764742105994844e-05   -7.073248681883047e-06   -8.85310953177695e-06
5.7764742105994844e-05   -7.073248681883047e-06   -8.85310953177695e-06
5.7764742105994844e-05   -7.073248681883047e-06   -8.85310953177695e-06
5.7764742105994844e-05   -7.073248681883047e-06   -8.85310953177695e-06
3.0465548770058367e-05   -8.567217997760591e-06   3.7541927617644954e-05
3.0465548770058367e-05   -8.567217997760591e-06   3.7541927617644954e-05
3.0465548770058367e-05   -8.567217997760591e-06   3.7541927617644954e-05
3.0465548770058367e-05   -8.567217997760591e-06   3.7541927617644954e-05
7.100745654020635e-06   -5.03978618557506e-06   8.712621336053657e-05
7.100745654020635e-06   -5.03978618557506e-06   8.712621336053657e-05
7.100745654020635e-06   -5.03978618557506e-06   8.712621336053657e-05
7.100745654020635e-06   -5.03978618557506e-06   8.712621336053657e-05
-4.796085104688503e-05   4.475217057290856e-06   1.0658874714133786e-06
-4.796085104688503e-05   4.475217057290856e-06   1.0658874714133786e-06
-4.796085104688503e-05   4.475217057290856e-06   1.0658874714133786e-06
-4.796085104688503e-05   4.475217057290856e-06   1.0658874714133786e-06
-4.98596591585432e-05   -5.324036501194555e-06   9.34934438136803e-05
-4.98596591585432e-05   -5.324036501194555e-06   9.34934438136803e-05
-4.98596591585432e-05   -5.324036501194555e-06   9.34934438136803e-05
-4.98596591585432e-05   -5.324036501194555e-06   9.34934438136803e-05
5.415107797941785e-06   3.68069753602443e-06   -4.034008202793244e-06
5.415107797941785e-06   3.68069753602443e-06   -4.034008202793244e-06
5.415107797941785e-06   3.68069753602443e-06   -4.034008202793244e-06
5.415107797941785e-06   3.68069753602443e-06   -4.034008202793244e-06
-2.1286644597690477e-05   -1.336975062396495e-07   4.2757549481952923e-05
-2.1286644597690477e-05   -1.336975062396495e-07   4.2757549481952923e-05
-2.1286644597690477e-05   -1.336975062396495e-07   4.2757549481952923e-05
-2.1286644597690477e-05   -1.336975062396495e-07   4.2757549481952923e-05
5.415107797941785e-06   -5.324036501194555e-06   8.809060339134847e-05
5.415107797941785e-06   -5.324036501194555e-06   8.809060339134847e-05
5.415107797941785e-06   -5.324036501194555e-06   8.809060339134847e-05
5.415107797941785e-06   -5.324036501194555e-06   8.809060339134847e-05
-4.98596591585432e-05   3.68069753602443e-06   1.3688322195387972e-06
-4.98596591585432e-05   3.68069753602443e-06   1.3688322195387972e-06
-4.98596591585432e-05   3.68069753602443e-06   1.3688322195387972e-06
-4.98596591585432e-05   3.68069753602443e-06   1.3688322195387972e-06
-5.240783492483015e-05   -5.671101485093394e-06   9.537620451120516e-05
-5.240783492483015e-05   -5.671101485093394e-06   9.537620451120516e-05
-5.240783492483015e-05   -5.671101485093394e-06   9.537620451120516e-05
-5.240783492483015e-05   -5.671101485093394e-06   9.537620451120516e-05
3.26220149840658e-06   2.9410606898318606e-06   -2.574486832477088e-06
3.26220149840658e-06   2.9410606898318606e-06   -2.574486832477088e-06
3.26220149840658e-06   2.9410606898318606e-06   -2.574486832477088e-06
3.26220149840658e-06   2.9410606898318606e-06   -2.574486832477088e-06
-2.3160333450607067e-05   -3.596517067000135e-07   4.344349885379768e-05
-2.3160333450607067e-05   -3.596517067000135e-07   4.344349885379768e-05
-2.3160333450607067e-05   -3.596517067000135e-07   4.344349885379768e-05
-2.3160333450607067e-05   -3.596517067000135e-07   4.344349885379768e-05
3.26220149840658e-06   -5.671101485093394e-06   9.02089072062507e-05
3.26220149840658e-06   -5.671101485093394e-06   9.02089072062507e-05
3.26220149840658e-06   -5.671101485093394e-06   9.02089072062507e-05
3.26220149840658e-06   -5.671101485093394e-06   9.02089072062507e-05
-5.240783492483004e-05   2.9410606898318606e-06   2.5928104724778044e-06
-5.240783492483004e-05   2.9410606898318606e-06   2.5928104724778044e-06
-5.240783492483004e-05   2.9410606898318606e-06   2.5928104724778044e-06
-5.240783492483004e-05   2.9410606898318606e-06   2.5928104724778044e-06
-5.512279672753836e-05   -5.643451667259637e-06   9.763472586637491e-05
-5.512279672753836e-05   -5.643451667259637e-06   9.763472586637491e-05
-5.512279672753836e-05   -5.643451667259637e-06   9.763472586637491e-05
-5.512279672753836e-05   -5.643451667259637e-06   9.763472586637491e-05
8.837850709356133e-07   2.4073870731888825e-06   -5.400803753511686e-07
8.837850709356133e-07   2.4073870731888825e-06   -5.400803753511686e-07
8.837850709356133e-07   2.4073870731888825e-06   -5.400803753511686e-07
8.837850709356133e-07   2.4073870731888825e-06   -5.400803753511686e-07
-2.5550805786758265e-05   -5.232383255369261e-07   4.5275946293375476e-05
-2.5550805786758265e-05   -5.232383255369261e-07   4.5275946293375476e-05
-2.5550805786758265e-05   -5.232383255369261e-07   4.5275946293375476e-05
-2.5550805786758265e-05   -5.232383255369261e-07   4.5275946293375476e-05
-4.7960851046884815e-05   5.213029247305538e-06   7.869312831970069e-05
-4.7960851046884815e-05   5.213029247305538e-06   7.869312831970069e-05
-4.7960851046884815e-05   5.213029247305538e-06   7.869312831970069e-05
-4.7960851046884815e-05   5.213029247305538e-06   7.869312831970069e-05
-0.00010187389200545349   1.4611769377377223e-05   -5.5226958665375615e-06
-0.00010187389200545349   1.4611769377377223e-05   -5.5226958665375615e-06
-0.00010187389200545349   1.4611769377377223e-05   -5.5226958665375615e-06
-0.00010187389200545349   1.4611769377377223e-05   -5.5226958665375615e-06
-0.00010464473930712483   4.883011993836277e-06   8.713914354213344e-05
-0.00010464473930712483   4.883011993836277e-06   8.713914354213344e-05
-0.00010464473930712483   4.883011993836277e-06   8.713914354213344e-05
-0.00010464473930712483   4.883011993836277e-06   8.713914354213344e-05
-4.985965915854304e-05   1.3813196106584637e-05   -9.527433839818297e-06
-4.985965915854304e-05   1.3813196106584637e-05   -9.527433839818297e-06
-4.985965915854304e-05   1.3813196106584637e-05   -9.527433839818297e-06
-4.985965915854304e-05   1.3813196106584637e-05   -9.527433839818297e-06
-7.548108014822607e-05   9.803824892656854e-06   3.558055720467629e-05
-7.548108014822607e-05   9.803824892656854e-06   3.558055720467629e-05
-7.548108014822607e-05   9.803824892656854e-06   3.558055720467629e-05
-7.548108014822607e-05   9.803824892656854e-06   3.558055720467629e-05
-4.985965915854315e-05   4.883011993836277e-06   8.178103307448451e-05
-4.985965915854315e-05   4.883011993836277e-06   8.178103307448451e-05
-4.985965915854315e-05   4.883011993836277e-06   8.178103307448451e-05
-4.985965915854315e-05   4.883011993836277e-06   8.178103307448451e-05
-0.00010464473930712462   1.3813196106584637e-05   -4.169323372169801e-06
-0.00010464473930712462   1.3813196106584637e-05   -4.169323372169801e-06
-0.00010464473930712462   1.3813196106584637e-05   -4.169323372169801e-06
-0.00010464473930712462   1.3813196106584637e-05   -4.169323372169801e-06
-0.00010803858487068517   4.287702238638287e-06   9.248525789055419e-05
-0.00010803858487068517   4.287702238638287e-06   9.248525789055419e-05
-0.00010803858487068517   4.287702238638287e-06   9.248525789055419e-05
-0.00010803858487068517   4.287702238638287e-06   9.248525789055419e-05
-5.240783492483004e-05   1.307652682830656e-05   -5.50595343967199e-06
-5.240783492483004e-05   1.307652682830656e-05   -5.50595343967199e-06
-5.240783492483004e-05   1.307652682830656e-05   -5.50595343967199e-06
-5.240783492483004e-05   1.307652682830656e-05   -5.50595343967199e-06
-7.754864109235418e-05   9.615319678906754e-06   3.847211446250838e-05
-7.754864109235418e-05   9.615319678906754e-06   3.847211446250838e-05
-7.754864109235418e-05   9.615319678906754e-06   3.847211446250838e-05
-7.754864109235418e-05   9.615319678906754e-06   3.847211446250838e-05
-5.2407834924829986e-05   4.2877022386391545e-06   8.721196313675244e-05
-5.2407834924829986e-05   4.2877022386391545e-06   8.721196313675244e-05
-5.2407834924829986e-05   4.2877022386391545e-06   8.721196313675244e-05
-5.2407834924829986e-05   4.2877022386391545e-06   8.721196313675244e-05
-0.00010803858487068517   1.307652682830656e-05   -2.326586858712211e-07
-0.00010803858487068517   1.307652682830656e-05   -2.326586858712211e-07
-0.00010803858487068517   1.307652682830656e-05   -2.326586858712211e-07
-0.00010803858487068517   1.307652682830656e-05   -2.326586858712211e-07
-0.00011163162684644053   3.6153717265551347e-06   9.675695670448292e-05
-0.00011163162684644053   3.6153717265551347e-06   9.675695670448292e-05
-0.00011163162684644053   3.6153717265551347e-06   9.675695670448292e-05
-0.00011163162684644053   3.6153717265551347e-06   9.675695670448292e-05
-5.512279672753817e-05   1.2088372858804972e-05   -2.508227506370429e-06
-5.512279672753817e-05   1.2088372858804972e-05   -2.508227506370429e-06
-5.512279672753817e-05   1.2088372858804972e-05   -2.508227506370429e-06
-5.512279672753817e-05   1.2088372858804972e-05   -2.508227506370429e-06
-8.097943759786441e-05   9.015994711899025e-06   4.242960083231898e-05
-8.097943759786441e-05   9.015994711899025e-06   4.242960083231898e-05
-8.097943759786441e-05   9.015994711899025e-06   4.242960083231898e-05
-8.097943759786441e-05   9.015994711899025e-06   4.242960083231898e-05
-0.00010187389200545349   2.4128344251766846e-05   4.1441992884871676e-05
-0.00010187389200545349   2.4128344251766846e-05   4.1441992884871676e-05
-0.00010187389200545349   2.4128344251766846e-05   4.1441992884871676e-05
-0.00010187389200545349   2.4128344251766846e-05   4.1441992884871676e-05
-0.00015347073853532155   2.3763385419244692e-05   -4.477172663108937e-05
-0.00015347073853532155   2.3763385419244692e-05   -4.477172663108937e-05
-0.00015347073853532155   2.3763385419244692e-05   -4.477172663108937e-05
-0.00015347073853532155   2.3763385419244692e-05   -4.477172663108937e-05
-0.00015844164230340436   2.326496471493321e-05   6.129943311455974e-05
-0.00015844164230340436   2.326496471493321e-05   6.129943311455974e-05
-0.00015844164230340436   2.326496471493321e-05   6.129943311455974e-05
-0.00015844164230340436   2.326496471493321e-05   6.129943311455974e-05
-0.00010464473930712462   2.420969199324382e-05   -2.8928908246227147e-05
-0.00010464473930712462   2.420969199324382e-05   -2.8928908246227147e-05
-0.00010464473930712462   2.420969199324382e-05   -2.8928908246227147e-05
-0.00010464473930712462   2.420969199324382e-05   -2.8928908246227147e-05
-0.00012439090231015681   2.4225452329556738e-05   3.971907223706064e-06
-0.00012439090231015681   2.4225452329556738e-05   3.971907223706064e-06
-0.00012439090231015681   2.4225452329556738e-05   3.971907223706064e-06
-0.00012439090231015681   2.4225452329556738e-05   3.971907223706064e-06
-0.00010464473930712456   2.3264964714934076e-05   6.073259674757277e-05
-0.00010464473930712456   2.3264964714934076e-05   6.073259674757277e-05
-0.00010464473930712456   2.3264964714934076e-05   6.073259674757277e-05
-0.00010464473930712456   2.3264964714934076e-05   6.073259674757277e-05
-0.00015844164230340436   2.420969199324382e-05   -2.8362071879240065e-05
-0.00015844164230340436   2.420969199324382e-05   -2.8362071879240065e-05
-0.00015844164230340436   2.420969199324382e-05   -2.8362071879240065e-05
-0.00015844164230340436   2.420969199324382e-05   -2.8362071879240065e-05
-0.00016331657734033574   2.2659890004837584e-05   7.52597862151449e-05
-0.00016331657734033574   2.2659890004837584e-05   7.52597862151449e-05
-0.00016331657734033574   2.2659890004837584e-05   7.52597862151449e-05
-0.00016331657734033574   2.2659890004837584e-05   7.52597862151449e-05
-0.00010803858487068495   2.4032143872912068e-05   -1.76935535551177e-05
-0.00010803858487068495   2.4032143872912068e-05   -1.76935535551177e-05
-0.00010803858487068495   2.4032143872912068e-05   -1.76935535551177e-05
-0.00010803858487068495   2.4032143872912068e-05   -1.76935535551177e-05
-0.000130072860561978   2.4213424800217064e-05   1.8921470707322272e-05
-0.000130072860561978   2.4213424800217064e-05   1.8921470707322272e-05
-0.000130072860561978   2.4213424800217064e-05   1.8921470707322272e-05
-0.000130072860561978   2.4213424800217064e-05   1.8921470707322272e-05
-0.00010803858487068495   2.2659890004837584e-05   7.443643389430134e-05
-0.00010803858487068495   2.2659890004837584e-05   7.443643389430134e-05
-0.00010803858487068495   2.2659890004837584e-05   7.443643389430134e-05
-0.00010803858487068495   2.2659890004837584e-05   7.443643389430134e-05
-0.00016331657734033574   2.40321438729112e-05   -1.6870201234273595e-05
-0.00016331657734033574   2.40321438729112e-05   -1.6870201234273595e-05
-0.00016331657734033574   2.40321438729112e-05   -1.6870201234273595e-05
-0.00016331657734033574   2.40321438729112e-05   -1.6870201234273595e-05
-0.0001690642396978897   1.88350947768149e-05   9.859229316182098e-05
-0.0001690642396978897   1.88350947768149e-05   9.859229316182098e-05
-0.0001690642396978897   1.88350947768149e-05   9.859229316182098e-05
-0.0001690642396978897   1.88350947768149e-05   9.859229316182098e-05
-0.00011163162684644015   2.2113683117511163e-05   9.041187383203135e-07
-0.00011163162684644015   2.2113683117511163e-05   9.041187383203135e-07
-0.00011163162684644015   2.2113683117511163e-05   9.041187383203135e-07
-0.00011163162684644015   2.2113683117511163e-05   9.041187383203135e-07
-0.00013213601676176476   2.3056831995642985e-05   3.451221260365007e-05
-0.00013213601676176476   2.3056831995642985e-05   3.451221260365007e-05
-0.00013213601676176476   2.3056831995642985e-05   3.451221260365007e-05
-0.00013213601676176476   2.3056831995642985e-05   3.451221260365007e-05
0.00010228547884376912   -1.4318512609055173e-05   7.909052026577098e-05
0.00010228547884376912   -1.4318512609055173e-05   7.909052026577098e-05
0.00010228547884376912   -1.4318512609055173e-05   7.909052026577098e-05
0.00010228547884376912   -1.4318512609055173e-05   7.909052026577098e-05
5.067129076772143e-05   -1.0471829228080043e-05   -4.62511649905635e-06
5.067129076772143e-05   -1.0471829228080043e-05   -4.62511649905635e-06
5.067129076772143e-05   -1.0471829228080043e-05   -4.62511649905635e-06
5.067129076772143e-05   -1.0471829228080043e-05   -4.62511649905635e-06
4.871598935507787e-05   -1.623736413562237e-05   6.880111906511308e-05
4.871598935507787e-05   -1.623736413562237e-05   6.880111906511308e-05
4.871598935507787e-05   -1.623736413562237e-05   6.880111906511308e-05
4.871598935507787e-05   -1.623736413562237e-05   6.880111906511308e-05
9.868800257468928e-05   -1.2158366082058725e-05   -1.6932968466377928e-05
9.868800257468928e-05   -1.2158366082058725e-05   -1.6932968466377928e-05
9.868800257468928e-05   -1.2158366082058725e-05   -1.6932968466377928e-05
9.868800257468928e-05   -1.2158366082058725e-05   -1.6932968466377928e-05
7.165183082958815e-05   -1.3161041401122363e-05   2.8728922966896026e-05
7.165183082958815e-05   -1.3161041401122363e-05   2.8728922966896026e-05
7.165183082958815e-05   -1.3161041401122363e-05   2.8728922966896026e-05
7.165183082958815e-05   -1.3161041401122363e-05   2.8728922966896026e-05
9.86880025746891e-05   -1.623736413562237e-05   6.635372023297385e-05
9.86880025746891e-05   -1.623736413562237e-05   6.635372023297385e-05
9.86880025746891e-05   -1.623736413562237e-05   6.635372023297385e-05
9.86880025746891e-05   -1.623736413562237e-05   6.635372023297385e-05
4.871598935507803e-05   -1.2158366082058725e-05   -1.4485569634238929e-05
4.871598935507803e-05   -1.2158366082058725e-05   -1.4485569634238929e-05
4.871598935507803e-05   -1.2158366082058725e-05   -1.4485569634238929e-05
4.871598935507803e-05   -1.2158366082058725e-05   -1.4485569634238929e-05
4.654417139471283e-05   -1.652476393200833e-05   6.167424637679164e-05
4.654417139471283e-05   -1.652476393200833e-05   6.167424637679164e-05
4.654417139471283e-05   -1.652476393200833e-05   6.167424637679164e-05
4.654417139471283e-05   -1.652476393200833e-05   6.167424637679164e-05
9.543224272667955e-05   -1.2498688500419547e-05   -2.2221517768772596e-05
9.543224272667955e-05   -1.2498688500419547e-05   -2.2221517768772596e-05
9.543224272667955e-05   -1.2498688500419547e-05   -2.2221517768772596e-05
9.543224272667955e-05   -1.2498688500419547e-05   -2.2221517768772596e-05
7.028808858691878e-05   -1.3813963364571816e-05   2.0474570715986874e-05
7.028808858691878e-05   -1.3813963364571816e-05   2.0474570715986874e-05
7.028808858691878e-05   -1.3813963364571816e-05   2.0474570715986874e-05
7.028808858691878e-05   -1.3813963364571816e-05   2.0474570715986874e-05
9.543224272667923e-05   -1.652476393200833e-05   5.9258601117837765e-05
9.543224272667923e-05   -1.652476393200833e-05   5.9258601117837765e-05
9.543224272667923e-05   -1.652476393200833e-05   5.9258601117837765e-05
9.543224272667923e-05   -1.652476393200833e-05   5.9258601117837765e-05
4.654417139471291e-05   -1.2498688500419547e-05   -1.9805872509819078e-05
4.654417139471291e-05   -1.2498688500419547e-05   -1.9805872509819078e-05
4.654417139471291e-05   -1.2498688500419547e-05   -1.9805872509819078e-05
4.654417139471291e-05   -1.2498688500419547e-05   -1.9805872509819078e-05
4.445615244133932e-05   -1.6429933950171637e-05   5.174834324836149e-05
4.445615244133932e-05   -1.6429933950171637e-05   5.174834324836149e-05
4.445615244133932e-05   -1.6429933950171637e-05   5.174834324836149e-05
4.445615244133932e-05   -1.6429933950171637e-05   5.174834324836149e-05
9.174658533768945e-05   -1.2643919299446145e-05   -2.9340653702656595e-05
9.174658533768945e-05   -1.2643919299446145e-05   -2.9340653702656595e-05
9.174658533768945e-05   -1.2643919299446145e-05   -2.9340653702656595e-05
9.174658533768945e-05   -1.2643919299446145e-05   -2.9340653702656595e-05
6.664938446694933e-05   -1.3583638507150969e-05   1.3051845939867615e-05
6.664938446694933e-05   -1.3583638507150969e-05   1.3051845939867615e-05
6.664938446694933e-05   -1.3583638507150969e-05   1.3051845939867615e-05
6.664938446694933e-05   -1.3583638507150969e-05   1.3051845939867615e-05
5.067129076772143e-05   -5.06388562857181e-06   8.315803966605587e-05
5.067129076772143e-05   -5.06388562857181e-06   8.315803966605587e-05
5.067129076772143e-05   -5.06388562857181e-06   8.315803966605587e-05
5.067129076772143e-05   -5.06388562857181e-06   8.315803966605587e-05
2.2250898666767492e-06   -1.9999088524610964e-06   4.2527575633138914e-06
2.2250898666767492e-06   -1.9999088524610964e-06   4.2527575633138914e-06
2.2250898666767492e-06   -1.9999088524610964e-06   4.2527575633138914e-06
2.2250898666767492e-06   -1.9999088524610964e-06   4.2527575633138914e-06
3.4900281420548575e-07   -6.097124486766428e-06   8.403466805665272e-05
3.4900281420548575e-07   -6.097124486766428e-06   8.403466805665272e-05
3.4900281420548575e-07   -6.097124486766428e-06   8.403466805665272e-05
3.4900281420548575e-07   -6.097124486766428e-06   8.403466805665272e-05
4.871598935507803e-05   -3.1977369601438738e-06   1.6833913058918952e-06
4.871598935507803e-05   -3.1977369601438738e-06   1.6833913058918952e-06
4.871598935507803e-05   -3.1977369601438738e-06   1.6833913058918952e-06
4.871598935507803e-05   -3.1977369601438738e-06   1.6833913058918952e-06
2.5181565652288174e-05   -3.937256013628564e-06   4.135114224263262e-05
2.5181565652288174e-05   -3.937256013628564e-06   4.135114224263262e-05
2.5181565652288174e-05   -3.937256013628564e-06   4.135114224263262e-05
2.5181565652288174e-05   -3.937256013628564e-06   4.135114224263262e-05
4.871598935507799e-05   -6.097124486765561e-06   8.229503554067936e-05
4.871598935507799e-05   -6.097124486765561e-06   8.229503554067936e-05
4.871598935507799e-05   -6.097124486765561e-06   8.229503554067936e-05
4.871598935507799e-05   -6.097124486765561e-06   8.229503554067936e-05
3.4900281420548575e-07   -3.1977369601438738e-06   3.4230238218648477e-06
3.4900281420548575e-07   -3.1977369601438738e-06   3.4230238218648477e-06
3.4900281420548575e-07   -3.1977369601438738e-06   3.4230238218648477e-06
3.4900281420548575e-07   -3.1977369601438738e-06   3.4230238218648477e-06
-1.6010002296530212e-06   -6.777546267378899e-06   8.27826695534075e-05
-1.6010002296530212e-06   -6.777546267378899e-06   8.27826695534075e-05
-1.6010002296530212e-06   -6.777546267378899e-06   8.27826695534075e-05
-1.6010002296530212e-06   -6.777546267378899e-06   8.27826695534075e-05
4.654417139471291e-05   -4.089965380833088e-06   9.28168314204156e-07
4.654417139471291e-05   -4.089965380833088e-06   9.28168314204156e-07
4.654417139471291e-05   -4.089965380833088e-06   9.28168314204156e-07
4.654417139471291e-05   -4.089965380833088e-06   9.28168314204156e-07
2.3030083615667065e-05   -4.565943291338914e-06   4.040390135891811e-05
2.3030083615667065e-05   -4.565943291338914e-06   4.040390135891811e-05
2.3030083615667065e-05   -4.565943291338914e-06   4.040390135891811e-05
2.3030083615667065e-05   -4.565943291338914e-06   4.040390135891811e-05
4.654417139471283e-05   -6.777546267378899e-06   8.11701210214808e-05
4.654417139471283e-05   -6.777546267378899e-06   8.11701210214808e-05
4.654417139471283e-05   -6.777546267378899e-06   8.11701210214808e-05
4.654417139471283e-05   -6.777546267378899e-06   8.11701210214808e-05
-1.6010002296530212e-06   -4.089965380833956e-06   2.54071684613116e-06
-1.6010002296530212e-06   -4.089965380833956e-06   2.54071684613116e-06
-1.6010002296530212e-06   -4.089965380833956e-06   2.54071684613116e-06
-1.6010002296530212e-06   -4.089965380833956e-06   2.54071684613116e-06
-3.6310633160285333e-06   -7.073248681883915e-06   8.343310384417192e-05
-3.6310633160285333e-06   -7.073248681883915e-06   8.343310384417192e-05
-3.6310633160285333e-06   -7.073248681883915e-06   8.343310384417192e-05
-3.6310633160285333e-06   -7.073248681883915e-06   8.343310384417192e-05
4.4456152441339455e-05   -4.796717012891388e-06   1.921825247162487e-06
4.4456152441339455e-05   -4.796717012891388e-06   1.921825247162487e-06
4.4456152441339455e-05   -4.796717012891388e-06   1.921825247162487e-06
4.4456152441339455e-05   -4.796717012891388e-06   1.921825247162487e-06
2.140863100719968e-05   -4.906458921990521e-06   4.04002061161908e-05
2.140863100719968e-05   -4.906458921990521e-06   4.04002061161908e-05
2.140863100719968e-05   -4.906458921990521e-06   4.04002061161908e-05
2.140863100719968e-05   -4.906458921990521e-06   4.04002061161908e-05
2.2250898666767492e-06   4.475217057290856e-06   8.58764053895786e-05
2.2250898666767492e-06   4.475217057290856e-06   8.58764053895786e-05
2.2250898666767492e-06   4.475217057290856e-06   8.58764053895786e-05
2.2250898666767492e-06   4.475217057290856e-06   8.58764053895786e-05
-4.4799533300099166e-05   6.5153881578889836e-06   8.726136105311182e-06
-4.4799533300099166e-05   6.5153881578889836e-06   8.726136105311182e-06
-4.4799533300099166e-05   6.5153881578889836e-06   8.726136105311182e-06
-4.4799533300099166e-05   6.5153881578889836e-06   8.726136105311182e-06
-4.675919976071221e-05   3.680697536025297e-06   8.706510106830118e-05
-4.675919976071221e-05   3.680697536025297e-06   8.706510106830118e-05
-4.675919976071221e-05   3.680697536025297e-06   8.706510106830118e-05
-4.675919976071221e-05   3.680697536025297e-06   8.706510106830118e-05
3.4900281420548575e-07   5.515852206474867e-06   7.4503373078348666e-06
3.4900281420548575e-07   5.515852206474867e-06   7.4503373078348666e-06
3.4900281420548575e-07   5.515852206474867e-06   7.4503373078348666e-06
3.4900281420548575e-07   5.515852206474867e-06   7.4503373078348666e-06
-2.2280827920236637e-05   5.106795287866325e-06   4.541215601640302e-05
-2.2280827920236637e-05   5.106795287866325e-06   4.541215601640302e-05
-2.2280827920236637e-05   5.106795287866325e-06   4.541215601640302e-05
-2.2280827920236637e-05   5.106795287866325e-06   4.541215601640302e-05
3.4900281420548575e-07   3.680697536025297e-06   8.596400826603153e-05
3.4900281420548575e-07   3.680697536025297e-06   8.596400826603153e-05
3.4900281420548575e-07   3.680697536025297e-06   8.596400826603153e-05
3.4900281420548575e-07   3.680697536025297e-06   8.596400826603153e-05
-4.675919976071221e-05   5.515852206473999e-06   8.551430110104955e-06
-4.675919976071221e-05   5.515852206473999e-06   8.551430110104955e-06
-4.675919976071221e-05   5.515852206473999e-06   8.551430110104955e-06
-4.675919976071221e-05   5.515852206473999e-06   8.551430110104955e-06
-4.882929254390421e-05   2.9410606898318606e-06   8.789383413114298e-05
-4.882929254390421e-05   2.9410606898318606e-06   8.789383413114298e-05
-4.882929254390421e-05   2.9410606898318606e-06   8.789383413114298e-05
-4.882929254390421e-05   2.9410606898318606e-06   8.789383413114298e-05
-1.6010002296530212e-06   4.545177267611077e-06   8.217543660723786e-06
-1.6010002296530212e-06   4.545177267611077e-06   8.217543660723786e-06
-1.6010002296530212e-06   4.545177267611077e-06   8.217543660723786e-06
-1.6010002296530212e-06   4.545177267611077e-06   8.217543660723786e-06
-2.4101749485388145e-05   4.5346357242402255e-06   4.572511734630432e-05
-2.4101749485388145e-05   4.5346357242402255e-06   4.572511734630432e-05
-2.4101749485388145e-05   4.5346357242402255e-06   4.572511734630432e-05
-2.4101749485388145e-05   4.5346357242402255e-06   4.572511734630432e-05
-1.6010002296530212e-06   2.9410606898309932e-06   8.693136418447527e-05
-1.6010002296530212e-06   2.9410606898309932e-06   8.693136418447527e-05
-1.6010002296530212e-06   2.9410606898309932e-06   8.693136418447527e-05
-1.6010002296530212e-06   2.9410606898309932e-06   8.693136418447527e-05
-4.882929254390432e-05   4.545177267611077e-06   9.180013607391381e-06
-4.882929254390432e-05   4.545177267611077e-06   9.180013607391381e-06
-4.882929254390432e-05   4.545177267611077e-06   9.180013607391381e-06
-4.882929254390432e-05   4.545177267611077e-06   9.180013607391381e-06
-5.096587392360171e-05   2.4073870731888825e-06   8.92097645092938e-05
-5.096587392360171e-05   2.4073870731888825e-06   8.92097645092938e-05
-5.096587392360171e-05   2.4073870731888825e-06   8.92097645092938e-05
-5.096587392360171e-05   2.4073870731888825e-06   8.92097645092938e-05
-3.6310633160285604e-06   3.6809850614393652e-06   9.554254703721652e-06
-3.6310633160285604e-06   3.6809850614393652e-06   9.554254703721652e-06
-3.6310633160285604e-06   3.6809850614393652e-06   9.554254703721652e-06
-3.6310633160285604e-06   3.6809850614393652e-06   9.554254703721652e-06
-2.6072217936438485e-05   3.986170985004027e-06   4.677306751693487e-05
-2.6072217936438485e-05   3.986170985004027e-06   4.677306751693487e-05
-2.6072217936438485e-05   3.986170985004027e-06   4.677306751693487e-05
-2.6072217936438485e-05   3.986170985004027e-06   4.677306751693487e-05
-4.4799533300099274e-05   1.4611769377377223e-05   7.487268063394387e-05
-4.4799533300099274e-05   1.4611769377377223e-05   7.487268063394387e-05
-4.4799533300099274e-05   1.4611769377377223e-05   7.487268063394387e-05
-4.4799533300099274e-05   1.4611769377377223e-05   7.487268063394387e-05
-9.031454262697295e-05   1.4796038991444702e-05   -8.751064757379565e-07
-9.031454262697295e-05   1.4796038991444702e-05   -8.751064757379565e-07
-9.031454262697295e-05   1.4796038991444702e-05   -8.751064757379565e-07
-9.031454262697295e-05   1.4796038991444702e-05   -8.751064757379565e-07
-9.25899477111465e-05   1.381319610658377e-05   7.618434874080314e-05
-9.25899477111465e-05   1.381319610658377e-05   7.618434874080314e-05
-9.25899477111465e-05   1.381319610658377e-05   7.618434874080314e-05
-9.25899477111465e-05   1.381319610658377e-05   7.618434874080314e-05
-4.675919976071226e-05   1.3839052326348848e-05   -2.1574490844614852e-07
-4.675919976071226e-05   1.3839052326348848e-05   -2.1574490844614852e-07
-4.675919976071226e-05   1.3839052326348848e-05   -2.1574490844614852e-07
-4.675919976071226e-05   1.3839052326348848e-05   -2.1574490844614852e-07
-6.830904507185045e-05   1.4234163292773522e-05   3.546359736359664e-05
-6.830904507185045e-05   1.4234163292773522e-05   3.546359736359664e-05
-6.830904507185045e-05   1.4234163292773522e-05   3.546359736359664e-05
-6.830904507185045e-05   1.4234163292773522e-05   3.546359736359664e-05
-4.675919976071226e-05   1.381319610658377e-05   7.616883500894409e-05
-4.675919976071226e-05   1.381319610658377e-05   7.616883500894409e-05
-4.675919976071226e-05   1.381319610658377e-05   7.616883500894409e-05
-4.675919976071226e-05   1.381319610658377e-05   7.616883500894409e-05
-9.258994771114634e-05   1.3839052326349716e-05   -2.0023117658666753e-07
-9.258994771114634e-05   1.3839052326349716e-05   -2.0023117658666753e-07
-9.258994771114634e-05   1.3839052326349716e-05   -2.0023117658666753e-07
-9.258994771114634e-05   1.3839052326349716e-05   -2.0023117658666753e-07
-9.511319113429754e-05   1.307652682830656e-05   7.97245382428589e-05
-9.511319113429754e-05   1.307652682830656e-05   7.97245382428589e-05
-9.511319113429754e-05   1.307652682830656e-05   7.97245382428589e-05
-9.511319113429754e-05   1.307652682830656e-05   7.97245382428589e-05
-4.882929254390432e-05   1.295897353474889e-05   2.6552392350053487e-06
-4.882929254390432e-05   1.295897353474889e-05   2.6552392350053487e-06
-4.882929254390432e-05   1.295897353474889e-05   2.6552392350053487e-06
-4.882929254390432e-05   1.295897353474889e-05   2.6552392350053487e-06
-6.995854942388159e-05   1.3692264096753191e-05   3.7430693031097325e-05
-6.995854942388159e-05   1.3692264096753191e-05   3.7430693031097325e-05
-6.995854942388159e-05   1.3692264096753191e-05   3.7430693031097325e-05
-6.995854942388159e-05   1.3692264096753191e-05   3.7430693031097325e-05
-4.8829292543904265e-05   1.3076526828307428e-05   7.979507021899394e-05
-4.8829292543904265e-05   1.3076526828307428e-05   7.979507021899394e-05
-4.8829292543904265e-05   1.3076526828307428e-05   7.979507021899394e-05
-4.8829292543904265e-05   1.3076526828307428e-05   7.979507021899394e-05
-9.511319113429738e-05   1.295897353474889e-05   2.5847072588703127e-06
-9.511319113429738e-05   1.295897353474889e-05   2.5847072588703127e-06
-9.511319113429738e-05   1.295897353474889e-05   2.5847072588703127e-06
-9.511319113429738e-05   1.295897353474889e-05   2.5847072588703127e-06
-9.751877376038042e-05   1.2088372858804972e-05   8.228977958645543e-05
-9.751877376038042e-05   1.2088372858804972e-05   8.228977958645543e-05
-9.751877376038042e-05   1.2088372858804972e-05   8.228977958645543e-05
-9.751877376038042e-05   1.2088372858804972e-05   8.228977958645543e-05
-5.096587392360187e-05   1.1886148612888503e-05   4.822947739374639e-06
-5.096587392360187e-05   1.1886148612888503e-05   4.822947739374639e-06
-5.096587392360187e-05   1.1886148612888503e-05   4.822947739374639e-06
-5.096587392360187e-05   1.1886148612888503e-05   4.822947739374639e-06
-7.257277995089499e-05   1.2991226535200712e-05   4.017141103147912e-05
-7.257277995089499e-05   1.2991226535200712e-05   4.017141103147912e-05
-7.257277995089499e-05   1.2991226535200712e-05   4.017141103147912e-05
-7.257277995089499e-05   1.2991226535200712e-05   4.017141103147912e-05
-9.031454262697279e-05   2.3763385419244692e-05   3.5953186937346705e-05
-9.031454262697279e-05   2.3763385419244692e-05   3.5953186937346705e-05
-9.031454262697279e-05   2.3763385419244692e-05   3.5953186937346705e-05
-9.031454262697279e-05   2.3763385419244692e-05   3.5953186937346705e-05
-0.00013351240077824936   2.1277924584648528e-05   -3.7534519815538795e-05
-0.00013351240077824936   2.1277924584648528e-05   -3.7534519815538795e-05
-0.00013351240077824936   2.1277924584648528e-05   -3.7534519815538795e-05
-0.00013351240077824936   2.1277924584648528e-05   -3.7534519815538795e-05
-0.0001370950495903771   2.4209691993244686e-05   4.9796298560364754e-05
-0.0001370950495903771   2.4209691993244686e-05   4.9796298560364754e-05
-0.0001370950495903771   2.4209691993244686e-05   4.9796298560364754e-05
-0.0001370950495903771   2.4209691993244686e-05   4.9796298560364754e-05
-9.25899477111465e-05   2.149558314927611e-05   -2.2750405931972698e-05
-9.25899477111465e-05   2.149558314927611e-05   -2.2750405931972698e-05
-9.25899477111465e-05   2.149558314927611e-05   -2.2750405931972698e-05
-9.25899477111465e-05   2.149558314927611e-05   -2.2750405931972698e-05
-0.00010903795949760865   2.2559030028020122e-05   4.024878918218629e-06
-0.00010903795949760865   2.2559030028020122e-05   4.024878918218629e-06
-0.00010903795949760865   2.2559030028020122e-05   4.024878918218629e-06
-0.00010903795949760865   2.2559030028020122e-05   4.024878918218629e-06
-9.258994771114629e-05   2.4209691993244686e-05   5.14247638667459e-05
-9.258994771114629e-05   2.4209691993244686e-05   5.14247638667459e-05
-9.258994771114629e-05   2.4209691993244686e-05   5.14247638667459e-05
-9.258994771114629e-05   2.4209691993244686e-05   5.14247638667459e-05
-0.0001370950495903776   2.149558314927611e-05   -2.4378871238352976e-05
-0.0001370950495903776   2.149558314927611e-05   -2.4378871238352976e-05
-0.0001370950495903776   2.149558314927611e-05   -2.4378871238352976e-05
-0.0001370950495903776   2.149558314927611e-05   -2.4378871238352976e-05
-0.0001405953679858062   2.40321438729112e-05   6.059840565058759e-05
-0.0001405953679858062   2.40321438729112e-05   6.059840565058759e-05
-0.0001405953679858062   2.40321438729112e-05   6.059840565058759e-05
-0.0001405953679858062   2.40321438729112e-05   6.059840565058759e-05
-9.511319113429754e-05   2.1256747667870203e-05   -1.3539984712236035e-05
-9.511319113429754e-05   2.1256747667870203e-05   -1.3539984712236035e-05
-9.511319113429754e-05   2.1256747667870203e-05   -1.3539984712236035e-05
-9.511319113429754e-05   2.1256747667870203e-05   -1.3539984712236035e-05
-0.0001134254048234095   2.2967694349982498e-05   1.5953803427018248e-05
-0.0001134254048234095   2.2967694349982498e-05   1.5953803427018248e-05
-0.0001134254048234095   2.2967694349982498e-05   1.5953803427018248e-05
-0.0001134254048234095   2.2967694349982498e-05   1.5953803427018248e-05
-9.511319113429754e-05   2.40321438729112e-05   6.226364337361253e-05
-9.511319113429754e-05   2.40321438729112e-05   6.226364337361253e-05
-9.511319113429754e-05   2.40321438729112e-05   6.226364337361253e-05
-9.511319113429754e-05   2.40321438729112e-05   6.226364337361253e-05
-0.00014059536798580657   2.1256747667870203e-05   -1.5205222435261088e-05
-0.00014059536798580657   2.1256747667870203e-05   -1.5205222435261088e-05
-0.00014059536798580657   2.1256747667870203e-05   -1.5205222435261088e-05
-0.00014059536798580657   2.1256747667870203e-05   -1.5205222435261088e-05
-0.0001446853776439919   2.2113683117511163e-05   7.911729317833889e-05
-0.0001446853776439919   2.2113683117511163e-05   7.911729317833889e-05
-0.0001446853776439919   2.2113683117511163e-05   7.911729317833889e-05
-0.0001446853776439919   2.2113683117511163e-05   7.911729317833889e-05
-9.751877376038042e-05   1.961196316174838e-05   2.0073186791099524e-06
-9.751877376038042e-05   1.961196316174838e-05   2.0073186791099524e-06
-9.751877376038042e-05   1.961196316174838e-05   2.0073186791099524e-06
-9.751877376038042e-05   1.961196316174838e-05   2.0073186791099524e-06
-0.00011456119905752139   2.2289606855754873e-05   2.8804774624610445e-05
-0.00011456119905752139   2.2289606855754873e-05   2.8804774624610445e-05
-0.00011456119905752139   2.2289606855754873e-05   2.8804774624610445e-05
-0.00011456119905752139   2.2289606855754873e-05   2.8804774624610445e-05
7.745715555539265e-05   -1.0471829228080043e-05   6.589640420241565e-05
7.745715555539265e-05   -1.0471829228080043e-05   6.589640420241565e-05
7.745715555539265e-05   -1.0471829228080043e-05   6.589640420241565e-05
7.745715555539265e-05   -1.0471829228080043e-05   6.589640420241565e-05
3.64821827303352e-05   -6.896871163601919e-06   -2.502423339934001e-07
3.64821827303352e-05   -6.896871163601919e-06   -2.502423339934001e-07
3.64821827303352e-05   -6.896871163601919e-06   -2.502423339934001e-07
3.64821827303352e-05   -6.896871163601919e-06   -2.502423339934001e-07
3.4737478068889614e-05   -1.2158366082057857e-05   5.792110967101083e-05
3.4737478068889614e-05   -1.2158366082057857e-05   5.792110967101083e-05
3.4737478068889614e-05   -1.2158366082057857e-05   5.792110967101083e-05
3.4737478068889614e-05   -1.2158366082057857e-05   5.792110967101083e-05
7.408287995475752e-05   -8.379692333472001e-06   -9.921764387920692e-06
7.408287995475752e-05   -8.379692333472001e-06   -9.921764387920692e-06
7.408287995475752e-05   -8.379692333472001e-06   -9.921764387920692e-06
7.408287995475752e-05   -8.379692333472001e-06   -9.921764387920692e-06
5.306950097052409e-05   -9.550576871191971e-06   2.580306464176713e-05
5.306950097052409e-05   -9.550576871191971e-06   2.580306464176713e-05
5.306950097052409e-05   -9.550576871191971e-06   2.580306464176713e-05
5.306950097052409e-05   -9.550576871191971e-06   2.580306464176713e-05
7.408287995475752e-05   -1.2158366082057857e-05   5.5653905421859575e-05
7.408287995475752e-05   -1.2158366082057857e-05   5.5653905421859575e-05
7.408287995475752e-05   -1.2158366082057857e-05   5.5653905421859575e-05
7.408287995475752e-05   -1.2158366082057857e-05   5.5653905421859575e-05
3.473747806888967e-05   -8.379692333472001e-06   -7.654560138768869e-06
3.473747806888967e-05   -8.379692333472001e-06   -7.654560138768869e-06
3.473747806888967e-05   -8.379692333472001e-06   -7.654560138768869e-06
3.473747806888967e-05   -8.379692333472001e-06   -7.654560138768869e-06
3.2813097299120664e-05   -1.249868850041868e-05   5.231295972430144e-05
3.2813097299120664e-05   -1.249868850041868e-05   5.231295972430144e-05
3.2813097299120664e-05   -1.249868850041868e-05   5.231295972430144e-05
3.2813097299120664e-05   -1.249868850041868e-05   5.231295972430144e-05
7.112739533931167e-05   -8.77713614959915e-06   -1.3777135086508765e-05
7.112739533931167e-05   -8.77713614959915e-06   -1.3777135086508765e-05
7.112739533931167e-05   -8.77713614959915e-06   -1.3777135086508765e-05
7.112739533931167e-05   -8.77713614959915e-06   -1.3777135086508765e-05
5.166196117297915e-05   -1.0151461333756696e-05   1.9489850301208e-05
5.166196117297915e-05   -1.0151461333756696e-05   1.9489850301208e-05
5.166196117297915e-05   -1.0151461333756696e-05   1.9489850301208e-05
5.166196117297915e-05   -1.0151461333756696e-05   1.9489850301208e-05
7.112739533931154e-05   -1.2498688500419547e-05   5.008002831380972e-05
7.112739533931154e-05   -1.2498688500419547e-05   5.008002831380972e-05
7.112739533931154e-05   -1.2498688500419547e-05   5.008002831380972e-05
7.112739533931154e-05   -1.2498688500419547e-05   5.008002831380972e-05
3.281309729912073e-05   -8.77713614959915e-06   -1.1544203676016641e-05
3.281309729912073e-05   -8.77713614959915e-06   -1.1544203676016641e-05
3.281309729912073e-05   -8.77713614959915e-06   -1.1544203676016641e-05
3.281309729912073e-05   -8.77713614959915e-06   -1.1544203676016641e-05
3.103695085164062e-05   -1.2643919299445278e-05   4.472985327763027e-05
3.103695085164062e-05   -1.2643919299445278e-05   4.472985327763027e-05
3.103695085164062e-05   -1.2643919299445278e-05   4.472985327763027e-05
3.103695085164062e-05   -1.2643919299445278e-05   4.472985327763027e-05
6.782774739933888e-05   -9.154646243273671e-06   -1.868170480223737e-05
6.782774739933888e-05   -9.154646243273671e-06   -1.868170480223737e-05
6.782774739933888e-05   -9.154646243273671e-06   -1.868170480223737e-05
6.782774739933888e-05   -9.154646243273671e-06   -1.868170480223737e-05
4.8586179196224345e-05   -1.009646670993656e-05   1.3952667816286094e-05
4.8586179196224345e-05   -1.009646670993656e-05   1.3952667816286094e-05
4.8586179196224345e-05   -1.009646670993656e-05   1.3952667816286094e-05
4.8586179196224345e-05   -1.009646670993656e-05   1.3952667816286094e-05
3.6482182730335075e-05   -1.9999088524619638e-06   7.508086703780694e-05
3.6482182730335075e-05   -1.9999088524619638e-06   7.508086703780694e-05
3.6482182730335075e-05   -1.9999088524619638e-06   7.508086703780694e-05
3.6482182730335075e-05   -1.9999088524619638e-06   7.508086703780694e-05
-2.3112080346948975e-06   -2.282428259326591e-08   1.1611466504677682e-05
-2.3112080346948975e-06   -2.282428259326591e-08   1.1611466504677682e-05
-2.3112080346948975e-06   -2.282428259326591e-08   1.1611466504677682e-05
-2.3112080346948975e-06   -2.282428259326591e-08   1.1611466504677682e-05
-3.950719714333474e-06   -3.1977369601438738e-06   7.521975594741194e-05
-3.950719714333474e-06   -3.1977369601438738e-06   7.521975594741194e-05
-3.950719714333474e-06   -3.1977369601438738e-06   7.521975594741194e-05
-3.950719714333474e-06   -3.1977369601438738e-06   7.521975594741194e-05
3.473747806888967e-05   -1.3149280663599626e-06   9.609740972436534e-06
3.473747806888967e-05   -1.3149280663599626e-06   9.609740972436534e-06
3.473747806888967e-05   -1.3149280663599626e-06   9.609740972436534e-06
3.473747806888967e-05   -1.3149280663599626e-06   9.609740972436534e-06
1.5976757549411653e-05   -1.6803767077730458e-06   4.1096877689747284e-05
1.5976757549411653e-05   -1.6803767077730458e-06   4.1096877689747284e-05
1.5976757549411653e-05   -1.6803767077730458e-06   4.1096877689747284e-05
1.5976757549411653e-05   -1.6803767077730458e-06   4.1096877689747284e-05
3.473747806888957e-05   -3.1977369601438738e-06   7.409007061114211e-05
3.473747806888957e-05   -3.1977369601438738e-06   7.409007061114211e-05
3.473747806888957e-05   -3.1977369601438738e-06   7.409007061114211e-05
3.473747806888957e-05   -3.1977369601438738e-06   7.409007061114211e-05
-3.950719714333474e-06   -1.3149280663599626e-06   1.0739426308706713e-05
-3.950719714333474e-06   -1.3149280663599626e-06   1.0739426308706713e-05
-3.950719714333474e-06   -1.3149280663599626e-06   1.0739426308706713e-05
-3.950719714333474e-06   -1.3149280663599626e-06   1.0739426308706713e-05
-5.62480538436445e-06   -4.089965380833956e-06   7.409958194010092e-05
-5.62480538436445e-06   -4.089965380833956e-06   7.409958194010092e-05
-5.62480538436445e-06   -4.089965380833956e-06   7.409958194010092e-05
-5.62480538436445e-06   -4.089965380833956e-06   7.409958194010092e-05
3.281309729912073e-05   -2.3356630612070793e-06   8.983829409182941e-06
3.281309729912073e-05   -2.3356630612070793e-06   8.983829409182941e-06
3.281309729912073e-05   -2.3356630612070793e-06   8.983829409182941e-06
3.281309729912073e-05   -2.3356630612070793e-06   8.983829409182941e-06
1.413983285347049e-05   -2.4789709274870494e-06   4.0191921538370646e-05
1.413983285347049e-05   -2.4789709274870494e-06   4.0191921538370646e-05
1.413983285347049e-05   -2.4789709274870494e-06   4.0191921538370646e-05
1.413983285347049e-05   -2.4789709274870494e-06   4.0191921538370646e-05
3.2813097299120664e-05   -4.089965380833088e-06   7.304700054832497e-05
3.2813097299120664e-05   -4.089965380833088e-06   7.304700054832497e-05
3.2813097299120664e-05   -4.089965380833088e-06   7.304700054832497e-05
3.2813097299120664e-05   -4.089965380833088e-06   7.304700054832497e-05
-5.62480538436445e-06   -2.3356630612070793e-06   1.0036410800958948e-05
-5.62480538436445e-06   -2.3356630612070793e-06   1.0036410800958948e-05
-5.62480538436445e-06   -2.3356630612070793e-06   1.0036410800958948e-05
-5.62480538436445e-06   -2.3356630612070793e-06   1.0036410800958948e-05
-7.307784336453549e-06   -4.796717012891388e-06   7.462848580910971e-05
-7.307784336453549e-06   -4.796717012891388e-06   7.462848580910971e-05
-7.307784336453549e-06   -4.796717012891388e-06   7.462848580910971e-05
-7.307784336453549e-06   -4.796717012891388e-06   7.462848580910971e-05
3.103695085164066e-05   -3.283779726064723e-06   9.81283145685685e-06
3.103695085164066e-05   -3.283779726064723e-06   9.81283145685685e-06
3.103695085164066e-05   -3.283779726064723e-06   9.81283145685685e-06
3.103695085164066e-05   -3.283779726064723e-06   9.81283145685685e-06
1.2733711382690075e-05   -3.072811538862817e-06   4.019164965945527e-05
1.2733711382690075e-05   -3.072811538862817e-06   4.019164965945527e-05
1.2733711382690075e-05   -3.072811538862817e-06   4.019164965945527e-05
1.2733711382690075e-05   -3.072811538862817e-06   4.019164965945527e-05
-2.3112080346948975e-06   6.515388157888116e-06   7.951639366136649e-05
-2.3112080346948975e-06   6.515388157888116e-06   7.951639366136649e-05
-2.3112080346948975e-06   6.515388157888116e-06   7.951639366136649e-05
-2.3112080346948975e-06   6.515388157888116e-06   7.951639366136649e-05
-4.029100427381765e-05   6.70127860784471e-06   1.632826753280225e-05
-4.029100427381765e-05   6.70127860784471e-06   1.632826753280225e-05
-4.029100427381765e-05   6.70127860784471e-06   1.632826753280225e-05
-4.029100427381765e-05   6.70127860784471e-06   1.632826753280225e-05
-4.1938584874166504e-05   5.515852206473999e-06   7.92756109024113e-05
-4.1938584874166504e-05   5.515852206473999e-06   7.92756109024113e-05
-4.1938584874166504e-05   5.515852206473999e-06   7.92756109024113e-05
-4.1938584874166504e-05   5.515852206473999e-06   7.92756109024113e-05
-3.950719714333474e-06   5.5634213215229045e-06   1.5933960833660666e-05
-3.950719714333474e-06   5.5634213215229045e-06   1.5933960833660666e-05
-3.950719714333474e-06   5.5634213215229045e-06   1.5933960833660666e-05
-3.950719714333474e-06   5.5634213215229045e-06   1.5933960833660666e-05
-2.218045913172047e-05   5.969308653300601e-06   4.607332746357171e-05
-2.218045913172047e-05   5.969308653300601e-06   4.607332746357171e-05
-2.218045913172047e-05   5.969308653300601e-06   4.607332746357171e-05
-2.218045913172047e-05   5.969308653300601e-06   4.607332746357171e-05
-3.950719714333474e-06   5.515852206474867e-06   7.924706943338283e-05
-3.950719714333474e-06   5.515852206474867e-06   7.924706943338283e-05
-3.950719714333474e-06   5.515852206474867e-06   7.924706943338283e-05
-3.950719714333474e-06   5.515852206474867e-06   7.924706943338283e-05
-4.1938584874166504e-05   5.563421321522471e-06   1.5962502302689467e-05
-4.1938584874166504e-05   5.563421321522471e-06   1.5962502302689467e-05
-4.1938584874166504e-05   5.563421321522471e-06   1.5962502302689467e-05
-4.1938584874166504e-05   5.563421321522471e-06   1.5962502302689467e-05
-4.3627720330298306e-05   4.545177267611077e-06   7.971540605172626e-05
-4.3627720330298306e-05   4.545177267611077e-06   7.971540605172626e-05
-4.3627720330298306e-05   4.545177267611077e-06   7.971540605172626e-05
-4.3627720330298306e-05   4.545177267611077e-06   7.971540605172626e-05
-5.62480538436445e-06   4.443506096000419e-06   1.643821717813666e-05
-5.62480538436445e-06   4.443506096000419e-06   1.643821717813666e-05
-5.62480538436445e-06   4.443506096000419e-06   1.643821717813666e-05
-5.62480538436445e-06   4.443506096000419e-06   1.643821717813666e-05
-2.371086951252142e-05   5.203154947347119e-06   4.612586808092485e-05
-2.371086951252142e-05   5.203154947347119e-06   4.612586808092485e-05
-2.371086951252142e-05   5.203154947347119e-06   4.612586808092485e-05
-2.371086951252142e-05   5.203154947347119e-06   4.612586808092485e-05
-5.62480538436445e-06   4.545177267611077e-06   7.9776408754693e-05
-5.62480538436445e-06   4.545177267611077e-06   7.9776408754693e-05
-5.62480538436445e-06   4.545177267611077e-06   7.9776408754693e-05
-5.62480538436445e-06   4.545177267611077e-06   7.9776408754693e-05
-4.3627720330298306e-05   4.443506096000419e-06   1.6377214475169757e-05
-4.3627720330298306e-05   4.443506096000419e-06   1.6377214475169757e-05
-4.3627720330298306e-05   4.443506096000419e-06   1.6377214475169757e-05
-4.3627720330298306e-05   4.443506096000419e-06   1.6377214475169757e-05
-4.5316559867849724e-05   3.6809850614393652e-06   8.07147690415691e-05
-4.5316559867849724e-05   3.6809850614393652e-06   8.07147690415691e-05
-4.5316559867849724e-05   3.6809850614393652e-06   8.07147690415691e-05
-4.5316559867849724e-05   3.6809850614393652e-06   8.07147690415691e-05
-7.307784336453522e-06   3.3806063569319887e-06   1.7547037045279794e-05
-7.307784336453522e-06   3.3806063569319887e-06   1.7547037045279794e-05
-7.307784336453522e-06   3.3806063569319887e-06   1.7547037045279794e-05
-7.307784336453522e-06   3.3806063569319887e-06   1.7547037045279794e-05
-2.5312722632579214e-05   4.456270310457949e-06   4.69098691667088e-05
-2.5312722632579214e-05   4.456270310457949e-06   4.69098691667088e-05
-2.5312722632579214e-05   4.456270310457949e-06   4.69098691667088e-05
-2.5312722632579214e-05   4.456270310457949e-06   4.69098691667088e-05
-4.0291004273817544e-05   1.4796038991443834e-05   6.991612358184978e-05
-4.0291004273817544e-05   1.4796038991443834e-05   6.991612358184978e-05
-4.0291004273817544e-05   1.4796038991443834e-05   6.991612358184978e-05
-4.0291004273817544e-05   1.4796038991443834e-05   6.991612358184978e-05
-7.741047292231332e-05   1.3168518388767276e-05   7.073830139417295e-06
-7.741047292231332e-05   1.3168518388767276e-05   7.073830139417295e-06
-7.741047292231332e-05   1.3168518388767276e-05   7.073830139417295e-06
-7.741047292231332e-05   1.3168518388767276e-05   7.073830139417295e-06
-7.918266200316226e-05   1.3839052326348848e-05   6.945096941161693e-05
-7.918266200316226e-05   1.3839052326348848e-05   6.945096941161693e-05
-7.918266200316226e-05   1.3839052326348848e-05   6.945096941161693e-05
-7.918266200316226e-05   1.3839052326348848e-05   6.945096941161693e-05
-4.193858487416656e-05   1.2076608205942828e-05   8.434974002201139e-06
-4.193858487416656e-05   1.2076608205942828e-05   8.434974002201139e-06
-4.193858487416656e-05   1.2076608205942828e-05   8.434974002201139e-06
-4.193858487416656e-05   1.2076608205942828e-05   8.434974002201139e-06
-5.9509007016497804e-05   1.329706684483501e-05   3.698673572275098e-05
-5.9509007016497804e-05   1.329706684483501e-05   3.698673572275098e-05
-5.9509007016497804e-05   1.329706684483501e-05   3.698673572275098e-05
-5.9509007016497804e-05   1.329706684483501e-05   3.698673572275098e-05
-4.1938584874166504e-05   1.3839052326349716e-05   7.050843588386063e-05
-4.1938584874166504e-05   1.3839052326349716e-05   7.050843588386063e-05
-4.1938584874166504e-05   1.3839052326349716e-05   7.050843588386063e-05
-4.1938584874166504e-05   1.3839052326349716e-05   7.050843588386063e-05
-7.918266200316226e-05   1.2076608205942828e-05   7.377507529957332e-06
-7.918266200316226e-05   1.2076608205942828e-05   7.377507529957332e-06
-7.918266200316226e-05   1.2076608205942828e-05   7.377507529957332e-06
-7.918266200316226e-05   1.2076608205942828e-05   7.377507529957332e-06
-8.113460806952899e-05   1.295897353474889e-05   7.205201098605622e-05
-8.113460806952899e-05   1.295897353474889e-05   7.205201098605622e-05
-8.113460806952899e-05   1.295897353474889e-05   7.205201098605622e-05
-8.113460806952899e-05   1.295897353474889e-05   7.205201098605622e-05
-4.3627720330298306e-05   1.106127237927466e-05   1.0679152113955747e-05
-4.3627720330298306e-05   1.106127237927466e-05   1.0679152113955747e-05
-4.3627720330298306e-05   1.106127237927466e-05   1.0679152113955747e-05
-4.3627720330298306e-05   1.106127237927466e-05   1.0679152113955747e-05
-6.07855257682039e-05   1.25990180055921e-05   3.8352847134676495e-05
-6.07855257682039e-05   1.25990180055921e-05   3.8352847134676495e-05
-6.07855257682039e-05   1.25990180055921e-05   3.8352847134676495e-05
-6.07855257682039e-05   1.25990180055921e-05   3.8352847134676495e-05
-4.3627720330298306e-05   1.295897353474889e-05   7.319063167934023e-05
-4.3627720330298306e-05   1.295897353474889e-05   7.319063167934023e-05
-4.3627720330298306e-05   1.295897353474889e-05   7.319063167934023e-05
-4.3627720330298306e-05   1.295897353474889e-05   7.319063167934023e-05
-8.113460806952899e-05   1.106127237927466e-05   9.54053142067173e-06
-8.113460806952899e-05   1.106127237927466e-05   9.54053142067173e-06
-8.113460806952899e-05   1.106127237927466e-05   9.54053142067173e-06
-8.113460806952899e-05   1.106127237927466e-05   9.54053142067173e-06
-8.292061603318838e-05   1.1886148612888503e-05   7.401609011772024e-05
-8.292061603318838e-05   1.1886148612888503e-05   7.401609011772024e-05
-8.292061603318838e-05   1.1886148612888503e-05   7.401609011772024e-05
-8.292061603318838e-05   1.1886148612888503e-05   7.401609011772024e-05
-4.531655986784983e-05   9.880793335302705e-06   1.2545876342040583e-05
-4.531655986784983e-05   9.880793335302705e-06   1.2545876342040583e-05
-4.531655986784983e-05   9.880793335302705e-06   1.2545876342040583e-05
-4.531655986784983e-05   9.880793335302705e-06   1.2545876342040583e-05
-6.280741560368849e-05   1.181390816676342e-05   4.053743366956499e-05
-6.280741560368849e-05   1.181390816676342e-05   4.053743366956499e-05
-6.280741560368849e-05   1.181390816676342e-05   4.053743366956499e-05
-6.280741560368849e-05   1.181390816676342e-05   4.053743366956499e-05
-7.741047292231332e-05   2.1277924584648528e-05   3.37714743812007e-05
-7.741047292231332e-05   2.1277924584648528e-05   3.37714743812007e-05
-7.741047292231332e-05   2.1277924584648528e-05   3.37714743812007e-05
-7.741047292231332e-05   2.1277924584648528e-05   3.37714743812007e-05
-0.00011260954471306183   1.812121420044152e-05   -2.6787671500570764e-05
-0.00011260954471306183   1.812121420044152e-05   -2.6787671500570764e-05
-0.00011260954471306183   1.812121420044152e-05   -2.6787671500570764e-05
-0.00011260954471306183   1.812121420044152e-05   -2.6787671500570764e-05
-0.00011579201966956272   2.149558314927611e-05   4.4817007122963624e-05
-0.00011579201966956272   2.149558314927611e-05   4.4817007122963624e-05
-0.00011579201966956272   2.149558314927611e-05   4.4817007122963624e-05
-0.00011579201966956272   2.149558314927611e-05   4.4817007122963624e-05
-7.918266200316226e-05   1.8022603927163403e-05   -1.4114801454436854e-05
-7.918266200316226e-05   1.8022603927163403e-05   -1.4114801454436854e-05
-7.918266200316226e-05   1.8022603927163403e-05   -1.4114801454436854e-05
-7.918266200316226e-05   1.8022603927163403e-05   -1.4114801454436854e-05
-9.258803154884893e-05   1.9443545743183348e-05   7.374916032095976e-06
-9.258803154884893e-05   1.9443545743183348e-05   7.374916032095976e-06
-9.258803154884893e-05   1.9443545743183348e-05   7.374916032095976e-06
-9.258803154884893e-05   1.9443545743183348e-05   7.374916032095976e-06
-7.918266200316216e-05   2.149558314927698e-05   4.6900794656231336e-05
-7.918266200316216e-05   2.149558314927698e-05   4.6900794656231336e-05
-7.918266200316216e-05   2.149558314927698e-05   4.6900794656231336e-05
-7.918266200316216e-05   2.149558314927698e-05   4.6900794656231336e-05
-0.00011579201966956294   1.8022603927163403e-05   -1.619858898770435e-05
-0.00011579201966956294   1.8022603927163403e-05   -1.619858898770435e-05
-0.00011579201966956294   1.8022603927163403e-05   -1.619858898770435e-05
-0.00011579201966956294   1.8022603927163403e-05   -1.619858898770435e-05
-0.0001186437569166024   2.1256747667870203e-05   5.376487666573608e-05
-0.0001186437569166024   2.1256747667870203e-05   5.376487666573608e-05
-0.0001186437569166024   2.1256747667870203e-05   5.376487666573608e-05
-0.0001186437569166024   2.1256747667870203e-05   5.376487666573608e-05
-8.113460806952899e-05   1.765267708584827e-05   -6.587929063506422e-06
-8.113460806952899e-05   1.765267708584827e-05   -6.587929063506422e-06
-8.113460806952899e-05   1.765267708584827e-05   -6.587929063506422e-06
-8.113460806952899e-05   1.765267708584827e-05   -6.587929063506422e-06
-9.623449392095448e-05   1.9655357252808432e-05   1.7376939255363093e-05
-9.623449392095448e-05   1.9655357252808432e-05   1.7376939255363093e-05
-9.623449392095448e-05   1.9655357252808432e-05   1.7376939255363093e-05
-9.623449392095448e-05   1.9655357252808432e-05   1.7376939255363093e-05
-8.113460806952899e-05   2.1256747667870203e-05   5.5927319014950194e-05
-8.113460806952899e-05   2.1256747667870203e-05   5.5927319014950194e-05
-8.113460806952899e-05   2.1256747667870203e-05   5.5927319014950194e-05
-8.113460806952899e-05   2.1256747667870203e-05   5.5927319014950194e-05
-0.00011864375691660262   1.7652677085847838e-05   -8.750371412720101e-06
-0.00011864375691660262   1.7652677085847838e-05   -8.750371412720101e-06
-0.00011864375691660262   1.7652677085847838e-05   -8.750371412720101e-06
-0.00011864375691660262   1.7652677085847838e-05   -8.750371412720101e-06
-0.0001219227505165351   1.961196316174838e-05   6.917097031750681e-05
-0.0001219227505165351   1.961196316174838e-05   6.917097031750681e-05
-0.0001219227505165351   1.961196316174838e-05   6.917097031750681e-05
-0.0001219227505165351   1.961196316174838e-05   6.917097031750681e-05
-8.292061603318838e-05   1.6027254349250918e-05   6.318238132760096e-06
-8.292061603318838e-05   1.6027254349250918e-05   6.318238132760096e-06
-8.292061603318838e-05   1.6027254349250918e-05   6.318238132760096e-06
-8.292061603318838e-05   1.6027254349250918e-05   6.318238132760096e-06
-9.70328074774601e-05   1.8982198679242182e-05   2.8065590608553135e-05
-9.70328074774601e-05   1.8982198679242182e-05   2.8065590608553135e-05
-9.70328074774601e-05   1.8982198679242182e-05   2.8065590608553135e-05
-9.70328074774601e-05   1.8982198679242182e-05   2.8065590608553135e-05
5.318264518589677e-05   -6.896871163601485e-06   5.351952238988539e-05
5.318264518589677e-05   -6.896871163601485e-06   5.351952238988539e-05
5.318264518589677e-05   -6.896871163601485e-06   5.351952238988539e-05
5.318264518589677e-05   -6.896871163601485e-06   5.351952238988539e-05
2.205606149701315e-05   -3.3640176565021863e-06   3.7615950126725084e-06
2.205606149701315e-05   -3.3640176565021863e-06   3.7615950126725084e-06
2.205606149701315e-05   -3.3640176565021863e-06   3.7615950126725084e-06
2.205606149701315e-05   -3.3640176565021863e-06   3.7615950126725084e-06
2.0655170222571625e-05   -8.379692333472001e-06   4.8140057576872425e-05
2.0655170222571625e-05   -8.379692333472001e-06   4.8140057576872425e-05
2.0655170222571625e-05   -8.379692333472001e-06   4.8140057576872425e-05
2.0655170222571625e-05   -8.379692333472001e-06   4.8140057576872425e-05
5.020373537525916e-05   -4.687341686292288e-06   -3.3229613992478025e-06
5.020373537525916e-05   -4.687341686292288e-06   -3.3229613992478025e-06
5.020373537525916e-05   -4.687341686292288e-06   -3.3229613992478025e-06
5.020373537525916e-05   -4.687341686292288e-06   -3.3229613992478025e-06
3.470587733221196e-05   -5.973862503762251e-06   2.3278714496313422e-05
3.470587733221196e-05   -5.973862503762251e-06   2.3278714496313422e-05
3.470587733221196e-05   -5.973862503762251e-06   2.3278714496313422e-05
3.470587733221196e-05   -5.973862503762251e-06   2.3278714496313422e-05
5.020373537525927e-05   -8.379692333472001e-06   4.592464718856503e-05
5.020373537525927e-05   -8.379692333472001e-06   4.592464718856503e-05
5.020373537525927e-05   -8.379692333472001e-06   4.592464718856503e-05
5.020373537525927e-05   -8.379692333472001e-06   4.592464718856503e-05
2.0655170222571544e-05   -4.687341686292288e-06   -1.1075510109401915e-06
2.0655170222571544e-05   -4.687341686292288e-06   -1.1075510109401915e-06
2.0655170222571544e-05   -4.687341686292288e-06   -1.1075510109401915e-06
2.0655170222571544e-05   -4.687341686292288e-06   -1.1075510109401915e-06
1.90833012990979e-05   -8.77713614959915e-06   4.414232270247547e-05
1.90833012990979e-05   -8.77713614959915e-06   4.414232270247547e-05
1.90833012990979e-05   -8.77713614959915e-06   4.414232270247547e-05
1.90833012990979e-05   -8.77713614959915e-06   4.414232270247547e-05
4.764812056946156e-05   -5.144532864965589e-06   -5.6452713855774535e-06
4.764812056946156e-05   -5.144532864965589e-06   -5.6452713855774535e-06
4.764812056946156e-05   -5.144532864965589e-06   -5.6452713855774535e-06
4.764812056946156e-05   -5.144532864965589e-06   -5.6452713855774535e-06
3.337304280605716e-05   -6.534585949049144e-06   1.8980556737214006e-05
3.337304280605716e-05   -6.534585949049144e-06   1.8980556737214006e-05
3.337304280605716e-05   -6.534585949049144e-06   1.8980556737214006e-05
3.337304280605716e-05   -6.534585949049144e-06   1.8980556737214006e-05
4.764812056946163e-05   -8.77713614959915e-06   4.1962760731695074e-05
4.764812056946163e-05   -8.77713614959915e-06   4.1962760731695074e-05
4.764812056946163e-05   -8.77713614959915e-06   4.1962760731695074e-05
4.764812056946163e-05   -8.77713614959915e-06   4.1962760731695074e-05
1.9083301299097874e-05   -5.144532864965589e-06   -3.4657094147971107e-06
1.9083301299097874e-05   -5.144532864965589e-06   -3.4657094147971107e-06
1.9083301299097874e-05   -5.144532864965589e-06   -3.4657094147971107e-06
1.9083301299097874e-05   -5.144532864965589e-06   -3.4657094147971107e-06
1.7674933242694068e-05   -9.154646243273671e-06   3.8963330700949195e-05
1.7674933242694068e-05   -9.154646243273671e-06   3.8963330700949195e-05
1.7674933242694068e-05   -9.154646243273671e-06   3.8963330700949195e-05
1.7674933242694068e-05   -9.154646243273671e-06   3.8963330700949195e-05
4.475219219234885e-05   -5.754168305196778e-06   -8.205720977987985e-06
4.475219219234885e-05   -5.754168305196778e-06   -8.205720977987985e-06
4.475219219234885e-05   -5.754168305196778e-06   -8.205720977987985e-06
4.475219219234885e-05   -5.754168305196778e-06   -8.205720977987985e-06
3.0927283753072475e-05   -6.64807413037604e-06   1.5372136582580113e-05
3.0927283753072475e-05   -6.64807413037604e-06   1.5372136582580113e-05
3.0927283753072475e-05   -6.64807413037604e-06   1.5372136582580113e-05
3.0927283753072475e-05   -6.64807413037604e-06   1.5372136582580113e-05
2.2056061497013225e-05   -2.282428259326591e-08   6.63146925908957e-05
2.2056061497013225e-05   -2.282428259326591e-08   6.63146925908957e-05
2.2056061497013225e-05   -2.282428259326591e-08   6.63146925908957e-05
2.2056061497013225e-05   -2.282428259326591e-08   6.63146925908957e-05
-7.167005529769738e-06   1.7662295875467242e-06   1.8683013201674587e-05
-7.167005529769738e-06   1.7662295875467242e-06   1.8683013201674587e-05
-7.167005529769738e-06   1.7662295875467242e-06   1.8683013201674587e-05
-7.167005529769738e-06   1.7662295875467242e-06   1.8683013201674587e-05
-8.453558149919195e-06   -1.3149280663599626e-06   6.644750390001576e-05
-8.453558149919195e-06   -1.3149280663599626e-06   6.644750390001576e-05
-8.453558149919195e-06   -1.3149280663599626e-06   6.644750390001576e-05
-8.453558149919195e-06   -1.3149280663599626e-06   6.644750390001576e-05
2.0655170222571544e-05   4.2364728686976674e-07   1.688981140059307e-05
2.0655170222571544e-05   4.2364728686976674e-07   1.688981140059307e-05
2.0655170222571544e-05   4.2364728686976674e-07   1.688981140059307e-05
2.0655170222571544e-05   4.2364728686976674e-07   1.688981140059307e-05
6.564874205861293e-06   9.840399336352723e-08   4.056878407121545e-05
6.564874205861293e-06   9.840399336352723e-08   4.056878407121545e-05
6.564874205861293e-06   9.840399336352723e-08   4.056878407121545e-05
6.564874205861293e-06   9.840399336352723e-08   4.056878407121545e-05
2.0655170222571598e-05   -1.3149280663599626e-06   6.540435868807775e-05
2.0655170222571598e-05   -1.3149280663599626e-06   6.540435868807775e-05
2.0655170222571598e-05   -1.3149280663599626e-06   6.540435868807775e-05
2.0655170222571598e-05   -1.3149280663599626e-06   6.540435868807775e-05
-8.453558149919223e-06   4.2364728686976674e-07   1.7932956612531394e-05
-8.453558149919223e-06   4.2364728686976674e-07   1.7932956612531394e-05
-8.453558149919223e-06   4.2364728686976674e-07   1.7932956612531394e-05
-8.453558149919223e-06   4.2364728686976674e-07   1.7932956612531394e-05
-9.768616872997431e-06   -2.3356630612070793e-06   6.566549472125649e-05
-9.768616872997431e-06   -2.3356630612070793e-06   6.566549472125649e-05
-9.768616872997431e-06   -2.3356630612070793e-06   6.566549472125649e-05
-9.768616872997431e-06   -2.3356630612070793e-06   6.566549472125649e-05
1.9083301299097874e-05   -6.770981719039088e-07   1.6583825500849603e-05
1.9083301299097874e-05   -6.770981719039088e-07   1.6583825500849603e-05
1.9083301299097874e-05   -6.770981719039088e-07   1.6583825500849603e-05
1.9083301299097874e-05   -6.770981719039088e-07   1.6583825500849603e-05
5.151920735863981e-06   -7.983601502344929e-07   3.9875550293240046e-05
5.151920735863981e-06   -7.983601502344929e-07   3.9875550293240046e-05
5.151920735863981e-06   -7.983601502344929e-07   3.9875550293240046e-05
5.151920735863981e-06   -7.983601502344929e-07   3.9875550293240046e-05
1.908330129909793e-05   -2.3356630612070793e-06   6.467035578767511e-05
1.908330129909793e-05   -2.3356630612070793e-06   6.467035578767511e-05
1.908330129909793e-05   -2.3356630612070793e-06   6.467035578767511e-05
1.908330129909793e-05   -2.3356630612070793e-06   6.467035578767511e-05
-9.768616872997459e-06   -6.770981719039088e-07   1.7578964434431486e-05
-9.768616872997459e-06   -6.770981719039088e-07   1.7578964434431486e-05
-9.768616872997459e-06   -6.770981719039088e-07   1.7578964434431486e-05
-9.768616872997459e-06   -6.770981719039088e-07   1.7578964434431486e-05
-1.107236245571661e-05   -3.283779726064723e-06   6.627583140967263e-05
-1.107236245571661e-05   -3.283779726064723e-06   6.627583140967263e-05
-1.107236245571661e-05   -3.283779726064723e-06   6.627583140967263e-05
-1.107236245571661e-05   -3.283779726064723e-06   6.627583140967263e-05
1.7674933242693994e-05   -1.7645659205114267e-06   1.74521436289893e-05
1.7674933242693994e-05   -1.7645659205114267e-06   1.74521436289893e-05
1.7674933242693994e-05   -1.7645659205114267e-06   1.74521436289893e-05
1.7674933242693994e-05   -1.7645659205114267e-06   1.74521436289893e-05
4.033108070742598e-06   -1.5485990671150127e-06   4.005893880353758e-05
4.033108070742598e-06   -1.5485990671150127e-06   4.005893880353758e-05
4.033108070742598e-06   -1.5485990671150127e-06   4.005893880353758e-05
4.033108070742598e-06   -1.5485990671150127e-06   4.005893880353758e-05
-7.167005529769711e-06   6.701278607843843e-06   7.199339167113022e-05
-7.167005529769711e-06   6.701278607843843e-06   7.199339167113022e-05
-7.167005529769711e-06   6.701278607843843e-06   7.199339167113022e-05
-7.167005529769711e-06   6.701278607843843e-06   7.199339167113022e-05
-3.591409407768592e-05   6.587294445332438e-06   2.401318692709666e-05
-3.591409407768592e-05   6.587294445332438e-06   2.401318692709666e-05
-3.591409407768592e-05   6.587294445332438e-06   2.401318692709666e-05
-3.591409407768592e-05   6.587294445332438e-06   2.401318692709666e-05
-3.7182623152817024e-05   5.5634213215229045e-06   7.15229229098233e-05
-3.7182623152817024e-05   5.5634213215229045e-06   7.15229229098233e-05
-3.7182623152817024e-05   5.5634213215229045e-06   7.15229229098233e-05
-3.7182623152817024e-05   5.5634213215229045e-06   7.15229229098233e-05
-8.453558149919195e-06   5.364895462946304e-06   2.3760263420139654e-05
-8.453558149919195e-06   5.364895462946304e-06   2.3760263420139654e-05
-8.453558149919195e-06   5.364895462946304e-06   2.3760263420139654e-05
-8.453558149919195e-06   5.364895462946304e-06   2.3760263420139654e-05
-2.2234411478938275e-05   5.905840268165437e-06   4.6403785418708244e-05
-2.2234411478938275e-05   5.905840268165437e-06   4.6403785418708244e-05
-2.2234411478938275e-05   5.905840268165437e-06   4.6403785418708244e-05
-2.2234411478938275e-05   5.905840268165437e-06   4.6403785418708244e-05
-8.453558149919195e-06   5.5634213215229045e-06   7.16420384249696e-05
-8.453558149919195e-06   5.5634213215229045e-06   7.16420384249696e-05
-8.453558149919195e-06   5.5634213215229045e-06   7.16420384249696e-05
-8.453558149919195e-06   5.5634213215229045e-06   7.16420384249696e-05
-3.7182623152817024e-05   5.364895462946738e-06   2.3641147904993835e-05
-3.7182623152817024e-05   5.364895462946738e-06   2.3641147904993835e-05
-3.7182623152817024e-05   5.364895462946738e-06   2.3641147904993835e-05
-3.7182623152817024e-05   5.364895462946738e-06   2.3641147904993835e-05
-3.848197294034053e-05   4.443506096000419e-06   7.189506300769952e-05
-3.848197294034053e-05   4.443506096000419e-06   7.189506300769952e-05
-3.848197294034053e-05   4.443506096000419e-06   7.189506300769952e-05
-3.848197294034053e-05   4.443506096000419e-06   7.189506300769952e-05
-9.768616872997404e-06   4.156442611441807e-06   2.4211707652862906e-05
-9.768616872997404e-06   4.156442611441807e-06   2.4211707652862906e-05
-9.768616872997404e-06   4.156442611441807e-06   2.4211707652862906e-05
-9.768616872997404e-06   4.156442611441807e-06   2.4211707652862906e-05
-2.3396939928385752e-05   5.017579703415868e-06   4.640889715666022e-05
-2.3396939928385752e-05   5.017579703415868e-06   4.640889715666022e-05
-2.3396939928385752e-05   5.017579703415868e-06   4.640889715666022e-05
-2.3396939928385752e-05   5.017579703415868e-06   4.640889715666022e-05
-9.768616872997459e-06   4.443506096000419e-06   7.206730109843426e-05
-9.768616872997459e-06   4.443506096000419e-06   7.206730109843426e-05
-9.768616872997459e-06   4.443506096000419e-06   7.206730109843426e-05
-9.768616872997459e-06   4.443506096000419e-06   7.206730109843426e-05
-3.848197294034053e-05   4.156442611441373e-06   2.4039469562128117e-05
-3.848197294034053e-05   4.156442611441373e-06   2.4039469562128117e-05
-3.848197294034053e-05   4.156442611441373e-06   2.4039469562128117e-05
-3.848197294034053e-05   4.156442611441373e-06   2.4039469562128117e-05
-3.976650757892881e-05   3.3806063569319887e-06   7.286951900808665e-05
-3.976650757892881e-05   3.3806063569319887e-06   7.286951900808665e-05
-3.976650757892881e-05   3.3806063569319887e-06   7.286951900808665e-05
-3.976650757892881e-05   3.3806063569319887e-06   7.286951900808665e-05
-1.1072362455716582e-05   2.9926803270783654e-06   2.5278699420645746e-05
-1.1072362455716582e-05   2.9926803270783654e-06   2.5278699420645746e-05
-1.1072362455716582e-05   2.9926803270783654e-06   2.5278699420645746e-05
-1.1072362455716582e-05   2.9926803270783654e-06   2.5278699420645746e-05
-2.4612532525166393e-05   4.149933093407394e-06   4.7151297876597354e-05
-2.4612532525166393e-05   4.149933093407394e-06   4.7151297876597354e-05
-2.4612532525166393e-05   4.149933093407394e-06   4.7151297876597354e-05
-2.4612532525166393e-05   4.149933093407394e-06   4.7151297876597354e-05
-3.591409407768592e-05   1.3168518388767276e-05   6.364707614184501e-05
-3.591409407768592e-05   1.3168518388767276e-05   6.364707614184501e-05
-3.591409407768592e-05   1.3168518388767276e-05   6.364707614184501e-05
-3.591409407768592e-05   1.3168518388767276e-05   6.364707614184501e-05
-6.416181628344706e-05   1.1275553663879327e-05   1.5431760297310347e-05
-6.416181628344706e-05   1.1275553663879327e-05   1.5431760297310347e-05
-6.416181628344706e-05   1.1275553663879327e-05   1.5431760297310347e-05
-6.416181628344706e-05   1.1275553663879327e-05   1.5431760297310347e-05
-6.552162129241912e-05   1.2076608205942828e-05   6.279724696693547e-05
-6.552162129241912e-05   1.2076608205942828e-05   6.279724696693547e-05
-6.552162129241912e-05   1.2076608205942828e-05   6.279724696693547e-05
-6.552162129241912e-05   1.2076608205942828e-05   6.279724696693547e-05
-3.718262315281686e-05   1.0079695468611163e-05   1.6763731043332032e-05
-3.718262315281686e-05   1.0079695468611163e-05   1.6763731043332032e-05
-3.718262315281686e-05   1.0079695468611163e-05   1.6763731043332032e-05
-3.718262315281686e-05   1.0079695468611163e-05   1.6763731043332032e-05
-5.0552335803310356e-05   1.1454589313426768e-05   3.82216491539325e-05
-5.0552335803310356e-05   1.1454589313426768e-05   3.82216491539325e-05
-5.0552335803310356e-05   1.1454589313426768e-05   3.82216491539325e-05
-5.0552335803310356e-05   1.1454589313426768e-05   3.82216491539325e-05
-3.7182623152817024e-05   1.2076608205943262e-05   6.399539460933508e-05
-3.7182623152817024e-05   1.2076608205943262e-05   6.399539460933508e-05
-3.7182623152817024e-05   1.2076608205943262e-05   6.399539460933508e-05
-3.7182623152817024e-05   1.2076608205943262e-05   6.399539460933508e-05
-6.552162129241901e-05   1.007969546861073e-05   1.5565583400932318e-05
-6.552162129241901e-05   1.007969546861073e-05   1.5565583400932318e-05
-6.552162129241901e-05   1.007969546861073e-05   1.5565583400932318e-05
-6.552162129241901e-05   1.007969546861073e-05   1.5565583400932318e-05
-6.705283470493273e-05   1.106127237927466e-05   6.494523685930025e-05
-6.705283470493273e-05   1.106127237927466e-05   6.494523685930025e-05
-6.705283470493273e-05   1.106127237927466e-05   6.494523685930025e-05
-6.705283470493273e-05   1.106127237927466e-05   6.494523685930025e-05
-3.848197294034037e-05   8.974999400633565e-06   1.8578897705497934e-05
-3.848197294034037e-05   8.974999400633565e-06   1.8578897705497934e-05
-3.848197294034037e-05   8.974999400633565e-06   1.8578897705497934e-05
-3.848197294034037e-05   8.974999400633565e-06   1.8578897705497934e-05
-5.1498063530348436e-05   1.0639182727230703e-05   3.927387202622146e-05
-5.1498063530348436e-05   1.0639182727230703e-05   3.927387202622146e-05
-5.1498063530348436e-05   1.0639182727230703e-05   3.927387202622146e-05
-5.1498063530348436e-05   1.0639182727230703e-05   3.927387202622146e-05
-3.8481972940340476e-05   1.106127237927466e-05   6.619700064648508e-05
-3.8481972940340476e-05   1.106127237927466e-05   6.619700064648508e-05
-3.8481972940340476e-05   1.106127237927466e-05   6.619700064648508e-05
-3.8481972940340476e-05   1.106127237927466e-05   6.619700064648508e-05
-6.705283470493262e-05   8.974999400633565e-06   1.732713391831343e-05
-6.705283470493262e-05   8.974999400633565e-06   1.732713391831343e-05
-6.705283470493262e-05   8.974999400633565e-06   1.732713391831343e-05
-6.705283470493262e-05   8.974999400633565e-06   1.732713391831343e-05
-6.841558086584365e-05   9.880793335302705e-06   6.676524674425512e-05
-6.841558086584365e-05   9.880793335302705e-06   6.676524674425512e-05
-6.841558086584365e-05   9.880793335302705e-06   6.676524674425512e-05
-6.841558086584365e-05   9.880793335302705e-06   6.676524674425512e-05
-3.97665075789287e-05   7.741895363140745e-06   2.0300130049360934e-05
-3.97665075789287e-05   7.741895363140745e-06   2.0300130049360934e-05
-3.97665075789287e-05   7.741895363140745e-06   2.0300130049360934e-05
-3.97665075789287e-05   7.741895363140745e-06   2.0300130049360934e-05
-5.3030608538091146e-05   9.782992480428417e-06   4.118230671092669e-05
-5.3030608538091146e-05   9.782992480428417e-06   4.118230671092669e-05
-5.3030608538091146e-05   9.782992480428417e-06   4.118230671092669e-05
-5.3030608538091146e-05   9.782992480428417e-06   4.118230671092669e-05
-6.416181628344706e-05   1.812121420044152e-05   3.054382189744817e-05
-6.416181628344706e-05   1.812121420044152e-05   3.054382189744817e-05
-6.416181628344706e-05   1.812121420044152e-05   3.054382189744817e-05
-6.416181628344706e-05   1.812121420044152e-05   3.054382189744817e-05
-9.05993355542386e-05   1.4763319081692594e-05   -1.553344729178746e-05
-9.05993355542386e-05   1.4763319081692594e-05   -1.553344729178746e-05
-9.05993355542386e-05   1.4763319081692594e-05   -1.553344729178746e-05
-9.05993355542386e-05   1.4763319081692594e-05   -1.553344729178746e-05
-9.343894186492725e-05   1.8022603927163403e-05   3.911635055628762e-05
-9.343894186492725e-05   1.8022603927163403e-05   3.911635055628762e-05
-9.343894186492725e-05   1.8022603927163403e-05   3.911635055628762e-05
-9.343894186492725e-05   1.8022603927163403e-05   3.911635055628762e-05
-6.55216212924189e-05   1.4374958216740487e-05   -5.223929638305735e-06
-6.55216212924189e-05   1.4374958216740487e-05   -5.223929638305735e-06
-6.55216212924189e-05   1.4374958216740487e-05   -5.223929638305735e-06
-6.55216212924189e-05   1.4374958216740487e-05   -5.223929638305735e-06
-7.54923072649242e-05   1.6026594587106695e-05   1.0402898493651292e-05
-7.54923072649242e-05   1.6026594587106695e-05   1.0402898493651292e-05
-7.54923072649242e-05   1.6026594587106695e-05   1.0402898493651292e-05
-7.54923072649242e-05   1.6026594587106695e-05   1.0402898493651292e-05
-6.552162129241912e-05   1.8022603927163403e-05   4.1304937982541284e-05
-6.552162129241912e-05   1.8022603927163403e-05   4.1304937982541284e-05
-6.552162129241912e-05   1.8022603927163403e-05   4.1304937982541284e-05
-6.552162129241912e-05   1.8022603927163403e-05   4.1304937982541284e-05
-9.343894186492746e-05   1.4374958216740487e-05   -7.412517064559398e-06
-9.343894186492746e-05   1.4374958216740487e-05   -7.412517064559398e-06
-9.343894186492746e-05   1.4374958216740487e-05   -7.412517064559398e-06
-9.343894186492746e-05   1.4374958216740487e-05   -7.412517064559398e-06
-9.591881730580166e-05   1.7652677085847838e-05   4.656940013183803e-05
-9.591881730580166e-05   1.7652677085847838e-05   4.656940013183803e-05
-9.591881730580166e-05   1.7652677085847838e-05   4.656940013183803e-05
-9.591881730580166e-05   1.7652677085847838e-05   4.656940013183803e-05
-6.705283470493251e-05   1.390705001370722e-05   7.068053736734078e-07
-6.705283470493251e-05   1.390705001370722e-05   7.068053736734078e-07
-6.705283470493251e-05   1.390705001370722e-05   7.068053736734078e-07
-6.705283470493251e-05   1.390705001370722e-05   7.068053736734078e-07
-7.8491399350519e-05   1.6033525773723536e-05   1.8495194326977786e-05
-7.8491399350519e-05   1.6033525773723536e-05   1.8495194326977786e-05
-7.8491399350519e-05   1.6033525773723536e-05   1.8495194326977786e-05
-7.8491399350519e-05   1.6033525773723536e-05   1.8495194326977786e-05
-6.705283470493273e-05   1.765267708584827e-05   4.881677637512188e-05
-6.705283470493273e-05   1.765267708584827e-05   4.881677637512188e-05
-6.705283470493273e-05   1.765267708584827e-05   4.881677637512188e-05
-6.705283470493273e-05   1.765267708584827e-05   4.881677637512188e-05
-9.591881730580166e-05   1.390705001370722e-05   -1.5405708696108762e-06
-9.591881730580166e-05   1.390705001370722e-05   -1.5405708696108762e-06
-9.591881730580166e-05   1.390705001370722e-05   -1.5405708696108762e-06
-9.591881730580166e-05   1.390705001370722e-05   -1.5405708696108762e-06
-9.879753391218939e-05   1.6027254349250918e-05   5.9529767317156434e-05
-9.879753391218939e-05   1.6027254349250918e-05   5.9529767317156434e-05
-9.879753391218939e-05   1.6027254349250918e-05   5.9529767317156434e-05
-9.879753391218939e-05   1.6027254349250918e-05   5.9529767317156434e-05
-6.841558086584333e-05   1.2342163708635445e-05   1.1104233290949337e-05
-6.841558086584333e-05   1.2342163708635445e-05   1.1104233290949337e-05
-6.841558086584333e-05   1.2342163708635445e-05   1.1104233290949337e-05
-6.841558086584333e-05   1.2342163708635445e-05   1.1104233290949337e-05
-7.917580531112569e-05   1.5352516509702357e-05   2.723172901911283e-05
-7.917580531112569e-05   1.5352516509702357e-05   2.723172901911283e-05
-7.917580531112569e-05   1.5352516509702357e-05   2.723172901911283e-05
-7.917580531112569e-05   1.5352516509702357e-05   2.723172901911283e-05
2.9333052844111396e-05   -3.3640176565021863e-06   4.199576515894615e-05
2.9333052844111396e-05   -3.3640176565021863e-06   4.199576515894615e-05
2.9333052844111396e-05   -3.3640176565021863e-06   4.199576515894615e-05
2.9333052844111396e-05   -3.3640176565021863e-06   4.199576515894615e-05
7.5917108174893846e-06   1.2347201712318082e-07   7.852688918751505e-06
7.5917108174893846e-06   1.2347201712318082e-07   7.852688918751505e-06
7.5917108174893846e-06   1.2347201712318082e-07   7.852688918751505e-06
7.5917108174893846e-06   1.2347201712318082e-07   7.852688918751505e-06
6.547106752366106e-06   -4.687341686292722e-06   3.918221113717764e-05
6.547106752366106e-06   -4.687341686292722e-06   3.918221113717764e-05
6.547106752366106e-06   -4.687341686292722e-06   3.918221113717764e-05
6.547106752366106e-06   -4.687341686292722e-06   3.918221113717764e-05
2.675331508887057e-05   -1.0603712324338925e-06   3.3290149706891796e-06
2.675331508887057e-05   -1.0603712324338925e-06   3.3290149706891796e-06
2.675331508887057e-05   -1.0603712324338925e-06   3.3290149706891796e-06
2.675331508887057e-05   -1.0603712324338925e-06   3.3290149706891796e-06
1.6516058694314494e-05   -2.4146938453007208e-06   2.1203702529337188e-05
1.6516058694314494e-05   -2.4146938453007208e-06   2.1203702529337188e-05
1.6516058694314494e-05   -2.4146938453007208e-06   2.1203702529337188e-05
1.6516058694314494e-05   -2.4146938453007208e-06   2.1203702529337188e-05
2.6753315088870596e-05   -4.687341686292722e-06   3.700602886486321e-05
2.6753315088870596e-05   -4.687341686292722e-06   3.700602886486321e-05
2.6753315088870596e-05   -4.687341686292722e-06   3.700602886486321e-05
2.6753315088870596e-05   -4.687341686292722e-06   3.700602886486321e-05
6.547106752366099e-06   -1.0603712324338925e-06   5.505197243004098e-06
6.547106752366099e-06   -1.0603712324338925e-06   5.505197243004098e-06
6.547106752366099e-06   -1.0603712324338925e-06   5.505197243004098e-06
6.547106752366099e-06   -1.0603712324338925e-06   5.505197243004098e-06
5.331224257809209e-06   -5.144532864965155e-06   3.679235369224228e-05
5.331224257809209e-06   -5.144532864965155e-06   3.679235369224228e-05
5.331224257809209e-06   -5.144532864965155e-06   3.679235369224228e-05
5.331224257809209e-06   -5.144532864965155e-06   3.679235369224228e-05
2.4570835386389692e-05   -1.5731463831091322e-06   2.5835032554946354e-06
2.4570835386389692e-05   -1.5731463831091322e-06   2.5835032554946354e-06
2.4570835386389692e-05   -1.5731463831091322e-06   2.5835032554946354e-06
2.4570835386389692e-05   -1.5731463831091322e-06   2.5835032554946354e-06
1.5263667083380454e-05   -2.9312149473692192e-06   1.8910291565733356e-05
1.5263667083380454e-05   -2.9312149473692192e-06   1.8910291565733356e-05
1.5263667083380454e-05   -2.9312149473692192e-06   1.8910291565733356e-05
1.5263667083380454e-05   -2.9312149473692192e-06   1.8910291565733356e-05
2.4570835386389747e-05   -5.144532864965589e-06   3.4649521803128795e-05
2.4570835386389747e-05   -5.144532864965589e-06   3.4649521803128795e-05
2.4570835386389747e-05   -5.144532864965589e-06   3.4649521803128795e-05
2.4570835386389747e-05   -5.144532864965589e-06   3.4649521803128795e-05
5.331224257809182e-06   -1.5731463831091322e-06   4.726335144608282e-06
5.331224257809182e-06   -1.5731463831091322e-06   4.726335144608282e-06
5.331224257809182e-06   -1.5731463831091322e-06   4.726335144608282e-06
5.331224257809182e-06   -1.5731463831091322e-06   4.726335144608282e-06
4.278558180316836e-06   -5.754168305196778e-06   3.4044832461499475e-05
4.278558180316836e-06   -5.754168305196778e-06   3.4044832461499475e-05
4.278558180316836e-06   -5.754168305196778e-06   3.4044832461499475e-05
4.278558180316836e-06   -5.754168305196778e-06   3.4044832461499475e-05
2.2017672273493455e-05   -2.431731174672245e-06   2.4861800278911435e-06
2.2017672273493455e-05   -2.431731174672245e-06   2.4861800278911435e-06
2.2017672273493455e-05   -2.431731174672245e-06   2.4861800278911435e-06
2.2017672273493455e-05   -2.431731174672245e-06   2.4861800278911435e-06
1.343423379070235e-05   -3.20197227907321e-06   1.725405549518422e-05
1.343423379070235e-05   -3.20197227907321e-06   1.725405549518422e-05
1.343423379070235e-05   -3.20197227907321e-06   1.725405549518422e-05
1.343423379070235e-05   -3.20197227907321e-06   1.725405549518422e-05
7.591710817489405e-06   1.7662295875462905e-06   5.793624483003946e-05
7.591710817489405e-06   1.7662295875462905e-06   5.793624483003946e-05
7.591710817489405e-06   1.7662295875462905e-06   5.793624483003946e-05
7.591710817489405e-06   1.7662295875462905e-06   5.793624483003946e-05
-1.2228817347725965e-05   3.340550037313119e-06   2.5846623491207607e-05
-1.2228817347725965e-05   3.340550037313119e-06   2.5846623491207607e-05
-1.2228817347725965e-05   3.340550037313119e-06   2.5846623491207607e-05
-1.2228817347725965e-05   3.340550037313119e-06   2.5846623491207607e-05
-1.3145637919739273e-05   4.236472868702004e-07   5.8125189151013446e-05
-1.3145637919739273e-05   4.236472868702004e-07   5.8125189151013446e-05
-1.3145637919739273e-05   4.236472868702004e-07   5.8125189151013446e-05
-1.3145637919739273e-05   4.236472868702004e-07   5.8125189151013446e-05
6.547106752366099e-06   1.999673290706532e-06   2.4358332428536344e-05
6.547106752366099e-06   1.999673290706532e-06   2.4358332428536344e-05
6.547106752366099e-06   1.999673290706532e-06   2.4358332428536344e-05
6.547106752366099e-06   1.999673290706532e-06   2.4358332428536344e-05
-2.956171691664575e-06   1.7501924284108947e-06   4.034681835263332e-05
-2.956171691664575e-06   1.7501924284108947e-06   4.034681835263332e-05
-2.956171691664575e-06   1.7501924284108947e-06   4.034681835263332e-05
-2.956171691664575e-06   1.7501924284108947e-06   4.034681835263332e-05
6.547106752366099e-06   4.2364728686976674e-07   5.717957354871143e-05
6.547106752366099e-06   4.2364728686976674e-07   5.717957354871143e-05
6.547106752366099e-06   4.2364728686976674e-07   5.717957354871143e-05
6.547106752366099e-06   4.2364728686976674e-07   5.717957354871143e-05
-1.3145637919739273e-05   1.999673290706966e-06   2.530394803083847e-05
-1.3145637919739273e-05   1.999673290706966e-06   2.530394803083847e-05
-1.3145637919739273e-05   1.999673290706966e-06   2.530394803083847e-05
-1.3145637919739273e-05   1.999673290706966e-06   2.530394803083847e-05
-1.4088878432345138e-05   -6.770981719034751e-07   5.776473128440377e-05
-1.4088878432345138e-05   -6.770981719034751e-07   5.776473128440377e-05
-1.4088878432345138e-05   -6.770981719034751e-07   5.776473128440377e-05
-1.4088878432345138e-05   -6.770981719034751e-07   5.776473128440377e-05
5.331224257809182e-06   8.60972955619814e-07   2.4475050790965657e-05
5.331224257809182e-06   8.60972955619814e-07   2.4475050790965657e-05
5.331224257809182e-06   8.60972955619814e-07   2.4475050790965657e-05
5.331224257809182e-06   8.60972955619814e-07   2.4475050790965657e-05
-3.933836678714888e-06   8.135472225746614e-07   3.994527445833334e-05
-3.933836678714888e-06   8.135472225746614e-07   3.994527445833334e-05
-3.933836678714888e-06   8.135472225746614e-07   3.994527445833334e-05
-3.933836678714888e-06   8.135472225746614e-07   3.994527445833334e-05
5.331224257809209e-06   -6.770981719039088e-07   5.684188860788928e-05
5.331224257809209e-06   -6.770981719039088e-07   5.684188860788928e-05
5.331224257809209e-06   -6.770981719039088e-07   5.684188860788928e-05
5.331224257809209e-06   -6.770981719039088e-07   5.684188860788928e-05
-1.4088878432345193e-05   8.609729556202476e-07   2.539789346748026e-05
-1.4088878432345193e-05   8.609729556202476e-07   2.539789346748026e-05
-1.4088878432345193e-05   8.609729556202476e-07   2.539789346748026e-05
-1.4088878432345193e-05   8.609729556202476e-07   2.539789346748026e-05
-1.501764416870035e-05   -1.7645659205114267e-06   5.853784032537482e-05
-1.501764416870035e-05   -1.7645659205114267e-06   5.853784032537482e-05
-1.501764416870035e-05   -1.7645659205114267e-06   5.853784032537482e-05
-1.501764416870035e-05   -1.7645659205114267e-06   5.853784032537482e-05
4.278558180316823e-06   -3.055158876033928e-07   2.550207305726899e-05
4.278558180316823e-06   -3.055158876033928e-07   2.550207305726899e-05
4.278558180316823e-06   -3.055158876033928e-07   2.550207305726899e-05
4.278558180316823e-06   -3.055158876033928e-07   2.550207305726899e-05
-4.763260069551328e-06   -2.9621964674122342e-08   4.040623378662566e-05
-4.763260069551328e-06   -2.9621964674122342e-08   4.040623378662566e-05
-4.763260069551328e-06   -2.9621964674122342e-08   4.040623378662566e-05
-4.763260069551328e-06   -2.9621964674122342e-08   4.040623378662566e-05
-1.2228817347725965e-05   6.587294445332438e-06   6.427940132282869e-05
-1.2228817347725965e-05   6.587294445332438e-06   6.427940132282869e-05
-1.2228817347725965e-05   6.587294445332438e-06   6.427940132282869e-05
-1.2228817347725965e-05   6.587294445332438e-06   6.427940132282869e-05
-3.17225720232605e-05   6.202308420396284e-06   3.155881858197553e-05
-3.17225720232605e-05   6.202308420396284e-06   3.155881858197553e-05
-3.17225720232605e-05   6.202308420396284e-06   3.155881858197553e-05
-3.17225720232605e-05   6.202308420396284e-06   3.155881858197553e-05
-3.260149987789997e-05   5.364895462946304e-06   6.3711811614936e-05
-3.260149987789997e-05   5.364895462946304e-06   6.3711811614936e-05
-3.260149987789997e-05   5.364895462946304e-06   6.3711811614936e-05
-3.260149987789997e-05   5.364895462946304e-06   6.3711811614936e-05
-1.3145637919739192e-05   4.9637548901362676e-06   3.1526059361687965e-05
-1.3145637919739192e-05   4.9637548901362676e-06   3.1526059361687965e-05
-1.3145637919739192e-05   4.9637548901362676e-06   3.1526059361687965e-05
-1.3145637919739192e-05   4.9637548901362676e-06   3.1526059361687965e-05
-2.246574397794866e-05   5.643618434053588e-06   4.665165133235533e-05
-2.246574397794866e-05   5.643618434053588e-06   4.665165133235533e-05
-2.246574397794866e-05   5.643618434053588e-06   4.665165133235533e-05
-2.246574397794866e-05   5.643618434053588e-06   4.665165133235533e-05
-1.3145637919739273e-05   5.364895462946738e-06   6.39524959586222e-05
-1.3145637919739273e-05   5.364895462946738e-06   6.39524959586222e-05
-1.3145637919739273e-05   5.364895462946738e-06   6.39524959586222e-05
-1.3145637919739273e-05   5.364895462946738e-06   6.39524959586222e-05
-3.260149987789992e-05   4.963754890135834e-06   3.12853750180015e-05
-3.260149987789992e-05   4.963754890135834e-06   3.12853750180015e-05
-3.260149987789992e-05   4.963754890135834e-06   3.12853750180015e-05
-3.260149987789992e-05   4.963754890135834e-06   3.12853750180015e-05
-3.350953629939008e-05   4.156442611441373e-06   6.414249309784521e-05
-3.350953629939008e-05   4.156442611441373e-06   6.414249309784521e-05
-3.350953629939008e-05   4.156442611441373e-06   6.414249309784521e-05
-3.350953629939008e-05   4.156442611441373e-06   6.414249309784521e-05
-1.4088878432345138e-05   3.7314736031253404e-06   3.202971139109413e-05
-1.4088878432345138e-05   3.7314736031253404e-06   3.202971139109413e-05
-1.4088878432345138e-05   3.7314736031253404e-06   3.202971139109413e-05
-1.4088878432345138e-05   3.7314736031253404e-06   3.202971139109413e-05
-2.3248907025043226e-05   4.700444196209172e-06   4.67150433564067e-05
-2.3248907025043226e-05   4.700444196209172e-06   4.67150433564067e-05
-2.3248907025043226e-05   4.700444196209172e-06   4.67150433564067e-05
-2.3248907025043226e-05   4.700444196209172e-06   4.67150433564067e-05
-1.4088878432345193e-05   4.156442611441373e-06   6.439747450283535e-05
-1.4088878432345193e-05   4.156442611441373e-06   6.439747450283535e-05
-1.4088878432345193e-05   4.156442611441373e-06   6.439747450283535e-05
-1.4088878432345193e-05   4.156442611441373e-06   6.439747450283535e-05
-3.350953629939002e-05   3.7314736031249067e-06   3.1774729986104155e-05
-3.350953629939002e-05   3.7314736031249067e-06   3.1774729986104155e-05
-3.350953629939002e-05   3.7314736031249067e-06   3.1774729986104155e-05
-3.350953629939002e-05   3.7314736031249067e-06   3.1774729986104155e-05
-3.4403589091793266e-05   2.9926803270783654e-06   6.518780490947108e-05
-3.4403589091793266e-05   2.9926803270783654e-06   6.518780490947108e-05
-3.4403589091793266e-05   2.9926803270783654e-06   6.518780490947108e-05
-3.4403589091793266e-05   2.9926803270783654e-06   6.518780490947108e-05
-1.501764416870035e-05   2.550908786697406e-06   3.314295962854525e-05
-1.501764416870035e-05   2.550908786697406e-06   3.314295962854525e-05
-1.501764416870035e-05   2.550908786697406e-06   3.314295962854525e-05
-1.501764416870035e-05   2.550908786697406e-06   3.314295962854525e-05
-2.4081598589207026e-05   3.77585021684064e-06   4.751458547130438e-05
-2.4081598589207026e-05   3.77585021684064e-06   4.751458547130438e-05
-2.4081598589207026e-05   3.77585021684064e-06   4.751458547130438e-05
-2.4081598589207026e-05   3.77585021684064e-06   4.751458547130438e-05
-3.17225720232605e-05   1.1275553663879327e-05   5.660276191301315e-05
-3.17225720232605e-05   1.1275553663879327e-05   5.660276191301315e-05
-3.17225720232605e-05   1.1275553663879327e-05   5.660276191301315e-05
-3.17225720232605e-05   1.1275553663879327e-05   5.660276191301315e-05
-5.084878190521759e-05   9.1966306123379e-06   2.3478391612159863e-05
-5.084878190521759e-05   9.1966306123379e-06   2.3478391612159863e-05
-5.084878190521759e-05   9.1966306123379e-06   2.3478391612159863e-05
-5.084878190521759e-05   9.1966306123379e-06   2.3478391612159863e-05
-5.180595630631705e-05   1.0079695468611163e-05   5.555445773850615e-05
-5.180595630631705e-05   1.0079695468611163e-05   5.555445773850615e-05
-5.180595630631705e-05   1.0079695468611163e-05   5.555445773850615e-05
-5.180595630631705e-05   1.0079695468611163e-05   5.555445773850615e-05
-3.2601499877899865e-05   7.946467110664813e-06   2.482696737257867e-05
-3.2601499877899865e-05   7.946467110664813e-06   2.482696737257867e-05
-3.2601499877899865e-05   7.946467110664813e-06   2.482696737257867e-05
-3.2601499877899865e-05   7.946467110664813e-06   2.482696737257867e-05
-4.164438024996709e-05   9.47102687965393e-06   3.898369879796603e-05
-4.164438024996709e-05   9.47102687965393e-06   3.898369879796603e-05
-4.164438024996709e-05   9.47102687965393e-06   3.898369879796603e-05
-4.164438024996709e-05   9.47102687965393e-06   3.898369879796603e-05
-3.260149987789997e-05   1.007969546861073e-05   5.683439475327409e-05
-3.260149987789997e-05   1.007969546861073e-05   5.683439475327409e-05
-3.260149987789997e-05   1.007969546861073e-05   5.683439475327409e-05
-3.260149987789997e-05   1.007969546861073e-05   5.683439475327409e-05
-5.180595630631694e-05   7.946467110664813e-06   2.3547030357811164e-05
-5.180595630631694e-05   7.946467110664813e-06   2.3547030357811164e-05
-5.180595630631694e-05   7.946467110664813e-06   2.3547030357811164e-05
-5.180595630631694e-05   7.946467110664813e-06   2.3547030357811164e-05
-5.2940528134970345e-05   8.974999400633565e-06   5.7383803319983277e-05
-5.2940528134970345e-05   8.974999400633565e-06   5.7383803319983277e-05
-5.2940528134970345e-05   8.974999400633565e-06   5.7383803319983277e-05
-5.2940528134970345e-05   8.974999400633565e-06   5.7383803319983277e-05
-3.350953629938997e-05   6.811469531911845e-06   2.629693484858275e-05
-3.350953629938997e-05   6.811469531911845e-06   2.629693484858275e-05
-3.350953629938997e-05   6.811469531911845e-06   2.629693484858275e-05
-3.350953629938997e-05   6.811469531911845e-06   2.629693484858275e-05
-4.2267280420403797e-05   8.585927945681856e-06   3.982850000200974e-05
-4.2267280420403797e-05   8.585927945681856e-06   3.982850000200974e-05
-4.2267280420403797e-05   8.585927945681856e-06   3.982850000200974e-05
-4.2267280420403797e-05   8.585927945681856e-06   3.982850000200974e-05
-3.350953629939002e-05   8.974999400633565e-06   5.8681921241215355e-05
-3.350953629939002e-05   8.974999400633565e-06   5.8681921241215355e-05
-3.350953629939002e-05   8.974999400633565e-06   5.8681921241215355e-05
-3.350953629939002e-05   8.974999400633565e-06   5.8681921241215355e-05
-5.294052813497013e-05   6.811469531911845e-06   2.4998816927349586e-05
-5.294052813497013e-05   6.811469531911845e-06   2.4998816927349586e-05
-5.294052813497013e-05   6.811469531911845e-06   2.4998816927349586e-05
-5.294052813497013e-05   6.811469531911845e-06   2.4998816927349586e-05
-5.3915402994814685e-05   7.741895363140745e-06   5.9157000376481184e-05
-5.3915402994814685e-05   7.741895363140745e-06   5.9157000376481184e-05
-5.3915402994814685e-05   7.741895363140745e-06   5.9157000376481184e-05
-5.3915402994814685e-05   7.741895363140745e-06   5.9157000376481184e-05
-3.44035890917931e-05   5.600244063777571e-06   2.7922301317730635e-05
-3.44035890917931e-05   5.600244063777571e-06   2.7922301317730635e-05
-3.44035890917931e-05   5.600244063777571e-06   2.7922301317730635e-05
-3.44035890917931e-05   5.600244063777571e-06   2.7922301317730635e-05
-4.3333407043262675e-05   7.701394983944572e-06   4.154464068474833e-05
-4.3333407043262675e-05   7.701394983944572e-06   4.154464068474833e-05
-4.3333407043262675e-05   7.701394983944572e-06   4.154464068474833e-05
-4.3333407043262675e-05   7.701394983944572e-06   4.154464068474833e-05
-5.0848781905217695e-05   1.4763319081692594e-05   2.6404937564240057e-05
-5.0848781905217695e-05   1.4763319081692594e-05   2.6404937564240057e-05
-5.0848781905217695e-05   1.4763319081692594e-05   2.6404937564240057e-05
-5.0848781905217695e-05   1.4763319081692594e-05   2.6404937564240057e-05
-6.804600317679519e-05   1.1288197342781362e-05   -4.3421709317360575e-06
-6.804600317679519e-05   1.1288197342781362e-05   -4.3421709317360575e-06
-6.804600317679519e-05   1.1288197342781362e-05   -4.3421709317360575e-06
-6.804600317679519e-05   1.1288197342781362e-05   -4.3421709317360575e-06
-7.049755299938976e-05   1.4374958216740487e-05   3.252675639551714e-05
-7.049755299938976e-05   1.4374958216740487e-05   3.252675639551714e-05
-7.049755299938976e-05   1.4374958216740487e-05   3.252675639551714e-05
-7.049755299938976e-05   1.4374958216740487e-05   3.252675639551714e-05
-5.180595630631694e-05   1.0644644377155992e-05   3.6122835441469887e-06
-5.180595630631694e-05   1.0644644377155992e-05   3.6122835441469887e-06
-5.180595630631694e-05   1.0644644377155992e-05   3.6122835441469887e-06
-5.180595630631694e-05   1.0644644377155992e-05   3.6122835441469887e-06
-5.8104996293898955e-05   1.2536845568603908e-05   1.297536280858453e-05
-5.8104996293898955e-05   1.2536845568603908e-05   1.297536280858453e-05
-5.8104996293898955e-05   1.2536845568603908e-05   1.297536280858453e-05
-5.8104996293898955e-05   1.2536845568603908e-05   1.297536280858453e-05
-5.180595630631694e-05   1.4374958216740487e-05   3.476494469926766e-05
-5.180595630631694e-05   1.4374958216740487e-05   3.476494469926766e-05
-5.180595630631694e-05   1.4374958216740487e-05   3.476494469926766e-05
-5.180595630631694e-05   1.4374958216740487e-05   3.476494469926766e-05
-7.049755299938976e-05   1.0644644377155992e-05   1.3740952403964654e-06
-7.049755299938976e-05   1.0644644377155992e-05   1.3740952403964654e-06
-7.049755299938976e-05   1.0644644377155992e-05   1.3740952403964654e-06
-7.049755299938976e-05   1.0644644377155992e-05   1.3740952403964654e-06
-7.261058104935942e-05   1.3907050013707654e-05   3.848540089590631e-05
-7.261058104935942e-05   1.3907050013707654e-05   3.848540089590631e-05
-7.261058104935942e-05   1.3907050013707654e-05   3.848540089590631e-05
-7.261058104935942e-05   1.3907050013707654e-05   3.848540089590631e-05
-5.294052813497013e-05   1.0110260214646512e-05   7.9800532513611e-06
-5.294052813497013e-05   1.0110260214646512e-05   7.9800532513611e-06
-5.294052813497013e-05   1.0110260214646512e-05   7.9800532513611e-06
-5.294052813497013e-05   1.0110260214646512e-05   7.9800532513611e-06
-6.045377974342713e-05   1.2367803905726383e-05   1.914761305080951e-05
-6.045377974342713e-05   1.2367803905726383e-05   1.914761305080951e-05
-6.045377974342713e-05   1.2367803905726383e-05   1.914761305080951e-05
-6.045377974342713e-05   1.2367803905726383e-05   1.914761305080951e-05
-5.294052813497024e-05   1.3907050013707654e-05   4.076347477534282e-05
-5.294052813497024e-05   1.3907050013707654e-05   4.076347477534282e-05
-5.294052813497024e-05   1.3907050013707654e-05   4.076347477534282e-05
-5.294052813497024e-05   1.3907050013707654e-05   4.076347477534282e-05
-7.261058104935942e-05   1.0110260214646512e-05   5.701979371924371e-06
-7.261058104935942e-05   1.0110260214646512e-05   5.701979371924371e-06
-7.261058104935942e-05   1.0110260214646512e-05   5.701979371924371e-06
-7.261058104935942e-05   1.0110260214646512e-05   5.701979371924371e-06
-7.514206712350179e-05   1.2342163708635445e-05   4.9036460132747574e-05
-7.514206712350179e-05   1.2342163708635445e-05   4.9036460132747574e-05
-7.514206712350179e-05   1.2342163708635445e-05   4.9036460132747574e-05
-7.514206712350179e-05   1.2342163708635445e-05   4.9036460132747574e-05
-5.391540299481447e-05   8.662193260936327e-06   1.586666885355502e-05
-5.391540299481447e-05   8.662193260936327e-06   1.586666885355502e-05
-5.391540299481447e-05   8.662193260936327e-06   1.586666885355502e-05
-5.391540299481447e-05   8.662193260936327e-06   1.586666885355502e-05
-6.104990385453915e-05   1.17093341737407e-05   2.592921907208128e-05
-6.104990385453915e-05   1.17093341737407e-05   2.592921907208128e-05
-6.104990385453915e-05   1.17093341737407e-05   2.592921907208128e-05
-6.104990385453915e-05   1.17093341737407e-05   2.592921907208128e-05
5.557187561321862e-06   1.2347201712318082e-07   3.1227554514762224e-05
5.557187561321862e-06   1.2347201712318082e-07   3.1227554514762224e-05
5.557187561321862e-06   1.2347201712318082e-07   3.1227554514762224e-05
5.557187561321862e-06   1.2347201712318082e-07   3.1227554514762224e-05
-6.7875713869594836e-06   3.463779162387378e-06   1.2657140554785161e-05
-6.7875713869594836e-06   3.463779162387378e-06   1.2657140554785161e-05
-6.7875713869594836e-06   3.463779162387378e-06   1.2657140554785161e-05
-6.7875713869594836e-06   3.463779162387378e-06   1.2657140554785161e-05
-7.522476027198603e-06   -1.0603712324338925e-06   3.084212766000941e-05
-7.522476027198603e-06   -1.0603712324338925e-06   3.084212766000941e-05
-7.522476027198603e-06   -1.0603712324338925e-06   3.084212766000941e-05
-7.522476027198603e-06   -1.0603712324338925e-06   3.084212766000941e-05
3.316549240082756e-06   2.359739017225408e-06   1.072501939807809e-05
3.316549240082756e-06   2.359739017225408e-06   1.072501939807809e-05
3.316549240082756e-06   2.359739017225408e-06   1.072501939807809e-05
3.316549240082756e-06   2.359739017225408e-06   1.072501939807809e-05
-1.6390984918038773e-06   1.0338453991214774e-06   1.977996845541821e-05
-1.6390984918038773e-06   1.0338453991214774e-06   1.977996845541821e-05
-1.6390984918038773e-06   1.0338453991214774e-06   1.977996845541821e-05
-1.6390984918038773e-06   1.0338453991214774e-06   1.977996845541821e-05
3.316549240082756e-06   -1.0603712324338925e-06   2.8790061510213698e-05
3.316549240082756e-06   -1.0603712324338925e-06   2.8790061510213698e-05
3.316549240082756e-06   -1.0603712324338925e-06   2.8790061510213698e-05
3.316549240082756e-06   -1.0603712324338925e-06   2.8790061510213698e-05
-7.522476027198603e-06   2.359739017225408e-06   1.2777085547873747e-05
-7.522476027198603e-06   2.359739017225408e-06   1.2777085547873747e-05
-7.522476027198603e-06   2.359739017225408e-06   1.2777085547873747e-05
-7.522476027198603e-06   2.359739017225408e-06   1.2777085547873747e-05
-8.429493358032945e-06   -1.5731463831086985e-06   3.006161133405419e-05
-8.429493358032945e-06   -1.5731463831086985e-06   3.006161133405419e-05
-8.429493358032945e-06   -1.5731463831086985e-06   3.006161133405419e-05
-8.429493358032945e-06   -1.5731463831086985e-06   3.006161133405419e-05
1.3744033675235502e-06   1.748649738143697e-06   1.172870578537526e-05
1.3744033675235502e-06   1.748649738143697e-06   1.172870578537526e-05
1.3744033675235502e-06   1.748649738143697e-06   1.172870578537526e-05
1.3744033675235502e-06   1.748649738143697e-06   1.172870578537526e-05
-2.8517760449725568e-06   5.631548954218753e-07   1.948363504516846e-05
-2.8517760449725568e-06   5.631548954218753e-07   1.948363504516846e-05
-2.8517760449725568e-06   5.631548954218753e-07   1.948363504516846e-05
-2.8517760449725568e-06   5.631548954218753e-07   1.948363504516846e-05
1.3744033675235502e-06   -1.5731463831091322e-06   2.8068533661302448e-05
1.3744033675235502e-06   -1.5731463831091322e-06   2.8068533661302448e-05
1.3744033675235502e-06   -1.5731463831091322e-06   2.8068533661302448e-05
1.3744033675235502e-06   -1.5731463831091322e-06   2.8068533661302448e-05
-8.429493358032924e-06   1.748649738143697e-06   1.3721783458126892e-05
-8.429493358032924e-06   1.748649738143697e-06   1.3721783458126892e-05
-8.429493358032924e-06   1.748649738143697e-06   1.3721783458126892e-05
-8.429493358032924e-06   1.748649738143697e-06   1.3721783458126892e-05
-9.186146905683476e-06   -2.431731174672245e-06   2.9822877052942303e-05
-9.186146905683476e-06   -2.431731174672245e-06   2.9822877052942303e-05
-9.186146905683476e-06   -2.431731174672245e-06   2.9822877052942303e-05
-9.186146905683476e-06   -2.431731174672245e-06   2.9822877052942303e-05
-1.0604454028737833e-06   4.493063663971175e-07   1.455141869028488e-05
-1.0604454028737833e-06   4.493063663971175e-07   1.455141869028488e-05
-1.0604454028737833e-06   4.493063663971175e-07   1.455141869028488e-05
-1.0604454028737833e-06   4.493063663971175e-07   1.455141869028488e-05
-4.146086244028965e-06   1.2677647788983046e-07   1.9887671358647706e-05
-4.146086244028965e-06   1.2677647788983046e-07   1.9887671358647706e-05
-4.146086244028965e-06   1.2677647788983046e-07   1.9887671358647706e-05
-4.146086244028965e-06   1.2677647788983046e-07   1.9887671358647706e-05
-6.7875713869594836e-06   3.340550037313119e-06   5.028108110451666e-05
-6.7875713869594836e-06   3.340550037313119e-06   5.028108110451666e-05
-6.7875713869594836e-06   3.340550037313119e-06   5.028108110451666e-05
-6.7875713869594836e-06   3.340550037313119e-06   5.028108110451666e-05
-1.7126932958516823e-05   3.9931876668580606e-06   3.3440394396314684e-05
-1.7126932958516823e-05   3.9931876668580606e-06   3.3440394396314684e-05
-1.7126932958516823e-05   3.9931876668580606e-06   3.3440394396314684e-05
-1.7126932958516823e-05   3.9931876668580606e-06   3.3440394396314684e-05
-1.7679432007785818e-05   1.999673290706532e-06   5.0150527173708874e-05
-1.7679432007785818e-05   1.999673290706532e-06   5.0150527173708874e-05
-1.7679432007785818e-05   1.999673290706532e-06   5.0150527173708874e-05
-1.7679432007785818e-05   1.999673290706532e-06   5.0150527173708874e-05
-7.522476027198603e-06   2.7584471709854105e-06   3.27670028778961e-05
-7.522476027198603e-06   2.7584471709854105e-06   3.27670028778961e-05
-7.522476027198603e-06   2.7584471709854105e-06   3.27670028778961e-05
-7.522476027198603e-06   2.7584471709854105e-06   3.27670028778961e-05
-1.2348818091357296e-05   2.8816400382937826e-06   4.073699059777545e-05
-1.2348818091357296e-05   2.8816400382937826e-06   4.073699059777545e-05
-1.2348818091357296e-05   2.8816400382937826e-06   4.073699059777545e-05
-1.2348818091357296e-05   2.8816400382937826e-06   4.073699059777545e-05
-7.52247602719861e-06   1.999673290706532e-06   4.969526284554111e-05
-7.52247602719861e-06   1.999673290706532e-06   4.969526284554111e-05
-7.52247602719861e-06   1.999673290706532e-06   4.969526284554111e-05
-7.52247602719861e-06   1.999673290706532e-06   4.969526284554111e-05
-1.7679432007785818e-05   2.7584471709854105e-06   3.3222267206063335e-05
-1.7679432007785818e-05   2.7584471709854105e-06   3.3222267206063335e-05
-1.7679432007785818e-05   2.7584471709854105e-06   3.3222267206063335e-05
-1.7679432007785818e-05   2.7584471709854105e-06   3.3222267206063335e-05
-1.824905493349186e-05   8.60972955619814e-07   5.026311431892828e-05
-1.824905493349186e-05   8.60972955619814e-07   5.026311431892828e-05
-1.824905493349186e-05   8.60972955619814e-07   5.026311431892828e-05
-1.824905493349186e-05   8.60972955619814e-07   5.026311431892828e-05
-8.429493358032924e-06   1.6156185198151762e-06   3.3444391021313324e-05
-8.429493358032924e-06   1.6156185198151762e-06   3.3444391021313324e-05
-8.429493358032924e-06   1.6156185198151762e-06   3.3444391021313324e-05
-8.429493358032924e-06   1.6156185198151762e-06   3.3444391021313324e-05
-1.291239532809508e-05   1.9775044836243746e-06   4.0698762726465085e-05
-1.291239532809508e-05   1.9775044836243746e-06   4.0698762726465085e-05
-1.291239532809508e-05   1.9775044836243746e-06   4.0698762726465085e-05
-1.291239532809508e-05   1.9775044836243746e-06   4.0698762726465085e-05
-8.429493358032945e-06   8.609729556202476e-07   4.981032698041102e-05
-8.429493358032945e-06   8.609729556202476e-07   4.981032698041102e-05
-8.429493358032945e-06   8.609729556202476e-07   4.981032698041102e-05
-8.429493358032945e-06   8.609729556202476e-07   4.981032698041102e-05
-1.824905493349186e-05   1.6156185198151762e-06   3.389717835983034e-05
-1.824905493349186e-05   1.6156185198151762e-06   3.389717835983034e-05
-1.824905493349186e-05   1.6156185198151762e-06   3.389717835983034e-05
-1.824905493349186e-05   1.6156185198151762e-06   3.389717835983034e-05
-1.880716789850437e-05   -3.055158876033928e-07   5.1253173173844424e-05
-1.880716789850437e-05   -3.055158876033928e-07   5.1253173173844424e-05
-1.880716789850437e-05   -3.055158876033928e-07   5.1253173173844424e-05
-1.880716789850437e-05   -3.055158876033928e-07   5.1253173173844424e-05
-9.18614690568347e-06   3.742597287944953e-07   3.481027281597085e-05
-9.18614690568347e-06   3.742597287944953e-07   3.481027281597085e-05
-9.18614690568347e-06   3.742597287944953e-07   3.481027281597085e-05
-9.18614690568347e-06   3.742597287944953e-07   3.481027281597085e-05
-1.3476430571805855e-05   1.0859335383616928e-06   4.15337413071016e-05
-1.3476430571805855e-05   1.0859335383616928e-06   4.15337413071016e-05
-1.3476430571805855e-05   1.0859335383616928e-06   4.15337413071016e-05
-1.3476430571805855e-05   1.0859335383616928e-06   4.15337413071016e-05
-1.712693295851677e-05   6.202308420396284e-06   5.661585038797389e-05
-1.712693295851677e-05   6.202308420396284e-06   5.661585038797389e-05
-1.712693295851677e-05   6.202308420396284e-06   5.661585038797389e-05
-1.712693295851677e-05   6.202308420396284e-06   5.661585038797389e-05
-2.744789068328179e-05   4.76847123896066e-06   3.855395187117073e-05
-2.744789068328179e-05   4.76847123896066e-06   3.855395187117073e-05
-2.744789068328179e-05   4.76847123896066e-06   3.855395187117073e-05
-2.744789068328179e-05   4.76847123896066e-06   3.855395187117073e-05
-2.7914351999448934e-05   4.9637548901362676e-06   5.556747983734593e-05
-2.7914351999448934e-05   4.9637548901362676e-06   5.556747983734593e-05
-2.7914351999448934e-05   4.9637548901362676e-06   5.556747983734593e-05
-2.7914351999448934e-05   4.9637548901362676e-06   5.556747983734593e-05
-1.7679432007785818e-05   3.6218237781152594e-06   3.931443851845341e-05
-1.7679432007785818e-05   3.6218237781152594e-06   3.931443851845341e-05
-1.7679432007785818e-05   3.6218237781152594e-06   3.931443851845341e-05
-1.7679432007785818e-05   3.6218237781152594e-06   3.931443851845341e-05
-2.2552281485431654e-05   4.797275658767475e-06   4.673058318613852e-05
-2.2552281485431654e-05   4.797275658767475e-06   4.673058318613852e-05
-2.2552281485431654e-05   4.797275658767475e-06   4.673058318613852e-05
-2.2552281485431654e-05   4.797275658767475e-06   4.673058318613852e-05
-1.7679432007785818e-05   4.9637548901362676e-06   5.637263850455853e-05
-1.7679432007785818e-05   4.9637548901362676e-06   5.637263850455853e-05
-1.7679432007785818e-05   4.9637548901362676e-06   5.637263850455853e-05
-1.7679432007785818e-05   4.9637548901362676e-06   5.637263850455853e-05
-2.7914351999448934e-05   3.6218237781152594e-06   3.850927985124086e-05
-2.7914351999448934e-05   3.6218237781152594e-06   3.850927985124086e-05
-2.7914351999448934e-05   3.6218237781152594e-06   3.850927985124086e-05
-2.7914351999448934e-05   3.6218237781152594e-06   3.850927985124086e-05
-2.841463998447052e-05   3.7314736031253404e-06   5.612975575060601e-05
-2.841463998447052e-05   3.7314736031253404e-06   5.612975575060601e-05
-2.841463998447052e-05   3.7314736031253404e-06   5.612975575060601e-05
-2.841463998447052e-05   3.7314736031253404e-06   5.612975575060601e-05
-1.824905493349186e-05   2.4561794498977225e-06   3.995229049091149e-05
-1.824905493349186e-05   2.4561794498977225e-06   3.995229049091149e-05
-1.824905493349186e-05   2.4561794498977225e-06   3.995229049091149e-05
-1.824905493349186e-05   2.4561794498977225e-06   3.995229049091149e-05
-2.2950753866048866e-05   3.8777615903387574e-06   4.693550609424183e-05
-2.2950753866048866e-05   3.8777615903387574e-06   4.693550609424183e-05
-2.2950753866048866e-05   3.8777615903387574e-06   4.693550609424183e-05
-2.2950753866048866e-05   3.8777615903387574e-06   4.693550609424183e-05
-1.824905493349186e-05   3.7314736031253404e-06   5.68949322425421e-05
-1.824905493349186e-05   3.7314736031253404e-06   5.68949322425421e-05
-1.824905493349186e-05   3.7314736031253404e-06   5.68949322425421e-05
-1.824905493349186e-05   3.7314736031253404e-06   5.68949322425421e-05
-2.8414639984470464e-05   2.4561794498977225e-06   3.918711399897496e-05
-2.8414639984470464e-05   2.4561794498977225e-06   3.918711399897496e-05
-2.8414639984470464e-05   2.4561794498977225e-06   3.918711399897496e-05
-2.8414639984470464e-05   2.4561794498977225e-06   3.918711399897496e-05
-2.8904570616766572e-05   2.550908786697406e-06   5.7298050659177705e-05
-2.8904570616766572e-05   2.550908786697406e-06   5.7298050659177705e-05
-2.8904570616766572e-05   2.550908786697406e-06   5.7298050659177705e-05
-2.8904570616766572e-05   2.550908786697406e-06   5.7298050659177705e-05
-1.880716789850437e-05   1.3499436763660978e-06   4.118962519493978e-05
-1.880716789850437e-05   1.3499436763660978e-06   4.118962519493978e-05
-1.880716789850437e-05   1.3499436763660978e-06   4.118962519493978e-05
-1.880716789850437e-05   1.3499436763660978e-06   4.118962519493978e-05
-2.3394821130291e-05   2.9715908620013033e-06   4.786272560320271e-05
-2.3394821130291e-05   2.9715908620013033e-06   4.786272560320271e-05
-2.3394821130291e-05   2.9715908620013033e-06   4.786272560320271e-05
-2.3394821130291e-05   2.9715908620013033e-06   4.786272560320271e-05
-2.74478906832819e-05   9.196630612338334e-06   4.892247494022134e-05
-2.74478906832819e-05   9.196630612338334e-06   4.892247494022134e-05
-2.74478906832819e-05   9.196630612338334e-06   4.892247494022134e-05
-2.74478906832819e-05   9.196630612338334e-06   4.892247494022134e-05
-3.7590890030218035e-05   6.433444043902909e-06   3.0359564087600074e-05
-3.7590890030218035e-05   6.433444043902909e-06   3.0359564087600074e-05
-3.7590890030218035e-05   6.433444043902909e-06   3.0359564087600074e-05
-3.7590890030218035e-05   6.433444043902909e-06   3.0359564087600074e-05
-3.8103036258166985e-05   7.946467110665247e-06   4.747725999606524e-05
-3.8103036258166985e-05   7.946467110665247e-06   4.747725999606524e-05
-3.8103036258166985e-05   7.946467110665247e-06   4.747725999606524e-05
-3.8103036258166985e-05   7.946467110665247e-06   4.747725999606524e-05
-2.7914351999448934e-05   5.226780117567869e-06   3.212793176072637e-05
-2.7914351999448934e-05   5.226780117567869e-06   3.212793176072637e-05
-2.7914351999448934e-05   5.226780117567869e-06   3.212793176072637e-05
-2.7914351999448934e-05   5.226780117567869e-06   3.212793176072637e-05
-3.269470282913275e-05   7.142867959171895e-06   3.89455304385701e-05
-3.269470282913275e-05   7.142867959171895e-06   3.89455304385701e-05
-3.269470282913275e-05   7.142867959171895e-06   3.89455304385701e-05
-3.269470282913275e-05   7.142867959171895e-06   3.89455304385701e-05
-2.7914351999448934e-05   7.946467110664813e-06   4.91090721919231e-05
-2.7914351999448934e-05   7.946467110664813e-06   4.91090721919231e-05
-2.7914351999448934e-05   7.946467110664813e-06   4.91090721919231e-05
-2.7914351999448934e-05   7.946467110664813e-06   4.91090721919231e-05
-3.810303625816677e-05   5.226780117567869e-06   3.0496119564868288e-05
-3.810303625816677e-05   5.226780117567869e-06   3.0496119564868288e-05
-3.810303625816677e-05   5.226780117567869e-06   3.0496119564868288e-05
-3.810303625816677e-05   5.226780117567869e-06   3.0496119564868288e-05
-3.8813125880232733e-05   6.811469531911845e-06   4.905780051669842e-05
-3.8813125880232733e-05   6.811469531911845e-06   4.905780051669842e-05
-3.8813125880232733e-05   6.811469531911845e-06   4.905780051669842e-05
-3.8813125880232733e-05   6.811469531911845e-06   4.905780051669842e-05
-2.841463998447052e-05   4.154536037935096e-06   3.332115078681392e-05
-2.841463998447052e-05   4.154536037935096e-06   3.332115078681392e-05
-2.841463998447052e-05   4.154536037935096e-06   3.332115078681392e-05
-2.841463998447052e-05   4.154536037935096e-06   3.332115078681392e-05
-3.297327305739112e-05   6.251614474019063e-06   3.966062551336513e-05
-3.297327305739112e-05   6.251614474019063e-06   3.966062551336513e-05
-3.297327305739112e-05   6.251614474019063e-06   3.966062551336513e-05
-3.297327305739112e-05   6.251614474019063e-06   3.966062551336513e-05
-2.841463998447052e-05   6.811469531911845e-06   5.0651960613083734e-05
-2.841463998447052e-05   6.811469531911845e-06   5.0651960613083734e-05
-2.841463998447052e-05   6.811469531911845e-06   5.0651960613083734e-05
-2.841463998447052e-05   6.811469531911845e-06   5.0651960613083734e-05
-3.8813125880232625e-05   4.154536037935096e-06   3.1726990690427955e-05
-3.8813125880232625e-05   4.154536037935096e-06   3.1726990690427955e-05
-3.8813125880232625e-05   4.154536037935096e-06   3.1726990690427955e-05
-3.8813125880232625e-05   4.154536037935096e-06   3.1726990690427955e-05
-3.9382926052066326e-05   5.600244063777571e-06   5.082044833867785e-05
-3.9382926052066326e-05   5.600244063777571e-06   5.082044833867785e-05
-3.9382926052066326e-05   5.600244063777571e-06   5.082044833867785e-05
-3.9382926052066326e-05   5.600244063777571e-06   5.082044833867785e-05
-2.8904570616766518e-05   3.0635658405889915e-06   3.487852954709152e-05
-2.8904570616766518e-05   3.0635658405889915e-06   3.487852954709152e-05
-2.8904570616766518e-05   3.0635658405889915e-06   3.487852954709152e-05
-2.8904570616766518e-05   3.0635658405889915e-06   3.487852954709152e-05
-3.356013144814937e-05   5.405564429954157e-06   4.123259844577816e-05
-3.356013144814937e-05   5.405564429954157e-06   4.123259844577816e-05
-3.356013144814937e-05   5.405564429954157e-06   4.123259844577816e-05
-3.356013144814937e-05   5.405564429954157e-06   4.123259844577816e-05
-3.7590890030218035e-05   1.1288197342781362e-05   2.152907349861101e-05
-3.7590890030218035e-05   1.1288197342781362e-05   2.152907349861101e-05
-3.7590890030218035e-05   1.1288197342781362e-05   2.152907349861101e-05
-3.7590890030218035e-05   1.1288197342781362e-05   2.152907349861101e-05
-4.549263472570196e-05   7.578247117964818e-06   6.133528871247974e-06
-4.549263472570196e-05   7.578247117964818e-06   6.133528871247974e-06
-4.549263472570196e-05   7.578247117964818e-06   6.133528871247974e-06
-4.549263472570196e-05   7.578247117964818e-06   6.133528871247974e-06
-4.744383835394517e-05   1.0644644377155992e-05   2.5220700682673618e-05
-4.744383835394517e-05   1.0644644377155992e-05   2.5220700682673618e-05
-4.744383835394517e-05   1.0644644377155992e-05   2.5220700682673618e-05
-4.744383835394517e-05   1.0644644377155992e-05   2.5220700682673618e-05
-3.8103036258166985e-05   6.774956877611624e-06   1.1974509689436589e-05
-3.8103036258166985e-05   6.774956877611624e-06   1.1974509689436589e-05
-3.8103036258166985e-05   6.774956877611624e-06   1.1974509689436589e-05
-3.8103036258166985e-05   6.774956877611624e-06   1.1974509689436589e-05
-4.06963807444246e-05   8.984489492084528e-06   1.497103093118222e-05
-4.06963807444246e-05   8.984489492084528e-06   1.497103093118222e-05
-4.06963807444246e-05   8.984489492084528e-06   1.497103093118222e-05
-4.06963807444246e-05   8.984489492084528e-06   1.497103093118222e-05
-3.810303625816688e-05   1.0644644377155992e-05   2.7542513182400195e-05
-3.810303625816688e-05   1.0644644377155992e-05   2.7542513182400195e-05
-3.810303625816688e-05   1.0644644377155992e-05   2.7542513182400195e-05
-3.810303625816688e-05   1.0644644377155992e-05   2.7542513182400195e-05
-4.7443838353945496e-05   6.774956877611624e-06   9.652697189709795e-06
-4.7443838353945496e-05   6.774956877611624e-06   9.652697189709795e-06
-4.7443838353945496e-05   6.774956877611624e-06   9.652697189709795e-06
-4.7443838353945496e-05   6.774956877611624e-06   9.652697189709795e-06
-4.9120789350372545e-05   1.0110260214646512e-05   2.9707573705350498e-05
-4.9120789350372545e-05   1.0110260214646512e-05   2.9707573705350498e-05
-4.9120789350372545e-05   1.0110260214646512e-05   2.9707573705350498e-05
-4.9120789350372545e-05   1.0110260214646512e-05   2.9707573705350498e-05
-3.8813125880232733e-05   6.224488322381216e-06   1.485959772380978e-05
-3.8813125880232733e-05   6.224488322381216e-06   1.485959772380978e-05
-3.8813125880232733e-05   6.224488322381216e-06   1.485959772380978e-05
-3.8813125880232733e-05   6.224488322381216e-06   1.485959772380978e-05
-4.2346651980516956e-05   8.66705599904781e-06   1.9283267284951697e-05
-4.2346651980516956e-05   8.66705599904781e-06   1.9283267284951697e-05
-4.2346651980516956e-05   8.66705599904781e-06   1.9283267284951697e-05
-4.2346651980516956e-05   8.66705599904781e-06   1.9283267284951697e-05
-3.8813125880232733e-05   1.0110260214646512e-05   3.203903684070972e-05
-3.8813125880232733e-05   1.0110260214646512e-05   3.203903684070972e-05
-3.8813125880232733e-05   1.0110260214646512e-05   3.203903684070972e-05
-3.8813125880232733e-05   1.0110260214646512e-05   3.203903684070972e-05
-4.912078935037276e-05   6.224488322381216e-06   1.2528134588450559e-05
-4.912078935037276e-05   6.224488322381216e-06   1.2528134588450559e-05
-4.912078935037276e-05   6.224488322381216e-06   1.2528134588450559e-05
-4.912078935037276e-05   6.224488322381216e-06   1.2528134588450559e-05
-5.125999808578633e-05   8.662193260936327e-06   3.783233828222755e-05
-5.125999808578633e-05   8.662193260936327e-06   3.783233828222755e-05
-5.125999808578633e-05   8.662193260936327e-06   3.783233828222755e-05
-5.125999808578633e-05   8.662193260936327e-06   3.783233828222755e-05
-3.9382926052066326e-05   4.966412641116066e-06   2.0254686597919944e-05
-3.9382926052066326e-05   4.966412641116066e-06   2.0254686597919944e-05
-3.9382926052066326e-05   4.966412641116066e-06   2.0254686597919944e-05
-3.9382926052066326e-05   4.966412641116066e-06   2.0254686597919944e-05
-4.282347381546174e-05   8.066510806978462e-06   2.4128873970727816e-05
-4.282347381546174e-05   8.066510806978462e-06   2.4128873970727816e-05
-4.282347381546174e-05   8.066510806978462e-06   2.4128873970727816e-05
-4.282347381546174e-05   8.066510806978462e-06   2.4128873970727816e-05
-1.9192526609305874e-05   3.463779162387378e-06   2.217138170111958e-05
-1.9192526609305874e-05   3.463779162387378e-06   2.217138170111958e-05
-1.9192526609305874e-05   3.463779162387378e-06   2.217138170111958e-05
-1.9192526609305874e-05   3.463779162387378e-06   2.217138170111958e-05
-2.074047964172916e-05   6.497118722579784e-06   2.1411463716529628e-05
-2.074047964172916e-05   6.497118722579784e-06   2.1411463716529628e-05
-2.074047964172916e-05   6.497118722579784e-06   2.1411463716529628e-05
-2.074047964172916e-05   6.497118722579784e-06   2.1411463716529628e-05
-2.1261401905650984e-05   2.359739017225408e-06   2.388492422927184e-05
-2.1261401905650984e-05   2.359739017225408e-06   2.388492422927184e-05
-2.1261401905650984e-05   2.359739017225408e-06   2.388492422927184e-05
-2.1261401905650984e-05   2.359739017225408e-06   2.388492422927184e-05
-2.1409343355014652e-05   5.0849976614103336e-06   2.249633812503372e-05
-2.1409343355014652e-05   5.0849976614103336e-06   2.249633812503372e-05
-2.1409343355014652e-05   5.0849976614103336e-06   2.249633812503372e-05
-2.1409343355014652e-05   5.0849976614103336e-06   2.249633812503372e-05
-2.0130551675843942e-05   4.071898469837397e-06   2.0972878174692946e-05
-2.0130551675843942e-05   4.071898469837397e-06   2.0972878174692946e-05
-2.0130551675843942e-05   4.071898469837397e-06   2.0972878174692946e-05
-2.0130551675843942e-05   4.071898469837397e-06   2.0972878174692946e-05
-2.1409343355014706e-05   2.359739017225408e-06   2.224976904276069e-05
-2.1409343355014706e-05   2.359739017225408e-06   2.224976904276069e-05
-2.1409343355014706e-05   2.359739017225408e-06   2.224976904276069e-05
-2.1409343355014706e-05   2.359739017225408e-06   2.224976904276069e-05
-2.1261401905650984e-05   5.0849976614103336e-06   2.413149331154476e-05
-2.1261401905650984e-05   5.0849976614103336e-06   2.413149331154476e-05
-2.1261401905650984e-05   5.0849976614103336e-06   2.413149331154476e-05
-2.1261401905650984e-05   5.0849976614103336e-06   2.413149331154476e-05
-2.193798707321539e-05   1.748649738143697e-06   2.4679711508015264e-05
-2.193798707321539e-05   1.748649738143697e-06   2.4679711508015264e-05
-2.193798707321539e-05   1.748649738143697e-06   2.4679711508015264e-05
-2.193798707321539e-05   1.748649738143697e-06   2.4679711508015264e-05
-2.3562520228309408e-05   4.1052467041446505e-06   2.5973308586904067e-05
-2.3562520228309408e-05   4.1052467041446505e-06   2.5973308586904067e-05
-2.3562520228309408e-05   4.1052467041446505e-06   2.5973308586904067e-05
-2.3562520228309408e-05   4.1052467041446505e-06   2.5973308586904067e-05
-2.145140492925009e-05   3.4617567518807364e-06   2.2840877059829634e-05
-2.145140492925009e-05   3.4617567518807364e-06   2.2840877059829634e-05
-2.145140492925009e-05   3.4617567518807364e-06   2.2840877059829634e-05
-2.145140492925009e-05   3.4617567518807364e-06   2.2840877059829634e-05
-2.3562520228309435e-05   1.748649738143697e-06   2.3265753328413933e-05
-2.3562520228309435e-05   1.748649738143697e-06   2.3265753328413933e-05
-2.3562520228309435e-05   1.748649738143697e-06   2.3265753328413933e-05
-2.3562520228309435e-05   1.748649738143697e-06   2.3265753328413933e-05
-2.193798707321539e-05   4.1052467041446505e-06   2.7387266766504747e-05
-2.193798707321539e-05   4.1052467041446505e-06   2.7387266766504747e-05
-2.193798707321539e-05   4.1052467041446505e-06   2.7387266766504747e-05
-2.193798707321539e-05   4.1052467041446505e-06   2.7387266766504747e-05
-2.2364080257175117e-05   4.493063663971175e-07   2.719341381123724e-05
-2.2364080257175117e-05   4.493063663971175e-07   2.719341381123724e-05
-2.2364080257175117e-05   4.493063663971175e-07   2.719341381123724e-05
-2.2364080257175117e-05   4.493063663971175e-07   2.719341381123724e-05
-2.5853238723327074e-05   1.6934933985035712e-06   3.226216570222627e-05
-2.5853238723327074e-05   1.6934933985035712e-06   3.226216570222627e-05
-2.5853238723327074e-05   1.6934933985035712e-06   3.226216570222627e-05
-2.5853238723327074e-05   1.6934933985035712e-06   3.226216570222627e-05
-2.236441710631786e-05   2.70846418677596e-06   2.5838480534246907e-05
-2.236441710631786e-05   2.70846418677596e-06   2.5838480534246907e-05
-2.236441710631786e-05   2.70846418677596e-06   2.5838480534246907e-05
-2.236441710631786e-05   2.70846418677596e-06   2.5838480534246907e-05
-2.0740479641729127e-05   3.9931876668580606e-06   4.438305670103758e-05
-2.0740479641729127e-05   3.9931876668580606e-06   4.438305670103758e-05
-2.0740479641729127e-05   3.9931876668580606e-06   4.438305670103758e-05
-2.0740479641729127e-05   3.9931876668580606e-06   4.438305670103758e-05
-2.0871430610138527e-05   1.6794140822980544e-06   4.277654093628601e-05
-2.0871430610138527e-05   1.6794140822980544e-06   4.277654093628601e-05
-2.0871430610138527e-05   1.6794140822980544e-06   4.277654093628601e-05
-2.0871430610138527e-05   1.6794140822980544e-06   4.277654093628601e-05
-2.102574660137489e-05   2.7584471709854105e-06   4.270679940707547e-05
-2.102574660137489e-05   2.7584471709854105e-06   4.270679940707547e-05
-2.102574660137489e-05   2.7584471709854105e-06   4.270679940707547e-05
-2.102574660137489e-05   2.7584471709854105e-06   4.270679940707547e-05
-2.1261401905650984e-05   8.117102506207709e-07   4.426760039975467e-05
-2.1261401905650984e-05   8.117102506207709e-07   4.426760039975467e-05
-2.1261401905650984e-05   8.117102506207709e-07   4.426760039975467e-05
-2.1261401905650984e-05   8.117102506207709e-07   4.426760039975467e-05
-2.0907226720051605e-05   2.045918558674e-06   4.293678343892353e-05
-2.0907226720051605e-05   2.045918558674e-06   4.293678343892353e-05
-2.0907226720051605e-05   2.045918558674e-06   4.293678343892353e-05
-2.0907226720051605e-05   2.045918558674e-06   4.293678343892353e-05
-2.1261401905650963e-05   2.7584471709854105e-06   4.387484155929356e-05
-2.1261401905650963e-05   2.7584471709854105e-06   4.387484155929356e-05
-2.1261401905650963e-05   2.7584471709854105e-06   4.387484155929356e-05
-2.1261401905650963e-05   2.7584471709854105e-06   4.387484155929356e-05
-2.102574660137478e-05   8.117102506207709e-07   4.3099558247535657e-05
-2.102574660137478e-05   8.117102506207709e-07   4.3099558247535657e-05
-2.102574660137478e-05   8.117102506207709e-07   4.3099558247535657e-05
-2.102574660137478e-05   8.117102506207709e-07   4.3099558247535657e-05
-2.1218258814556957e-05   1.6156185198151762e-06   4.331274796095922e-05
-2.1218258814556957e-05   1.6156185198151762e-06   4.331274796095922e-05
-2.1218258814556957e-05   1.6156185198151762e-06   4.331274796095922e-05
-2.1218258814556957e-05   1.6156185198151762e-06   4.331274796095922e-05
-2.193798707321539e-05   -2.0033333058850494e-07   4.5601866168965314e-05
-2.193798707321539e-05   -2.0033333058850494e-07   4.5601866168965314e-05
-2.193798707321539e-05   -2.0033333058850494e-07   4.5601866168965314e-05
-2.193798707321539e-05   -2.0033333058850494e-07   4.5601866168965314e-05
-2.109776300528965e-05   1.3239899723026076e-06   4.3286898740687305e-05
-2.109776300528965e-05   1.3239899723026076e-06   4.3286898740687305e-05
-2.109776300528965e-05   1.3239899723026076e-06   4.3286898740687305e-05
-2.109776300528965e-05   1.3239899723026076e-06   4.3286898740687305e-05
-2.193798707321539e-05   1.6156185198151762e-06   4.440231907120091e-05
-2.193798707321539e-05   1.6156185198151762e-06   4.440231907120091e-05
-2.193798707321539e-05   1.6156185198151762e-06   4.440231907120091e-05
-2.193798707321539e-05   1.6156185198151762e-06   4.440231907120091e-05
-2.1218258814556903e-05   -2.0033333058872178e-07   4.451229505872303e-05
-2.1218258814556903e-05   -2.0033333058872178e-07   4.451229505872303e-05
-2.1218258814556903e-05   -2.0033333058872178e-07   4.451229505872303e-05
-2.1218258814556903e-05   -2.0033333058872178e-07   4.451229505872303e-05
-2.1354497781407523e-05   3.742597287944953e-07   4.457877299210802e-05
-2.1354497781407523e-05   3.742597287944953e-07   4.457877299210802e-05
-2.1354497781407523e-05   3.742597287944953e-07   4.457877299210802e-05
-2.1354497781407523e-05   3.742597287944953e-07   4.457877299210802e-05
-2.2364080257175097e-05   -1.5338609714954463e-06   4.7406282871894473e-05
-2.2364080257175097e-05   -1.5338609714954463e-06   4.7406282871894473e-05
-2.2364080257175097e-05   -1.5338609714954463e-06   4.7406282871894473e-05
-2.2364080257175097e-05   -1.5338609714954463e-06   4.7406282871894473e-05
-2.1405072079529614e-05   4.7206642566494095e-07   4.4604379470854596e-05
-2.1405072079529614e-05   4.7206642566494095e-07   4.4604379470854596e-05
-2.1405072079529614e-05   4.7206642566494095e-07   4.4604379470854596e-05
-2.1405072079529614e-05   4.7206642566494095e-07   4.4604379470854596e-05
-2.087143061013858e-05   4.76847123896066e-06   4.8968652334019196e-05
-2.087143061013858e-05   4.76847123896066e-06   4.8968652334019196e-05
-2.087143061013858e-05   4.76847123896066e-06   4.8968652334019196e-05
-2.087143061013858e-05   4.76847123896066e-06   4.8968652334019196e-05
-2.2354253120099137e-05   4.6397629475990534e-07   4.3914584517564653e-05
-2.2354253120099137e-05   4.6397629475990534e-07   4.3914584517564653e-05
-2.2354253120099137e-05   4.6397629475990534e-07   4.3914584517564653e-05
-2.2354253120099137e-05   4.6397629475990534e-07   4.3914584517564653e-05
-2.239933133764253e-05   3.6218237781152594e-06   4.646230535448664e-05
-2.239933133764253e-05   3.6218237781152594e-06   4.646230535448664e-05
-2.239933133764253e-05   3.6218237781152594e-06   4.646230535448664e-05
-2.239933133764253e-05   3.6218237781152594e-06   4.646230535448664e-05
-2.102574660137478e-05   -2.7261849684938506e-07   4.650966282568564e-05
-2.102574660137478e-05   -2.7261849684938506e-07   4.650966282568564e-05
-2.102574660137478e-05   -2.7261849684938506e-07   4.650966282568564e-05
-2.102574660137478e-05   -2.7261849684938506e-07   4.650966282568564e-05
-2.1624001113788378e-05   2.0749143030882305e-06   4.6098233999745854e-05
-2.1624001113788378e-05   2.0749143030882305e-06   4.6098233999745854e-05
-2.1624001113788378e-05   2.0749143030882305e-06   4.6098233999745854e-05
-2.1624001113788378e-05   2.0749143030882305e-06   4.6098233999745854e-05
-2.102574660137489e-05   3.6218237781152594e-06   4.879897071946517e-05
-2.102574660137489e-05   3.6218237781152594e-06   4.879897071946517e-05
-2.102574660137489e-05   3.6218237781152594e-06   4.879897071946517e-05
-2.102574660137489e-05   3.6218237781152594e-06   4.879897071946517e-05
-2.239933133764253e-05   -2.726184968491682e-07   4.417299746070711e-05
-2.239933133764253e-05   -2.726184968491682e-07   4.417299746070711e-05
-2.239933133764253e-05   -2.726184968491682e-07   4.417299746070711e-05
-2.239933133764253e-05   -2.726184968491682e-07   4.417299746070711e-05
-2.2489082890119242e-05   2.4561794498977225e-06   4.720118679305777e-05
-2.2489082890119242e-05   2.4561794498977225e-06   4.720118679305777e-05
-2.2489082890119242e-05   2.4561794498977225e-06   4.720118679305777e-05
-2.2489082890119242e-05   2.4561794498977225e-06   4.720118679305777e-05
-2.1218258814556957e-05   -1.1549427150741448e-06   4.724981996610334e-05
-2.1218258814556957e-05   -1.1549427150741448e-06   4.724981996610334e-05
-2.1218258814556957e-05   -1.1549427150741448e-06   4.724981996610334e-05
-2.1218258814556957e-05   -1.1549427150741448e-06   4.724981996610334e-05
-2.1626465145325373e-05   1.3437661186051914e-06   4.6430938550508444e-05
-2.1626465145325373e-05   1.3437661186051914e-06   4.6430938550508444e-05
-2.1626465145325373e-05   1.3437661186051914e-06   4.6430938550508444e-05
-2.1626465145325373e-05   1.3437661186051914e-06   4.6430938550508444e-05
-2.1218258814556957e-05   2.456179449897289e-06   4.936786009203994e-05
-2.1218258814556957e-05   2.456179449897289e-06   4.936786009203994e-05
-2.1218258814556957e-05   2.456179449897289e-06   4.936786009203994e-05
-2.1218258814556957e-05   2.456179449897289e-06   4.936786009203994e-05
-2.2489082890119025e-05   -1.154942715073928e-06   4.508314666712009e-05
-2.2489082890119025e-05   -1.154942715073928e-06   4.508314666712009e-05
-2.2489082890119025e-05   -1.154942715073928e-06   4.508314666712009e-05
-2.2489082890119025e-05   -1.154942715073928e-06   4.508314666712009e-05
-2.254261154009435e-05   1.3499436763660978e-06   4.851436377389831e-05
-2.254261154009435e-05   1.3499436763660978e-06   4.851436377389831e-05
-2.254261154009435e-05   1.3499436763660978e-06   4.851436377389831e-05
-2.254261154009435e-05   1.3499436763660978e-06   4.851436377389831e-05
-2.135449778140747e-05   -2.043216702532838e-06   4.857007040342588e-05
-2.135449778140747e-05   -2.043216702532838e-06   4.857007040342588e-05
-2.135449778140747e-05   -2.043216702532838e-06   4.857007040342588e-05
-2.135449778140747e-05   -2.043216702532838e-06   4.857007040342588e-05
-2.1664352366129155e-05   5.915846002443881e-07   4.7505613929627825e-05
-2.1664352366129155e-05   5.915846002443881e-07   4.7505613929627825e-05
-2.1664352366129155e-05   5.915846002443881e-07   4.7505613929627825e-05
-2.1664352366129155e-05   5.915846002443881e-07   4.7505613929627825e-05
-2.2354253120099137e-05   6.433444043902909e-06   3.9849479524989165e-05
-2.2354253120099137e-05   6.433444043902909e-06   3.9849479524989165e-05
-2.2354253120099137e-05   6.433444043902909e-06   3.9849479524989165e-05
-2.2354253120099137e-05   6.433444043902909e-06   3.9849479524989165e-05
-2.455044556436798e-05   2.1063633328512014e-06   3.35929103579103e-05
-2.455044556436798e-05   2.1063633328512014e-06   3.35929103579103e-05
-2.455044556436798e-05   2.1063633328512014e-06   3.35929103579103e-05
-2.455044556436798e-05   2.1063633328512014e-06   3.35929103579103e-05
-2.4580626241028827e-05   5.226780117567869e-06   3.76271858505391e-05
-2.4580626241028827e-05   5.226780117567869e-06   3.76271858505391e-05
-2.4580626241028827e-05   5.226780117567869e-06   3.76271858505391e-05
-2.4580626241028827e-05   5.226780117567869e-06   3.76271858505391e-05
-2.239933133764253e-05   1.1371610951786595e-06   3.6445465758328465e-05
-2.239933133764253e-05   1.1371610951786595e-06   3.6445465758328465e-05
-2.239933133764253e-05   1.1371610951786595e-06   3.6445465758328465e-05
-2.239933133764253e-05   1.1371610951786595e-06   3.6445465758328465e-05
-2.3409521494863195e-05   3.817316836191324e-06   3.652102257575515e-05
-2.3409521494863195e-05   3.817316836191324e-06   3.652102257575515e-05
-2.3409521494863195e-05   3.817316836191324e-06   3.652102257575515e-05
-2.3409521494863195e-05   3.817316836191324e-06   3.652102257575515e-05
-2.239933133764253e-05   5.226780117567869e-06   4.008095726397171e-05
-2.239933133764253e-05   5.226780117567869e-06   4.008095726397171e-05
-2.239933133764253e-05   5.226780117567869e-06   4.008095726397171e-05
-2.239933133764253e-05   5.226780117567869e-06   4.008095726397171e-05
-2.4580626241028827e-05   1.1371610951786595e-06   3.399169434489531e-05
-2.4580626241028827e-05   1.1371610951786595e-06   3.399169434489531e-05
-2.4580626241028827e-05   1.1371610951786595e-06   3.399169434489531e-05
-2.4580626241028827e-05   1.1371610951786595e-06   3.399169434489531e-05
-2.483893843125242e-05   4.154536037935096e-06   3.902727831441282e-05
-2.483893843125242e-05   4.154536037935096e-06   3.902727831441282e-05
-2.483893843125242e-05   4.154536037935096e-06   3.902727831441282e-05
-2.483893843125242e-05   4.154536037935096e-06   3.902727831441282e-05
-2.2489082890119025e-05   3.07960593795651e-07   3.7418797679007374e-05
-2.2489082890119025e-05   3.07960593795651e-07   3.7418797679007374e-05
-2.2489082890119025e-05   3.07960593795651e-07   3.7418797679007374e-05
-2.2489082890119025e-05   3.07960593795651e-07   3.7418797679007374e-05
-2.3333569820519818e-05   3.019355997762674e-06   3.719943865396007e-05
-2.3333569820519818e-05   3.019355997762674e-06   3.719943865396007e-05
-2.3333569820519818e-05   3.019355997762674e-06   3.719943865396007e-05
-2.3333569820519818e-05   3.019355997762674e-06   3.719943865396007e-05
-2.2489082890119025e-05   4.154536037935096e-06   4.1335223580895534e-05
-2.2489082890119025e-05   4.154536037935096e-06   4.1335223580895534e-05
-2.2489082890119025e-05   4.154536037935096e-06   4.1335223580895534e-05
-2.2489082890119025e-05   4.154536037935096e-06   4.1335223580895534e-05
-2.483893843125242e-05   3.079605937954342e-07   3.5110852412523793e-05
-2.483893843125242e-05   3.079605937954342e-07   3.5110852412523793e-05
-2.483893843125242e-05   3.079605937954342e-07   3.5110852412523793e-05
-2.483893843125242e-05   3.079605937954342e-07   3.5110852412523793e-05
-2.499016068761785e-05   3.0635658405889915e-06   4.076923041830419e-05
-2.499016068761785e-05   3.0635658405889915e-06   4.076923041830419e-05
-2.499016068761785e-05   3.0635658405889915e-06   4.076923041830419e-05
-2.499016068761785e-05   3.0635658405889915e-06   4.076923041830419e-05
-2.254261154009424e-05   -5.274621159860517e-07   3.8844598613042825e-05
-2.254261154009424e-05   -5.274621159860517e-07   3.8844598613042825e-05
-2.254261154009424e-05   -5.274621159860517e-07   3.8844598613042825e-05
-2.254261154009424e-05   -5.274621159860517e-07   3.8844598613042825e-05
-2.3440904988518267e-05   2.3076210805728255e-06   3.864070444247977e-05
-2.3440904988518267e-05   2.3076210805728255e-06   3.864070444247977e-05
-2.3440904988518267e-05   2.3076210805728255e-06   3.864070444247977e-05
-2.3440904988518267e-05   2.3076210805728255e-06   3.864070444247977e-05
-2.4550445564367872e-05   7.578247117964818e-06   1.5253166016895988e-05
-2.4550445564367872e-05   7.578247117964818e-06   1.5253166016895988e-05
-2.4550445564367872e-05   7.578247117964818e-06   1.5253166016895988e-05
-2.4550445564367872e-05   7.578247117964818e-06   1.5253166016895988e-05
-2.41039706124186e-05   3.4548195469057737e-06   1.3523234394176254e-05
-2.41039706124186e-05   3.4548195469057737e-06   1.3523234394176254e-05
-2.41039706124186e-05   3.4548195469057737e-06   1.3523234394176254e-05
-2.41039706124186e-05   3.4548195469057737e-06   1.3523234394176254e-05
-2.5342741811442164e-05   6.774956877611191e-06   1.6703232254527533e-05
-2.5342741811442164e-05   6.774956877611191e-06   1.6703232254527533e-05
-2.5342741811442164e-05   6.774956877611191e-06   1.6703232254527533e-05
-2.5342741811442164e-05   6.774956877611191e-06   1.6703232254527533e-05
-2.4580626241028718e-05   2.771050676645759e-06   1.7835383357751476e-05
-2.4580626241028718e-05   2.771050676645759e-06   1.7835383357751476e-05
-2.4580626241028718e-05   2.771050676645759e-06   1.7835383357751476e-05
-2.4580626241028718e-05   2.771050676645759e-06   1.7835383357751476e-05
-2.384513894039509e-05   5.325394008287186e-06   1.5076965191043777e-05
-2.384513894039509e-05   5.325394008287186e-06   1.5076965191043777e-05
-2.384513894039509e-05   5.325394008287186e-06   1.5076965191043777e-05
-2.384513894039509e-05   5.325394008287186e-06   1.5076965191043777e-05
-2.4580626241028718e-05   6.774956877611191e-06   1.9105575975106315e-05
-2.4580626241028718e-05   6.774956877611191e-06   1.9105575975106315e-05
-2.4580626241028718e-05   6.774956877611191e-06   1.9105575975106315e-05
-2.4580626241028718e-05   6.774956877611191e-06   1.9105575975106315e-05
-2.5342741811442164e-05   2.771050676645759e-06   1.5433039637171935e-05
-2.5342741811442164e-05   2.771050676645759e-06   1.5433039637171935e-05
-2.5342741811442164e-05   2.771050676645759e-06   1.5433039637171935e-05
-2.5342741811442164e-05   2.771050676645759e-06   1.5433039637171935e-05
-2.643157743315136e-05   6.224488322380782e-06   1.9819240571755572e-05
-2.643157743315136e-05   6.224488322380782e-06   1.9819240571755572e-05
-2.643157743315136e-05   6.224488322380782e-06   1.9819240571755572e-05
-2.643157743315136e-05   6.224488322380782e-06   1.9819240571755572e-05
-2.483893843125231e-05   2.3234136956493904e-06   1.9505487011296048e-05
-2.483893843125231e-05   2.3234136956493904e-06   1.9505487011296048e-05
-2.483893843125231e-05   2.3234136956493904e-06   1.9505487011296048e-05
-2.483893843125231e-05   2.3234136956493904e-06   1.9505487011296048e-05
-2.4724271700517935e-05   4.922692717836304e-06   1.77548083800925e-05
-2.4724271700517935e-05   4.922692717836304e-06   1.77548083800925e-05
-2.4724271700517935e-05   4.922692717836304e-06   1.77548083800925e-05
-2.4724271700517935e-05   4.922692717836304e-06   1.77548083800925e-05
-2.483893843125231e-05   6.224488322381216e-06   2.2159885347793886e-05
-2.483893843125231e-05   6.224488322381216e-06   2.2159885347793886e-05
-2.483893843125231e-05   6.224488322381216e-06   2.2159885347793886e-05
-2.483893843125231e-05   6.224488322381216e-06   2.2159885347793886e-05
-2.643157743315147e-05   2.3234136956496072e-06   1.7164842235257083e-05
-2.643157743315147e-05   2.3234136956496072e-06   1.7164842235257083e-05
-2.643157743315147e-05   2.3234136956496072e-06   1.7164842235257083e-05
-2.643157743315147e-05   2.3234136956496072e-06   1.7164842235257083e-05
-2.8059131677794628e-05   4.966412641115633e-06   2.5545135838930897e-05
-2.8059131677794628e-05   4.966412641115633e-06   2.5545135838930897e-05
-2.8059131677794628e-05   4.966412641115633e-06   2.5545135838930897e-05
-2.8059131677794628e-05   4.966412641115633e-06   2.5545135838930897e-05
-2.4990160687617742e-05   1.4293150342582859e-06   2.255244275275038e-05
-2.4990160687617742e-05   1.4293150342582859e-06   2.255244275275038e-05
-2.4990160687617742e-05   1.4293150342582859e-06   2.255244275275038e-05
-2.4990160687617742e-05   1.4293150342582859e-06   2.255244275275038e-05
-2.5020651168765665e-05   4.4487595417003634e-06   2.0791593516863082e-05
-2.5020651168765665e-05   4.4487595417003634e-06   2.0791593516863082e-05
-2.5020651168765665e-05   4.4487595417003634e-06   2.0791593516863082e-05
-2.5020651168765665e-05   4.4487595417003634e-06   2.0791593516863082e-05
-4.9088907799736765e-05   6.497118722579567e-06   1.8453721716937604e-05
-4.9088907799736765e-05   6.497118722579567e-06   1.8453721716937604e-05
-4.9088907799736765e-05   6.497118722579567e-06   1.8453721716937604e-05
-4.9088907799736765e-05   6.497118722579567e-06   1.8453721716937604e-05
-3.301908396195787e-05   9.011380884269395e-06   4.6745318743582906e-05
-3.301908396195787e-05   9.011380884269395e-06   4.6745318743582906e-05
-3.301908396195787e-05   9.011380884269395e-06   4.6745318743582906e-05
-3.301908396195787e-05   9.011380884269395e-06   4.6745318743582906e-05
-3.299478298997539e-05   5.0849976614103336e-06   2.107748045385128e-05
-3.299478298997539e-05   5.0849976614103336e-06   2.107748045385128e-05
-3.299478298997539e-05   5.0849976614103336e-06   2.107748045385128e-05
-3.299478298997539e-05   5.0849976614103336e-06   2.107748045385128e-05
-5.400323273114781e-05   3.71215435245216e-06   5.691526934118059e-05
-5.400323273114781e-05   3.71215435245216e-06   5.691526934118059e-05
-5.400323273114781e-05   3.71215435245216e-06   5.691526934118059e-05
-5.400323273114781e-05   3.71215435245216e-06   5.691526934118059e-05
-4.0097485572328195e-05   5.354302076846125e-06   3.275373544184485e-05
-4.0097485572328195e-05   5.354302076846125e-06   3.275373544184485e-05
-4.0097485572328195e-05   5.354302076846125e-06   3.275373544184485e-05
-4.0097485572328195e-05   5.354302076846125e-06   3.275373544184485e-05
-5.40032327311479e-05   5.0849976614103336e-06   2.1901186439226205e-05
-5.40032327311479e-05   5.0849976614103336e-06   2.1901186439226205e-05
-5.40032327311479e-05   5.0849976614103336e-06   2.1901186439226205e-05
-5.40032327311479e-05   5.0849976614103336e-06   2.1901186439226205e-05
-3.299478298997539e-05   3.71215435245216e-06   5.6091563355805665e-05
-3.299478298997539e-05   3.71215435245216e-06   5.6091563355805665e-05
-3.299478298997539e-05   3.71215435245216e-06   5.6091563355805665e-05
-3.299478298997539e-05   3.71215435245216e-06   5.6091563355805665e-05
-3.342324880272195e-05   4.1052467041446505e-06   2.3630166542444402e-05
-3.342324880272195e-05   4.1052467041446505e-06   2.3630166542444402e-05
-3.342324880272195e-05   4.1052467041446505e-06   2.3630166542444402e-05
-3.342324880272195e-05   4.1052467041446505e-06   2.3630166542444402e-05
-5.417368612999402e-05   2.685627700658045e-06   5.906600015665624e-05
-5.417368612999402e-05   2.685627700658045e-06   5.906600015665624e-05
-5.417368612999402e-05   2.685627700658045e-06   5.906600015665624e-05
-5.417368612999402e-05   2.685627700658045e-06   5.906600015665624e-05
-4.275268462920478e-05   3.367727441763507e-06   3.962173781067729e-05
-4.275268462920478e-05   3.367727441763507e-06   3.962173781067729e-05
-4.275268462920478e-05   3.367727441763507e-06   3.962173781067729e-05
-4.275268462920478e-05   3.367727441763507e-06   3.962173781067729e-05
-5.41736861299941e-05   4.1052467041446505e-06   2.448193794453641e-05
-5.41736861299941e-05   4.1052467041446505e-06   2.448193794453641e-05
-5.41736861299941e-05   4.1052467041446505e-06   2.448193794453641e-05
-5.41736861299941e-05   4.1052467041446505e-06   2.448193794453641e-05
-3.3423248802721896e-05   2.685627700658045e-06   5.8214228754564345e-05
-3.3423248802721896e-05   2.685627700658045e-06   5.8214228754564345e-05
-3.3423248802721896e-05   2.685627700658045e-06   5.8214228754564345e-05
-3.3423248802721896e-05   2.685627700658045e-06   5.8214228754564345e-05
-3.304515793926885e-05   1.6934933985035712e-06   2.8099255316457066e-05
-3.304515793926885e-05   1.6934933985035712e-06   2.8099255316457066e-05
-3.304515793926885e-05   1.6934933985035712e-06   2.8099255316457066e-05
-3.304515793926885e-05   1.6934933985035712e-06   2.8099255316457066e-05
-5.472616737210118e-05   -1.666885421950379e-06   6.625049833011647e-05
-5.472616737210118e-05   -1.666885421950379e-06   6.625049833011647e-05
-5.472616737210118e-05   -1.666885421950379e-06   6.625049833011647e-05
-5.472616737210118e-05   -1.666885421950379e-06   6.625049833011647e-05
-4.20782262426781e-05   1.6604795502763413e-06   4.3174177464408664e-05
-4.20782262426781e-05   1.6604795502763413e-06   4.3174177464408664e-05
-4.20782262426781e-05   1.6604795502763413e-06   4.3174177464408664e-05
-4.20782262426781e-05   1.6604795502763413e-06   4.3174177464408664e-05
-3.301908396195794e-05   1.6794140822980544e-06   4.271562038444382e-05
-3.301908396195794e-05   1.6794140822980544e-06   4.271562038444382e-05
-3.301908396195794e-05   1.6794140822980544e-06   4.271562038444382e-05
-3.301908396195794e-05   1.6794140822980544e-06   4.271562038444382e-05
-2.0201752146674172e-05   -9.977762417146332e-06   5.708353417691674e-05
-2.0201752146674172e-05   -9.977762417146332e-06   5.708353417691674e-05
-2.0201752146674172e-05   -9.977762417146332e-06   5.708353417691674e-05
-2.0201752146674172e-05   -9.977762417146332e-06   5.708353417691674e-05
-2.022896548048626e-05   8.11710250620554e-07   3.583511192320379e-05
-2.022896548048626e-05   8.11710250620554e-07   3.583511192320379e-05
-2.022896548048626e-05   8.11710250620554e-07   3.583511192320379e-05
-2.022896548048626e-05   8.11710250620554e-07   3.583511192320379e-05
-3.299478298997539e-05   -8.152415780808423e-06   6.248995005787706e-05
-3.299478298997539e-05   -8.152415780808423e-06   6.248995005787706e-05
-3.299478298997539e-05   -8.152415780808423e-06   6.248995005787706e-05
-3.299478298997539e-05   -8.152415780808423e-06   6.248995005787706e-05
-2.6464835183378872e-05   -4.9303880452489235e-06   4.967348707221402e-05
-2.6464835183378872e-05   -4.9303880452489235e-06   4.967348707221402e-05
-2.6464835183378872e-05   -4.9303880452489235e-06   4.967348707221402e-05
-2.6464835183378872e-05   -4.9303880452489235e-06   4.967348707221402e-05
-3.299478298997543e-05   8.11710250620554e-07   4.1213587542060916e-05
-3.299478298997543e-05   8.11710250620554e-07   4.1213587542060916e-05
-3.299478298997543e-05   8.11710250620554e-07   4.1213587542060916e-05
-3.299478298997543e-05   8.11710250620554e-07   4.1213587542060916e-05
-2.0228965480486205e-05   -8.152415780808423e-06   5.7111474439019554e-05
-2.0228965480486205e-05   -8.152415780808423e-06   5.7111474439019554e-05
-2.0228965480486205e-05   -8.152415780808423e-06   5.7111474439019554e-05
-2.0228965480486205e-05   -8.152415780808423e-06   5.7111474439019554e-05
-2.0288931331257753e-05   -2.0033333058850494e-07   3.695904369889274e-05
-2.0288931331257753e-05   -2.0033333058850494e-07   3.695904369889274e-05
-2.0288931331257753e-05   -2.0033333058850494e-07   3.695904369889274e-05
-2.0288931331257753e-05   -2.0033333058850494e-07   3.695904369889274e-05
-3.3423248802721896e-05   -8.343203740608868e-06   6.373529506401157e-05
-3.3423248802721896e-05   -8.343203740608868e-06   6.373529506401157e-05
-3.3423248802721896e-05   -8.343203740608868e-06   6.373529506401157e-05
-3.3423248802721896e-05   -8.343203740608868e-06   6.373529506401157e-05
-2.625775332861117e-05   -4.306719831529164e-06   4.937091226171221e-05
-2.625775332861117e-05   -4.306719831529164e-06   4.937091226171221e-05
-2.625775332861117e-05   -4.306719831529164e-06   4.937091226171221e-05
-2.625775332861117e-05   -4.306719831529164e-06   4.937091226171221e-05
-3.342324880272195e-05   -2.0033333058850494e-07   4.1844765944904915e-05
-3.342324880272195e-05   -2.0033333058850494e-07   4.1844765944904915e-05
-3.342324880272195e-05   -2.0033333058850494e-07   4.1844765944904915e-05
-3.342324880272195e-05   -2.0033333058850494e-07   4.1844765944904915e-05
-2.0288931331257753e-05   -8.343203740608868e-06   5.8849572817999446e-05
-2.0288931331257753e-05   -8.343203740608868e-06   5.8849572817999446e-05
-2.0288931331257753e-05   -8.343203740608868e-06   5.8849572817999446e-05
-2.0288931331257753e-05   -8.343203740608868e-06   5.8849572817999446e-05
-2.0067500682333886e-05   -1.5338609714954463e-06   3.8355893185205384e-05
-2.0067500682333886e-05   -1.5338609714954463e-06   3.8355893185205384e-05
-2.0067500682333886e-05   -1.5338609714954463e-06   3.8355893185205384e-05
-2.0067500682333886e-05   -1.5338609714954463e-06   3.8355893185205384e-05
-3.304515793926875e-05   -8.435472774255071e-06   6.412628902841892e-05
-3.304515793926875e-05   -8.435472774255071e-06   6.412628902841892e-05
-3.304515793926875e-05   -8.435472774255071e-06   6.412628902841892e-05
-3.304515793926875e-05   -8.435472774255071e-06   6.412628902841892e-05
-2.6359277286191495e-05   -4.846984051726363e-06   5.083006137310622e-05
-2.6359277286191495e-05   -4.846984051726363e-06   5.083006137310622e-05
-2.6359277286191495e-05   -4.846984051726363e-06   5.083006137310622e-05
-2.6359277286191495e-05   -4.846984051726363e-06   5.083006137310622e-05
-2.0201752146674172e-05   4.6397629475990534e-07   3.944205503257593e-05
-2.0201752146674172e-05   4.6397629475990534e-07   3.944205503257593e-05
-2.0201752146674172e-05   4.6397629475990534e-07   3.944205503257593e-05
-2.0201752146674172e-05   4.6397629475990534e-07   3.944205503257593e-05
-1.479835254010616e-05   -7.79264618578344e-06   4.349374755519675e-05
-1.479835254010616e-05   -7.79264618578344e-06   4.349374755519675e-05
-1.479835254010616e-05   -7.79264618578344e-06   4.349374755519675e-05
-1.479835254010616e-05   -7.79264618578344e-06   4.349374755519675e-05
-1.4650985614050069e-05   -2.7261849684938506e-07   3.481686385070431e-05
-1.4650985614050069e-05   -2.7261849684938506e-07   3.481686385070431e-05
-1.4650985614050069e-05   -2.7261849684938506e-07   3.481686385070431e-05
-1.4650985614050069e-05   -2.7261849684938506e-07   3.481686385070431e-05
-2.0228965480486205e-05   -7.653206247931537e-06   4.8541849612080974e-05
-2.0228965480486205e-05   -7.653206247931537e-06   4.8541849612080974e-05
-2.0228965480486205e-05   -7.653206247931537e-06   4.8541849612080974e-05
-2.0228965480486205e-05   -7.653206247931537e-06   4.8541849612080974e-05
-1.7360370133413593e-05   -3.941976938572067e-06   4.153411978134454e-05
-1.7360370133413593e-05   -3.941976938572067e-06   4.153411978134454e-05
-1.7360370133413593e-05   -3.941976938572067e-06   4.153411978134454e-05
-1.7360370133413593e-05   -3.941976938572067e-06   4.153411978134454e-05
-2.0228965480486205e-05   -2.7261849684938506e-07   3.9245216501353664e-05
-2.0228965480486205e-05   -2.7261849684938506e-07   3.9245216501353664e-05
-2.0228965480486205e-05   -2.7261849684938506e-07   3.9245216501353664e-05
-2.0228965480486205e-05   -2.7261849684938506e-07   3.9245216501353664e-05
-1.4650985614050177e-05   -7.653206247931537e-06   4.411349696143178e-05
-1.4650985614050177e-05   -7.653206247931537e-06   4.411349696143178e-05
-1.4650985614050177e-05   -7.653206247931537e-06   4.411349696143178e-05
-1.4650985614050177e-05   -7.653206247931537e-06   4.411349696143178e-05
-1.451947271832255e-05   -1.1549427150741448e-06   3.5655356305431445e-05
-1.451947271832255e-05   -1.1549427150741448e-06   3.5655356305431445e-05
-1.451947271832255e-05   -1.1549427150741448e-06   3.5655356305431445e-05
-1.451947271832255e-05   -1.1549427150741448e-06   3.5655356305431445e-05
-2.0288931331257753e-05   -7.89029654980997e-06   4.93123329611648e-05
-2.0288931331257753e-05   -7.89029654980997e-06   4.93123329611648e-05
-2.0288931331257753e-05   -7.89029654980997e-06   4.93123329611648e-05
-2.0288931331257753e-05   -7.89029654980997e-06   4.93123329611648e-05
-1.7191889168630033e-05   -4.211802799160324e-06   4.194349977306117e-05
-1.7191889168630033e-05   -4.211802799160324e-06   4.194349977306117e-05
-1.7191889168630033e-05   -4.211802799160324e-06   4.194349977306117e-05
-1.7191889168630033e-05   -4.211802799160324e-06   4.194349977306117e-05
-2.0288931331257753e-05   -1.154942715073928e-06   3.969656860627283e-05
-2.0288931331257753e-05   -1.154942715073928e-06   3.969656860627283e-05
-2.0288931331257753e-05   -1.154942715073928e-06   3.969656860627283e-05
-2.0288931331257753e-05   -1.154942715073928e-06   3.969656860627283e-05
-1.4519472718322441e-05   -7.89029654981008e-06   4.527112066032336e-05
-1.4519472718322441e-05   -7.89029654981008e-06   4.527112066032336e-05
-1.4519472718322441e-05   -7.89029654981008e-06   4.527112066032336e-05
-1.4519472718322441e-05   -7.89029654981008e-06   4.527112066032336e-05
-1.421351569863582e-05   -2.043216702532621e-06   3.695144161749834e-05
-1.421351569863582e-05   -2.043216702532621e-06   3.695144161749834e-05
-1.421351569863582e-05   -2.043216702532621e-06   3.695144161749834e-05
-1.421351569863582e-05   -2.043216702532621e-06   3.695144161749834e-05
-2.0067500682333886e-05   -8.231735901554032e-06   5.042119477640744e-05
-2.0067500682333886e-05   -8.231735901554032e-06   5.042119477640744e-05
-2.0067500682333886e-05   -8.231735901554032e-06   5.042119477640744e-05
-2.0067500682333886e-05   -8.231735901554032e-06   5.042119477640744e-05
-1.699378554531275e-05   -4.601791003988349e-06   4.3120369276166185e-05
-1.699378554531275e-05   -4.601791003988349e-06   4.3120369276166185e-05
-1.699378554531275e-05   -4.601791003988349e-06   4.3120369276166185e-05
-1.699378554531275e-05   -4.601791003988349e-06   4.3120369276166185e-05
-1.4798352540106052e-05   2.1063633328512014e-06   2.6762655811226775e-05
-1.4798352540106052e-05   2.1063633328512014e-06   2.6762655811226775e-05
-1.4798352540106052e-05   2.1063633328512014e-06   2.6762655811226775e-05
-1.4798352540106052e-05   2.1063633328512014e-06   2.6762655811226775e-05
-1.2262807093310884e-05   -3.191129813395429e-06   2.7810069001470736e-05
-1.2262807093310884e-05   -3.191129813395429e-06   2.7810069001470736e-05
-1.2262807093310884e-05   -3.191129813395429e-06   2.7810069001470736e-05
-1.2262807093310884e-05   -3.191129813395429e-06   2.7810069001470736e-05
-1.1981978777057443e-05   1.1371610951786595e-06   2.4162096317020647e-05
-1.1981978777057443e-05   1.1371610951786595e-06   2.4162096317020647e-05
-1.1981978777057443e-05   1.1371610951786595e-06   2.4162096317020647e-05
-1.1981978777057443e-05   1.1371610951786595e-06   2.4162096317020647e-05
-1.4650985614050069e-05   -3.7415652903297677e-06   3.153767687664761e-05
-1.4650985614050069e-05   -3.7415652903297677e-06   3.153767687664761e-05
-1.4650985614050069e-05   -3.7415652903297677e-06   3.153767687664761e-05
-1.4650985614050069e-05   -3.7415652903297677e-06   3.153767687664761e-05
-1.332479870243974e-05   -7.269455759946128e-07   2.7518593528696707e-05
-1.332479870243974e-05   -7.269455759946128e-07   2.7518593528696707e-05
-1.332479870243974e-05   -7.269455759946128e-07   2.7518593528696707e-05
-1.332479870243974e-05   -7.269455759946128e-07   2.7518593528696707e-05
-1.4650985614050069e-05   1.1371610951786595e-06   2.7089332148325985e-05
-1.4650985614050069e-05   1.1371610951786595e-06   2.7089332148325985e-05
-1.4650985614050069e-05   1.1371610951786595e-06   2.7089332148325985e-05
-1.4650985614050069e-05   1.1371610951786595e-06   2.7089332148325985e-05
-1.1981978777057443e-05   -3.7415652903297677e-06   2.8610441045342485e-05
-1.1981978777057443e-05   -3.7415652903297677e-06   2.8610441045342485e-05
-1.1981978777057443e-05   -3.7415652903297677e-06   2.8610441045342485e-05
-1.1981978777057443e-05   -3.7415652903297677e-06   2.8610441045342485e-05
-1.1845377359542397e-05   3.079605937954342e-07   2.5309291292329285e-05
-1.1845377359542397e-05   3.079605937954342e-07   2.5309291292329285e-05
-1.1845377359542397e-05   3.079605937954342e-07   2.5309291292329285e-05
-1.1845377359542397e-05   3.079605937954342e-07   2.5309291292329285e-05
-1.4519472718322441e-05   -4.161566114519984e-06   3.2447832915285147e-05
-1.4519472718322441e-05   -4.161566114519984e-06   3.2447832915285147e-05
-1.4519472718322441e-05   -4.161566114519984e-06   3.2447832915285147e-05
-1.4519472718322441e-05   -4.161566114519984e-06   3.2447832915285147e-05
-1.3046896741742233e-05   -1.3199308273280363e-06   2.8288558448668396e-05
-1.3046896741742233e-05   -1.3199308273280363e-06   2.8288558448668396e-05
-1.3046896741742233e-05   -1.3199308273280363e-06   2.8288558448668396e-05
-1.3046896741742233e-05   -1.3199308273280363e-06   2.8288558448668396e-05
-1.4519472718322441e-05   3.079605937954342e-07   2.7991007317318298e-05
-1.4519472718322441e-05   3.079605937954342e-07   2.7991007317318298e-05
-1.4519472718322441e-05   3.079605937954342e-07   2.7991007317318298e-05
-1.4519472718322441e-05   3.079605937954342e-07   2.7991007317318298e-05
-1.1845377359542397e-05   -4.161566114519984e-06   2.97661168902957e-05
-1.1845377359542397e-05   -4.161566114519984e-06   2.97661168902957e-05
-1.1845377359542397e-05   -4.161566114519984e-06   2.97661168902957e-05
-1.1845377359542397e-05   -4.161566114519984e-06   2.97661168902957e-05
-1.1630804370514527e-05   -5.274621159862686e-07   2.6749991482846736e-05
-1.1630804370514527e-05   -5.274621159862686e-07   2.6749991482846736e-05
-1.1630804370514527e-05   -5.274621159862686e-07   2.6749991482846736e-05
-1.1630804370514527e-05   -5.274621159862686e-07   2.6749991482846736e-05
-1.421351569863582e-05   -4.71391973533243e-06   3.356638493465637e-05
-1.421351569863582e-05   -4.71391973533243e-06   3.356638493465637e-05
-1.421351569863582e-05   -4.71391973533243e-06   3.356638493465637e-05
-1.421351569863582e-05   -4.71391973533243e-06   3.356638493465637e-05
-1.282526854726342e-05   -1.8380139485852254e-06   2.9527096210321506e-05
-1.282526854726342e-05   -1.8380139485852254e-06   2.9527096210321506e-05
-1.282526854726342e-05   -1.8380139485852254e-06   2.9527096210321506e-05
-1.282526854726342e-05   -1.8380139485852254e-06   2.9527096210321506e-05
-1.2262807093310884e-05   3.454819546905557e-06   5.988540502380115e-06
-1.2262807093310884e-05   3.454819546905557e-06   5.988540502380115e-06
-1.2262807093310884e-05   3.454819546905557e-06   5.988540502380115e-06
-1.2262807093310884e-05   3.454819546905557e-06   5.988540502380115e-06
-6.975598403092154e-06   -3.6761949870844045e-07   1.2507091558709433e-05
-6.975598403092154e-06   -3.6761949870844045e-07   1.2507091558709433e-05
-6.975598403092154e-06   -3.6761949870844045e-07   1.2507091558709433e-05
-6.975598403092154e-06   -3.6761949870844045e-07   1.2507091558709433e-05
-7.358116205945426e-06   2.771050676645759e-06   6.038267714676259e-06
-7.358116205945426e-06   2.771050676645759e-06   6.038267714676259e-06
-7.358116205945426e-06   2.771050676645759e-06   6.038267714676259e-06
-7.358116205945426e-06   2.771050676645759e-06   6.038267714676259e-06
-1.1981978777057443e-05   -5.081453486891147e-07   1.5712222948397782e-05
-1.1981978777057443e-05   -5.081453486891147e-07   1.5712222948397782e-05
-1.1981978777057443e-05   -5.081453486891147e-07   1.5712222948397782e-05
-1.1981978777057443e-05   -5.081453486891147e-07   1.5712222948397782e-05
-9.313302163299641e-06   1.7733758822218847e-06   9.895515853588794e-06
-9.313302163299641e-06   1.7733758822218847e-06   9.895515853588794e-06
-9.313302163299641e-06   1.7733758822218847e-06   9.895515853588794e-06
-9.313302163299641e-06   1.7733758822218847e-06   9.895515853588794e-06
-1.1981978777057443e-05   2.771050676645759e-06   8.005785329877032e-06
-1.1981978777057443e-05   2.771050676645759e-06   8.005785329877032e-06
-1.1981978777057443e-05   2.771050676645759e-06   8.005785329877032e-06
-1.1981978777057443e-05   2.771050676645759e-06   8.005785329877032e-06
-7.358116205945426e-06   -5.081453486890063e-07   1.3744705333196684e-05
-7.358116205945426e-06   -5.081453486890063e-07   1.3744705333196684e-05
-7.358116205945426e-06   -5.081453486890063e-07   1.3744705333196684e-05
-7.358116205945426e-06   -5.081453486890063e-07   1.3744705333196684e-05
-7.669828280834515e-06   2.3234136956493904e-06   7.889970991466558e-06
-7.669828280834515e-06   2.3234136956493904e-06   7.889970991466558e-06
-7.669828280834515e-06   2.3234136956493904e-06   7.889970991466558e-06
-7.669828280834515e-06   2.3234136956493904e-06   7.889970991466558e-06
-1.1845377359542397e-05   -6.998444704092374e-07   1.6663174355614242e-05
-1.1845377359542397e-05   -6.998444704092374e-07   1.6663174355614242e-05
-1.1845377359542397e-05   -6.998444704092374e-07   1.6663174355614242e-05
-1.1845377359542397e-05   -6.998444704092374e-07   1.6663174355614242e-05
-9.45933510811673e-06   1.4324746240572828e-06   1.1407045813224045e-05
-9.45933510811673e-06   1.4324746240572828e-06   1.1407045813224045e-05
-9.45933510811673e-06   1.4324746240572828e-06   1.1407045813224045e-05
-9.45933510811673e-06   1.4324746240572828e-06   1.1407045813224045e-05
-1.1845377359542397e-05   2.3234136956496072e-06   9.70392589110154e-06
-1.1845377359542397e-05   2.3234136956496072e-06   9.70392589110154e-06
-1.1845377359542397e-05   2.3234136956496072e-06   9.70392589110154e-06
-1.1845377359542397e-05   2.3234136956496072e-06   9.70392589110154e-06
-7.669828280834623e-06   -6.998444704093458e-07   1.4849219455979152e-05
-7.669828280834623e-06   -6.998444704093458e-07   1.4849219455979152e-05
-7.669828280834623e-06   -6.998444704093458e-07   1.4849219455979152e-05
-7.669828280834623e-06   -6.998444704093458e-07   1.4849219455979152e-05
-8.466764422765589e-06   1.4293150342582859e-06   1.1198362317907905e-05
-8.466764422765589e-06   1.4293150342582859e-06   1.1198362317907905e-05
-8.466764422765589e-06   1.4293150342582859e-06   1.1198362317907905e-05
-8.466764422765589e-06   1.4293150342582859e-06   1.1198362317907905e-05
-1.1630804370514527e-05   -9.275017633939226e-07   1.7885852309414054e-05
-1.1630804370514527e-05   -9.275017633939226e-07   1.7885852309414054e-05
-1.1630804370514527e-05   -9.275017633939226e-07   1.7885852309414054e-05
-1.1630804370514527e-05   -9.275017633939226e-07   1.7885852309414054e-05
-9.465852999535052e-06   1.204456132795689e-06   1.2998425286734607e-05
-9.465852999535052e-06   1.204456132795689e-06   1.2998425286734607e-05
-9.465852999535052e-06   1.204456132795689e-06   1.2998425286734607e-05
-9.465852999535052e-06   1.204456132795689e-06   1.2998425286734607e-05
-0.00011430692710570213   9.011380884269395e-06   4.8166818268724195e-05
-0.00011430692710570213   9.011380884269395e-06   4.8166818268724195e-05
-0.00011430692710570213   9.011380884269395e-06   4.8166818268724195e-05
-0.00011430692710570213   9.011380884269395e-06   4.8166818268724195e-05
-2.6966434159688993e-05   -5.48547483030083e-05   0.00015541462899971295
-2.6966434159688993e-05   -5.48547483030083e-05   0.00015541462899971295
-2.6966434159688993e-05   -5.48547483030083e-05   0.00015541462899971295
-2.6966434159688993e-05   -5.48547483030083e-05   0.00015541462899971295
-3.158733006713418e-05   3.71215435245216e-06   2.6522459274705114e-05
-3.158733006713418e-05   3.71215435245216e-06   2.6522459274705114e-05
-3.158733006713418e-05   3.71215435245216e-06   2.6522459274705114e-05
-3.158733006713418e-05   3.71215435245216e-06   2.6522459274705114e-05
-0.00010425056435142742   -4.248452174156563e-05   0.0001753458554049376
-0.00010425056435142742   -4.248452174156563e-05   0.0001753458554049376
-0.00010425056435142742   -4.248452174156563e-05   0.0001753458554049376
-0.00010425056435142742   -4.248452174156563e-05   0.0001753458554049376
-6.953345581219334e-05   -2.1157622582835167e-05   0.00010468786834430916
-6.953345581219334e-05   -2.1157622582835167e-05   0.00010468786834430916
-6.953345581219334e-05   -2.1157622582835167e-05   0.00010468786834430916
-6.953345581219334e-05   -2.1157622582835167e-05   0.00010468786834430916
-0.00010425056435142724   3.71215435245216e-06   5.424046493111579e-05
-0.00010425056435142724   3.71215435245216e-06   5.424046493111579e-05
-0.00010425056435142724   3.71215435245216e-06   5.424046493111579e-05
-0.00010425056435142724   3.71215435245216e-06   5.424046493111579e-05
-3.1587330067134236e-05   -4.248452174156563e-05   0.0001476278497485269
-3.1587330067134236e-05   -4.248452174156563e-05   0.0001476278497485269
-3.1587330067134236e-05   -4.248452174156563e-05   0.0001476278497485269
-3.1587330067134236e-05   -4.248452174156563e-05   0.0001476278497485269
-3.226940297469128e-05   2.6856277006581534e-06   2.913926620061699e-05
-3.226940297469128e-05   2.6856277006581534e-06   2.913926620061699e-05
-3.226940297469128e-05   2.6856277006581534e-06   2.913926620061699e-05
-3.226940297469128e-05   2.6856277006581534e-06   2.913926620061699e-05
-9.835620029671748e-05   -3.6503679788899175e-05   0.0001627975128977281
-9.835620029671748e-05   -3.6503679788899175e-05   0.0001627975128977281
-9.835620029671748e-05   -3.6503679788899175e-05   0.0001627975128977281
-9.835620029671748e-05   -3.6503679788899175e-05   0.0001627975128977281
-6.742843373227926e-05   -2.0028635501027133e-05   0.00010136620871760794
-6.742843373227926e-05   -2.0028635501027133e-05   0.00010136620871760794
-6.742843373227926e-05   -2.0028635501027133e-05   0.00010136620871760794
-6.742843373227926e-05   -2.0028635501027133e-05   0.00010136620871760794
-9.83562002967173e-05   2.6856277006581534e-06   5.265285069435126e-05
-9.83562002967173e-05   2.6856277006581534e-06   5.265285069435126e-05
-9.83562002967173e-05   2.6856277006581534e-06   5.265285069435126e-05
-9.83562002967173e-05   2.6856277006581534e-06   5.265285069435126e-05
-3.2269402974691334e-05   -3.6503679788899175e-05   0.0001392839284039938
-3.2269402974691334e-05   -3.6503679788899175e-05   0.0001392839284039938
-3.2269402974691334e-05   -3.6503679788899175e-05   0.0001392839284039938
-3.2269402974691334e-05   -3.6503679788899175e-05   0.0001392839284039938
-3.528187690042622e-05   -1.666885421950379e-06   3.6519233930031454e-05
-3.528187690042622e-05   -1.666885421950379e-06   3.6519233930031454e-05
-3.528187690042622e-05   -1.666885421950379e-06   3.6519233930031454e-05
-3.528187690042622e-05   -1.666885421950379e-06   3.6519233930031454e-05
-9.081134412095743e-05   -2.857410447670471e-05   0.00014521267739710247
-9.081134412095743e-05   -2.857410447670471e-05   0.00014521267739710247
-9.081134412095743e-05   -2.857410447670471e-05   0.00014521267739710247
-9.081134412095743e-05   -2.857410447670471e-05   0.00014521267739710247
-6.482255675383823e-05   -1.8481092399616863e-05   9.584222453898457e-05
-6.482255675383823e-05   -1.8481092399616863e-05   9.584222453898457e-05
-6.482255675383823e-05   -1.8481092399616863e-05   9.584222453898457e-05
-6.482255675383823e-05   -1.8481092399616863e-05   9.584222453898457e-05
-2.6966434159688953e-05   -9.977762417146332e-06   2.7179662089358062e-05
-2.6966434159688953e-05   -9.977762417146332e-06   2.7179662089358062e-05
-2.6966434159688953e-05   -9.977762417146332e-06   2.7179662089358062e-05
-2.6966434159688953e-05   -9.977762417146332e-06   2.7179662089358062e-05
-9.4210502411878e-06   -1.6728159706626673e-05   5.2371730246505304e-05
-9.4210502411878e-06   -1.6728159706626673e-05   5.2371730246505304e-05
-9.4210502411878e-06   -1.6728159706626673e-05   5.2371730246505304e-05
-9.4210502411878e-06   -1.6728159706626673e-05   5.2371730246505304e-05
-1.0486432107207797e-05   -8.152415780808423e-06   2.4435717237180406e-05
-1.0486432107207797e-05   -8.152415780808423e-06   2.4435717237180406e-05
-1.0486432107207797e-05   -8.152415780808423e-06   2.4435717237180406e-05
-1.0486432107207797e-05   -8.152415780808423e-06   2.4435717237180406e-05
-3.1587330067134236e-05   -2.229429701346842e-05   6.808900924332018e-05
-3.1587330067134236e-05   -2.229429701346842e-05   6.808900924332018e-05
-3.1587330067134236e-05   -2.229429701346842e-05   6.808900924332018e-05
-3.1587330067134236e-05   -2.229429701346842e-05   6.808900924332018e-05
-1.8593000748502432e-05   -1.1722355322864536e-05   4.0088628697904636e-05
-1.8593000748502432e-05   -1.1722355322864536e-05   4.0088628697904636e-05
-1.8593000748502432e-05   -1.1722355322864536e-05   4.0088628697904636e-05
-1.8593000748502432e-05   -1.1722355322864536e-05   4.0088628697904636e-05
-3.158733006713417e-05   -8.152415780808423e-06   3.2920845976776075e-05
-3.158733006713417e-05   -8.152415780808423e-06   3.2920845976776075e-05
-3.158733006713417e-05   -8.152415780808423e-06   3.2920845976776075e-05
-3.158733006713417e-05   -8.152415780808423e-06   3.2920845976776075e-05
-1.0486432107207851e-05   -2.229429701346842e-05   5.9603880503724245e-05
-1.0486432107207851e-05   -2.229429701346842e-05   5.9603880503724245e-05
-1.0486432107207851e-05   -2.229429701346842e-05   5.9603880503724245e-05
-1.0486432107207851e-05   -2.229429701346842e-05   5.9603880503724245e-05
-1.1396292725195318e-05   -8.343203740608868e-06   2.7470863408572102e-05
-1.1396292725195318e-05   -8.343203740608868e-06   2.7470863408572102e-05
-1.1396292725195318e-05   -8.343203740608868e-06   2.7470863408572102e-05
-1.1396292725195318e-05   -8.343203740608868e-06   2.7470863408572102e-05
-3.2269402974691334e-05   -2.0325652243095897e-05   6.944884959255739e-05
-3.2269402974691334e-05   -2.0325652243095897e-05   6.944884959255739e-05
-3.2269402974691334e-05   -2.0325652243095897e-05   6.944884959255739e-05
-3.2269402974691334e-05   -2.0325652243095897e-05   6.944884959255739e-05
-2.0923457583171816e-05   -1.4368222492525552e-05   4.696448275634974e-05
-2.0923457583171816e-05   -1.4368222492525552e-05   4.696448275634974e-05
-2.0923457583171816e-05   -1.4368222492525552e-05   4.696448275634974e-05
-2.0923457583171816e-05   -1.4368222492525552e-05   4.696448275634974e-05
-3.226940297469128e-05   -8.343203740608868e-06   3.466033251006424e-05
-3.226940297469128e-05   -8.343203740608868e-06   3.466033251006424e-05
-3.226940297469128e-05   -8.343203740608868e-06   3.466033251006424e-05
-3.226940297469128e-05   -8.343203740608868e-06   3.466033251006424e-05
-1.1396292725195372e-05   -2.0325652243095897e-05   6.22593804910652e-05
-1.1396292725195372e-05   -2.0325652243095897e-05   6.22593804910652e-05
-1.1396292725195372e-05   -2.0325652243095897e-05   6.22593804910652e-05
-1.1396292725195372e-05   -2.0325652243095897e-05   6.22593804910652e-05
-1.287000546962931e-05   -8.435472774255071e-06   3.001807553540349e-05
-1.287000546962931e-05   -8.435472774255071e-06   3.001807553540349e-05
-1.287000546962931e-05   -8.435472774255071e-06   3.001807553540349e-05
-1.287000546962931e-05   -8.435472774255071e-06   3.001807553540349e-05
-3.528187690042626e-05   -1.909076674959332e-05   7.376437097193439e-05
-3.528187690042626e-05   -1.909076674959332e-05   7.376437097193439e-05
-3.528187690042626e-05   -1.909076674959332e-05   7.376437097193439e-05
-3.528187690042626e-05   -1.909076674959332e-05   7.376437097193439e-05
-2.2261936873088443e-05   -1.3112795039293263e-05   4.847768790019146e-05
-2.2261936873088443e-05   -1.3112795039293263e-05   4.847768790019146e-05
-2.2261936873088443e-05   -1.3112795039293263e-05   4.847768790019146e-05
-2.2261936873088443e-05   -1.3112795039293263e-05   4.847768790019146e-05
-9.4210502411878e-06   -7.79264618578344e-06   1.4493610582276008e-05
-9.4210502411878e-06   -7.79264618578344e-06   1.4493610582276008e-05
-9.4210502411878e-06   -7.79264618578344e-06   1.4493610582276008e-05
-9.4210502411878e-06   -7.79264618578344e-06   1.4493610582276008e-05
-5.239209505447152e-06   -4.51706846321929e-06   2.3428691775382183e-05
-5.239209505447152e-06   -4.51706846321929e-06   2.3428691775382183e-05
-5.239209505447152e-06   -4.51706846321929e-06   2.3428691775382183e-05
-5.239209505447152e-06   -4.51706846321929e-06   2.3428691775382183e-05
-5.0163518719482936e-06   -7.653206247931537e-06   1.687958960948984e-05
-5.0163518719482936e-06   -7.653206247931537e-06   1.687958960948984e-05
-5.0163518719482936e-06   -7.653206247931537e-06   1.687958960948984e-05
-5.0163518719482936e-06   -7.653206247931537e-06   1.687958960948984e-05
-1.0486432107207851e-05   -5.964044249184977e-06   2.4982892802340845e-05
-1.0486432107207851e-05   -5.964044249184977e-06   2.4982892802340845e-05
-1.0486432107207851e-05   -5.964044249184977e-06   2.4982892802340845e-05
-1.0486432107207851e-05   -5.964044249184977e-06   2.4982892802340845e-05
-7.065412179685485e-06   -6.160412796631196e-06   1.9399014051604303e-05
-7.065412179685485e-06   -6.160412796631196e-06   1.9399014051604303e-05
-7.065412179685485e-06   -6.160412796631196e-06   1.9399014051604303e-05
-7.065412179685485e-06   -6.160412796631196e-06   1.9399014051604303e-05
-1.0486432107207797e-05   -7.653206247931537e-06   1.5866092410241907e-05
-1.0486432107207797e-05   -7.653206247931537e-06   1.5866092410241907e-05
-1.0486432107207797e-05   -7.653206247931537e-06   1.5866092410241907e-05
-1.0486432107207797e-05   -7.653206247931537e-06   1.5866092410241907e-05
-5.0163518719482936e-06   -5.964044249184977e-06   2.5996390001588776e-05
-5.0163518719482936e-06   -5.964044249184977e-06   2.5996390001588776e-05
-5.0163518719482936e-06   -5.964044249184977e-06   2.5996390001588776e-05
-5.0163518719482936e-06   -5.964044249184977e-06   2.5996390001588776e-05
-5.005529215729057e-06   -7.89029654980997e-06   1.8034970470784894e-05
-5.005529215729057e-06   -7.89029654980997e-06   1.8034970470784894e-05
-5.005529215729057e-06   -7.89029654980997e-06   1.8034970470784894e-05
-5.005529215729057e-06   -7.89029654980997e-06   1.8034970470784894e-05
-1.1396292725195372e-05   -7.721385018064308e-06   2.858489606751436e-05
-1.1396292725195372e-05   -7.721385018064308e-06   2.858489606751436e-05
-1.1396292725195372e-05   -7.721385018064308e-06   2.858489606751436e-05
-1.1396292725195372e-05   -7.721385018064308e-06   2.858489606751436e-05
-7.467911357444441e-06   -6.73676774848482e-06   2.144682342618211e-05
-7.467911357444441e-06   -6.73676774848482e-06   2.144682342618211e-05
-7.467911357444441e-06   -6.73676774848482e-06   2.144682342618211e-05
-7.467911357444441e-06   -6.73676774848482e-06   2.144682342618211e-05
-1.1396292725195318e-05   -7.89029654981008e-06   1.7933623551737513e-05
-1.1396292725195318e-05   -7.89029654981008e-06   1.7933623551737513e-05
-1.1396292725195318e-05   -7.89029654981008e-06   1.7933623551737513e-05
-1.1396292725195318e-05   -7.89029654981008e-06   1.7933623551737513e-05
-5.005529215729057e-06   -7.721385018064308e-06   2.868624298656185e-05
-5.005529215729057e-06   -7.721385018064308e-06   2.868624298656185e-05
-5.005529215729057e-06   -7.721385018064308e-06   2.868624298656185e-05
-5.005529215729057e-06   -7.721385018064308e-06   2.868624298656185e-05
-5.046823255318929e-06   -8.231735901554032e-06   1.9756341972903884e-05
-5.046823255318929e-06   -8.231735901554032e-06   1.9756341972903884e-05
-5.046823255318929e-06   -8.231735901554032e-06   1.9756341972903884e-05
-5.046823255318929e-06   -8.231735901554032e-06   1.9756341972903884e-05
-1.287000546962931e-05   -9.394413221793682e-06   3.349258538889804e-05
-1.287000546962931e-05   -9.394413221793682e-06   3.349258538889804e-05
-1.287000546962931e-05   -9.394413221793682e-06   3.349258538889804e-05
-1.287000546962931e-05   -9.394413221793682e-06   3.349258538889804e-05
-7.921856835241628e-06   -7.3745874164196385e-06   2.403377551502765e-05
-7.921856835241628e-06   -7.3745874164196385e-06   2.403377551502765e-05
-7.921856835241628e-06   -7.3745874164196385e-06   2.403377551502765e-05
-7.921856835241628e-06   -7.3745874164196385e-06   2.403377551502765e-05
-5.239209505447152e-06   -3.191129813395429e-06   3.953774549836332e-06
-5.239209505447152e-06   -3.191129813395429e-06   3.953774549836332e-06
-5.239209505447152e-06   -3.191129813395429e-06   3.953774549836332e-06
-5.239209505447152e-06   -3.191129813395429e-06   3.953774549836332e-06
-3.853821800075207e-06   9.559473069628604e-07   8.751000331004523e-06
-3.853821800075207e-06   9.559473069628604e-07   8.751000331004523e-06
-3.853821800075207e-06   9.559473069628604e-07   8.751000331004523e-06
-3.853821800075207e-06   9.559473069628604e-07   8.751000331004523e-06
-3.1027006273278e-06   -3.7415652903297677e-06   6.8193977501478445e-06
-3.1027006273278e-06   -3.7415652903297677e-06   6.8193977501478445e-06
-3.1027006273278e-06   -3.7415652903297677e-06   6.8193977501478445e-06
-3.1027006273278e-06   -3.7415652903297677e-06   6.8193977501478445e-06
-5.0163518719482936e-06   4.511484187402423e-07   7.493188265739713e-06
-5.0163518719482936e-06   4.511484187402423e-07   7.493188265739713e-06
-5.0163518719482936e-06   4.511484187402423e-07   7.493188265739713e-06
-5.0163518719482936e-06   4.511484187402423e-07   7.493188265739713e-06
-4.0388574151466856e-06   -1.4452661383833419e-06   7.001879572010464e-06
-4.0388574151466856e-06   -1.4452661383833419e-06   7.001879572010464e-06
-4.0388574151466856e-06   -1.4452661383833419e-06   7.001879572010464e-06
-4.0388574151466856e-06   -1.4452661383833419e-06   7.001879572010464e-06
-5.0163518719482936e-06   -3.7415652903297677e-06   4.303769524705665e-06
-5.0163518719482936e-06   -3.7415652903297677e-06   4.303769524705665e-06
-5.0163518719482936e-06   -3.7415652903297677e-06   4.303769524705665e-06
-5.0163518719482936e-06   -3.7415652903297677e-06   4.303769524705665e-06
-3.1027006273278e-06   4.511484187402423e-07   1.0008816491181675e-05
-3.1027006273278e-06   4.511484187402423e-07   1.0008816491181675e-05
-3.1027006273278e-06   4.511484187402423e-07   1.0008816491181675e-05
-3.1027006273278e-06   4.511484187402423e-07   1.0008816491181675e-05
-2.683876993462078e-06   -4.161566114519984e-06   7.489756333814435e-06
-2.683876993462078e-06   -4.161566114519984e-06   7.489756333814435e-06
-2.683876993462078e-06   -4.161566114519984e-06   7.489756333814435e-06
-2.683876993462078e-06   -4.161566114519984e-06   7.489756333814435e-06
-5.005529215729057e-06   -3.6477676774043257e-07   9.081103096191282e-06
-5.005529215729057e-06   -3.6477676774043257e-07   9.081103096191282e-06
-5.005529215729057e-06   -3.6477676774043257e-07   9.081103096191282e-06
-5.005529215729057e-06   -3.6477676774043257e-07   9.081103096191282e-06
-3.6462854267574232e-06   -1.86276837802244e-06   7.714491747408013e-06
-3.6462854267574232e-06   -1.86276837802244e-06   7.714491747408013e-06
-3.6462854267574232e-06   -1.86276837802244e-06   7.714491747408013e-06
-3.6462854267574232e-06   -1.86276837802244e-06   7.714491747408013e-06
-5.005529215729057e-06   -4.161566114519984e-06   5.211682725746354e-06
-5.005529215729057e-06   -4.161566114519984e-06   5.211682725746354e-06
-5.005529215729057e-06   -4.161566114519984e-06   5.211682725746354e-06
-5.005529215729057e-06   -4.161566114519984e-06   5.211682725746354e-06
-2.683876993462078e-06   -3.6477676774043257e-07   1.1359176704259038e-05
-2.683876993462078e-06   -3.6477676774043257e-07   1.1359176704259038e-05
-2.683876993462078e-06   -3.6477676774043257e-07   1.1359176704259038e-05
-2.683876993462078e-06   -3.6477676774043257e-07   1.1359176704259038e-05
-2.040490277602073e-06   -4.71391973533243e-06   8.20685838769748e-06
-2.040490277602073e-06   -4.71391973533243e-06   8.20685838769748e-06
-2.040490277602073e-06   -4.71391973533243e-06   8.20685838769748e-06
-2.040490277602073e-06   -4.71391973533243e-06   8.20685838769748e-06
-5.046823255318929e-06   -2.0602285067796778e-06   1.1625198613426728e-05
-5.046823255318929e-06   -2.0602285067796778e-06   1.1625198613426728e-05
-5.046823255318929e-06   -2.0602285067796778e-06   1.1625198613426728e-05
-5.046823255318929e-06   -2.0602285067796778e-06   1.1625198613426728e-05
-3.318831764839768e-06   -2.508924267260299e-06   9.014430252250391e-06
-3.318831764839768e-06   -2.508924267260299e-06   9.014430252250391e-06
-3.318831764839768e-06   -2.508924267260299e-06   9.014430252250391e-06
-3.318831764839768e-06   -2.508924267260299e-06   9.014430252250391e-06
-3.853821800075207e-06   -3.6761949870844045e-07   -6.5674931933414385e-06
-3.853821800075207e-06   -3.6761949870844045e-07   -6.5674931933414385e-06
-3.853821800075207e-06   -3.6761949870844045e-07   -6.5674931933414385e-06
-3.853821800075207e-06   -3.6761949870844045e-07   -6.5674931933414385e-06
-6.779438312361826e-07   5.674659245332586e-07   -7.133119913310497e-07
-6.779438312361826e-07   5.674659245332586e-07   -7.133119913310497e-07
-6.779438312361826e-07   5.674659245332586e-07   -7.133119913310497e-07
-6.779438312361826e-07   5.674659245332586e-07   -7.133119913310497e-07
6.107202939501996e-08   -5.081453486890063e-07   -5.18118245782179e-06
6.107202939501996e-08   -5.081453486890063e-07   -5.18118245782179e-06
6.107202939501996e-08   -5.081453486890063e-07   -5.18118245782179e-06
6.107202939501996e-08   -5.081453486890063e-07   -5.18118245782179e-06
-3.1027006273278e-06   9.87917799603484e-07   -8.058659189259625e-07
-3.1027006273278e-06   9.87917799603484e-07   -8.058659189259625e-07
-3.1027006273278e-06   9.87917799603484e-07   -8.058659189259625e-07
-3.1027006273278e-06   9.87917799603484e-07   -8.058659189259625e-07
-1.7308884585649905e-06   2.576920037476336e-07   -2.654084056017726e-06
-1.7308884585649905e-06   2.576920037476336e-07   -2.654084056017726e-06
-1.7308884585649905e-06   2.576920037476336e-07   -2.654084056017726e-06
-1.7308884585649905e-06   2.576920037476336e-07   -2.654084056017726e-06
-3.1027006273276914e-06   -5.081453486891147e-07   -6.078820346797184e-06
-3.1027006273276914e-06   -5.081453486891147e-07   -6.078820346797184e-06
-3.1027006273276914e-06   -5.081453486891147e-07   -6.078820346797184e-06
-3.1027006273276914e-06   -5.081453486891147e-07   -6.078820346797184e-06
6.107202939501996e-08   9.87917799603484e-07   9.177197004953987e-08
6.107202939501996e-08   9.87917799603484e-07   9.177197004953987e-08
6.107202939501996e-08   9.87917799603484e-07   9.177197004953987e-08
6.107202939501996e-08   9.87917799603484e-07   9.177197004953987e-08
4.5515099695008637e-07   -6.998444704092374e-07   -4.6757285069986415e-06
4.5515099695008637e-07   -6.998444704092374e-07   -4.6757285069986415e-06
4.5515099695008637e-07   -6.998444704092374e-07   -4.6757285069986415e-06
4.5515099695008637e-07   -6.998444704092374e-07   -4.6757285069986415e-06
-2.683876993462078e-06   8.625850193716298e-07   -3.8147288351341596e-07
-2.683876993462078e-06   8.625850193716298e-07   -3.8147288351341596e-07
-2.683876993462078e-06   8.625850193716298e-07   -3.8147288351341596e-07
-2.683876993462078e-06   8.625850193716298e-07   -3.8147288351341596e-07
-1.1813631405616217e-06   1.6966030520868154e-07   -2.469907809848947e-06
-1.1813631405616217e-06   1.6966030520868154e-07   -2.469907809848947e-06
-1.1813631405616217e-06   1.6966030520868154e-07   -2.469907809848947e-06
-1.1813631405616217e-06   1.6966030520868154e-07   -2.469907809848947e-06
-2.683876993462078e-06   -6.998444704093458e-07   -5.613186200867078e-06
-2.683876993462078e-06   -6.998444704093458e-07   -5.613186200867078e-06
-2.683876993462078e-06   -6.998444704093458e-07   -5.613186200867078e-06
-2.683876993462078e-06   -6.998444704093458e-07   -5.613186200867078e-06
4.551509969503032e-07   8.625850193716298e-07   5.55984810355183e-07
4.551509969503032e-07   8.625850193716298e-07   5.55984810355183e-07
4.551509969503032e-07   8.625850193716298e-07   5.55984810355183e-07
4.551509969503032e-07   8.625850193716298e-07   5.55984810355183e-07
9.501258255320642e-07   -9.275017633938142e-07   -3.942291257052815e-06
9.501258255320642e-07   -9.275017633938142e-07   -3.942291257052815e-06
9.501258255320642e-07   -9.275017633938142e-07   -3.942291257052815e-06
9.501258255320642e-07   -9.275017633938142e-07   -3.942291257052815e-06
-2.040490277602073e-06   7.716789180807338e-07   2.2560505952111398e-08
-2.040490277602073e-06   7.716789180807338e-07   2.2560505952111398e-08
-2.040490277602073e-06   7.716789180807338e-07   2.2560505952111398e-08
-2.040490277602073e-06   7.716789180807338e-07   2.2560505952111398e-08
-6.824122578255381e-07   6.634120811184994e-08   -1.8177002343606075e-06
-6.824122578255381e-07   6.634120811184994e-08   -1.8177002343606075e-06
-6.824122578255381e-07   6.634120811184994e-08   -1.8177002343606075e-06
-6.824122578255381e-07   6.634120811184994e-08   -1.8177002343606075e-06
              </DataArray>   
             <DataArray type="Float64" NumberOfComponents="3" Name="Stress" format="ascii">   
-5.919486674188958   -1.4798716685472395   -1.4798716685472395
-5.919486674188958   -1.4798716685472395   -1.4798716685472395
-5.919486674188958   -1.4798716685472395   -1.4798716685472395
-5.919486674188958   -1.4798716685472395   -1.4798716685472395
-3.4259537417860857   -0.10769803249710419   -0.06835749764766447
-3.4259537417860857   -0.10769803249710419   -0.06835749764766447
-3.4259537417860857   -0.10769803249710419   -0.06835749764766447
-3.4259537417860857   -0.10769803249710419   -0.06835749764766447
-3.693552655422904   -0.923388163855726   -0.923388163855726
-3.693552655422904   -0.923388163855726   -0.923388163855726
-3.693552655422904   -0.923388163855726   -0.923388163855726
-3.693552655422904   -0.923388163855726   -0.923388163855726
-5.705474397435963   -0.4678772902989373   -0.1787215570499451
-5.705474397435963   -0.4678772902989373   -0.1787215570499451
-5.705474397435963   -0.4678772902989373   -0.1787215570499451
-5.705474397435963   -0.4678772902989373   -0.1787215570499451
-4.474980284560683   -0.7332522290696839   -0.012310702107081892
-4.474980284560683   -0.7332522290696839   -0.012310702107081892
-4.474980284560683   -0.7332522290696839   -0.012310702107081892
-4.474980284560683   -0.7332522290696839   -0.012310702107081892
-6.195727364406883   -1.5489318411017208   -1.5489318411017208
-6.195727364406883   -1.5489318411017208   -1.5489318411017208
-6.195727364406883   -1.5489318411017208   -1.5489318411017208
-6.195727364406883   -1.5489318411017208   -1.5489318411017208
-3.3194957663000215   0.041470309099027935   -0.017962191196067484
-3.3194957663000215   0.041470309099027935   -0.017962191196067484
-3.3194957663000215   0.041470309099027935   -0.017962191196067484
-3.3194957663000215   0.041470309099027935   -0.017962191196067484
-3.704585088675696   -0.926146272168924   -0.926146272168924
-3.704585088675696   -0.926146272168924   -0.926146272168924
-3.704585088675696   -0.926146272168924   -0.926146272168924
-3.704585088675696   -0.926146272168924   -0.926146272168924
-5.897916258423027   -0.4725585856865838   -0.26197199143113215
-5.897916258423027   -0.4725585856865838   -0.26197199143113215
-5.897916258423027   -0.4725585856865838   -0.26197199143113215
-5.897916258423027   -0.4725585856865838   -0.26197199143113215
-4.642547684838872   -0.6905906069028036   -0.2464447978557962
-4.642547684838872   -0.6905906069028036   -0.2464447978557962
-4.642547684838872   -0.6905906069028036   -0.2464447978557962
-4.642547684838872   -0.6905906069028036   -0.2464447978557962
-6.390011269999438   -1.5975028174998596   -1.5975028174998596
-6.390011269999438   -1.5975028174998596   -1.5975028174998596
-6.390011269999438   -1.5975028174998596   -1.5975028174998596
-6.390011269999438   -1.5975028174998596   -1.5975028174998596
-3.310422118903568   0.1008659178400787   0.01765638668271305
-3.310422118903568   0.1008659178400787   0.01765638668271305
-3.310422118903568   0.1008659178400787   0.01765638668271305
-3.310422118903568   0.1008659178400787   0.01765638668271305
-3.7033322372075204   -0.9258330593018801   -0.9258330593018801
-3.7033322372075204   -0.9258330593018801   -0.9258330593018801
-3.7033322372075204   -0.9258330593018801   -0.9258330593018801
-3.7033322372075204   -0.9258330593018801   -0.9258330593018801
-6.2415024677346755   -0.4149315714519132   -0.15684603200027517
-6.2415024677346755   -0.4149315714519132   -0.15684603200027517
-6.2415024677346755   -0.4149315714519132   -0.15684603200027517
-6.2415024677346755   -0.4149315714519132   -0.15684603200027517
-4.767115900328294   -0.6800321796708646   -0.44552443075498327
-4.767115900328294   -0.6800321796708646   -0.44552443075498327
-4.767115900328294   -0.6800321796708646   -0.44552443075498327
-4.767115900328294   -0.6800321796708646   -0.44552443075498327
-3.767491817507931   -0.9418729543769827   -0.9418729543769827
-3.767491817507931   -0.9418729543769827   -0.9418729543769827
-3.767491817507931   -0.9418729543769827   -0.9418729543769827
-3.767491817507931   -0.9418729543769827   -0.9418729543769827
-1.5710868222570094   -0.10398233064517251   -0.03384453423620374
-1.5710868222570094   -0.10398233064517251   -0.03384453423620374
-1.5710868222570094   -0.10398233064517251   -0.03384453423620374
-1.5710868222570094   -0.10398233064517251   -0.03384453423620374
-1.6500859986359386   -0.41252149965898466   -0.41252149965898466
-1.6500859986359386   -0.41252149965898466   -0.41252149965898466
-1.6500859986359386   -0.41252149965898466   -0.41252149965898466
-1.6500859986359386   -0.41252149965898466   -0.41252149965898466
-3.4304976547867123   -0.4031455423184385   -0.12835578221205468
-3.4304976547867123   -0.4031455423184385   -0.12835578221205468
-3.4304976547867123   -0.4031455423184385   -0.12835578221205468
-3.4304976547867123   -0.4031455423184385   -0.12835578221205468
-2.5297435176684138   -0.47903814235637976   0.01987064033799699
-2.5297435176684138   -0.47903814235637976   0.01987064033799699
-2.5297435176684138   -0.47903814235637976   0.01987064033799699
-2.5297435176684138   -0.47903814235637976   0.01987064033799699
-3.693552655422901   -0.9233881638557252   -0.9233881638557252
-3.693552655422901   -0.9233881638557252   -0.9233881638557252
-3.693552655422901   -0.9233881638557252   -0.9233881638557252
-3.693552655422901   -0.9233881638557252   -0.9233881638557252
-1.4828314584179827   0.011920661460066984   -0.0006909596882563457
-1.4828314584179827   0.011920661460066984   -0.0006909596882563457
-1.4828314584179827   0.011920661460066984   -0.0006909596882563457
-1.4828314584179827   0.011920661460066984   -0.0006909596882563457
-1.6138667011412187   -0.40346667528530467   -0.40346667528530467
-1.6138667011412187   -0.40346667528530467   -0.40346667528530467
-1.6138667011412187   -0.40346667528530467   -0.40346667528530467
-1.6138667011412187   -0.40346667528530467   -0.40346667528530467
-3.422467558557148   -0.32904523523150725   -0.11265965851359978
-3.422467558557148   -0.32904523523150725   -0.11265965851359978
-3.422467558557148   -0.32904523523150725   -0.11265965851359978
-3.422467558557148   -0.32904523523150725   -0.11265965851359978
-2.4951254596658172   -0.40341233143066746   -0.13052141462916478
-2.4951254596658172   -0.40341233143066746   -0.13052141462916478
-2.4951254596658172   -0.40341233143066746   -0.13052141462916478
-2.4951254596658172   -0.40341233143066746   -0.13052141462916478
-3.704585088675696   -0.926146272168924   -0.926146272168924
-3.704585088675696   -0.926146272168924   -0.926146272168924
-3.704585088675696   -0.926146272168924   -0.926146272168924
-3.704585088675696   -0.926146272168924   -0.926146272168924
-1.4245356849144095   0.10084784776037309   0.038873882803063406
-1.4245356849144095   0.10084784776037309   0.038873882803063406
-1.4245356849144095   0.10084784776037309   0.038873882803063406
-1.4245356849144095   0.10084784776037309   0.038873882803063406
-1.5809879471015316   -0.3952469867753829   -0.3952469867753829
-1.5809879471015316   -0.3952469867753829   -0.3952469867753829
-1.5809879471015316   -0.3952469867753829   -0.3952469867753829
-1.5809879471015316   -0.3952469867753829   -0.3952469867753829
-3.3979821764776577   -0.25407250546197385   -0.07084330949251626
-3.3979821764776577   -0.25407250546197385   -0.07084330949251626
-3.3979821764776577   -0.25407250546197385   -0.07084330949251626
-3.3979821764776577   -0.25407250546197385   -0.07084330949251626
-2.508118998762307   -0.3571685684544329   -0.29088709485834474
-2.508118998762307   -0.3571685684544329   -0.29088709485834474
-2.508118998762307   -0.3571685684544329   -0.29088709485834474
-2.508118998762307   -0.3571685684544329   -0.29088709485834474
-1.715023832534152   -0.428755958133538   -0.428755958133538
-1.715023832534152   -0.428755958133538   -0.428755958133538
-1.715023832534152   -0.428755958133538   -0.428755958133538
-1.715023832534152   -0.428755958133538   -0.428755958133538
0.20530701708147125   0.013732749922903655   0.0016556366785343444
0.20530701708147125   0.013732749922903655   0.0016556366785343444
0.20530701708147125   0.013732749922903655   0.0016556366785343444
0.20530701708147125   0.013732749922903655   0.0016556366785343444
0.26586344623893127   0.06646586155973282   0.06646586155973282
0.26586344623893127   0.06646586155973282   0.06646586155973282
0.26586344623893127   0.06646586155973282   0.06646586155973282
0.26586344623893127   0.06646586155973282   0.06646586155973282
-1.5512465614937012   -0.2681381647102288   -0.06270764889655298
-1.5512465614937012   -0.2681381647102288   -0.06270764889655298
-1.5512465614937012   -0.2681381647102288   -0.06270764889655298
-1.5512465614937012   -0.2681381647102288   -0.06270764889655298
-0.6631721753053201   -0.16826969588888063   0.11301968852651928
-0.6631721753053201   -0.16826969588888063   0.11301968852651928
-0.6631721753053201   -0.16826969588888063   0.11301968852651928
-0.6631721753053201   -0.16826969588888063   0.11301968852651928
-1.6500859986359386   -0.41252149965898466   -0.41252149965898466
-1.6500859986359386   -0.41252149965898466   -0.41252149965898466
-1.6500859986359386   -0.41252149965898466   -0.41252149965898466
-1.6500859986359386   -0.41252149965898466   -0.41252149965898466
0.27051284629755123   0.11665915942487078   0.039519563987692484
0.27051284629755123   0.11665915942487078   0.039519563987692484
0.27051284629755123   0.11665915942487078   0.039519563987692484
0.27051284629755123   0.11665915942487078   0.039519563987692484
0.2982714120093945   0.07456785300234862   0.07456785300234862
0.2982714120093945   0.07456785300234862   0.07456785300234862
0.2982714120093945   0.07456785300234862   0.07456785300234862
0.2982714120093945   0.07456785300234862   0.07456785300234862
-1.4970350497426768   -0.18071606944391871   -0.04205902413399307
-1.4970350497426768   -0.18071606944391871   -0.04205902413399307
-1.4970350497426768   -0.18071606944391871   -0.04205902413399307
-1.4970350497426768   -0.18071606944391871   -0.04205902413399307
-0.636817893433209   -0.10409088715377285   -0.03841576010254907
-0.636817893433209   -0.10409088715377285   -0.03841576010254907
-0.636817893433209   -0.10409088715377285   -0.03841576010254907
-0.636817893433209   -0.10409088715377285   -0.03841576010254907
-1.6138667011412187   -0.40346667528530467   -0.40346667528530467
-1.6138667011412187   -0.40346667528530467   -0.40346667528530467
-1.6138667011412187   -0.40346667528530467   -0.40346667528530467
-1.6138667011412187   -0.40346667528530467   -0.40346667528530467
0.32280740215856163   0.20502279759436143   0.06679285915616938
0.32280740215856163   0.20502279759436143   0.06679285915616938
0.32280740215856163   0.20502279759436143   0.06679285915616938
0.32280740215856163   0.20502279759436143   0.06679285915616938
0.342080956862396   0.085520239215599   0.085520239215599
0.342080956862396   0.085520239215599   0.085520239215599
0.342080956862396   0.085520239215599   0.085520239215599
0.342080956862396   0.085520239215599   0.085520239215599
-1.4380260583477427   -0.07640897362179172   0.0007244438399634651
-1.4380260583477427   -0.07640897362179172   0.0007244438399634651
-1.4380260583477427   -0.07640897362179172   0.0007244438399634651
-1.4380260583477427   -0.07640897362179172   0.0007244438399634651
-0.6184478647549003   -0.04222135996846085   -0.1885000391786959
-0.6184478647549003   -0.04222135996846085   -0.1885000391786959
-0.6184478647549003   -0.04222135996846085   -0.1885000391786959
-0.6184478647549003   -0.04222135996846085   -0.1885000391786959
0.22469926640131554   0.056174816600328886   0.056174816600328886
0.22469926640131554   0.056174816600328886   0.056174816600328886
0.22469926640131554   0.056174816600328886   0.056174816600328886
0.22469926640131554   0.056174816600328886   0.056174816600328886
2.149350823427666   0.19712792909200494   0.06590735487392889
2.149350823427666   0.19712792909200494   0.06590735487392889
2.149350823427666   0.19712792909200494   0.06590735487392889
2.149350823427666   0.19712792909200494   0.06590735487392889
2.3330485534282666   0.5832621383570666   0.5832621383570666
2.3330485534282666   0.5832621383570666   0.5832621383570666
2.3330485534282666   0.5832621383570666   0.5832621383570666
2.3330485534282666   0.5832621383570666   0.5832621383570666
0.2026127497767075   -0.15140999368721522   -0.03191176550444178
0.2026127497767075   -0.15140999368721522   -0.03191176550444178
0.2026127497767075   -0.15140999368721522   -0.03191176550444178
0.2026127497767075   -0.15140999368721522   -0.03191176550444178
1.2260850406094645   0.1526092720155325   0.2228833364152294
1.2260850406094645   0.1526092720155325   0.2228833364152294
1.2260850406094645   0.1526092720155325   0.2228833364152294
1.2260850406094645   0.1526092720155325   0.2228833364152294
0.26586344623893216   0.06646586155973304   0.06646586155973304
0.26586344623893216   0.06646586155973304   0.06646586155973304
0.26586344623893216   0.06646586155973304   0.06646586155973304
0.26586344623893216   0.06646586155973304   0.06646586155973304
2.174072604180229   0.2696610303243058   0.1019835001496413
2.174072604180229   0.2696610303243058   0.1019835001496413
2.174072604180229   0.2696610303243058   0.1019835001496413
2.174072604180229   0.2696610303243058   0.1019835001496413
2.3223589463558265   0.5805897365889566   0.5805897365889566
2.3223589463558265   0.5805897365889566   0.5805897365889566
2.3223589463558265   0.5805897365889566   0.5805897365889566
2.3223589463558265   0.5805897365889566   0.5805897365889566
0.2552425563160598   -0.0659518721403316   -5.670032164666744e-05
0.2552425563160598   -0.0659518721403316   -5.670032164666744e-05
0.2552425563160598   -0.0659518721403316   -5.670032164666744e-05
0.2552425563160598   -0.0659518721403316   -5.670032164666744e-05
1.2163261968739425   0.20002195231745856   0.0581086487140471
1.2163261968739425   0.20002195231745856   0.0581086487140471
1.2163261968739425   0.20002195231745856   0.0581086487140471
1.2163261968739425   0.20002195231745856   0.0581086487140471
0.2982714120093947   0.07456785300234868   0.07456785300234868
0.2982714120093947   0.07456785300234868   0.07456785300234868
0.2982714120093947   0.07456785300234868   0.07456785300234868
0.2982714120093947   0.07456785300234868   0.07456785300234868
2.1845208323797043   0.34526075316348914   0.12672815013381267
2.1845208323797043   0.34526075316348914   0.12672815013381267
2.1845208323797043   0.34526075316348914   0.12672815013381267
2.1845208323797043   0.34526075316348914   0.12672815013381267
2.3666658476607805   0.5916664619151951   0.5916664619151951
2.3666658476607805   0.5916664619151951   0.5916664619151951
2.3666658476607805   0.5916664619151951   0.5916664619151951
2.3666658476607805   0.5916664619151951   0.5916664619151951
0.32441620777836677   0.047172226874826244   0.03554450613622338
0.32441620777836677   0.047172226874826244   0.03554450613622338
0.32441620777836677   0.047172226874826244   0.03554450613622338
0.32441620777836677   0.047172226874826244   0.03554450613622338
1.2345211976587687   0.2711754671145413   -0.09467831307858834
1.2345211976587687   0.2711754671145413   -0.09467831307858834
1.2345211976587687   0.2711754671145413   -0.09467831307858834
1.2345211976587687   0.2711754671145413   -0.09467831307858834
2.3297152962605328   0.5824288240651332   0.5824288240651332
2.3297152962605328   0.5824288240651332   0.5824288240651332
2.3297152962605328   0.5824288240651332   0.5824288240651332
2.3297152962605328   0.5824288240651332   0.5824288240651332
4.828477360093151   0.3678337110372971   0.12531828015230567
4.828477360093151   0.3678337110372971   0.12531828015230567
4.828477360093151   0.3678337110372971   0.12531828015230567
4.828477360093151   0.3678337110372971   0.12531828015230567
4.934603792381312   1.233650948095328   1.233650948095328
4.934603792381312   1.233650948095328   1.233650948095328
4.934603792381312   1.233650948095328   1.233650948095328
4.934603792381312   1.233650948095328   1.233650948095328
2.073664236762361   -0.11811813194821902   -0.012279174667177373
2.073664236762361   -0.11811813194821902   -0.012279174667177373
2.073664236762361   -0.11811813194821902   -0.012279174667177373
2.073664236762361   -0.11811813194821902   -0.012279174667177373
3.444203640663053   0.4872338805149636   0.3890663733561499
3.444203640663053   0.4872338805149636   0.3890663733561499
3.444203640663053   0.4872338805149636   0.3890663733561499
3.444203640663053   0.4872338805149636   0.3890663733561499
2.333048553428265   0.5832621383570662   0.5832621383570662
2.333048553428265   0.5832621383570662   0.5832621383570662
2.333048553428265   0.5832621383570662   0.5832621383570662
2.333048553428265   0.5832621383570662   0.5832621383570662
4.572636547773139   0.4296877498477899   0.22777792330208055
4.572636547773139   0.4296877498477899   0.22777792330208055
4.572636547773139   0.4296877498477899   0.22777792330208055
4.572636547773139   0.4296877498477899   0.22777792330208055
4.786363461605925   1.1965908654014812   1.1965908654014812
4.786363461605925   1.1965908654014812   1.1965908654014812
4.786363461605925   1.1965908654014812   1.1965908654014812
4.786363461605925   1.1965908654014812   1.1965908654014812
2.0802585396246873   -0.06550920137621208   0.016186640898428972
2.0802585396246873   -0.06550920137621208   0.016186640898428972
2.0802585396246873   -0.06550920137621208   0.016186640898428972
2.0802585396246873   -0.06550920137621208   0.016186640898428972
3.3412728293378637   0.5010857901419417   0.18660132272045665
3.3412728293378637   0.5010857901419417   0.18660132272045665
3.3412728293378637   0.5010857901419417   0.18660132272045665
3.3412728293378637   0.5010857901419417   0.18660132272045665
2.3223589463558265   0.5805897365889566   0.5805897365889566
2.3223589463558265   0.5805897365889566   0.5805897365889566
2.3223589463558265   0.5805897365889566   0.5805897365889566
2.3223589463558265   0.5805897365889566   0.5805897365889566
4.424670631585969   0.4308995041475113   0.1538180765557519
4.424670631585969   0.4308995041475113   0.1538180765557519
4.424670631585969   0.4308995041475113   0.1538180765557519
4.424670631585969   0.4308995041475113   0.1538180765557519
4.566162818210775   1.1415407045526937   1.1415407045526937
4.566162818210775   1.1415407045526937   1.1415407045526937
4.566162818210775   1.1415407045526937   1.1415407045526937
4.566162818210775   1.1415407045526937   1.1415407045526937
2.1565332748948567   0.0671596433305211   0.06551041667024911
2.1565332748948567   0.0671596433305211   0.06551041667024911
2.1565332748948567   0.0671596433305211   0.06551041667024911
2.1565332748948567   0.0671596433305211   0.06551041667024911
3.1986886881948373   0.5430570801297445   -0.04878760943042865
3.1986886881948373   0.5430570801297445   -0.04878760943042865
3.1986886881948373   0.5430570801297445   -0.04878760943042865
3.1986886881948373   0.5430570801297445   -0.04878760943042865
-4.684509779460064   -0.3353420578972538   0.05197841302556913
-4.684509779460064   -0.3353420578972538   0.05197841302556913
-4.684509779460064   -0.3353420578972538   0.05197841302556913
-4.684509779460064   -0.3353420578972538   0.05197841302556913
-2.9810158015341828   -0.06805256116084923   -0.0190132114036958
-2.9810158015341828   -0.06805256116084923   -0.0190132114036958
-2.9810158015341828   -0.06805256116084923   -0.0190132114036958
-2.9810158015341828   -0.06805256116084923   -0.0190132114036958
-3.001827621941456   0.12103941955634234   0.06221521673195041
-3.001827621941456   0.12103941955634234   0.06221521673195041
-3.001827621941456   0.12103941955634234   0.06221521673195041
-3.001827621941456   0.12103941955634234   0.06221521673195041
-4.754565083735168   -0.3239408934677138   -0.055964763271414336
-4.754565083735168   -0.3239408934677138   -0.055964763271414336
-4.754565083735168   -0.3239408934677138   -0.055964763271414336
-4.754565083735168   -0.3239408934677138   -0.055964763271414336
-3.7036865732179023   -0.1262557793760848   -0.01429275518292808
-3.7036865732179023   -0.1262557793760848   -0.01429275518292808
-3.7036865732179023   -0.1262557793760848   -0.01429275518292808
-3.7036865732179023   -0.1262557793760848   -0.01429275518292808
-4.720347480988981   -0.23072593683432752   0.021908293826127134
-4.720347480988981   -0.23072593683432752   0.021908293826127134
-4.720347480988981   -0.23072593683432752   0.021908293826127134
-4.720347480988981   -0.23072593683432752   0.021908293826127134
-3.0410704700138833   0.02279921759672554   -0.035758821670516555
-3.0410704700138833   0.02279921759672554   -0.035758821670516555
-3.0410704700138833   0.02279921759672554   -0.035758821670516555
-3.0410704700138833   0.02279921759672554   -0.035758821670516555
-3.005808458771921   0.17245168148730516   0.07097154478720644
-3.005808458771921   0.17245168148730516   0.07097154478720644
-3.005808458771921   0.17245168148730516   0.07097154478720644
-3.005808458771921   0.17245168148730516   0.07097154478720644
-4.7839522895656525   -0.2854846546011255   -0.07391996371638057
-4.7839522895656525   -0.2854846546011255   -0.07391996371638057
-4.7839522895656525   -0.2854846546011255   -0.07391996371638057
-4.7839522895656525   -0.2854846546011255   -0.07391996371638057
-3.8081977461424312   -0.08468552246778627   -0.03592637997338999
-3.8081977461424312   -0.08468552246778627   -0.03592637997338999
-3.8081977461424312   -0.08468552246778627   -0.03592637997338999
-3.8081977461424312   -0.08468552246778627   -0.03592637997338999
-4.698451562079801   -0.1388762035911415   0.20697522270285237
-4.698451562079801   -0.1388762035911415   0.20697522270285237
-4.698451562079801   -0.1388762035911415   0.20697522270285237
-4.698451562079801   -0.1388762035911415   0.20697522270285237
-3.0555980494143746   0.06155436732071684   -0.06707909425844674
-3.0555980494143746   0.06155436732071684   -0.06707909425844674
-3.0555980494143746   0.06155436732071684   -0.06707909425844674
-3.0555980494143746   0.06155436732071684   -0.06707909425844674
-2.9515875463805195   0.3002819195237838   0.12930650152406217
-2.9515875463805195   0.3002819195237838   0.12930650152406217
-2.9515875463805195   0.3002819195237838   0.12930650152406217
-2.9515875463805195   0.3002819195237838   0.12930650152406217
-4.652586905791066   -0.23070137773872634   -0.1211064569537938
-4.652586905791066   -0.23070137773872634   -0.1211064569537938
-4.652586905791066   -0.23070137773872634   -0.1211064569537938
-4.652586905791066   -0.23070137773872634   -0.1211064569537938
-3.6631879574851456   0.033790041099893364   0.08105073678971406
-3.6631879574851456   0.033790041099893364   0.08105073678971406
-3.6631879574851456   0.033790041099893364   0.08105073678971406
-3.6631879574851456   0.033790041099893364   0.08105073678971406
-3.055287163950737   -0.4047816742217841   -0.05364091042553101
-3.055287163950737   -0.4047816742217841   -0.05364091042553101
-3.055287163950737   -0.4047816742217841   -0.05364091042553101
-3.055287163950737   -0.4047816742217841   -0.05364091042553101
-1.4066004879979042   -0.030795818310502487   0.015042900086169375
-1.4066004879979042   -0.030795818310502487   0.015042900086169375
-1.4066004879979042   -0.030795818310502487   0.015042900086169375
-1.4066004879979042   -0.030795818310502487   0.015042900086169375
-1.4276255984604247   0.0273217299163111   0.02110852263540991
-1.4276255984604247   0.0273217299163111   0.02110852263540991
-1.4276255984604247   0.0273217299163111   0.02110852263540991
-1.4276255984604247   0.0273217299163111   0.02110852263540991
-3.1160895293339936   -0.29636454661908906   -0.09169035405530596
-3.1160895293339936   -0.29636454661908906   -0.09169035405530596
-3.1160895293339936   -0.29636454661908906   -0.09169035405530596
-3.1160895293339936   -0.29636454661908906   -0.09169035405530596
-2.2513030166124053   -0.18256306133923011   -0.05141329332234161
-2.2513030166124053   -0.18256306133923011   -0.05141329332234161
-2.2513030166124053   -0.18256306133923011   -0.05141329332234161
-2.2513030166124053   -0.18256306133923011   -0.05141329332234161
-3.1132350420752797   -0.3239819635082575   -0.04980050087257781
-3.1132350420752797   -0.3239819635082575   -0.04980050087257781
-3.1132350420752797   -0.3239819635082575   -0.04980050087257781
-3.1132350420752797   -0.3239819635082575   -0.04980050087257781
-1.4249183639509804   0.060500868573640565   0.0014655565253135217
-1.4249183639509804   0.060500868573640565   0.0014655565253135217
-1.4249183639509804   0.060500868573640565   0.0014655565253135217
-1.4249183639509804   0.060500868573640565   0.0014655565253135217
-1.4226134874820553   0.09922001159126415   0.028812504525168203
-1.4226134874820553   0.09922001159126415   0.028812504525168203
-1.4226134874820553   0.09922001159126415   0.028812504525168203
-1.4226134874820553   0.09922001159126415   0.028812504525168203
-3.117798155350396   -0.2173842119672484   -0.09914104465061534
-3.117798155350396   -0.2173842119672484   -0.09914104465061534
-3.117798155350396   -0.2173842119672484   -0.09914104465061534
-3.117798155350396   -0.2173842119672484   -0.09914104465061534
-2.2473087010580963   -0.10168569245856418   -0.02442785725266304
-2.2473087010580963   -0.10168569245856418   -0.02442785725266304
-2.2473087010580963   -0.10168569245856418   -0.02442785725266304
-2.2473087010580963   -0.10168569245856418   -0.02442785725266304
-3.105673494730345   -0.24527906788912446   -0.010622885628484624
-3.105673494730345   -0.24527906788912446   -0.010622885628484624
-3.105673494730345   -0.24527906788912446   -0.010622885628484624
-3.105673494730345   -0.24527906788912446   -0.010622885628484624
-1.4244157245170823   0.137437291098171   -0.01841596015684817
-1.4244157245170823   0.137437291098171   -0.01841596015684817
-1.4244157245170823   0.137437291098171   -0.01841596015684817
-1.4244157245170823   0.137437291098171   -0.01841596015684817
-1.3991393825913025   0.1714806562051276   0.05807970495663535
-1.3991393825913025   0.1714806562051276   0.05807970495663535
-1.3991393825913025   0.1714806562051276   0.05807970495663535
-1.3991393825913025   0.1714806562051276   0.05807970495663535
-3.0848245800430716   -0.1261345611804986   -0.11046218608443004
-3.0848245800430716   -0.1261345611804986   -0.11046218608443004
-3.0848245800430716   -0.1261345611804986   -0.11046218608443004
-3.0848245800430716   -0.1261345611804986   -0.11046218608443004
-2.2383211350252505   -0.02515809640384553   0.011255537617901393
-2.2383211350252505   -0.02515809640384553   0.011255537617901393
-2.2383211350252505   -0.02515809640384553   0.011255537617901393
-2.2383211350252505   -0.02515809640384553   0.011255537617901393
-1.4834139171936127   -0.3369221475903313   -0.06289791661255616
-1.4834139171936127   -0.3369221475903313   -0.06289791661255616
-1.4834139171936127   -0.3369221475903313   -0.06289791661255616
-1.4834139171936127   -0.3369221475903313   -0.06289791661255616
0.15572104745895649   0.035417267558363   0.057791695052815485
0.15572104745895649   0.035417267558363   0.057791695052815485
0.15572104745895649   0.035417267558363   0.057791695052815485
0.15572104745895649   0.035417267558363   0.057791695052815485
0.14835350872540226   0.08523651678901095   0.0045656883805423945
0.14835350872540226   0.08523651678901095   0.0045656883805423945
0.14835350872540226   0.08523651678901095   0.0045656883805423945
0.14835350872540226   0.08523651678901095   0.0045656883805423945
-1.49000903353904   -0.22333939790116436   -0.04014752494019015
-1.49000903353904   -0.22333939790116436   -0.04014752494019015
-1.49000903353904   -0.22333939790116436   -0.04014752494019015
-1.49000903353904   -0.22333939790116436   -0.04014752494019015
-0.6737845007621529   -0.11157416108550977   -0.02121552943505256
-0.6737845007621529   -0.11157416108550977   -0.02121552943505256
-0.6737845007621529   -0.11157416108550977   -0.02121552943505256
-0.6737845007621529   -0.11157416108550977   -0.02121552943505256
-1.5003063107810912   -0.257002705498932   -0.057970603552679
-1.5003063107810912   -0.257002705498932   -0.057970603552679
-1.5003063107810912   -0.257002705498932   -0.057970603552679
-1.5003063107810912   -0.257002705498932   -0.057970603552679
0.16440071439739026   0.12464975281671531   0.045388480712778054
0.16440071439739026   0.12464975281671531   0.045388480712778054
0.16440071439739026   0.12464975281671531   0.045388480712778054
0.16440071439739026   0.12464975281671531   0.045388480712778054
0.15964927502282308   0.16441208740159743   0.026897435328091794
0.15964927502282308   0.16441208740159743   0.026897435328091794
0.15964927502282308   0.16441208740159743   0.026897435328091794
0.15964927502282308   0.16441208740159743   0.026897435328091794
-1.4855377559049556   -0.13652527534821676   -0.05006355064985301
-1.4855377559049556   -0.13652527534821676   -0.05006355064985301
-1.4855377559049556   -0.13652527534821676   -0.05006355064985301
-1.4855377559049556   -0.13652527534821676   -0.05006355064985301
-0.6635564578430287   -0.027409065950513498   0.008012969349657607
-0.6635564578430287   -0.027409065950513498   0.008012969349657607
-0.6635564578430287   -0.027409065950513498   0.008012969349657607
-0.6635564578430287   -0.027409065950513498   0.008012969349657607
-1.4894904909044673   -0.17672154420717043   -0.029630956788457195
-1.4894904909044673   -0.17672154420717043   -0.029630956788457195
-1.4894904909044673   -0.17672154420717043   -0.029630956788457195
-1.4894904909044673   -0.17672154420717043   -0.029630956788457195
0.1697856286213948   0.21079197485961107   0.031199315862935798
0.1697856286213948   0.21079197485961107   0.031199315862935798
0.1697856286213948   0.21079197485961107   0.031199315862935798
0.1697856286213948   0.21079197485961107   0.031199315862935798
0.16302371181906883   0.252523337455685   0.04433622906053554
0.16302371181906883   0.252523337455685   0.04433622906053554
0.16302371181906883   0.252523337455685   0.04433622906053554
0.16302371181906883   0.252523337455685   0.04433622906053554
-1.4663975745943474   -0.04369234205126582   -0.06303825680218858
-1.4663975745943474   -0.04369234205126582   -0.06303825680218858
-1.4663975745943474   -0.04369234205126582   -0.06303825680218858
-1.4663975745943474   -0.04369234205126582   -0.06303825680218858
-0.647241298709319   0.060609483127021885   0.0400102244702149
-0.647241298709319   0.060609483127021885   0.0400102244702149
-0.647241298709319   0.060609483127021885   0.0400102244702149
-0.647241298709319   0.060609483127021885   0.0400102244702149
0.07228916568228602   -0.24687996890524244   -0.07707047736693154
0.07228916568228602   -0.24687996890524244   -0.07707047736693154
0.07228916568228602   -0.24687996890524244   -0.07707047736693154
0.07228916568228602   -0.24687996890524244   -0.07707047736693154
1.770301856615474   0.12238888602143905   0.10595061490333609
1.770301856615474   0.12238888602143905   0.10595061490333609
1.770301856615474   0.12238888602143905   0.10595061490333609
1.770301856615474   0.12238888602143905   0.10595061490333609
1.767906512899106   0.16465593065428835   -0.016875906919326444
1.767906512899106   0.16465593065428835   -0.016875906919326444
1.767906512899106   0.16465593065428835   -0.016875906919326444
1.767906512899106   0.16465593065428835   -0.016875906919326444
0.1027691159412572   -0.1485313449906457   0.010411586239473886
0.1027691159412572   -0.1485313449906457   0.010411586239473886
0.1027691159412572   -0.1485313449906457   0.010411586239473886
0.1027691159412572   -0.1485313449906457   0.010411586239473886
0.9168978791715796   -0.021014133827175596   0.002048697970217589
0.9168978791715796   -0.021014133827175596   0.002048697970217589
0.9168978791715796   -0.021014133827175596   0.002048697970217589
0.9168978791715796   -0.021014133827175596   0.002048697970217589
0.08280756751875151   -0.18047848100888092   -0.05744901985481819
0.08280756751875151   -0.18047848100888092   -0.05744901985481819
0.08280756751875151   -0.18047848100888092   -0.05744901985481819
0.08280756751875151   -0.18047848100888092   -0.05744901985481819
1.7981824065953624   0.20691741194627228   0.09224208026995837
1.7981824065953624   0.20691741194627228   0.09224208026995837
1.7981824065953624   0.20691741194627228   0.09224208026995837
1.7981824065953624   0.20691741194627228   0.09224208026995837
1.7815310344540412   0.24294349956198183   0.018131680051939277
1.7815310344540412   0.24294349956198183   0.018131680051939277
1.7815310344540412   0.24294349956198183   0.018131680051939277
1.7815310344540412   0.24294349956198183   0.018131680051939277
0.1061168706190731   -0.07096188390236022   -0.005390615386700479
0.1061168706190731   -0.07096188390236022   -0.005390615386700479
0.1061168706190731   -0.07096188390236022   -0.005390615386700479
0.1061168706190731   -0.07096188390236022   -0.005390615386700479
0.9288205308783956   0.05383137596822396   0.037968151763407086
0.9288205308783956   0.05383137596822396   0.037968151763407086
0.9288205308783956   0.05383137596822396   0.037968151763407086
0.9288205308783956   0.05383137596822396   0.037968151763407086
0.09160757160386418   -0.10703943990955195   -0.041859554455552776
0.09160757160386418   -0.10703943990955195   -0.041859554455552776
0.09160757160386418   -0.10703943990955195   -0.041859554455552776
0.09160757160386418   -0.10703943990955195   -0.041859554455552776
1.8035009626438874   0.2864816847438063   0.08444313581931776
1.8035009626438874   0.2864816847438063   0.08444313581931776
1.8035009626438874   0.2864816847438063   0.08444313581931776
1.8035009626438874   0.2864816847438063   0.08444313581931776
1.7526708105979438   0.33330775545880165   0.03796754623652346
1.7526708105979438   0.33330775545880165   0.03796754623652346
1.7526708105979438   0.33330775545880165   0.03796754623652346
1.7526708105979438   0.33330775545880165   0.03796754623652346
0.10490409831868171   0.025164070153178213   -0.01890257113889339
0.10490409831868171   0.025164070153178213   -0.01890257113889339
0.10490409831868171   0.025164070153178213   -0.01890257113889339
0.10490409831868171   0.025164070153178213   -0.01890257113889339
0.942246743621128   0.13940884384723595   0.07119802040209285
0.942246743621128   0.13940884384723595   0.07119802040209285
0.942246743621128   0.13940884384723595   0.07119802040209285
0.942246743621128   0.13940884384723595   0.07119802040209285
1.6311727814111878   -0.32512669645740644   -0.14217917863924867
1.6311727814111878   -0.32512669645740644   -0.14217917863924867
1.6311727814111878   -0.32512669645740644   -0.14217917863924867
1.6311727814111878   -0.32512669645740644   -0.14217917863924867
3.3571254044871   0.22172454520700213   0.10288590837598283
3.3571254044871   0.22172454520700213   0.10288590837598283
3.3571254044871   0.22172454520700213   0.10288590837598283
3.3571254044871   0.22172454520700213   0.10288590837598283
3.394750793223063   0.1057877699911689   -0.2138362214309396
3.394750793223063   0.1057877699911689   -0.2138362214309396
3.394750793223063   0.1057877699911689   -0.2138362214309396
3.394750793223063   0.1057877699911689   -0.2138362214309396
1.7371907366211625   -0.06720789279580941   0.06140903514102333
1.7371907366211625   -0.06720789279580941   0.06140903514102333
1.7371907366211625   -0.06720789279580941   0.06140903514102333
1.7371907366211625   -0.06720789279580941   0.06140903514102333
2.4043456866194926   -0.04162903155785569   -0.059869934790960894
2.4043456866194926   -0.04162903155785569   -0.059869934790960894
2.4043456866194926   -0.04162903155785569   -0.059869934790960894
2.4043456866194926   -0.04162903155785569   -0.059869934790960894
1.6767343504138723   -0.21388702668560183   -0.09419376200561078
1.6767343504138723   -0.21388702668560183   -0.09419376200561078
1.6767343504138723   -0.21388702668560183   -0.09419376200561078
1.6767343504138723   -0.21388702668560183   -0.09419376200561078
3.4859585610133212   0.28321828546393535   0.06477210204758824
3.4859585610133212   0.28321828546393535   0.06477210204758824
3.4859585610133212   0.28321828546393535   0.06477210204758824
3.4859585610133212   0.28321828546393535   0.06477210204758824
3.4316307421874956   0.19193307645806568   -0.047974172492994155
3.4316307421874956   0.19193307645806568   -0.047974172492994155
3.4316307421874956   0.19193307645806568   -0.047974172492994155
3.4316307421874956   0.19193307645806568   -0.047974172492994155
1.7298997141688175   -0.028569567673016827   0.03148814586079156
1.7298997141688175   -0.028569567673016827   0.03148814586079156
1.7298997141688175   -0.028569567673016827   0.03148814586079156
1.7298997141688175   -0.028569567673016827   0.03148814586079156
2.5296271164649218   0.06315532704225346   0.041495709747498694
2.5296271164649218   0.06315532704225346   0.041495709747498694
2.5296271164649218   0.06315532704225346   0.041495709747498694
2.5296271164649218   0.06315532704225346   0.041495709747498694
1.6814548860192724   -0.16364031065747242   -0.07566525190246529
1.6814548860192724   -0.16364031065747242   -0.07566525190246529
1.6814548860192724   -0.16364031065747242   -0.07566525190246529
1.6814548860192724   -0.16364031065747242   -0.07566525190246529
3.4759649054604647   0.3228931545659482   0.04273656576396932
3.4759649054604647   0.3228931545659482   0.04273656576396932
3.4759649054604647   0.3228931545659482   0.04273656576396932
3.4759649054604647   0.3228931545659482   0.04273656576396932
3.4253028039455438   0.29308790400650225   -0.07361780900053659
3.4253028039455438   0.29308790400650225   -0.07361780900053659
3.4253028039455438   0.29308790400650225   -0.07361780900053659
3.4253028039455438   0.29308790400650225   -0.07361780900053659
1.6940147291782315   0.06062111868275749   0.017373775913976805
1.6940147291782315   0.06062111868275749   0.017373775913976805
1.6940147291782315   0.06062111868275749   0.017373775913976805
1.6940147291782315   0.06062111868275749   0.017373775913976805
2.4645366714783554   0.11047167976171429   0.03054169451624579
2.4645366714783554   0.11047167976171429   0.03054169451624579
2.4645366714783554   0.11047167976171429   0.03054169451624579
2.4645366714783554   0.11047167976171429   0.03054169451624579
-3.6867160119811118   -0.1676159531405289   0.18887003914483538
-3.6867160119811118   -0.1676159531405289   0.18887003914483538
-3.6867160119811118   -0.1676159531405289   0.18887003914483538
-3.6867160119811118   -0.1676159531405289   0.18887003914483538
-2.446988902273933   -0.09237333277850845   -0.049145166314485095
-2.446988902273933   -0.09237333277850845   -0.049145166314485095
-2.446988902273933   -0.09237333277850845   -0.049145166314485095
-2.446988902273933   -0.09237333277850845   -0.049145166314485095
-2.359259845541632   0.19802375544861772   0.15855324311670768
-2.359259845541632   0.19802375544861772   0.15855324311670768
-2.359259845541632   0.19802375544861772   0.15855324311670768
-2.359259845541632   0.19802375544861772   0.15855324311670768
-3.703872950585342   -0.2642209887263359   -0.07706318949136218
-3.703872950585342   -0.2642209887263359   -0.07706318949136218
-3.703872950585342   -0.2642209887263359   -0.07706318949136218
-3.703872950585342   -0.2642209887263359   -0.07706318949136218
-2.925299815037271   -0.04524315622351449   -0.004982899862210899
-2.925299815037271   -0.04524315622351449   -0.004982899862210899
-2.925299815037271   -0.04524315622351449   -0.004982899862210899
-2.925299815037271   -0.04524315622351449   -0.004982899862210899
-3.6012033218657313   -0.039718996136227314   0.21178296151658169
-3.6012033218657313   -0.039718996136227314   0.21178296151658169
-3.6012033218657313   -0.039718996136227314   0.21178296151658169
-3.6012033218657313   -0.039718996136227314   0.21178296151658169
-2.4457498260969985   -0.010298588977247003   -0.0655743152342603
-2.4457498260969985   -0.010298588977247003   -0.0655743152342603
-2.4457498260969985   -0.010298588977247003   -0.0655743152342603
-2.4457498260969985   -0.010298588977247003   -0.0655743152342603
-2.349807222171601   0.2455366130173745   0.14704130698206827
-2.349807222171601   0.2455366130173745   0.14704130698206827
-2.349807222171601   0.2455366130173745   0.14704130698206827
-2.349807222171601   0.2455366130173745   0.14704130698206827
-3.6469037176244496   -0.2211714055737426   -0.10557780146814422
-3.6469037176244496   -0.2211714055737426   -0.10557780146814422
-3.6469037176244496   -0.2211714055737426   -0.10557780146814422
-3.6469037176244496   -0.2211714055737426   -0.10557780146814422
-2.9318536957157684   0.010585452316467014   0.0339954124057239
-2.9318536957157684   0.010585452316467014   0.0339954124057239
-2.9318536957157684   0.010585452316467014   0.0339954124057239
-2.9318536957157684   0.010585452316467014   0.0339954124057239
-3.5512706969602346   0.005099029932559951   0.14631686634662885
-3.5512706969602346   0.005099029932559951   0.14631686634662885
-3.5512706969602346   0.005099029932559951   0.14631686634662885
-3.5512706969602346   0.005099029932559951   0.14631686634662885
-2.440105551822055   0.024600868524841224   -0.0835145967776505
-2.440105551822055   0.024600868524841224   -0.0835145967776505
-2.440105551822055   0.024600868524841224   -0.0835145967776505
-2.440105551822055   0.024600868524841224   -0.0835145967776505
-2.352234230876447   0.27692396649161966   0.11666758928331772
-2.352234230876447   0.27692396649161966   0.11666758928331772
-2.352234230876447   0.27692396649161966   0.11666758928331772
-2.352234230876447   0.27692396649161966   0.11666758928331772
-3.572848359826413   -0.1755300823912136   -0.13469153495514394
-3.572848359826413   -0.1755300823912136   -0.13469153495514394
-3.572848359826413   -0.1755300823912136   -0.13469153495514394
-3.572848359826413   -0.1755300823912136   -0.13469153495514394
-2.8478669667039913   0.06053129887176012   0.07038437134391215
-2.8478669667039913   0.06053129887176012   0.07038437134391215
-2.8478669667039913   0.06053129887176012   0.07038437134391215
-2.8478669667039913   0.06053129887176012   0.07038437134391215
-2.454562402615051   -0.23272831784240494   0.05334231704381935
-2.454562402615051   -0.23272831784240494   0.05334231704381935
-2.454562402615051   -0.23272831784240494   0.05334231704381935
-2.454562402615051   -0.23272831784240494   0.05334231704381935
-1.2382496473810978   -0.044439114085979975   0.0024374593327555413
-1.2382496473810978   -0.044439114085979975   0.0024374593327555413
-1.2382496473810978   -0.044439114085979975   0.0024374593327555413
-1.2382496473810978   -0.044439114085979975   0.0024374593327555413
-1.2033602073087277   0.12175980476483994   0.08620208083907316
-1.2033602073087277   0.12175980476483994   0.08620208083907316
-1.2033602073087277   0.12175980476483994   0.08620208083907316
-1.2033602073087277   0.12175980476483994   0.08620208083907316
-2.4936593975030044   -0.22951346869746025   -0.08590729254408971
-2.4936593975030044   -0.22951346869746025   -0.08590729254408971
-2.4936593975030044   -0.22951346869746025   -0.08590729254408971
-2.4936593975030044   -0.22951346869746025   -0.08590729254408971
-1.8408493627373055   -0.09032910860537136   -0.03710564334898564
-1.8408493627373055   -0.09032910860537136   -0.03710564334898564
-1.8408493627373055   -0.09032910860537136   -0.03710564334898564
-1.8408493627373055   -0.09032910860537136   -0.03710564334898564
-2.4470039228186393   -0.1338650267240833   0.05172163890436904
-2.4470039228186393   -0.1338650267240833   0.05172163890436904
-2.4470039228186393   -0.1338650267240833   0.05172163890436904
-2.4470039228186393   -0.1338650267240833   0.05172163890436904
-1.2405456169402231   0.035581427844336544   -0.013546590397886665
-1.2405456169402231   0.035581427844336544   -0.013546590397886665
-1.2405456169402231   0.035581427844336544   -0.013546590397886665
-1.2405456169402231   0.035581427844336544   -0.013546590397886665
-1.1996841938944256   0.2009887839775501   0.07460997361740636
-1.1996841938944256   0.2009887839775501   0.07460997361740636
-1.1996841938944256   0.2009887839775501   0.07460997361740636
-1.1996841938944256   0.2009887839775501   0.07460997361740636
-2.47971171810141   -0.15553131984159096   -0.10141323980801134
-2.47971171810141   -0.15553131984159096   -0.10141323980801134
-2.47971171810141   -0.15553131984159096   -0.10141323980801134
-2.47971171810141   -0.15553131984159096   -0.10141323980801134
-1.8209013971066228   -0.01011402030914349   -2.6915468428381772e-05
-1.8209013971066228   -0.01011402030914349   -2.6915468428381772e-05
-1.8209013971066228   -0.01011402030914349   -2.6915468428381772e-05
-1.8209013971066228   -0.01011402030914349   -2.6915468428381772e-05
-2.432099431803534   -0.05349406996649736   0.03461094180627701
-2.432099431803534   -0.05349406996649736   0.03461094180627701
-2.432099431803534   -0.05349406996649736   0.03461094180627701
-2.432099431803534   -0.05349406996649736   0.03461094180627701
-1.2395840580992563   0.10666395619550606   -0.030564519624680042
-1.2395840580992563   0.10666395619550606   -0.030564519624680042
-1.2395840580992563   0.10666395619550606   -0.030564519624680042
-1.2395840580992563   0.10666395619550606   -0.030564519624680042
-1.1994603763943192   0.284216923974745   0.055931036043019994
-1.1994603763943192   0.284216923974745   0.055931036043019994
-1.1994603763943192   0.284216923974745   0.055931036043019994
-1.1994603763943192   0.284216923974745   0.055931036043019994
-2.467930162432991   -0.07574034116915707   -0.10914776083863728
-2.467930162432991   -0.07574034116915707   -0.10914776083863728
-2.467930162432991   -0.07574034116915707   -0.10914776083863728
-2.467930162432991   -0.07574034116915707   -0.10914776083863728
-1.8222480318507075   0.06339409904958149   0.02828774122199111
-1.8222480318507075   0.06339409904958149   0.02828774122199111
-1.8222480318507075   0.06339409904958149   0.02828774122199111
-1.8222480318507075   0.06339409904958149   0.02828774122199111
-1.2844889959216519   -0.2656856330162716   -0.007512764439733985
-1.2844889959216519   -0.2656856330162716   -0.007512764439733985
-1.2844889959216519   -0.2656856330162716   -0.007512764439733985
-1.2844889959216519   -0.2656856330162716   -0.007512764439733985
-0.04080153270359277   0.013577409461864923   0.054867044720027826
-0.04080153270359277   0.013577409461864923   0.054867044720027826
-0.04080153270359277   0.013577409461864923   0.054867044720027826
-0.04080153270359277   0.013577409461864923   0.054867044720027826
-0.04562861873554368   0.07880609552918905   0.026199527408080653
-0.04562861873554368   0.07880609552918905   0.026199527408080653
-0.04562861873554368   0.07880609552918905   0.026199527408080653
-0.04562861873554368   0.07880609552918905   0.026199527408080653
-1.2854848119604414   -0.17044948907394866   -0.032211648580706916
-1.2854848119604414   -0.17044948907394866   -0.032211648580706916
-1.2854848119604414   -0.17044948907394866   -0.032211648580706916
-1.2854848119604414   -0.17044948907394866   -0.032211648580706916
-0.6661283881814271   -0.08316449452847484   -0.02072796878995743
-0.6661283881814271   -0.08316449452847484   -0.02072796878995743
-0.6661283881814271   -0.08316449452847484   -0.02072796878995743
-0.6661283881814271   -0.08316449452847484   -0.02072796878995743
-1.2841026023118272   -0.1777321871250006   -0.018017902286584075
-1.2841026023118272   -0.1777321871250006   -0.018017902286584075
-1.2841026023118272   -0.1777321871250006   -0.018017902286584075
-1.2841026023118272   -0.1777321871250006   -0.018017902286584075
-0.039948029703563766   0.09315159226083518   0.04025697583633478
-0.039948029703563766   0.09315159226083518   0.04025697583633478
-0.039948029703563766   0.09315159226083518   0.04025697583633478
-0.039948029703563766   0.09315159226083518   0.04025697583633478
-0.039906442354856346   0.1651386638037196   0.012624831559729599
-0.039906442354856346   0.1651386638037196   0.012624831559729599
-0.039906442354856346   0.1651386638037196   0.012624831559729599
-0.039906442354856346   0.1651386638037196   0.012624831559729599
-1.282389965751341   -0.09074862996719413   -0.047181471722416365
-1.282389965751341   -0.09074862996719413   -0.047181471722416365
-1.282389965751341   -0.09074862996719413   -0.047181471722416365
-1.282389965751341   -0.09074862996719413   -0.047181471722416365
-0.6597878431128398   -0.003314243830350172   0.009223227988454624
-0.6597878431128398   -0.003314243830350172   0.009223227988454624
-0.6597878431128398   -0.003314243830350172   0.009223227988454624
-0.6597878431128398   -0.003314243830350172   0.009223227988454624
-1.2804558525455547   -0.09262340973208491   -0.0356361259285946
-1.2804558525455547   -0.09262340973208491   -0.0356361259285946
-1.2804558525455547   -0.09262340973208491   -0.0356361259285946
-1.2804558525455547   -0.09262340973208491   -0.0356361259285946
-0.03600739175263372   0.1728466073766193   0.02441214099794372
-0.03600739175263372   0.1728466073766193   0.02441214099794372
-0.03600739175263372   0.1728466073766193   0.02441214099794372
-0.03600739175263372   0.1728466073766193   0.02441214099794372
-0.038797480018741864   0.254062695892594   -0.0018631616584949412
-0.038797480018741864   0.254062695892594   -0.0018631616584949412
-0.038797480018741864   0.254062695892594   -0.0018631616584949412
-0.038797480018741864   0.254062695892594   -0.0018631616584949412
-1.2818850642494521   -0.009681639303405098   -0.06229383995450144
-1.2818850642494521   -0.009681639303405098   -0.06229383995450144
-1.2818850642494521   -0.009681639303405098   -0.06229383995450144
-1.2818850642494521   -0.009681639303405098   -0.06229383995450144
-0.6548943409764539   0.07661095337989099   0.03668666271219619
-0.6548943409764539   0.07661095337989099   0.03668666271219619
-0.6548943409764539   0.07661095337989099   0.03668666271219619
-0.6548943409764539   0.07661095337989099   0.03668666271219619
-0.12534979733134827   -0.290659117949972   -0.06363775100691248
-0.12534979733134827   -0.290659117949972   -0.06363775100691248
-0.12534979733134827   -0.290659117949972   -0.06363775100691248
-0.12534979733134827   -0.290659117949972   -0.06363775100691248
1.1523954203830489   0.08153760638123497   0.10428617700976936
1.1523954203830489   0.08153760638123497   0.10428617700976936
1.1523954203830489   0.08153760638123497   0.10428617700976936
1.1523954203830489   0.08153760638123497   0.10428617700976936
1.114745837443143   0.043597925869534426   -0.04091878096151105
1.114745837443143   0.043597925869534426   -0.04091878096151105
1.114745837443143   0.043597925869534426   -0.04091878096151105
1.114745837443143   0.043597925869534426   -0.04091878096151105
-0.0835007920809705   -0.1066391289517018   0.02228388516183816
-0.0835007920809705   -0.1066391289517018   0.02228388516183816
-0.0835007920809705   -0.1066391289517018   0.02228388516183816
-0.0835007920809705   -0.1066391289517018   0.02228388516183816
0.5073027976297484   -0.06701991756081849   -0.011652328004183629
0.5073027976297484   -0.06701991756081849   -0.011652328004183629
0.5073027976297484   -0.06701991756081849   -0.011652328004183629
0.5073027976297484   -0.06701991756081849   -0.011652328004183629
-0.12503001984689632   -0.21214480493339144   -0.07985657768610138
-0.12503001984689632   -0.21214480493339144   -0.07985657768610138
-0.12503001984689632   -0.21214480493339144   -0.07985657768610138
-0.12503001984689632   -0.21214480493339144   -0.07985657768610138
1.1643066085330416   0.15713514517519184   0.09334785518232519
1.1643066085330416   0.15713514517519184   0.09334785518232519
1.1643066085330416   0.15713514517519184   0.09334785518232519
1.1643066085330416   0.15713514517519184   0.09334785518232519
1.1325168240770336   0.12389721473122878   -0.057495075676716106
1.1325168240770336   0.12389721473122878   -0.057495075676716106
1.1325168240770336   0.12389721473122878   -0.057495075676716106
1.1325168240770336   0.12389721473122878   -0.057495075676716106
-0.08124245388997857   -0.035236945715870376   0.006320383403709945
-0.08124245388997857   -0.035236945715870376   0.006320383403709945
-0.08124245388997857   -0.035236945715870376   0.006320383403709945
-0.08124245388997857   -0.035236945715870376   0.006320383403709945
0.5115483889152865   0.005174441985434139   0.0180924401453284
0.5115483889152865   0.005174441985434139   0.0180924401453284
0.5115483889152865   0.005174441985434139   0.0180924401453284
0.5115483889152865   0.005174441985434139   0.0180924401453284
-0.12162775152563457   -0.1346677461267083   -0.09617530436373319
-0.12162775152563457   -0.1346677461267083   -0.09617530436373319
-0.12162775152563457   -0.1346677461267083   -0.09617530436373319
-0.12162775152563457   -0.1346677461267083   -0.09617530436373319
1.1816532624559548   0.2320791558853369   0.08000517506378224
1.1816532624559548   0.2320791558853369   0.08000517506378224
1.1816532624559548   0.2320791558853369   0.08000517506378224
1.1816532624559548   0.2320791558853369   0.08000517506378224
1.1433974785200105   0.22465466753164487   -0.0599429644478891
1.1433974785200105   0.22465466753164487   -0.0599429644478891
1.1433974785200105   0.22465466753164487   -0.0599429644478891
1.1433974785200105   0.22465466753164487   -0.0599429644478891
-0.08150416976327463   0.04826885132578714   -0.009602765814350895
-0.08150416976327463   0.04826885132578714   -0.009602765814350895
-0.08150416976327463   0.04826885132578714   -0.009602765814350895
-0.08150416976327463   0.04826885132578714   -0.009602765814350895
0.5289782247629274   0.08574849927593498   0.053445272110830055
0.5289782247629274   0.08574849927593498   0.053445272110830055
0.5289782247629274   0.08574849927593498   0.053445272110830055
0.5289782247629274   0.08574849927593498   0.053445272110830055
1.032793723286035   -0.28846326093934616   -0.12372144115470876
1.032793723286035   -0.28846326093934616   -0.12372144115470876
1.032793723286035   -0.28846326093934616   -0.12372144115470876
1.032793723286035   -0.28846326093934616   -0.12372144115470876
2.2685277403955153   0.1685126113437297   0.11568855128309778
2.2685277403955153   0.1685126113437297   0.11568855128309778
2.2685277403955153   0.1685126113437297   0.11568855128309778
2.2685277403955153   0.1685126113437297   0.11568855128309778
2.2507836087475668   -0.009704788918122431   -0.16466831759694642
2.2507836087475668   -0.009704788918122431   -0.16466831759694642
2.2507836087475668   -0.009704788918122431   -0.16466831759694642
2.2507836087475668   -0.009704788918122431   -0.16466831759694642
1.124824639531652   -0.02449278684388967   0.07756594219446501
1.124824639531652   -0.02449278684388967   0.07756594219446501
1.124824639531652   -0.02449278684388967   0.07756594219446501
1.124824639531652   -0.02449278684388967   0.07756594219446501
1.5882207548074079   -0.05603277711499932   -0.051928527876252795
1.5882207548074079   -0.05603277711499932   -0.051928527876252795
1.5882207548074079   -0.05603277711499932   -0.051928527876252795
1.5882207548074079   -0.05603277711499932   -0.051928527876252795
1.0336484175720904   -0.25063312876939436   -0.1521748256778294
1.0336484175720904   -0.25063312876939436   -0.1521748256778294
1.0336484175720904   -0.25063312876939436   -0.1521748256778294
1.0336484175720904   -0.25063312876939436   -0.1521748256778294
2.3485167630653327   0.22299248536558797   0.09130017970817193
2.3485167630653327   0.22299248536558797   0.09130017970817193
2.3485167630653327   0.22299248536558797   0.09130017970817193
2.3485167630653327   0.22299248536558797   0.09130017970817193
2.305469826374017   0.03609683875130515   -0.22074993422279787
2.305469826374017   0.03609683875130515   -0.22074993422279787
2.305469826374017   0.03609683875130515   -0.22074993422279787
2.305469826374017   0.03609683875130515   -0.22074993422279787
1.1328683682580853   0.010438901556248936   0.05772095840354538
1.1328683682580853   0.010438901556248936   0.05772095840354538
1.1328683682580853   0.010438901556248936   0.05772095840354538
1.1328683682580853   0.010438901556248936   0.05772095840354538
1.6596628463896037   -0.00656180617810298   -0.0159434371276633
1.6596628463896037   -0.00656180617810298   -0.0159434371276633
1.6596628463896037   -0.00656180617810298   -0.0159434371276633
1.6596628463896037   -0.00656180617810298   -0.0159434371276633
1.0451514032576001   -0.20491821002995678   -0.16550675501269074
1.0451514032576001   -0.20491821002995678   -0.16550675501269074
1.0451514032576001   -0.20491821002995678   -0.16550675501269074
1.0451514032576001   -0.20491821002995678   -0.16550675501269074
2.4076626553094487   0.2659298142724626   0.0603812349332193
2.4076626553094487   0.2659298142724626   0.0603812349332193
2.4076626553094487   0.2659298142724626   0.0603812349332193
2.4076626553094487   0.2659298142724626   0.0603812349332193
2.3923313115058713   0.15530825330985687   -0.2075071332781661
2.3923313115058713   0.15530825330985687   -0.2075071332781661
2.3923313115058713   0.15530825330985687   -0.2075071332781661
2.3923313115058713   0.15530825330985687   -0.2075071332781661
1.1364293962924894   0.08777226774345404   0.04209902420271258
1.1364293962924894   0.08777226774345404   0.04209902420271258
1.1364293962924894   0.08777226774345404   0.04209902420271258
1.1364293962924894   0.08777226774345404   0.04209902420271258
1.6714867627675571   0.05007636498064766   0.023805535462578617
1.6714867627675571   0.05007636498064766   0.023805535462578617
1.6714867627675571   0.05007636498064766   0.023805535462578617
1.6714867627675571   0.05007636498064766   0.023805535462578617
-2.6391773891976915   -0.08670622166049602   0.17137887619933598
-2.6391773891976915   -0.08670622166049602   0.17137887619933598
-2.6391773891976915   -0.08670622166049602   0.17137887619933598
-2.6391773891976915   -0.08670622166049602   0.17137887619933598
-1.8446181547373028   -0.12272228611634067   -0.0648453107913924
-1.8446181547373028   -0.12272228611634067   -0.0648453107913924
-1.8446181547373028   -0.12272228611634067   -0.0648453107913924
-1.8446181547373028   -0.12272228611634067   -0.0648453107913924
-1.7365350376865467   0.17389925664941075   0.14620012448857597
-1.7365350376865467   0.17389925664941075   0.14620012448857597
-1.7365350376865467   0.17389925664941075   0.14620012448857597
-1.7365350376865467   0.17389925664941075   0.14620012448857597
-2.6394051109397654   -0.21714487890765277   -0.09482838803161672
-2.6394051109397654   -0.21714487890765277   -0.09482838803161672
-2.6394051109397654   -0.21714487890765277   -0.09482838803161672
-2.6394051109397654   -0.21714487890765277   -0.09482838803161672
-2.1240872415156513   -0.03396486572624041   -0.004284531195244079
-2.1240872415156513   -0.03396486572624041   -0.004284531195244079
-2.1240872415156513   -0.03396486572624041   -0.004284531195244079
-2.1240872415156513   -0.03396486572624041   -0.004284531195244079
-2.541121768818652   0.016358811882111746   0.16308463178418617
-2.541121768818652   0.016358811882111746   0.16308463178418617
-2.541121768818652   0.016358811882111746   0.16308463178418617
-2.541121768818652   0.016358811882111746   0.16308463178418617
-1.8268313989859237   -0.05161745331860995   -0.07976497204027487
-1.8268313989859237   -0.05161745331860995   -0.07976497204027487
-1.8268313989859237   -0.05161745331860995   -0.07976497204027487
-1.8268313989859237   -0.05161745331860995   -0.07976497204027487
-1.7201988092502354   0.21000443498003907   0.12359649292654956
-1.7201988092502354   0.21000443498003907   0.12359649292654956
-1.7201988092502354   0.21000443498003907   0.12359649292654956
-1.7201988092502354   0.21000443498003907   0.12359649292654956
-2.5771901941803383   -0.17690965524607472   -0.11994040710704637
-2.5771901941803383   -0.17690965524607472   -0.11994040710704637
-2.5771901941803383   -0.17690965524607472   -0.11994040710704637
-2.5771901941803383   -0.17690965524607472   -0.11994040710704637
-2.1094226773677573   0.01368238623774165   0.02255439750625962
-2.1094226773677573   0.01368238623774165   0.02255439750625962
-2.1094226773677573   0.01368238623774165   0.02255439750625962
-2.1094226773677573   0.01368238623774165   0.02255439750625962
-2.479714354196028   0.05957321243271396   0.13095592513571708
-2.479714354196028   0.05957321243271396   0.13095592513571708
-2.479714354196028   0.05957321243271396   0.13095592513571708
-2.479714354196028   0.05957321243271396   0.13095592513571708
-1.8104455078968034   -0.019249291361009724   -0.09838327396522607
-1.8104455078968034   -0.019249291361009724   -0.09838327396522607
-1.8104455078968034   -0.019249291361009724   -0.09838327396522607
-1.8104455078968034   -0.019249291361009724   -0.09838327396522607
-1.711144866663499   0.24502124639814227   0.10636161582872097
-1.711144866663499   0.24502124639814227   0.10636161582872097
-1.711144866663499   0.24502124639814227   0.10636161582872097
-1.711144866663499   0.24502124639814227   0.10636161582872097
-2.4937889607964654   -0.12377894072396273   -0.14364034396880698
-2.4937889607964654   -0.12377894072396273   -0.14364034396880698
-2.4937889607964654   -0.12377894072396273   -0.14364034396880698
-2.4937889607964654   -0.12377894072396273   -0.14364034396880698
-2.030397169829146   0.058263436783684064   0.060288163531115574
-2.030397169829146   0.058263436783684064   0.060288163531115574
-2.030397169829146   0.058263436783684064   0.060288163531115574
-2.030397169829146   0.058263436783684064   0.060288163531115574
-1.8241577603342556   -0.14930112793472108   0.06403550304220781
-1.8241577603342556   -0.14930112793472108   0.06403550304220781
-1.8241577603342556   -0.14930112793472108   0.06403550304220781
-1.8241577603342556   -0.14930112793472108   0.06403550304220781
-1.0560023076865948   -0.07953412360790993   -0.010458450459183997
-1.0560023076865948   -0.07953412360790993   -0.010458450459183997
-1.0560023076865948   -0.07953412360790993   -0.010458450459183997
-1.0560023076865948   -0.07953412360790993   -0.010458450459183997
-1.0023893460411808   0.10168902977844724   0.0788351483736244
-1.0023893460411808   0.10168902977844724   0.0788351483736244
-1.0023893460411808   0.10168902977844724   0.0788351483736244
-1.0023893460411808   0.10168902977844724   0.0788351483736244
-1.851502676516733   -0.1775508792407792   -0.07718793377216615
-1.851502676516733   -0.1775508792407792   -0.07718793377216615
-1.851502676516733   -0.1775508792407792   -0.07718793377216615
-1.851502676516733   -0.1775508792407792   -0.07718793377216615
-1.427692940019867   -0.069737949299355   -0.0289790507123011
-1.427692940019867   -0.069737949299355   -0.0289790507123011
-1.427692940019867   -0.069737949299355   -0.0289790507123011
-1.427692940019867   -0.069737949299355   -0.0289790507123011
-1.802829005156671   -0.06370001913492168   0.052329562922270284
-1.802829005156671   -0.06370001913492168   0.052329562922270284
-1.802829005156671   -0.06370001913492168   0.052329562922270284
-1.802829005156671   -0.06370001913492168   0.052329562922270284
-1.0448225530792348   -0.0059213660054101   -0.025720491032788305
-1.0448225530792348   -0.0059213660054101   -0.025720491032788305
-1.0448225530792348   -0.0059213660054101   -0.025720491032788305
-1.0448225530792348   -0.0059213660054101   -0.025720491032788305
-0.9896330873310659   0.17569893777614132   0.06465941751030571
-0.9896330873310659   0.17569893777614132   0.06465941751030571
-0.9896330873310659   0.17569893777614132   0.06465941751030571
-0.9896330873310659   0.17569893777614132   0.06465941751030571
-1.8266350207733677   -0.10764826997919136   -0.0909318597298815
-1.8266350207733677   -0.10764826997919136   -0.0909318597298815
-1.8266350207733677   -0.10764826997919136   -0.0909318597298815
-1.8266350207733677   -0.10764826997919136   -0.0909318597298815
-1.4002906305320062   0.0030764704370855878   0.002297130912170625
-1.4002906305320062   0.0030764704370855878   0.002297130912170625
-1.4002906305320062   0.0030764704370855878   0.002297130912170625
-1.4002906305320062   0.0030764704370855878   0.002297130912170625
-1.7742766576955908   0.015400564447614618   0.04781112123219708
-1.7742766576955908   0.015400564447614618   0.04781112123219708
-1.7742766576955908   0.015400564447614618   0.04781112123219708
-1.7742766576955908   0.015400564447614618   0.04781112123219708
-1.0342416486489496   0.060399905109234125   -0.043084356412202554
-1.0342416486489496   0.060399905109234125   -0.043084356412202554
-1.0342416486489496   0.060399905109234125   -0.043084356412202554
-1.0342416486489496   0.060399905109234125   -0.043084356412202554
-0.9773102938454556   0.25450486782653464   0.05145841555228581
-0.9773102938454556   0.25450486782653464   0.05145841555228581
-0.9773102938454556   0.25450486782653464   0.05145841555228581
-0.9773102938454556   0.25450486782653464   0.05145841555228581
-1.808000289933554   -0.0323749016858591   -0.1005193524375461
-1.808000289933554   -0.0323749016858591   -0.1005193524375461
-1.808000289933554   -0.0323749016858591   -0.1005193524375461
-1.808000289933554   -0.0323749016858591   -0.1005193524375461
-1.3897026396715566   0.0715194731437287   0.03205297279339436
-1.3897026396715566   0.0715194731437287   0.03205297279339436
-1.3897026396715566   0.0715194731437287   0.03205297279339436
-1.3897026396715566   0.0715194731437287   0.03205297279339436
-1.078409903557762   -0.2044364869479631   0.002405933525026082
-1.078409903557762   -0.2044364869479631   0.002405933525026082
-1.078409903557762   -0.2044364869479631   0.002405933525026082
-1.078409903557762   -0.2044364869479631   0.002405933525026082
-0.2756939481534793   -0.023454463995759654   0.04400818352226106
-0.2756939481534793   -0.023454463995759654   0.04400818352226106
-0.2756939481534793   -0.023454463995759654   0.04400818352226106
-0.2756939481534793   -0.023454463995759654   0.04400818352226106
-0.2688468302126198   0.042321810059298866   0.015006865337709209
-0.2688468302126198   0.042321810059298866   0.015006865337709209
-0.2688468302126198   0.042321810059298866   0.015006865337709209
-0.2688468302126198   0.042321810059298866   0.015006865337709209
-1.0665727877489837   -0.11977275719739412   -0.020620273189557104
-1.0665727877489837   -0.11977275719739412   -0.020620273189557104
-1.0665727877489837   -0.11977275719739412   -0.020620273189557104
-1.0665727877489837   -0.11977275719739412   -0.020620273189557104
-0.6735186627200406   -0.07308603620293264   -0.020574424319281102
-0.6735186627200406   -0.07308603620293264   -0.020574424319281102
-0.6735186627200406   -0.07308603620293264   -0.020574424319281102
-0.6735186627200406   -0.07308603620293264   -0.020574424319281102
-1.0648446322863339   -0.12185797836477189   -0.009894274708930513
-1.0648446322863339   -0.12185797836477189   -0.009894274708930513
-1.0648446322863339   -0.12185797836477189   -0.009894274708930513
-1.0648446322863339   -0.12185797836477189   -0.009894274708930513
-0.26431914519643834   0.05066287170550783   0.029304228772407414
-0.26431914519643834   0.05066287170550783   0.029304228772407414
-0.26431914519643834   0.05066287170550783   0.029304228772407414
-0.26431914519643834   0.05066287170550783   0.029304228772407414
-0.2534478722687786   0.12527231338336084   0.003981151547796193
-0.2534478722687786   0.12527231338336084   0.003981151547796193
-0.2534478722687786   0.12527231338336084   0.003981151547796193
-0.2534478722687786   0.12527231338336084   0.003981151547796193
-1.0538065094542195   -0.04514645518551458   -0.03536230014380617
-1.0538065094542195   -0.04514645518551458   -0.03536230014380617
-1.0538065094542195   -0.04514645518551458   -0.03536230014380617
-1.0538065094542195   -0.04514645518551458   -0.03536230014380617
-0.6570739944067856   0.001486369764992168   0.008889503398850598
-0.6570739944067856   0.001486369764992168   0.008889503398850598
-0.6570739944067856   0.001486369764992168   0.008889503398850598
-0.6570739944067856   0.001486369764992168   0.008889503398850598
-1.0498982986860539   -0.039172952089460034   -0.021794749399032767
-1.0498982986860539   -0.039172952089460034   -0.021794749399032767
-1.0498982986860539   -0.039172952089460034   -0.021794749399032767
-1.0498982986860539   -0.039172952089460034   -0.021794749399032767
-0.25158040259573833   0.1250744907285074   0.013516322567853047
-0.25158040259573833   0.1250744907285074   0.013516322567853047
-0.25158040259573833   0.1250744907285074   0.013516322567853047
-0.25158040259573833   0.1250744907285074   0.013516322567853047
-0.23964329105043397   0.20942563672908032   -0.00899923299112336
-0.23964329105043397   0.20942563672908032   -0.00899923299112336
-0.23964329105043397   0.20942563672908032   -0.00899923299112336
-0.23964329105043397   0.20942563672908032   -0.00899923299112336
-1.0425853742881825   0.030350803105900548   -0.05076292194071738
-1.0425853742881825   0.030350803105900548   -0.05076292194071738
-1.0425853742881825   0.030350803105900548   -0.05076292194071738
-1.0425853742881825   0.030350803105900548   -0.05076292194071738
-0.6420578757567662   0.0764156792690858   0.03727481382384726
-0.6420578757567662   0.0764156792690858   0.03727481382384726
-0.6420578757567662   0.0764156792690858   0.03727481382384726
-0.6420578757567662   0.0764156792690858   0.03727481382384726
-0.34130711443446465   -0.24963546529992253   -0.05787664657850482
-0.34130711443446465   -0.24963546529992253   -0.05787664657850482
-0.34130711443446465   -0.24963546529992253   -0.05787664657850482
-0.34130711443446465   -0.24963546529992253   -0.05787664657850482
0.494674122009321   0.039467276642279794   0.09545568531962738
0.494674122009321   0.039467276642279794   0.09545568531962738
0.494674122009321   0.039467276642279794   0.09545568531962738
0.494674122009321   0.039467276642279794   0.09545568531962738
0.46064506287220336   -0.012855227236629019   -0.05294246121597178
0.46064506287220336   -0.012855227236629019   -0.05294246121597178
0.46064506287220336   -0.012855227236629019   -0.05294246121597178
0.46064506287220336   -0.012855227236629019   -0.05294246121597178
-0.2848842709668973   -0.05809961677758989   0.03524108840321066
-0.2848842709668973   -0.05809961677758989   0.03524108840321066
-0.2848842709668973   -0.05809961677758989   0.03524108840321066
-0.2848842709668973   -0.05809961677758989   0.03524108840321066
0.07914378435616537   -0.06833559252911704   -0.014629189709043516
0.07914378435616537   -0.06833559252911704   -0.014629189709043516
0.07914378435616537   -0.06833559252911704   -0.014629189709043516
0.07914378435616537   -0.06833559252911704   -0.014629189709043516
-0.32945270705863344   -0.17452202562184504   -0.0711786832112152
-0.32945270705863344   -0.17452202562184504   -0.0711786832112152
-0.32945270705863344   -0.17452202562184504   -0.0711786832112152
-0.32945270705863344   -0.17452202562184504   -0.0711786832112152
0.5126603111625134   0.1110139938061981   0.08326455919273992
0.5126603111625134   0.1110139938061981   0.08326455919273992
0.5126603111625134   0.1110139938061981   0.08326455919273992
0.5126603111625134   0.1110139938061981   0.08326455919273992
0.48926249144931555   0.06560663251807791   -0.05996667076584279
0.48926249144931555   0.06560663251807791   -0.05996667076584279
0.48926249144931555   0.06560663251807791   -0.05996667076584279
0.48926249144931555   0.06560663251807791   -0.05996667076584279
-0.2737687534661672   0.008639438472380079   0.0190096204718361
-0.2737687534661672   0.008639438472380079   0.0190096204718361
-0.2737687534661672   0.008639438472380079   0.0190096204718361
-0.2737687534661672   0.008639438472380079   0.0190096204718361
0.09434469106793343   -0.0007597051122559782   0.015330431074111035
0.09434469106793343   -0.0007597051122559782   0.015330431074111035
0.09434469106793343   -0.0007597051122559782   0.015330431074111035
0.09434469106793343   -0.0007597051122559782   0.015330431074111035
-0.31677847076819743   -0.10090677607120281   -0.08649275149473344
-0.31677847076819743   -0.10090677607120281   -0.08649275149473344
-0.31677847076819743   -0.10090677607120281   -0.08649275149473344
-0.31677847076819743   -0.10090677607120281   -0.08649275149473344
0.5387290884622868   0.18160972677260537   0.0713632200444779
0.5387290884622868   0.18160972677260537   0.0713632200444779
0.5387290884622868   0.18160972677260537   0.0713632200444779
0.5387290884622868   0.18160972677260537   0.0713632200444779
0.5122934423498656   0.15509625300456747   -0.06926336953358952
0.5122934423498656   0.15509625300456747   -0.06926336953358952
0.5122934423498656   0.15509625300456747   -0.06926336953358952
0.5122934423498656   0.15509625300456747   -0.06926336953358952
-0.26188559063223005   0.0856454325117673   0.003569473317206681
-0.26188559063223005   0.0856454325117673   0.003569473317206681
-0.26188559063223005   0.0856454325117673   0.003569473317206681
-0.26188559063223005   0.0856454325117673   0.003569473317206681
0.11789775305642804   0.07283568115007813   0.04638250420396302
0.11789775305642804   0.07283568115007813   0.04638250420396302
0.11789775305642804   0.07283568115007813   0.04638250420396302
0.11789775305642804   0.07283568115007813   0.04638250420396302
0.3944241786479637   -0.25225930185948453   -0.11406745298539081
0.3944241786479637   -0.25225930185948453   -0.11406745298539081
0.3944241786479637   -0.25225930185948453   -0.11406745298539081
0.3944241786479637   -0.25225930185948453   -0.11406745298539081
1.1807032007973517   0.11616803146905108   0.12336804190439492
1.1807032007973517   0.11616803146905108   0.12336804190439492
1.1807032007973517   0.11616803146905108   0.12336804190439492
1.1807032007973517   0.11616803146905108   0.12336804190439492
1.1690946890774856   -0.061179251691111186   -0.15013643158747636
1.1690946890774856   -0.061179251691111186   -0.15013643158747636
1.1690946890774856   -0.061179251691111186   -0.15013643158747636
1.1690946890774856   -0.061179251691111186   -0.15013643158747636
0.4963359043266935   0.0206349436376667   0.09202157518217925
0.4963359043266935   0.0206349436376667   0.09202157518217925
0.4963359043266935   0.0206349436376667   0.09202157518217925
0.4963359043266935   0.0206349436376667   0.09202157518217925
0.7679370066863522   -0.05192368515180382   -0.04033095799086
0.7679370066863522   -0.05192368515180382   -0.04033095799086
0.7679370066863522   -0.05192368515180382   -0.04033095799086
0.7679370066863522   -0.05192368515180382   -0.04033095799086
0.4053630565284619   -0.2102831965980692   -0.13192452357324297
0.4053630565284619   -0.2102831965980692   -0.13192452357324297
0.4053630565284619   -0.2102831965980692   -0.13192452357324297
0.4053630565284619   -0.2102831965980692   -0.13192452357324297
1.2676602545466673   0.17733160621557725   0.10418053785175835
1.2676602545466673   0.17733160621557725   0.10418053785175835
1.2676602545466673   0.17733160621557725   0.10418053785175835
1.2676602545466673   0.17733160621557725   0.10418053785175835
1.2323402745799066   -0.01720586653385006   -0.17997478836880165
1.2323402745799066   -0.01720586653385006   -0.17997478836880165
1.2323402745799066   -0.01720586653385006   -0.17997478836880165
1.2323402745799066   -0.01720586653385006   -0.17997478836880165
0.5130437969538536   0.05284002640429096   0.07170646287062654
0.5130437969538536   0.05284002640429096   0.07170646287062654
0.5130437969538536   0.05284002640429096   0.07170646287062654
0.5130437969538536   0.05284002640429096   0.07170646287062654
0.8319828253755737   -0.007625943730904694   -0.004995354161119903
0.8319828253755737   -0.007625943730904694   -0.004995354161119903
0.8319828253755737   -0.007625943730904694   -0.004995354161119903
0.8319828253755737   -0.007625943730904694   -0.004995354161119903
0.4228104788930353   -0.1737007401694144   -0.15291936085975194
0.4228104788930353   -0.1737007401694144   -0.15291936085975194
0.4228104788930353   -0.1737007401694144   -0.15291936085975194
0.4228104788930353   -0.1737007401694144   -0.15291936085975194
1.3304776800057567   0.21723898740488606   0.07626738482172955
1.3304776800057567   0.21723898740488606   0.07626738482172955
1.3304776800057567   0.21723898740488606   0.07626738482172955
1.3304776800057567   0.21723898740488606   0.07626738482172955
1.329365018173479   0.07942368355147483   -0.19257951863817288
1.329365018173479   0.07942368355147483   -0.19257951863817288
1.329365018173479   0.07942368355147483   -0.19257951863817288
1.329365018173479   0.07942368355147483   -0.19257951863817288
0.5301477968159709   0.11814969953400714   0.05695495626749354
0.5301477968159709   0.11814969953400714   0.05695495626749354
0.5301477968159709   0.11814969953400714   0.05695495626749354
0.5301477968159709   0.11814969953400714   0.05695495626749354
0.8636712027308988   0.04126790054287924   0.025348447421770864
0.8636712027308988   0.04126790054287924   0.025348447421770864
0.8636712027308988   0.04126790054287924   0.025348447421770864
0.8636712027308988   0.04126790054287924   0.025348447421770864
-1.5856681642490742   -0.027180865044583336   0.1539118040791354
-1.5856681642490742   -0.027180865044583336   0.1539118040791354
-1.5856681642490742   -0.027180865044583336   0.1539118040791354
-1.5856681642490742   -0.027180865044583336   0.1539118040791354
-1.2342621228596549   -0.1562277592084182   -0.07634669566752815
-1.2342621228596549   -0.1562277592084182   -0.07634669566752815
-1.2342621228596549   -0.1562277592084182   -0.07634669566752815
-1.2342621228596549   -0.1562277592084182   -0.07634669566752815
-1.1173303860446273   0.13256987886643878   0.13167067594370316
-1.1173303860446273   0.13256987886643878   0.13167067594370316
-1.1173303860446273   0.13256987886643878   0.13167067594370316
-1.1173303860446273   0.13256987886643878   0.13167067594370316
-1.5788424155899028   -0.1718881787688832   -0.10383617223229241
-1.5788424155899028   -0.1718881787688832   -0.10383617223229241
-1.5788424155899028   -0.1718881787688832   -0.10383617223229241
-1.5788424155899028   -0.1718881787688832   -0.10383617223229241
-1.3261252690640803   -0.03663192059599496   -0.019113223680186572
-1.3261252690640803   -0.03663192059599496   -0.019113223680186572
-1.3261252690640803   -0.03663192059599496   -0.019113223680186572
-1.3261252690640803   -0.03663192059599496   -0.019113223680186572
-1.4817246660816143   0.06277480581529493   0.14708959072497083
-1.4817246660816143   0.06277480581529493   0.14708959072497083
-1.4817246660816143   0.06277480581529493   0.14708959072497083
-1.4817246660816143   0.06277480581529493   0.14708959072497083
-1.2077242178730243   -0.09536918803783512   -0.0923594162939917
-1.2077242178730243   -0.09536918803783512   -0.0923594162939917
-1.2077242178730243   -0.09536918803783512   -0.0923594162939917
-1.2077242178730243   -0.09536918803783512   -0.0923594162939917
-1.089471114189543   0.16690453884379125   0.11141148335148762
-1.089471114189543   0.16690453884379125   0.11141148335148762
-1.089471114189543   0.16690453884379125   0.11141148335148762
-1.089471114189543   0.16690453884379125   0.11141148335148762
-1.506517386520043   -0.13298690416097866   -0.12980454271511468
-1.506517386520043   -0.13298690416097866   -0.12980454271511468
-1.506517386520043   -0.13298690416097866   -0.12980454271511468
-1.506517386520043   -0.13298690416097866   -0.12980454271511468
-1.288321197100888   0.008340899507418453   0.00954520655694377
-1.288321197100888   0.008340899507418453   0.00954520655694377
-1.288321197100888   0.008340899507418453   0.00954520655694377
-1.288321197100888   0.008340899507418453   0.00954520655694377
-1.4092907464535012   0.10443888867668516   0.11890286477991538
-1.4092907464535012   0.10443888867668516   0.11890286477991538
-1.4092907464535012   0.10443888867668516   0.11890286477991538
-1.4092907464535012   0.10443888867668516   0.11890286477991538
-1.1803242015912738   -0.06414770132906292   -0.1118017134843052
-1.1803242015912738   -0.06414770132906292   -0.1118017134843052
-1.1803242015912738   -0.06414770132906292   -0.1118017134843052
-1.1803242015912738   -0.06414770132906292   -0.1118017134843052
-1.06686276251188   0.2095531191703223   0.09609375721803269
-1.06686276251188   0.2095531191703223   0.09609375721803269
-1.06686276251188   0.2095531191703223   0.09609375721803269
-1.06686276251188   0.2095531191703223   0.09609375721803269
-1.4093307780111668   -0.07072998800141117   -0.1502464827276522
-1.4093307780111668   -0.07072998800141117   -0.1502464827276522
-1.4093307780111668   -0.07072998800141117   -0.1502464827276522
-1.4093307780111668   -0.07072998800141117   -0.1502464827276522
-1.211916092783753   0.052620319865417486   0.04515450628863023
-1.211916092783753   0.052620319865417486   0.04515450628863023
-1.211916092783753   0.052620319865417486   0.04515450628863023
-1.211916092783753   0.052620319865417486   0.04515450628863023
-1.1912800339270229   -0.0900256506722632   0.0723616404594776
-1.1912800339270229   -0.0900256506722632   0.0723616404594776
-1.1912800339270229   -0.0900256506722632   0.0723616404594776
-1.1912800339270229   -0.0900256506722632   0.0723616404594776
-0.8722752178046718   -0.11848157591180257   -0.022618688155395476
-0.8722752178046718   -0.11848157591180257   -0.022618688155395476
-0.8722752178046718   -0.11848157591180257   -0.022618688155395476
-0.8722752178046718   -0.11848157591180257   -0.022618688155395476
-0.8069717811229437   0.06025394011191412   0.06730526759751101
-0.8069717811229437   0.06025394011191412   0.06730526759751101
-0.8069717811229437   0.06025394011191412   0.06730526759751101
-0.8069717811229437   0.06025394011191412   0.06730526759751101
-1.20864601390421   -0.12696638537749477   -0.06537119911025295
-1.20864601390421   -0.12696638537749477   -0.06537119911025295
-1.20864601390421   -0.12696638537749477   -0.06537119911025295
-1.20864601390421   -0.12696638537749477   -0.06537119911025295
-1.0169197706821842   -0.06341891919644685   -0.027251864721861453
-1.0169197706821842   -0.06341891919644685   -0.027251864721861453
-1.0169197706821842   -0.06341891919644685   -0.027251864721861453
-1.0169197706821842   -0.06341891919644685   -0.027251864721861453
-1.1601672074413885   -0.011529090921679863   0.06158553874801665
-1.1601672074413885   -0.011529090921679863   0.06158553874801665
-1.1601672074413885   -0.011529090921679863   0.06158553874801665
-1.1601672074413885   -0.011529090921679863   0.06158553874801665
-0.8500266819408188   -0.0497594486989735   -0.0379558476809765
-0.8500266819408188   -0.0497594486989735   -0.0379558476809765
-0.8500266819408188   -0.0497594486989735   -0.0379558476809765
-0.8500266819408188   -0.0497594486989735   -0.0379558476809765
-0.7829332013183824   0.13004874621028628   0.05385140176252144
-0.7829332013183824   0.13004874621028628   0.05385140176252144
-0.7829332013183824   0.13004874621028628   0.05385140176252144
-0.7829332013183824   0.13004874621028628   0.05385140176252144
-1.1727421984248156   -0.059791853486904994   -0.07824754549416393
-1.1727421984248156   -0.059791853486904994   -0.07824754549416393
-1.1727421984248156   -0.059791853486904994   -0.07824754549416393
-1.1727421984248156   -0.059791853486904994   -0.07824754549416393
-0.9822302327377517   0.0039492599953736   0.002922708866295101
-0.9822302327377517   0.0039492599953736   0.002922708866295101
-0.9822302327377517   0.0039492599953736   0.002922708866295101
-0.9822302327377517   0.0039492599953736   0.002922708866295101
-1.1214212451407217   0.06274494215099258   0.05582042528839225
-1.1214212451407217   0.06274494215099258   0.05582042528839225
-1.1214212451407217   0.06274494215099258   0.05582042528839225
-1.1214212451407217   0.06274494215099258   0.05582042528839225
-0.8279921192155363   0.01377398595932483   -0.0551684274722944
-0.8279921192155363   0.01377398595932483   -0.0551684274722944
-0.8279921192155363   0.01377398595932483   -0.0551684274722944
-0.8279921192155363   0.01377398595932483   -0.0551684274722944
-0.7589738743922952   0.2057417660347481   0.04103757062423112
-0.7589738743922952   0.2057417660347481   0.04103757062423112
-0.7589738743922952   0.2057417660347481   0.04103757062423112
-0.7589738743922952   0.2057417660347481   0.04103757062423112
-1.1430528600414456   0.013511911374224195   -0.0888155226336821
-1.1430528600414456   0.013511911374224195   -0.0888155226336821
-1.1430528600414456   0.013511911374224195   -0.0888155226336821
-1.1430528600414456   0.013511911374224195   -0.0888155226336821
-0.9571216363370484   0.06991323325373502   0.032408886494589104
-0.9571216363370484   0.06991323325373502   0.032408886494589104
-0.9571216363370484   0.06991323325373502   0.032408886494589104
-0.9571216363370484   0.06991323325373502   0.032408886494589104
-0.8713025375652008   -0.14885432596377773   0.012617463093922745
-0.8713025375652008   -0.14885432596377773   0.012617463093922745
-0.8713025375652008   -0.14885432596377773   0.012617463093922745
-0.8713025375652008   -0.14885432596377773   0.012617463093922745
-0.5153485363311611   -0.062179152529989665   0.03208080162703919
-0.5153485363311611   -0.062179152529989665   0.03208080162703919
-0.5153485363311611   -0.062179152529989665   0.03208080162703919
-0.5153485363311611   -0.062179152529989665   0.03208080162703919
-0.4973992866618755   -0.0009816673105356027   0.004161675157627397
-0.4973992866618755   -0.0009816673105356027   0.004161675157627397
-0.4973992866618755   -0.0009816673105356027   0.004161675157627397
-0.4973992866618755   -0.0009816673105356027   0.004161675157627397
-0.847609081299046   -0.06803178958264722   -0.007595503588439273
-0.847609081299046   -0.06803178958264722   -0.007595503588439273
-0.847609081299046   -0.06803178958264722   -0.007595503588439273
-0.847609081299046   -0.06803178958264722   -0.007595503588439273
-0.6839962870422543   -0.06674507674218046   -0.01982455666071913
-0.6839962870422543   -0.06674507674218046   -0.01982455666071913
-0.6839962870422543   -0.06674507674218046   -0.01982455666071913
-0.6839962870422543   -0.06674507674218046   -0.01982455666071913
-0.8466223174680139   -0.07149775275539096   0.0008042787394581495
-0.8466223174680139   -0.07149775275539096   0.0008042787394581495
-0.8466223174680139   -0.07149775275539096   0.0008042787394581495
-0.8466223174680139   -0.07149775275539096   0.0008042787394581495
-0.4929939231677559   0.007876423187374026   0.01733040213031558
-0.4929939231677559   0.007876423187374026   0.01733040213031558
-0.4929939231677559   0.007876423187374026   0.01733040213031558
-0.4929939231677559   0.007876423187374026   0.01733040213031558
-0.4713084854057576   0.07706288221961177   -0.006813637166636417
-0.4713084854057576   0.07706288221961177   -0.006813637166636417
-0.4713084854057576   0.07706288221961177   -0.006813637166636417
-0.4713084854057576   0.07706288221961177   -0.006813637166636417
-0.8235291395601354   0.0030207551908997265   -0.02210029842686518
-0.8235291395601354   0.0030207551908997265   -0.02210029842686518
-0.8235291395601354   0.0030207551908997265   -0.02210029842686518
-0.8235291395601354   0.0030207551908997265   -0.02210029842686518
-0.6564862404702337   0.0034532743010267652   0.009422952047587863
-0.6564862404702337   0.0034532743010267652   0.009422952047587863
-0.6564862404702337   0.0034532743010267652   0.009422952047587863
-0.6564862404702337   0.0034532743010267652   0.009422952047587863
-0.8206893401727609   0.006311107866426885   -0.011191654165526976
-0.8206893401727609   0.006311107866426885   -0.011191654165526976
-0.8206893401727609   0.006311107866426885   -0.011191654165526976
-0.8206893401727609   0.006311107866426885   -0.011191654165526976
-0.4692730401395565   0.0786477741976649   0.0017786971863204964
-0.4692730401395565   0.0786477741976649   0.0017786971863204964
-0.4692730401395565   0.0786477741976649   0.0017786971863204964
-0.4692730401395565   0.0786477741976649   0.0017786971863204964
-0.4466679542145393   0.15581630659212983   -0.019352824583183437
-0.4466679542145393   0.15581630659212983   -0.019352824583183437
-0.4466679542145393   0.15581630659212983   -0.019352824583183437
-0.4466679542145393   0.15581630659212983   -0.019352824583183437
-0.8009219394847602   0.07462349992888911   -0.037584488732226334
-0.8009219394847602   0.07462349992888911   -0.037584488732226334
-0.8009219394847602   0.07462349992888911   -0.037584488732226334
-0.8009219394847602   0.07462349992888911   -0.037584488732226334
-0.6304526041713469   0.07390275048253334   0.037495014920097346
-0.6304526041713469   0.07390275048253334   0.037495014920097346
-0.6304526041713469   0.07390275048253334   0.037495014920097346
-0.6304526041713469   0.07390275048253334   0.037495014920097346
-0.5588989676315759   -0.19992381652568786   -0.047926690879344654
-0.5588989676315759   -0.19992381652568786   -0.047926690879344654
-0.5588989676315759   -0.19992381652568786   -0.047926690879344654
-0.5588989676315759   -0.19992381652568786   -0.047926690879344654
-0.1679991131142228   -0.0023892290081595387   0.08414929671423475
-0.1679991131142228   -0.0023892290081595387   0.08414929671423475
-0.1679991131142228   -0.0023892290081595387   0.08414929671423475
-0.1679991131142228   -0.0023892290081595387   0.08414929671423475
-0.19159188852677198   -0.05877870040980875   -0.06144671219800893
-0.19159188852677198   -0.05877870040980875   -0.06144671219800893
-0.19159188852677198   -0.05877870040980875   -0.06144671219800893
-0.19159188852677198   -0.05877870040980875   -0.06144671219800893
-0.48995202906083607   -0.007649698112348183   0.0480659939646325
-0.48995202906083607   -0.007649698112348183   0.0480659939646325
-0.48995202906083607   -0.007649698112348183   0.0480659939646325
-0.48995202906083607   -0.007649698112348183   0.0480659939646325
-0.3520990533990299   -0.06424658941895153   -0.014300790393445074
-0.3520990533990299   -0.06424658941895153   -0.014300790393445074
-0.3520990533990299   -0.06424658941895153   -0.014300790393445074
-0.3520990533990299   -0.06424658941895153   -0.014300790393445074
-0.5356324026998411   -0.12741214606114154   -0.060573426281603795
-0.5356324026998411   -0.12741214606114154   -0.060573426281603795
-0.5356324026998411   -0.12741214606114154   -0.060573426281603795
-0.5356324026998411   -0.12741214606114154   -0.060573426281603795
-0.13986675118251124   0.06702851124423062   0.07137176286926297
-0.13986675118251124   0.06702851124423062   0.07137176286926297
-0.13986675118251124   0.06702851124423062   0.07137176286926297
-0.13986675118251124   0.06702851124423062   0.07137176286926297
-0.153533682098495   0.015051167716055365   -0.06916680467749031
-0.153533682098495   0.015051167716055365   -0.06916680467749031
-0.153533682098495   0.015051167716055365   -0.06916680467749031
-0.153533682098495   0.015051167716055365   -0.06916680467749031
-0.4677194443837496   0.056153697427810595   0.032040752735204146
-0.4677194443837496   0.056153697427810595   0.032040752735204146
-0.4677194443837496   0.056153697427810595   0.032040752735204146
-0.4677194443837496   0.056153697427810595   0.032040752735204146
-0.32287658818920867   0.0011003584061706206   0.015493666883011261
-0.32287658818920867   0.0011003584061706206   0.015493666883011261
-0.32287658818920867   0.0011003584061706206   0.015493666883011261
-0.32287658818920867   0.0011003584061706206   0.015493666883011261
-0.5119512687924594   -0.05782660255278958   -0.07513806932775058
-0.5119512687924594   -0.05782660255278958   -0.07513806932775058
-0.5119512687924594   -0.05782660255278958   -0.07513806932775058
-0.5119512687924594   -0.05782660255278958   -0.07513806932775058
-0.10367587559581593   0.13465744979061425   0.060515945761350054
-0.10367587559581593   0.13465744979061425   0.060515945761350054
-0.10367587559581593   0.13465744979061425   0.060515945761350054
-0.10367587559581593   0.13465744979061425   0.060515945761350054
-0.12133294570868045   0.09754983375436309   -0.077461165393364
-0.12133294570868045   0.09754983375436309   -0.077461165393364
-0.12133294570868045   0.09754983375436309   -0.077461165393364
-0.12133294570868045   0.09754983375436309   -0.077461165393364
-0.4449604108171167   0.1284079423206536   0.016593256675406197
-0.4449604108171167   0.1284079423206536   0.016593256675406197
-0.4449604108171167   0.1284079423206536   0.016593256675406197
-0.4449604108171167   0.1284079423206536   0.016593256675406197
-0.29258075076999635   0.06929457376028601   0.04531844520682529
-0.29258075076999635   0.06929457376028601   0.04531844520682529
-0.29258075076999635   0.06929457376028601   0.04531844520682529
-0.29258075076999635   0.06929457376028601   0.04531844520682529
-0.248173143917706   -0.21508571926425635   -0.1040243670470845
-0.248173143917706   -0.21508571926425635   -0.1040243670470845
-0.248173143917706   -0.21508571926425635   -0.1040243670470845
-0.248173143917706   -0.21508571926425635   -0.1040243670470845
0.09595961662595172   0.06434927266598713   0.12806295520347197
0.09595961662595172   0.06434927266598713   0.12806295520347197
0.09595961662595172   0.06434927266598713   0.12806295520347197
0.09595961662595172   0.06434927266598713   0.12806295520347197
0.09683258432001937   -0.10520622180945866   -0.13768093204677348
0.09683258432001937   -0.10520622180945866   -0.13768093204677348
0.09683258432001937   -0.10520622180945866   -0.13768093204677348
0.09683258432001937   -0.10520622180945866   -0.13768093204677348
-0.13334061523953297   0.0662267597813118   0.10480419404706545
-0.13334061523953297   0.0662267597813118   0.10480419404706545
-0.13334061523953297   0.0662267597813118   0.10480419404706545
-0.13334061523953297   0.0662267597813118   0.10480419404706545
-0.05037269220343202   -0.04540991751994344   -0.024538974447744975
-0.05037269220343202   -0.04540991751994344   -0.024538974447744975
-0.05037269220343202   -0.04540991751994344   -0.024538974447744975
-0.05037269220343202   -0.04540991751994344   -0.024538974447744975
-0.2246372439127622   -0.16587869912851172   -0.11957349040925716
-0.2246372439127622   -0.16587869912851172   -0.11957349040925716
-0.2246372439127622   -0.16587869912851172   -0.11957349040925716
-0.2246372439127622   -0.16587869912851172   -0.11957349040925716
0.1945954306101775   0.13336545471729377   0.11256162287726476
0.1945954306101775   0.13336545471729377   0.11256162287726476
0.1945954306101775   0.13336545471729377   0.11256162287726476
0.1945954306101775   0.13336545471729377   0.11256162287726476
0.16954723796558635   -0.06289818261355093   -0.163488023230285
0.16954723796558635   -0.06289818261355093   -0.163488023230285
0.16954723796558635   -0.06289818261355093   -0.163488023230285
0.16954723796558635   -0.06289818261355093   -0.163488023230285
-0.10652185049048392   0.09692373359983186   0.08401978747878869
-0.10652185049048392   0.09692373359983186   0.08401978747878869
-0.10652185049048392   0.09692373359983186   0.08401978747878869
-0.10652185049048392   0.09692373359983186   0.08401978747878869
0.009574202295789199   -0.0019161364168281698   0.007788352383193574
0.009574202295789199   -0.0019161364168281698   0.007788352383193574
0.009574202295789199   -0.0019161364168281698   0.007788352383193574
0.009574202295789199   -0.0019161364168281698   0.007788352383193574
-0.19657132982998438   -0.1310708888753204   -0.1382329867435615
-0.19657132982998438   -0.1310708888753204   -0.1382329867435615
-0.19657132982998438   -0.1310708888753204   -0.1382329867435615
-0.19657132982998438   -0.1310708888753204   -0.1382329867435615
0.2660626390618388   0.17156236161835328   0.0846284380190731
0.2660626390618388   0.17156236161835328   0.0846284380190731
0.2660626390618388   0.17156236161835328   0.0846284380190731
0.2660626390618388   0.17156236161835328   0.0846284380190731
0.2713007301208664   0.01998555668150279   -0.1750186912999237
0.2713007301208664   0.01998555668150279   -0.1750186912999237
0.2713007301208664   0.01998555668150279   -0.1750186912999237
0.2713007301208664   0.01998555668150279   -0.1750186912999237
-0.08145510821226502   0.15120770546928233   0.06827015037379386
-0.08145510821226502   0.15120770546928233   0.06827015037379386
-0.08145510821226502   0.15120770546928233   0.06827015037379386
-0.08145510821226502   0.15120770546928233   0.06827015037379386
0.06333042164190307   0.04384761001346011   0.039331004700627566
0.06333042164190307   0.04384761001346011   0.039331004700627566
0.06333042164190307   0.04384761001346011   0.039331004700627566
0.06333042164190307   0.04384761001346011   0.039331004700627566
-0.5294374308947867   0.02926146917725264   0.14627475429595796
-0.5294374308947867   0.02926146917725264   0.14627475429595796
-0.5294374308947867   0.02926146917725264   0.14627475429595796
-0.5294374308947867   0.02926146917725264   0.14627475429595796
-0.6244310456536749   -0.19094117098816563   -0.08644006728951367
-0.6244310456536749   -0.19094117098816563   -0.08644006728951367
-0.6244310456536749   -0.19094117098816563   -0.08644006728951367
-0.6244310456536749   -0.19094117098816563   -0.08644006728951367
-0.4985245456668698   0.08890823331742123   0.11982801827619677
-0.4985245456668698   0.08890823331742123   0.11982801827619677
-0.4985245456668698   0.08890823331742123   0.11982801827619677
-0.4985245456668698   0.08890823331742123   0.11982801827619677
-0.5139823270899191   -0.12622822009322912   -0.11128299381283048
-0.5139823270899191   -0.12622822009322912   -0.11128299381283048
-0.5139823270899191   -0.12622822009322912   -0.11128299381283048
-0.5139823270899191   -0.12622822009322912   -0.11128299381283048
-0.5277430186260108   -0.04062134634451271   -0.0397833099891028
-0.5277430186260108   -0.04062134634451271   -0.0397833099891028
-0.5277430186260108   -0.04062134634451271   -0.0397833099891028
-0.5277430186260108   -0.04062134634451271   -0.0397833099891028
-0.41754902306060643   0.10839066285961274   0.13626464338089092
-0.41754902306060643   0.10839066285961274   0.13626464338089092
-0.41754902306060643   0.10839066285961274   0.13626464338089092
-0.41754902306060643   0.10839066285961274   0.13626464338089092
-0.5889488797597279   -0.13970167969896605   -0.10368373917170627
-0.5889488797597279   -0.13970167969896605   -0.10368373917170627
-0.5889488797597279   -0.13970167969896605   -0.10368373917170627
-0.5889488797597279   -0.13970167969896605   -0.10368373917170627
-0.4594378060031784   0.12256693877388136   0.1008850914423208
-0.4594378060031784   0.12256693877388136   0.1008850914423208
-0.4594378060031784   0.12256693877388136   0.1008850914423208
-0.4594378060031784   0.12256693877388136   0.1008850914423208
-0.4306573569262124   -0.08818951491371366   -0.13870585374742303
-0.4306573569262124   -0.08818951491371366   -0.13870585374742303
-0.4306573569262124   -0.08818951491371366   -0.13870585374742303
-0.4306573569262124   -0.08818951491371366   -0.13870585374742303
-0.46626296565853886   0.0024174191885896062   -0.008063400403370464
-0.46626296565853886   0.0024174191885896062   -0.008063400403370464
-0.46626296565853886   0.0024174191885896062   -0.008063400403370464
-0.46626296565853886   0.0024174191885896062   -0.008063400403370464
-0.33363055017084037   0.14933258722919124   0.10890607788653206
-0.33363055017084037   0.14933258722919124   0.10890607788653206
-0.33363055017084037   0.14933258722919124   0.10890607788653206
-0.33363055017084037   0.14933258722919124   0.10890607788653206
-0.5507870827771862   -0.10927763338766842   -0.12401672026616153
-0.5507870827771862   -0.10927763338766842   -0.12401672026616153
-0.5507870827771862   -0.10927763338766842   -0.12401672026616153
-0.5507870827771862   -0.10927763338766842   -0.12401672026616153
-0.4236432841280854   0.17388500976620033   0.08714101222738516
-0.4236432841280854   0.17388500976620033   0.08714101222738516
-0.4236432841280854   0.17388500976620033   0.08714101222738516
-0.4236432841280854   0.17388500976620033   0.08714101222738516
-0.31945145659931024   -0.015874286337127827   -0.1562815807070819
-0.31945145659931024   -0.015874286337127827   -0.1562815807070819
-0.31945145659931024   -0.015874286337127827   -0.1562815807070819
-0.31945145659931024   -0.015874286337127827   -0.1562815807070819
-0.39224688697530385   0.04732282733446272   0.02594045092891637
-0.39224688697530385   0.04732282733446272   0.02594045092891637
-0.39224688697530385   0.04732282733446272   0.02594045092891637
-0.39224688697530385   0.04732282733446272   0.02594045092891637
-0.559325196101737   -0.03478186003644658   0.08292986951844977
-0.559325196101737   -0.03478186003644658   0.08292986951844977
-0.559325196101737   -0.03478186003644658   0.08292986951844977
-0.559325196101737   -0.03478186003644658   0.08292986951844977
-0.6909915026285152   -0.15572653781180223   -0.033779365821875414
-0.6909915026285152   -0.15572653781180223   -0.033779365821875414
-0.6909915026285152   -0.15572653781180223   -0.033779365821875414
-0.6909915026285152   -0.15572653781180223   -0.033779365821875414
-0.6155582368147053   0.01584334844525878   0.05558969291401007
-0.6155582368147053   0.01584334844525878   0.05558969291401007
-0.6155582368147053   0.01584334844525878   0.05558969291401007
-0.6155582368147053   0.01584334844525878   0.05558969291401007
-0.5653383097533389   -0.07408273577242239   -0.051249833066297816
-0.5653383097533389   -0.07408273577242239   -0.051249833066297816
-0.5653383097533389   -0.07408273577242239   -0.051249833066297816
-0.5653383097533389   -0.07408273577242239   -0.051249833066297816
-0.6081823495673521   -0.05745045151876886   -0.028118274108354106
-0.6081823495673521   -0.05745045151876886   -0.028118274108354106
-0.6081823495673521   -0.05745045151876886   -0.028118274108354106
-0.6081823495673521   -0.05745045151876886   -0.028118274108354106
-0.5180530171746637   0.03870436050116102   0.07238953355347967
-0.5180530171746637   0.03870436050116102   0.07238953355347967
-0.5180530171746637   0.03870436050116102   0.07238953355347967
-0.5180530171746637   0.03870436050116102   0.07238953355347967
-0.6581410669695538   -0.09224128540449075   -0.049239824010486315
-0.6581410669695538   -0.09224128540449075   -0.049239824010486315
-0.6581410669695538   -0.09224128540449075   -0.049239824010486315
-0.6581410669695538   -0.09224128540449075   -0.049239824010486315
-0.5806364689272316   0.08276418587890808   0.04242692183731724
-0.5806364689272316   0.08276418587890808   0.04242692183731724
-0.5806364689272316   0.08276418587890808   0.04242692183731724
-0.5806364689272316   0.08276418587890808   0.04242692183731724
-0.5187500131980513   -0.009504479865474189   -0.06360452589267258
-0.5187500131980513   -0.009504479865474189   -0.06360452589267258
-0.5187500131980513   -0.009504479865474189   -0.06360452589267258
-0.5187500131980513   -0.009504479865474189   -0.06360452589267258
-0.5665193349418209   0.005065807720448984   0.001182013027471708
-0.5665193349418209   0.005065807720448984   0.001182013027471708
-0.5665193349418209   0.005065807720448984   0.001182013027471708
-0.5665193349418209   0.005065807720448984   0.001182013027471708
-0.46917057938583945   0.10960801006691864   0.065180153235978
-0.46917057938583945   0.10960801006691864   0.065180153235978
-0.46917057938583945   0.10960801006691864   0.065180153235978
-0.46917057938583945   0.10960801006691864   0.065180153235978
-0.6252048618844077   -0.03133726319845363   -0.0663135938712133
-0.6252048618844077   -0.03133726319845363   -0.0663135938712133
-0.6252048618844077   -0.03133726319845363   -0.0663135938712133
-0.6252048618844077   -0.03133726319845363   -0.0663135938712133
-0.5455511727626574   0.15675869404375165   0.02991670343516674
-0.5455511727626574   0.15675869404375165   0.02991670343516674
-0.5455511727626574   0.15675869404375165   0.02991670343516674
-0.5455511727626574   0.15675869404375165   0.02991670343516674
-0.478486484522381   0.06209257829981807   -0.07528255827770317
-0.478486484522381   0.06209257829981807   -0.07528255827770317
-0.478486484522381   0.06209257829981807   -0.07528255827770317
-0.478486484522381   0.06209257829981807   -0.07528255827770317
-0.5271371612228777   0.06954339546573086   0.03097383885937008
-0.5271371612228777   0.06954339546573086   0.03097383885937008
-0.5271371612228777   0.06954339546573086   0.03097383885937008
-0.5271371612228777   0.06954339546573086   0.03097383885937008
-0.6673206173912153   -0.0943500204640386   0.023198543016848597
-0.6673206173912153   -0.0943500204640386   0.023198543016848597
-0.6673206173912153   -0.0943500204640386   0.023198543016848597
-0.6673206173912153   -0.0943500204640386   0.023198543016848597
-0.7575123038913165   -0.09793352483959591   0.02047610615366552
-0.7575123038913165   -0.09793352483959591   0.02047610615366552
-0.7575123038913165   -0.09793352483959591   0.02047610615366552
-0.7575123038913165   -0.09793352483959591   0.02047610615366552
-0.7294562648419289   -0.04431573779933254   -0.007168061128982939
-0.7294562648419289   -0.04431573779933254   -0.007168061128982939
-0.7294562648419289   -0.04431573779933254   -0.007168061128982939
-0.7294562648419289   -0.04431573779933254   -0.007168061128982939
-0.6312147894999501   -0.013475838694294223   0.006626116627339196
-0.6312147894999501   -0.013475838694294223   0.006626116627339196
-0.6312147894999501   -0.013475838694294223   0.006626116627339196
-0.6312147894999501   -0.013475838694294223   0.006626116627339196
-0.6974195022844073   -0.058972417915188244   -0.018619946341868313
-0.6974195022844073   -0.058972417915188244   -0.018619946341868313
-0.6974195022844073   -0.058972417915188244   -0.018619946341868313
-0.6974195022844073   -0.058972417915188244   -0.018619946341868313
-0.6317691318067773   -0.021057488072271174   0.011436054471172241
-0.6317691318067773   -0.021057488072271174   0.011436054471172241
-0.6317691318067773   -0.021057488072271174   0.011436054471172241
-0.6317691318067773   -0.021057488072271174   0.011436054471172241
-0.7244730894886623   -0.032305255374916325   0.005737333212940815
-0.7244730894886623   -0.032305255374916325   0.005737333212940815
-0.7244730894886623   -0.032305255374916325   0.005737333212940815
-0.7244730894886623   -0.032305255374916325   0.005737333212940815
-0.6927936662676435   0.029944732613899766   -0.01821588460435678
-0.6927936662676435   0.029944732613899766   -0.01821588460435678
-0.6927936662676435   0.029944732613899766   -0.01821588460435678
-0.6927936662676435   0.029944732613899766   -0.01821588460435678
-0.5964114375434368   0.05396825473296868   -0.007651990097769519
-0.5964114375434368   0.05396825473296868   -0.007651990097769519
-0.5964114375434368   0.05396825473296868   -0.007651990097769519
-0.5964114375434368   0.05396825473296868   -0.007651990097769519
-0.6591331437541089   0.007439505023424026   0.010291609435505895
-0.6591331437541089   0.007439505023424026   0.010291609435505895
-0.6591331437541089   0.007439505023424026   0.010291609435505895
-0.6591331437541089   0.007439505023424026   0.010291609435505895
-0.5952435888651806   0.05294085551713135   -0.0007853474906619543
-0.5952435888651806   0.05294085551713135   -0.0007853474906619543
-0.5952435888651806   0.05294085551713135   -0.0007853474906619543
-0.5952435888651806   0.05294085551713135   -0.0007853474906619543
-0.6901014764049036   0.03483217037073136   -0.009642373047489265
-0.6901014764049036   0.03483217037073136   -0.009642373047489265
-0.6901014764049036   0.03483217037073136   -0.009642373047489265
-0.6901014764049036   0.03483217037073136   -0.009642373047489265
-0.6576906968409145   0.10464559208896529   -0.03070527057569103
-0.6576906968409145   0.10464559208896529   -0.03070527057569103
-0.6576906968409145   0.10464559208896529   -0.03070527057569103
-0.6576906968409145   0.10464559208896529   -0.03070527057569103
-0.5632104961080016   0.1216883740236985   -0.023309593271501644
-0.5632104961080016   0.1216883740236985   -0.023309593271501644
-0.5632104961080016   0.1216883740236985   -0.023309593271501644
-0.5632104961080016   0.1216883740236985   -0.023309593271501644
-0.6226003900132864   0.07396995527013703   0.03785231960680151
-0.6226003900132864   0.07396995527013703   0.03785231960680151
-0.6226003900132864   0.07396995527013703   0.03785231960680151
-0.6226003900132864   0.07396995527013703   0.03785231960680151
-0.7794767241515045   -0.1491420954632098   -0.038137424523673503
-0.7794767241515045   -0.1491420954632098   -0.038137424523673503
-0.7794767241515045   -0.1491420954632098   -0.038137424523673503
-0.7794767241515045   -0.1491420954632098   -0.038137424523673503
-0.8294864062907391   -0.04134621826486333   0.07236822778453829
-0.8294864062907391   -0.04134621826486333   0.07236822778453829
-0.8294864062907391   -0.04134621826486333   0.07236822778453829
-0.8294864062907391   -0.04134621826486333   0.07236822778453829
-0.8425989681805773   -0.10192796919656645   -0.07067842233671755
-0.8425989681805773   -0.10192796919656645   -0.07067842233671755
-0.8425989681805773   -0.10192796919656645   -0.07067842233671755
-0.8425989681805773   -0.10192796919656645   -0.07067842233671755
-0.6980129609356452   0.04480836740865235   0.06092435319445101
-0.6980129609356452   0.04480836740865235   0.06092435319445101
-0.6980129609356452   0.04480836740865235   0.06092435319445101
-0.6980129609356452   0.04480836740865235   0.06092435319445101
-0.784157151885662   -0.05787124573545331   -0.011686388656801733
-0.784157151885662   -0.05787124573545331   -0.011686388656801733
-0.784157151885662   -0.05787124573545331   -0.011686388656801733
-0.784157151885662   -0.05787124573545331   -0.011686388656801733
-0.7448768358866038   -0.07830432425063959   -0.05028232990105673
-0.7448768358866038   -0.07830432425063959   -0.05028232990105673
-0.7448768358866038   -0.07830432425063959   -0.05028232990105673
-0.7448768358866038   -0.07830432425063959   -0.05028232990105673
-0.7910903238220064   0.02582949187033684   0.0591073383892345
-0.7910903238220064   0.02582949187033684   0.0591073383892345
-0.7910903238220064   0.02582949187033684   0.0591073383892345
-0.7910903238220064   0.02582949187033684   0.0591073383892345
-0.7946636303107483   -0.031502034735079204   -0.0792937221522464
-0.7946636303107483   -0.031502034735079204   -0.0792937221522464
-0.7946636303107483   -0.031502034735079204   -0.0792937221522464
-0.7946636303107483   -0.031502034735079204   -0.0792937221522464
-0.6649640680971787   0.10564720857970178   0.045229630282159636
-0.6649640680971787   0.10564720857970178   0.045229630282159636
-0.6649640680971787   0.10564720857970178   0.045229630282159636
-0.6649640680971787   0.10564720857970178   0.045229630282159636
-0.7407347331237116   0.006056233633548902   0.01814417590308781
-0.7407347331237116   0.006056233633548902   0.01814417590308781
-0.7407347331237116   0.006056233633548902   0.01814417590308781
-0.7407347331237116   0.006056233633548902   0.01814417590308781
-0.7103790437072199   -0.011688317351339517   -0.06450972183701464
-0.7103790437072199   -0.011688317351339517   -0.06450972183701464
-0.7103790437072199   -0.011688317351339517   -0.06450972183701464
-0.7103790437072199   -0.011688317351339517   -0.06450972183701464
-0.7445543095300662   0.09052783636658146   0.049223010649506904
-0.7445543095300662   0.09052783636658146   0.049223010649506904
-0.7445543095300662   0.09052783636658146   0.049223010649506904
-0.7445543095300662   0.09052783636658146   0.049223010649506904
-0.7526999078591062   0.046143043174245835   -0.08699174201458168
-0.7526999078591062   0.046143043174245835   -0.08699174201458168
-0.7526999078591062   0.046143043174245835   -0.08699174201458168
-0.7526999078591062   0.046143043174245835   -0.08699174201458168
-0.6318229654353541   0.17352673622400142   0.029752242317074656
-0.6318229654353541   0.17352673622400142   0.029752242317074656
-0.6318229654353541   0.17352673622400142   0.029752242317074656
-0.6318229654353541   0.17352673622400142   0.029752242317074656
-0.7037496260233999   0.06957072282635074   0.04669391646887405
-0.7037496260233999   0.06957072282635074   0.04669391646887405
-0.7037496260233999   0.06957072282635074   0.04669391646887405
-0.7037496260233999   0.06957072282635074   0.04669391646887405
-0.8902754192610751   -0.177579113848764   -0.0953439414832566
-0.8902754192610751   -0.177579113848764   -0.0953439414832566
-0.8902754192610751   -0.177579113848764   -0.0953439414832566
-0.8902754192610751   -0.177579113848764   -0.0953439414832566
-0.9811550525841667   0.014506462331715625   0.1298742597505556
-0.9811550525841667   0.014506462331715625   0.1298742597505556
-0.9811550525841667   0.014506462331715625   0.1298742597505556
-0.9811550525841667   0.014506462331715625   0.1298742597505556
-0.9674315229812811   -0.14692633961113022   -0.12687039517339652
-0.9674315229812811   -0.14692633961113022   -0.12687039517339652
-0.9674315229812811   -0.14692633961113022   -0.12687039517339652
-0.9674315229812811   -0.14692633961113022   -0.12687039517339652
-0.7624216597614104   0.11185810818264319   0.11642204237990379
-0.7624216597614104   0.11185810818264319   0.11642204237990379
-0.7624216597614104   0.11185810818264319   0.11642204237990379
-0.7624216597614104   0.11185810818264319   0.11642204237990379
-0.8643165788479766   -0.03787825999484315   -0.006056692030818725
-0.8643165788479766   -0.03787825999484315   -0.006056692030818725
-0.8643165788479766   -0.03787825999484315   -0.006056692030818725
-0.8643165788479766   -0.03787825999484315   -0.006056692030818725
-0.854010362394152   -0.12066725081604965   -0.10899611178512278
-0.854010362394152   -0.12066725081604965   -0.10899611178512278
-0.854010362394152   -0.12066725081604965   -0.10899611178512278
-0.854010362394152   -0.12066725081604965   -0.10899611178512278
-0.8709311525271123   0.09051068720898686   0.118194430277324
-0.8709311525271123   0.09051068720898686   0.118194430277324
-0.8709311525271123   0.09051068720898686   0.118194430277324
-0.8709311525271123   0.09051068720898686   0.118194430277324
-0.8848730634145245   -0.10578281234891762   -0.15116172934091793
-0.8848730634145245   -0.10578281234891762   -0.15116172934091793
-0.8848730634145245   -0.10578281234891762   -0.15116172934091793
-0.8848730634145245   -0.10578281234891762   -0.15116172934091793
-0.7252833166538274   0.14083580829039632   0.09527000310688219
-0.7252833166538274   0.14083580829039632   0.09527000310688219
-0.7252833166538274   0.14083580829039632   0.09527000310688219
-0.7252833166538274   0.14083580829039632   0.09527000310688219
-0.8081937378373418   0.005084373658926444   0.02260140498062551
-0.8081937378373418   0.005084373658926444   0.02260140498062551
-0.8081937378373418   0.005084373658926444   0.02260140498062551
-0.8081937378373418   0.005084373658926444   0.02260140498062551
-0.8150761496134903   -0.08680229533394657   -0.12605605806709697
-0.8150761496134903   -0.08680229533394657   -0.12605605806709697
-0.8150761496134903   -0.08680229533394657   -0.12605605806709697
-0.8150761496134903   -0.08680229533394657   -0.12605605806709697
-0.7899357931166188   0.12699972861366696   0.09074208118602664
-0.7899357931166188   0.12699972861366696   0.09074208118602664
-0.7899357931166188   0.12699972861366696   0.09074208118602664
-0.7899357931166188   0.12699972861366696   0.09074208118602664
-0.7766848462258673   -0.0345197692506507   -0.1651374852122689
-0.7766848462258673   -0.0345197692506507   -0.1651374852122689
-0.7766848462258673   -0.0345197692506507   -0.1651374852122689
-0.7766848462258673   -0.0345197692506507   -0.1651374852122689
-0.6919923837714319   0.18421591089176206   0.0784730107062699
-0.6919923837714319   0.18421591089176206   0.0784730107062699
-0.6919923837714319   0.18421591089176206   0.0784730107062699
-0.6919923837714319   0.18421591089176206   0.0784730107062699
-0.7319125534093628   0.0480768084704892   0.055716116037368875
-0.7319125534093628   0.0480768084704892   0.055716116037368875
-0.7319125534093628   0.0480768084704892   0.055716116037368875
-0.7319125534093628   0.0480768084704892   0.055716116037368875
0.5380894672268834   0.087214944645491   0.1418199979982725
0.5380894672268834   0.087214944645491   0.1418199979982725
0.5380894672268834   0.087214944645491   0.1418199979982725
0.5380894672268834   0.087214944645491   0.1418199979982725
-0.014475768672446314   -0.2281441428312751   -0.09385640531523015
-0.014475768672446314   -0.2281441428312751   -0.09385640531523015
-0.014475768672446314   -0.2281441428312751   -0.09385640531523015
-0.014475768672446314   -0.2281441428312751   -0.09385640531523015
0.12017422562807226   0.04478493067275135   0.10962620729901917
0.12017422562807226   0.04478493067275135   0.10962620729901917
0.12017422562807226   0.04478493067275135   0.10962620729901917
0.12017422562807226   0.04478493067275135   0.10962620729901917
0.5620478129119397   -0.08066625387544551   -0.11736952082094573
0.5620478129119397   -0.08066625387544551   -0.11736952082094573
0.5620478129119397   -0.08066625387544551   -0.11736952082094573
0.5620478129119397   -0.08066625387544551   -0.11736952082094573
0.2744382351665026   -0.044608910715333405   -0.06741287425245282
0.2744382351665026   -0.044608910715333405   -0.06741287425245282
0.2744382351665026   -0.044608910715333405   -0.06741287425245282
0.2744382351665026   -0.044608910715333405   -0.06741287425245282
0.6584745100313246   0.15611607356142054   0.12798163733911275
0.6584745100313246   0.15611607356142054   0.12798163733911275
0.6584745100313246   0.15611607356142054   0.12798163733911275
0.6584745100313246   0.15611607356142054   0.12798163733911275
0.02964071522000368   -0.18610421005279837   -0.11215220401577397
0.02964071522000368   -0.18610421005279837   -0.11215220401577397
0.02964071522000368   -0.18610421005279837   -0.11215220401577397
0.02964071522000368   -0.18610421005279837   -0.11215220401577397
0.16955391079318338   0.07790139620352492   0.09153743411937418
0.16955391079318338   0.07790139620352492   0.09153743411937418
0.16955391079318338   0.07790139620352492   0.09153743411937418
0.16955391079318338   0.07790139620352492   0.09153743411937418
0.6561775963892006   -0.043245456559952045   -0.1469447367443772
0.6561775963892006   -0.043245456559952045   -0.1469447367443772
0.6561775963892006   -0.043245456559952045   -0.1469447367443772
0.6561775963892006   -0.043245456559952045   -0.1469447367443772
0.35933529450534607   -0.0032739296938399803   -0.03155873010001603
0.35933529450534607   -0.0032739296938399803   -0.03155873010001603
0.35933529450534607   -0.0032739296938399803   -0.03155873010001603
0.35933529450534607   -0.0032739296938399803   -0.03155873010001603
0.7537025653615267   0.19659214217064652   0.10084250938663883
0.7537025653615267   0.19659214217064652   0.10084250938663883
0.7537025653615267   0.19659214217064652   0.10084250938663883
0.7537025653615267   0.19659214217064652   0.10084250938663883
0.07781057550642907   -0.15615456884149428   -0.13312327726937817
0.07781057550642907   -0.15615456884149428   -0.13312327726937817
0.07781057550642907   -0.15615456884149428   -0.13312327726937817
0.07781057550642907   -0.15615456884149428   -0.13312327726937817
0.21749429595127073   0.1386147882768932   0.07921803981244221
0.21749429595127073   0.1386147882768932   0.07921803981244221
0.21749429595127073   0.1386147882768932   0.07921803981244221
0.21749429595127073   0.1386147882768932   0.07921803981244221
0.7810835590158407   0.04053772216066974   -0.16209261656837237
0.7810835590158407   0.04053772216066974   -0.16209261656837237
0.7810835590158407   0.04053772216066974   -0.16209261656837237
0.7810835590158407   0.04053772216066974   -0.16209261656837237
0.43082289379677763   0.04298501186820183   0.0023975187046953866
0.43082289379677763   0.04298501186820183   0.0023975187046953866
0.43082289379677763   0.04298501186820183   0.0023975187046953866
0.43082289379677763   0.04298501186820183   0.0023975187046953866
0.0737664932623782   0.023185905696906046   0.0960248558307113
0.0737664932623782   0.023185905696906046   0.0960248558307113
0.0737664932623782   0.023185905696906046   0.0960248558307113
0.0737664932623782   0.023185905696906046   0.0960248558307113
-0.5150145365519475   -0.1935888178463565   -0.043035487085531454
-0.5150145365519475   -0.1935888178463565   -0.043035487085531454
-0.5150145365519475   -0.1935888178463565   -0.043035487085531454
-0.5150145365519475   -0.1935888178463565   -0.043035487085531454
-0.42988091063001393   -0.027941330527563306   0.0439997940346726
-0.42988091063001393   -0.027941330527563306   0.0439997940346726
-0.42988091063001393   -0.027941330527563306   0.0439997940346726
-0.42988091063001393   -0.027941330527563306   0.0439997940346726
0.07787028774505331   -0.022791821648207526   -0.03431672979511672
0.07787028774505331   -0.022791821648207526   -0.03431672979511672
0.07787028774505331   -0.022791821648207526   -0.03431672979511672
0.07787028774505331   -0.022791821648207526   -0.03431672979511672
-0.20253031528031612   -0.050324751046451566   -0.03246844192747499
-0.20253031528031612   -0.050324751046451566   -0.03246844192747499
-0.20253031528031612   -0.050324751046451566   -0.03246844192747499
-0.20253031528031612   -0.050324751046451566   -0.03246844192747499
0.12456923823511391   0.09118831719993625   0.08519788380704255
0.12456923823511391   0.09118831719993625   0.08519788380704255
0.12456923823511391   0.09118831719993625   0.08519788380704255
0.12456923823511391   0.09118831719993625   0.08519788380704255
-0.4723016068572661   -0.13764321511289865   -0.058401802516252904
-0.4723016068572661   -0.13764321511289865   -0.058401802516252904
-0.4723016068572661   -0.13764321511289865   -0.058401802516252904
-0.4723016068572661   -0.13764321511289865   -0.058401802516252904
-0.38483351101581215   0.03622261937681269   0.031114468136522678
-0.38483351101581215   0.03622261937681269   0.031114468136522678
-0.38483351101581215   0.03622261937681269   0.031114468136522678
-0.38483351101581215   0.03622261937681269   0.031114468136522678
0.13401942553044868   0.038185019960292374   -0.046418615951066826
0.13401942553044868   0.038185019960292374   -0.046418615951066826
0.13401942553044868   0.038185019960292374   -0.046418615951066826
0.13401942553044868   0.038185019960292374   -0.046418615951066826
-0.1547955246330192   0.006343526322539816   -0.0038869706511621468
-0.1547955246330192   0.006343526322539816   -0.0038869706511621468
-0.1547955246330192   0.006343526322539816   -0.0038869706511621468
-0.1547955246330192   0.006343526322539816   -0.0038869706511621468
0.1826742305094151   0.15875779986280425   0.0762826290412533
0.1826742305094151   0.15875779986280425   0.0762826290412533
0.1826742305094151   0.15875779986280425   0.0762826290412533
0.1826742305094151   0.15875779986280425   0.0762826290412533
-0.42937600203884146   -0.08023784656977238   -0.075137521032039
-0.42937600203884146   -0.08023784656977238   -0.075137521032039
-0.42937600203884146   -0.08023784656977238   -0.075137521032039
-0.42937600203884146   -0.08023784656977238   -0.075137521032039
-0.3395281120523702   0.1087068814545058   0.018830585025786092
-0.3395281120523702   0.1087068814545058   0.018830585025786092
-0.3395281120523702   0.1087068814545058   0.018830585025786092
-0.3395281120523702   0.1087068814545058   0.018830585025786092
0.18351679867179954   0.1072470504666551   -0.05930170877467575
0.18351679867179954   0.1072470504666551   -0.05930170877467575
0.18351679867179954   0.1072470504666551   -0.05930170877467575
0.18351679867179954   0.1072470504666551   -0.05930170877467575
-0.10208705227633653   0.06882941619817219   0.026554066915993695
-0.10208705227633653   0.06882941619817219   0.026554066915993695
-0.10208705227633653   0.06882941619817219   0.026554066915993695
-0.10208705227633653   0.06882941619817219   0.026554066915993695
-0.46825576258004453   -0.03728627068545707   0.03445583561308774
-0.46825576258004453   -0.03728627068545707   0.03445583561308774
-0.46825576258004453   -0.03728627068545707   0.03445583561308774
-0.46825576258004453   -0.03728627068545707   0.03445583561308774
-1.0065462345720948   -0.13711918110472554   0.009029683777291558
-1.0065462345720948   -0.13711918110472554   0.009029683777291558
-1.0065462345720948   -0.13711918110472554   0.009029683777291558
-1.0065462345720948   -0.13711918110472554   0.009029683777291558
-0.9670213274121403   -0.08576059199866226   -0.018991111982310932
-0.9670213274121403   -0.08576059199866226   -0.018991111982310932
-0.9670213274121403   -0.08576059199866226   -0.018991111982310932
-0.9670213274121403   -0.08576059199866226   -0.018991111982310932
-0.4216523623701478   0.03570541123861856   0.02149579356782501
-0.4216523623701478   0.03570541123861856   0.02149579356782501
-0.4216523623701478   0.03570541123861856   0.02149579356782501
-0.4216523623701478   0.03570541123861856   0.02149579356782501
-0.7169180744911299   -0.05150081756137094   -0.018846915377221867
-0.7169180744911299   -0.05150081756137094   -0.018846915377221867
-0.7169180744911299   -0.05150081756137094   -0.018846915377221867
-0.7169180744911299   -0.05150081756137094   -0.018846915377221867
-0.42224774193922054   0.03153100740383316   0.022693299557246624
-0.42224774193922054   0.03153100740383316   0.022693299557246624
-0.42224774193922054   0.03153100740383316   0.022693299557246624
-0.42224774193922054   0.03153100740383316   0.022693299557246624
-0.9627668905750131   -0.07792713089582254   -0.005552388899515162
-0.9627668905750131   -0.07792713089582254   -0.005552388899515162
-0.9627668905750131   -0.07792713089582254   -0.005552388899515162
-0.9627668905750131   -0.07792713089582254   -0.005552388899515162
-0.919672864035068   -0.015127027781328184   -0.029866976177622705
-0.919672864035068   -0.015127027781328184   -0.029866976177622705
-0.919672864035068   -0.015127027781328184   -0.029866976177622705
-0.919672864035068   -0.015127027781328184   -0.029866976177622705
-0.37704730247022344   0.0984086907146228   0.00785943952665992
-0.37704730247022344   0.0984086907146228   0.00785943952665992
-0.37704730247022344   0.0984086907146228   0.00785943952665992
-0.37704730247022344   0.0984086907146228   0.00785943952665992
-0.6680464124860677   0.010568387333750595   0.009927561085312717
-0.6680464124860677   0.010568387333750595   0.009927561085312717
-0.6680464124860677   0.010568387333750595   0.009927561085312717
-0.6680464124860677   0.010568387333750595   0.009927561085312717
-0.37595220629648635   0.10161601768658855   0.010127593423379412
-0.37595220629648635   0.10161601768658855   0.010127593423379412
-0.37595220629648635   0.10161601768658855   0.010127593423379412
-0.37595220629648635   0.10161601768658855   0.010127593423379412
-0.9178518508683904   -0.015418245412870346   -0.020470692712700266
-0.9178518508683904   -0.015418245412870346   -0.020470692712700266
-0.9178518508683904   -0.015418245412870346   -0.020470692712700266
-0.9178518508683904   -0.015418245412870346   -0.020470692712700266
-0.8742401280676745   0.05568443624502739   -0.04229965020518424
-0.8742401280676745   0.05568443624502739   -0.04229965020518424
-0.8742401280676745   0.05568443624502739   -0.04229965020518424
-0.8742401280676745   0.05568443624502739   -0.04229965020518424
-0.33434091775514846   0.1612969773564633   -0.007823539390054784
-0.33434091775514846   0.1612969773564633   -0.007823539390054784
-0.33434091775514846   0.1612969773564633   -0.007823539390054784
-0.33434091775514846   0.1612969773564633   -0.007823539390054784
-0.6217044647269346   0.07245953790908011   0.036823177564943105
-0.6217044647269346   0.07245953790908011   0.036823177564943105
-0.6217044647269346   0.07245953790908011   0.036823177564943105
-0.6217044647269346   0.07245953790908011   0.036823177564943105
-1.0061307364139482   -0.09695927596145952   -0.029052730575233537
-1.0061307364139482   -0.09695927596145952   -0.029052730575233537
-1.0061307364139482   -0.09695927596145952   -0.029052730575233537
-1.0061307364139482   -0.09695927596145952   -0.029052730575233537
-1.4923745282365117   -0.08406719460641812   0.06019623309452666
-1.4923745282365117   -0.08406719460641812   0.06019623309452666
-1.4923745282365117   -0.08406719460641812   0.06019623309452666
-1.4923745282365117   -0.08406719460641812   0.06019623309452666
-1.4923534130696503   -0.14232477045905567   -0.08040088401008395
-1.4923534130696503   -0.14232477045905567   -0.08040088401008395
-1.4923534130696503   -0.14232477045905567   -0.08040088401008395
-1.4923534130696503   -0.14232477045905567   -0.08040088401008395
-0.9131133828438993   0.09137327376363141   0.0734147450966005
-0.9131133828438993   0.09137327376363141   0.0734147450966005
-0.9131133828438993   0.09137327376363141   0.0734147450966005
-0.9131133828438993   0.09137327376363141   0.0734147450966005
-1.2191620141676334   -0.051976052215335466   -0.00789013350805333
-1.2191620141676334   -0.051976052215335466   -0.00789013350805333
-1.2191620141676334   -0.051976052215335466   -0.00789013350805333
-1.2191620141676334   -0.051976052215335466   -0.00789013350805333
-0.9597124598114561   -0.027798230167423915   -0.04040913581011947
-0.9597124598114561   -0.027798230167423915   -0.04040913581011947
-0.9597124598114561   -0.027798230167423915   -0.04040913581011947
-0.9597124598114561   -0.027798230167423915   -0.04040913581011947
-1.4427436357974153   -0.020142566223318448   0.04546579811536726
-1.4427436357974153   -0.020142566223318448   0.04546579811536726
-1.4427436357974153   -0.020142566223318448   0.04546579811536726
-1.4427436357974153   -0.020142566223318448   0.04546579811536726
-1.4331413117392449   -0.07492491429042897   -0.08945374042636639
-1.4331413117392449   -0.07492491429042897   -0.08945374042636639
-1.4331413117392449   -0.07492491429042897   -0.08945374042636639
-1.4331413117392449   -0.07492491429042897   -0.08945374042636639
-0.8692987784908757   0.14845813672127806   0.058418287040732444
-0.8692987784908757   0.14845813672127806   0.058418287040732444
-0.8692987784908757   0.14845813672127806   0.058418287040732444
-0.8692987784908757   0.14845813672127806   0.058418287040732444
-1.1606716433822346   0.010576708978670635   0.0217377534362565
-1.1606716433822346   0.010576708978670635   0.0217377534362565
-1.1606716433822346   0.010576708978670635   0.0217377534362565
-1.1606716433822346   0.010576708978670635   0.0217377534362565
-0.9143585190752967   0.035864947079678244   -0.054287226239778524
-0.9143585190752967   0.035864947079678244   -0.054287226239778524
-0.9143585190752967   0.035864947079678244   -0.054287226239778524
-0.9143585190752967   0.035864947079678244   -0.054287226239778524
-1.3846924950043054   0.041057351501678496   0.03680807745622522
-1.3846924950043054   0.041057351501678496   0.03680807745622522
-1.3846924950043054   0.041057351501678496   0.03680807745622522
-1.3846924950043054   0.041057351501678496   0.03680807745622522
-1.3801536784215098   -0.0013441051219419409   -0.09627125142648649
-1.3801536784215098   -0.0013441051219419409   -0.09627125142648649
-1.3801536784215098   -0.0013441051219419409   -0.09627125142648649
-1.3801536784215098   -0.0013441051219419409   -0.09627125142648649
-0.8259358222175157   0.2115917943254905   0.04331452096514682
-0.8259358222175157   0.2115917943254905   0.04331452096514682
-0.8259358222175157   0.2115917943254905   0.04331452096514682
-0.8259358222175157   0.2115917943254905   0.04331452096514682
-1.1167012376663943   0.06899443910103395   0.048315717674834155
-1.1167012376663943   0.06899443910103395   0.048315717674834155
-1.1167012376663943   0.06899443910103395   0.048315717674834155
-1.1167012376663943   0.06899443910103395   0.048315717674834155
-1.533084436150677   -0.1394486387902009   -0.0879718622925168
-1.533084436150677   -0.1394486387902009   -0.0879718622925168
-1.533084436150677   -0.1394486387902009   -0.0879718622925168
-1.533084436150677   -0.1394486387902009   -0.0879718622925168
-2.0456345238942997   -0.03531213424901469   0.12990639535541598
-2.0456345238942997   -0.03531213424901469   0.12990639535541598
-2.0456345238942997   -0.03531213424901469   0.12990639535541598
-2.0456345238942997   -0.03531213424901469   0.12990639535541598
-2.0164013466186463   -0.18566405830137656   -0.11720910318295875
-2.0164013466186463   -0.18566405830137656   -0.11720910318295875
-2.0164013466186463   -0.18566405830137656   -0.11720910318295875
-2.0164013466186463   -0.18566405830137656   -0.11720910318295875
-1.3913456546908693   0.15424807558318998   0.12806506184157526
-1.3913456546908693   0.15424807558318998   0.12806506184157526
-1.3913456546908693   0.15424807558318998   0.12806506184157526
-1.3913456546908693   0.15424807558318998   0.12806506184157526
-1.6713761186284806   -0.02957680338712504   0.013639560912365914
-1.6713761186284806   -0.02957680338712504   0.013639560912365914
-1.6713761186284806   -0.02957680338712504   0.013639560912365914
-1.6713761186284806   -0.02957680338712504   0.013639560912365914
-1.4827821089624396   -0.07539351410013267   -0.09947561983294607
-1.4827821089624396   -0.07539351410013267   -0.09947561983294607
-1.4827821089624396   -0.07539351410013267   -0.09947561983294607
-1.4827821089624396   -0.07539351410013267   -0.09947561983294607
-1.9222424634232467   0.046699960305760235   0.1212212941868653
-1.9222424634232467   0.046699960305760235   0.1212212941868653
-1.9222424634232467   0.046699960305760235   0.1212212941868653
-1.9222424634232467   0.046699960305760235   0.1212212941868653
-1.922977540355726   -0.1456462854347907   -0.1394462418171543
-1.922977540355726   -0.1456462854347907   -0.1394462418171543
-1.922977540355726   -0.1456462854347907   -0.1394462418171543
-1.922977540355726   -0.1456462854347907   -0.1394462418171543
-1.3430460456693973   0.1805532052056617   0.10554447042676689
-1.3430460456693973   0.1805532052056617   0.10554447042676689
-1.3430460456693973   0.1805532052056617   0.10554447042676689
-1.3430460456693973   0.1805532052056617   0.10554447042676689
-1.6180301852591912   0.012379763760431983   0.03760043307861993
-1.6180301852591912   0.012379763760431983   0.03760043307861993
-1.6180301852591912   0.012379763760431983   0.03760043307861993
-1.6180301852591912   0.012379763760431983   0.03760043307861993
-1.4317209852504285   -0.04246760875402539   -0.1148094135186869
-1.4317209852504285   -0.04246760875402539   -0.1148094135186869
-1.4317209852504285   -0.04246760875402539   -0.1148094135186869
-1.4317209852504285   -0.04246760875402539   -0.1148094135186869
-1.8309631046232644   0.08071402467634708   0.09426562673399974
-1.8309631046232644   0.08071402467634708   0.09426562673399974
-1.8309631046232644   0.08071402467634708   0.09426562673399974
-1.8309631046232644   0.08071402467634708   0.09426562673399974
-1.808055370530412   -0.08577879646374276   -0.15543753931221244
-1.808055370530412   -0.08577879646374276   -0.15543753931221244
-1.808055370530412   -0.08577879646374276   -0.15543753931221244
-1.808055370530412   -0.08577879646374276   -0.15543753931221244
-1.3005464687179527   0.21249573296349833   0.08792495900585973
-1.3005464687179527   0.21249573296349833   0.08792495900585973
-1.3005464687179527   0.21249573296349833   0.08792495900585973
-1.3005464687179527   0.21249573296349833   0.08792495900585973
-1.5190990074103026   0.051747706702536866   0.07127135030938099
-1.5190990074103026   0.051747706702536866   0.07127135030938099
-1.5190990074103026   0.051747706702536866   0.07127135030938099
-1.5190990074103026   0.051747706702536866   0.07127135030938099
1.6304571835731387   0.14802380156057499   0.14205036439849664
1.6304571835731387   0.14802380156057499   0.14205036439849664
1.6304571835731387   0.14802380156057499   0.14205036439849664
1.6304571835731387   0.14802380156057499   0.14205036439849664
0.5978885710989263   -0.2722757484103759   -0.0935340142501128
0.5978885710989263   -0.2722757484103759   -0.0935340142501128
0.5978885710989263   -0.2722757484103759   -0.0935340142501128
0.5978885710989263   -0.2722757484103759   -0.0935340142501128
0.7392955922264465   -0.001289015377272662   0.10226889235535044
0.7392955922264465   -0.001289015377272662   0.10226889235535044
0.7392955922264465   -0.001289015377272662   0.10226889235535044
0.7392955922264465   -0.001289015377272662   0.10226889235535044
1.660629445871717   -0.03869692291328969   -0.11936954743441618
1.660629445871717   -0.03869692291328969   -0.11936954743441618
1.660629445871717   -0.03869692291328969   -0.11936954743441618
1.660629445871717   -0.03869692291328969   -0.11936954743441618
1.0858860636021013   -0.049556564836121475   -0.10513272396386626
1.0858860636021013   -0.049556564836121475   -0.10513272396386626
1.0858860636021013   -0.049556564836121475   -0.10513272396386626
1.0858860636021013   -0.049556564836121475   -0.10513272396386626
1.7582883007669958   0.20675109057125132   0.12347671355742096
1.7582883007669958   0.20675109057125132   0.12347671355742096
1.7582883007669958   0.20675109057125132   0.12347671355742096
1.7582883007669958   0.20675109057125132   0.12347671355742096
0.6485215753868533   -0.23985219080612813   -0.11303801641374474
0.6485215753868533   -0.23985219080612813   -0.11303801641374474
0.6485215753868533   -0.23985219080612813   -0.11303801641374474
0.6485215753868533   -0.23985219080612813   -0.11303801641374474
0.7953475021149469   0.030853615634195336   0.0843807185006134
0.7953475021149469   0.030853615634195336   0.0843807185006134
0.7953475021149469   0.030853615634195336   0.0843807185006134
0.7953475021149469   0.030853615634195336   0.0843807185006134
1.7624615580774532   -0.002143725248172579   -0.15050468697798014
1.7624615580774532   -0.002143725248172579   -0.15050468697798014
1.7624615580774532   -0.002143725248172579   -0.15050468697798014
1.7624615580774532   -0.002143725248172579   -0.15050468697798014
1.19209330100839   -0.01003727302260532   -0.06359470961967062
1.19209330100839   -0.01003727302260532   -0.06359470961967062
1.19209330100839   -0.01003727302260532   -0.06359470961967062
1.19209330100839   -0.01003727302260532   -0.06359470961967062
1.8612377946661547   0.24616840382315155   0.09506436689418679
1.8612377946661547   0.24616840382315155   0.09506436689418679
1.8612377946661547   0.24616840382315155   0.09506436689418679
1.8612377946661547   0.24616840382315155   0.09506436689418679
0.7039216583368705   -0.21010812062648343   -0.13178676412907425
0.7039216583368705   -0.21010812062648343   -0.13178676412907425
0.7039216583368705   -0.21010812062648343   -0.13178676412907425
0.7039216583368705   -0.21010812062648343   -0.13178676412907425
0.8513156682813535   0.1016295816023204   0.0731345713743681
0.8513156682813535   0.1016295816023204   0.0731345713743681
0.8513156682813535   0.1016295816023204   0.0731345713743681
0.8513156682813535   0.1016295816023204   0.0731345713743681
1.8961174405319994   0.09320401715160126   -0.1623966008216454
1.8961174405319994   0.09320401715160126   -0.1623966008216454
1.8961174405319994   0.09320401715160126   -0.1623966008216454
1.8961174405319994   0.09320401715160126   -0.1623966008216454
1.2579707446071582   0.03797446242024641   -0.02758616675223404
1.2579707446071582   0.03797446242024641   -0.02758616675223404
1.2579707446071582   0.03797446242024641   -0.02758616675223404
1.2579707446071582   0.03797446242024641   -0.02758616675223404
0.7102474606640992   0.08272301337252728   0.11326167179284097
0.7102474606640992   0.08272301337252728   0.11326167179284097
0.7102474606640992   0.08272301337252728   0.11326167179284097
0.7102474606640992   0.08272301337252728   0.11326167179284097
-0.3446751569913422   -0.2539966163556173   -0.04895010686978994
-0.3446751569913422   -0.2539966163556173   -0.04895010686978994
-0.3446751569913422   -0.2539966163556173   -0.04895010686978994
-0.3446751569913422   -0.2539966163556173   -0.04895010686978994
-0.24724771579452462   -0.0740676544479863   0.03442210974562868
-0.24724771579452462   -0.0740676544479863   0.03442210974562868
-0.24724771579452462   -0.0740676544479863   0.03442210974562868
-0.24724771579452462   -0.0740676544479863   0.03442210974562868
0.7163047863295993   0.001184557513128126   -0.015158710019278952
0.7163047863295993   0.001184557513128126   -0.015158710019278952
0.7163047863295993   0.001184557513128126   -0.015158710019278952
0.7163047863295993   0.001184557513128126   -0.015158710019278952
0.19932237191224347   -0.05395913027912173   -0.044894612504067385
0.19932237191224347   -0.05395913027912173   -0.044894612504067385
0.19932237191224347   -0.05395913027912173   -0.044894612504067385
0.19932237191224347   -0.05395913027912173   -0.044894612504067385
0.7677878969544172   0.14228610523021876   0.10115529538771213
0.7677878969544172   0.14228610523021876   0.10115529538771213
0.7677878969544172   0.14228610523021876   0.10115529538771213
0.7677878969544172   0.14228610523021876   0.10115529538771213
-0.29460605440016946   -0.2110444301459064   -0.06539280758468288
-0.29460605440016946   -0.2110444301459064   -0.06539280758468288
-0.29460605440016946   -0.2110444301459064   -0.06539280758468288
-0.29460605440016946   -0.2110444301459064   -0.06539280758468288
-0.19501104406363673   -0.013979541828438344   0.02178904469936503
-0.19501104406363673   -0.013979541828438344   0.02178904469936503
-0.19501104406363673   -0.013979541828438344   0.02178904469936503
-0.19501104406363673   -0.013979541828438344   0.02178904469936503
0.7776898297964725   0.05514991659420489   -0.028203944051752767
0.7776898297964725   0.05514991659420489   -0.028203944051752767
0.7776898297964725   0.05514991659420489   -0.028203944051752767
0.7776898297964725   0.05514991659420489   -0.028203944051752767
0.24982634018731525   -0.006449620048191988   -0.01786732716836091
0.24982634018731525   -0.006449620048191988   -0.01786732716836091
0.24982634018731525   -0.006449620048191988   -0.01786732716836091
0.24982634018731525   -0.006449620048191988   -0.01786732716836091
0.8312258112761084   0.20486266357313404   0.0897632163674818
0.8312258112761084   0.20486266357313404   0.0897632163674818
0.8312258112761084   0.20486266357313404   0.0897632163674818
0.8312258112761084   0.20486266357313404   0.0897632163674818
-0.24440922689631808   -0.15955449016043602   -0.07962692113204405
-0.24440922689631808   -0.15955449016043602   -0.07962692113204405
-0.24440922689631808   -0.15955449016043602   -0.07962692113204405
-0.24440922689631808   -0.15955449016043602   -0.07962692113204405
-0.14344700845231093   0.05555604187147133   0.00920705537351586
-0.14344700845231093   0.05555604187147133   0.00920705537351586
-0.14344700845231093   0.05555604187147133   0.00920705537351586
-0.14344700845231093   0.05555604187147133   0.00920705537351586
0.8321823384912048   0.11934208999905324   -0.04024458597310005
0.8321823384912048   0.11934208999905324   -0.04024458597310005
0.8321823384912048   0.11934208999905324   -0.04024458597310005
0.8321823384912048   0.11934208999905324   -0.04024458597310005
0.3120566140091082   0.05174967620154721   0.013666624410471213
0.3120566140091082   0.05174967620154721   0.013666624410471213
0.3120566140091082   0.05174967620154721   0.013666624410471213
0.3120566140091082   0.05174967620154721   0.013666624410471213
-0.2709094268157453   0.017815524351335772   0.04806640330124895
-0.2709094268157453   0.017815524351335772   0.04806640330124895
-0.2709094268157453   0.017815524351335772   0.04806640330124895
-0.2709094268157453   0.017815524351335772   0.04806640330124895
-1.2684963834684018   -0.22410564587709056   -0.0063632619313852765
-1.2684963834684018   -0.22410564587709056   -0.0063632619313852765
-1.2684963834684018   -0.22410564587709056   -0.0063632619313852765
-1.2684963834684018   -0.22410564587709056   -0.0063632619313852765
-1.206482879477086   -0.1315277215550903   -0.029839353293781193
-1.206482879477086   -0.1315277215550903   -0.029839353293781193
-1.206482879477086   -0.1315277215550903   -0.029839353293781193
-1.206482879477086   -0.1315277215550903   -0.029839353293781193
-0.2263815790814486   0.03264767239975348   0.032037466463261416
-0.2263815790814486   0.03264767239975348   0.032037466463261416
-0.2263815790814486   0.03264767239975348   0.032037466463261416
-0.2263815790814486   0.03264767239975348   0.032037466463261416
-0.7443838189929433   -0.06898517286793411   -0.028005436540910606
-0.7443838189929433   -0.06898517286793411   -0.028005436540910606
-0.7443838189929433   -0.06898517286793411   -0.028005436540910606
-0.7443838189929433   -0.06898517286793411   -0.028005436540910606
-0.2160973723720414   0.07978207083890541   0.036324101571152845
-0.2160973723720414   0.07978207083890541   0.036324101571152845
-0.2160973723720414   0.07978207083890541   0.036324101571152845
-0.2160973723720414   0.07978207083890541   0.036324101571152845
-1.2140330250589442   -0.17592805886669216   -0.023189743891471114
-1.2140330250589442   -0.17592805886669216   -0.023189743891471114
-1.2140330250589442   -0.17592805886669216   -0.023189743891471114
-1.2140330250589442   -0.17592805886669216   -0.023189743891471114
-1.1489241272292814   -0.06560233765912671   -0.04031887758302964
-1.1489241272292814   -0.06560233765912671   -0.04031887758302964
-1.1489241272292814   -0.06560233765912671   -0.04031887758302964
-1.1489241272292814   -0.06560233765912671   -0.04031887758302964
-0.17553016020995624   0.08715222071399019   0.018061701425339083
-0.17553016020995624   0.08715222071399019   0.018061701425339083
-0.17553016020995624   0.08715222071399019   0.018061701425339083
-0.17553016020995624   0.08715222071399019   0.018061701425339083
-0.6863405813012021   -0.013816676255030996   -0.00044177965039166045
-0.6863405813012021   -0.013816676255030996   -0.00044177965039166045
-0.6863405813012021   -0.013816676255030996   -0.00044177965039166045
-0.6863405813012021   -0.013816676255030996   -0.00044177965039166045
-0.1631278518217414   0.14422148812922325   0.02300397595118015
-0.1631278518217414   0.14422148812922325   0.02300397595118015
-0.1631278518217414   0.14422148812922325   0.02300397595118015
-0.1631278518217414   0.14422148812922325   0.02300397595118015
-1.1587825396081977   -0.12012770906506126   -0.03508556807167665
-1.1587825396081977   -0.12012770906506126   -0.03508556807167665
-1.1587825396081977   -0.12012770906506126   -0.03508556807167665
-1.1587825396081977   -0.12012770906506126   -0.03508556807167665
-1.0953542934218836   8.489965933600185e-05   -0.05287055220895612
-1.0953542934218836   8.489965933600185e-05   -0.05287055220895612
-1.0953542934218836   8.489965933600185e-05   -0.05287055220895612
-1.0953542934218836   8.489965933600185e-05   -0.05287055220895612
-0.12696376302552428   0.14283854558726541   0.004340778791655002
-0.12696376302552428   0.14283854558726541   0.004340778791655002
-0.12696376302552428   0.14283854558726541   0.004340778791655002
-0.12696376302552428   0.14283854558726541   0.004340778791655002
-0.6330041330848473   0.04113967751585007   0.025795793563793606
-0.6330041330848473   0.04113967751585007   0.025795793563793606
-0.6330041330848473   0.04113967751585007   0.025795793563793606
-0.6330041330848473   0.04113967751585007   0.025795793563793606
-1.2359664378589441   -0.04865721591837138   -0.019161963842807488
-1.2359664378589441   -0.04865721591837138   -0.019161963842807488
-1.2359664378589441   -0.04865721591837138   -0.019161963842807488
-1.2359664378589441   -0.04865721591837138   -0.019161963842807488
-2.1705287811195886   -0.18127477938710262   0.04235814879223444
-2.1705287811195886   -0.18127477938710262   0.04235814879223444
-2.1705287811195886   -0.18127477938710262   0.04235814879223444
-2.1705287811195886   -0.18127477938710262   0.04235814879223444
-2.139995136360318   -0.186655120709128   -0.08984547375077802
-2.139995136360318   -0.186655120709128   -0.08984547375077802
-2.139995136360318   -0.186655120709128   -0.08984547375077802
-2.139995136360318   -0.186655120709128   -0.08984547375077802
-1.14128621428334   0.08393029169901789   0.08068595942085033
-1.14128621428334   0.08393029169901789   0.08068595942085033
-1.14128621428334   0.08393029169901789   0.08068595942085033
-1.14128621428334   0.08393029169901789   0.08068595942085033
-1.660374368038042   -0.0726222821046667   -0.009739930908336247
-1.660374368038042   -0.0726222821046667   -0.009739930908336247
-1.660374368038042   -0.0726222821046667   -0.009739930908336247
-1.660374368038042   -0.0726222821046667   -0.009739930908336247
-1.1763717892559753   0.018230265594361972   -0.02904188933767067
-1.1763717892559753   0.018230265594361972   -0.02904188933767067
-1.1763717892559753   0.018230265594361972   -0.02904188933767067
-1.1763717892559753   0.018230265594361972   -0.02904188933767067
-2.1048296930364545   -0.12087522625324143   0.0202018484126687
-2.1048296930364545   -0.12087522625324143   0.0202018484126687
-2.1048296930364545   -0.12087522625324143   0.0202018484126687
-2.1048296930364545   -0.12087522625324143   0.0202018484126687
-2.064858449567036   -0.12221165123008254   -0.0993709816399098
-2.064858449567036   -0.12221165123008254   -0.0993709816399098
-2.064858449567036   -0.12221165123008254   -0.0993709816399098
-2.064858449567036   -0.12221165123008254   -0.0993709816399098
-1.0876610852781867   0.13593644889609208   0.0644575456172357
-1.0876610852781867   0.13593644889609208   0.0644575456172357
-1.0876610852781867   0.13593644889609208   0.0644575456172357
-1.0876610852781867   0.13593644889609208   0.0644575456172357
-1.584019324882875   -0.011625530884166846   0.01787419099901502
-1.584019324882875   -0.011625530884166846   0.01787419099901502
-1.584019324882875   -0.011625530884166846   0.01787419099901502
-1.584019324882875   -0.011625530884166846   0.01787419099901502
-1.120594993102374   0.0780501062244246   -0.0423256508320365
-1.120594993102374   0.0780501062244246   -0.0423256508320365
-1.120594993102374   0.0780501062244246   -0.0423256508320365
-1.120594993102374   0.0780501062244246   -0.0423256508320365
-2.0302444506707897   -0.06264521748635615   0.01413257909759745
-2.0302444506707897   -0.06264521748635615   0.01413257909759745
-2.0302444506707897   -0.06264521748635615   0.01413257909759745
-2.0302444506707897   -0.06264521748635615   0.01413257909759745
-1.9976646807110143   -0.052308799545134455   -0.10445958989447923
-1.9976646807110143   -0.052308799545134455   -0.10445958989447923
-1.9976646807110143   -0.052308799545134455   -0.10445958989447923
-1.9976646807110143   -0.052308799545134455   -0.10445958989447923
-1.0357224253983766   0.19318474248718653   0.052188945080738666
-1.0357224253983766   0.19318474248718653   0.052188945080738666
-1.0357224253983766   0.19318474248718653   0.052188945080738666
-1.0357224253983766   0.19318474248718653   0.052188945080738666
-1.5321405278600324   0.04057086469050025   0.04171339344822145
-1.5321405278600324   0.04057086469050025   0.04171339344822145
-1.5321405278600324   0.04057086469050025   0.04171339344822145
-1.5321405278600324   0.04057086469050025   0.04171339344822145
-2.179906597466828   -0.1044241420840134   -0.08138157024704945
-2.179906597466828   -0.1044241420840134   -0.08138157024704945
-2.179906597466828   -0.1044241420840134   -0.08138157024704945
-2.179906597466828   -0.1044241420840134   -0.08138157024704945
-3.105481305410877   -0.11178078148550019   0.14111321859319356
-3.105481305410877   -0.11178078148550019   0.14111321859319356
-3.105481305410877   -0.11178078148550019   0.14111321859319356
-3.105481305410877   -0.11178078148550019   0.14111321859319356
-3.0448199158451277   -0.2235765002635064   -0.10758355623764801
-3.0448199158451277   -0.2235765002635064   -0.10758355623764801
-3.0448199158451277   -0.2235765002635064   -0.10758355623764801
-3.0448199158451277   -0.2235765002635064   -0.10758355623764801
-2.021193905258288   0.1741879010069397   0.1433176600433014
-2.021193905258288   0.1741879010069397   0.1433176600433014
-2.021193905258288   0.1741879010069397   0.1433176600433014
-2.021193905258288   0.1741879010069397   0.1433176600433014
-2.4731247134031826   -0.030593675900010386   0.028342712686986127
-2.4731247134031826   -0.030593675900010386   0.028342712686986127
-2.4731247134031826   -0.030593675900010386   0.028342712686986127
-2.4731247134031826   -0.030593675900010386   0.028342712686986127
-2.109398010333551   -0.03306533398239525   -0.09044963034366912
-2.109398010333551   -0.03306533398239525   -0.09044963034366912
-2.109398010333551   -0.03306533398239525   -0.09044963034366912
-2.109398010333551   -0.03306533398239525   -0.09044963034366912
-2.955212145450738   -0.014919599955047658   0.13179839542581442
-2.955212145450738   -0.014919599955047658   0.13179839542581442
-2.955212145450738   -0.014919599955047658   0.13179839542581442
-2.955212145450738   -0.014919599955047658   0.13179839542581442
-2.931370644392937   -0.18355153691462983   -0.1266546414511508
-2.931370644392937   -0.18355153691462983   -0.1266546414511508
-2.931370644392937   -0.18355153691462983   -0.1266546414511508
-2.931370644392937   -0.18355153691462983   -0.1266546414511508
-1.9580640994779268   0.19888258766711053   0.11350652990844465
-1.9580640994779268   0.19888258766711053   0.11350652990844465
-1.9580640994779268   0.19888258766711053   0.11350652990844465
-1.9580640994779268   0.19888258766711053   0.11350652990844465
-2.4140960604468518   0.013072810453520711   0.05140833812337703
-2.4140960604468518   0.013072810453520711   0.05140833812337703
-2.4140960604468518   0.013072810453520711   0.05140833812337703
-2.4140960604468518   0.013072810453520711   0.05140833812337703
-2.0412719626558906   -0.0007757599498695034   -0.10287443836439537
-2.0412719626558906   -0.0007757599498695034   -0.10287443836439537
-2.0412719626558906   -0.0007757599498695034   -0.10287443836439537
-2.0412719626558906   -0.0007757599498695034   -0.10287443836439537
-2.846774554782832   0.017495037134483082   0.09527923255021217
-2.846774554782832   0.017495037134483082   0.09527923255021217
-2.846774554782832   0.017495037134483082   0.09527923255021217
-2.846774554782832   0.017495037134483082   0.09527923255021217
-2.807520798357014   -0.13533527932821832   -0.14425577281366175
-2.807520798357014   -0.13533527932821832   -0.14425577281366175
-2.807520798357014   -0.13533527932821832   -0.14425577281366175
-2.807520798357014   -0.13533527932821832   -0.14425577281366175
-1.9025106848250886   0.22232767852167246   0.0966739114683434
-1.9025106848250886   0.22232767852167246   0.0966739114683434
-1.9025106848250886   0.22232767852167246   0.0966739114683434
-1.9025106848250886   0.22232767852167246   0.0966739114683434
-2.289368126323759   0.04943538689232141   0.08612524781358605
-2.289368126323759   0.04943538689232141   0.08612524781358605
-2.289368126323759   0.04943538689232141   0.08612524781358605
-2.289368126323759   0.04943538689232141   0.08612524781358605
2.7439945816521156   0.2048550306366133   0.1460138704316441
2.7439945816521156   0.2048550306366133   0.1460138704316441
2.7439945816521156   0.2048550306366133   0.1460138704316441
2.7439945816521156   0.2048550306366133   0.1460138704316441
1.2114836573160572   -0.32437924183062483   -0.066821475122541
1.2114836573160572   -0.32437924183062483   -0.066821475122541
1.2114836573160572   -0.32437924183062483   -0.066821475122541
1.2114836573160572   -0.32437924183062483   -0.066821475122541
1.3517839048896028   -0.05651258456751018   0.10039768527659561
1.3517839048896028   -0.05651258456751018   0.10039768527659561
1.3517839048896028   -0.05651258456751018   0.10039768527659561
1.3517839048896028   -0.05651258456751018   0.10039768527659561
2.7748064976600433   -0.006320756740272437   -0.1049272116742874
2.7748064976600433   -0.006320756740272437   -0.1049272116742874
2.7748064976600433   -0.006320756740272437   -0.1049272116742874
2.7748064976600433   -0.006320756740272437   -0.1049272116742874
1.9021144729155448   -0.05816428818268088   -0.1492190105849973
1.9021144729155448   -0.05816428818268088   -0.1492190105849973
1.9021144729155448   -0.05816428818268088   -0.1492190105849973
1.9021144729155448   -0.05816428818268088   -0.1492190105849973
2.8718631136742374   0.2518589520544791   0.12217615960190704
2.8718631136742374   0.2518589520544791   0.12217615960190704
2.8718631136742374   0.2518589520544791   0.12217615960190704
2.8718631136742374   0.2518589520544791   0.12217615960190704
1.2640364395647674   -0.3053831426729058   -0.08946908324217803
1.2640364395647674   -0.3053831426729058   -0.08946908324217803
1.2640364395647674   -0.3053831426729058   -0.08946908324217803
1.2640364395647674   -0.3053831426729058   -0.08946908324217803
1.4068584674469011   -0.02692025619457178   0.08121574892057613
1.4068584674469011   -0.02692025619457178   0.08121574892057613
1.4068584674469011   -0.02692025619457178   0.08121574892057613
1.4068584674469011   -0.02692025619457178   0.08121574892057613
2.8707386415274   0.02632999153296156   -0.13123641173506018
2.8707386415274   0.02632999153296156   -0.13123641173506018
2.8707386415274   0.02632999153296156   -0.13123641173506018
2.8707386415274   0.02632999153296156   -0.13123641173506018
2.0223727092877195   -0.023223678366923906   -0.10142277010657282
2.0223727092877195   -0.023223678366923906   -0.10142277010657282
2.0223727092877195   -0.023223678366923906   -0.10142277010657282
2.0223727092877195   -0.023223678366923906   -0.10142277010657282
2.967245475123568   0.2870329542603293   0.09059479351841403
2.967245475123568   0.2870329542603293   0.09059479351841403
2.967245475123568   0.2870329542603293   0.09059479351841403
2.967245475123568   0.2870329542603293   0.09059479351841403
1.31851118277202   -0.2794636700006525   -0.10797726064774993
1.31851118277202   -0.2794636700006525   -0.10797726064774993
1.31851118277202   -0.2794636700006525   -0.10797726064774993
1.31851118277202   -0.2794636700006525   -0.10797726064774993
1.456721881255409   0.05204500664231543   0.07120390590839322
1.456721881255409   0.05204500664231543   0.07120390590839322
1.456721881255409   0.05204500664231543   0.07120390590839322
1.456721881255409   0.05204500664231543   0.07120390590839322
2.9886630879583587   0.12182137237424417   -0.13747788402026073
2.9886630879583587   0.12182137237424417   -0.13747788402026073
2.9886630879583587   0.12182137237424417   -0.13747788402026073
2.9886630879583587   0.12182137237424417   -0.13747788402026073
2.0677549730196993   0.023737709967864007   -0.0682668516349026
2.0677549730196993   0.023737709967864007   -0.0682668516349026
2.0677549730196993   0.023737709967864007   -0.0682668516349026
2.0677549730196993   0.023737709967864007   -0.0682668516349026
1.3402686279043206   0.11943915766258484   0.1332849783255582
1.3402686279043206   0.11943915766258484   0.1332849783255582
1.3402686279043206   0.11943915766258484   0.1332849783255582
1.3402686279043206   0.11943915766258484   0.1332849783255582
-0.16355255984373274   -0.40017224703169063   -0.03797806633300201
-0.16355255984373274   -0.40017224703169063   -0.03797806633300201
-0.16355255984373274   -0.40017224703169063   -0.03797806633300201
-0.16355255984373274   -0.40017224703169063   -0.03797806633300201
-0.04249578465451283   -0.14071541302718604   0.034142008263262184
-0.04249578465451283   -0.14071541302718604   0.034142008263262184
-0.04249578465451283   -0.14071541302718604   0.034142008263262184
-0.04249578465451283   -0.14071541302718604   0.034142008263262184
1.3291573728714141   -0.07569722978042703   0.006449670398569959
1.3291573728714141   -0.07569722978042703   0.006449670398569959
1.3291573728714141   -0.07569722978042703   0.006449670398569959
1.3291573728714141   -0.07569722978042703   0.006449670398569959
0.5991681748810673   -0.11209495674537054   -0.07135200249468757
0.5991681748810673   -0.11209495674537054   -0.07135200249468757
0.5991681748810673   -0.11209495674537054   -0.07135200249468757
0.5991681748810673   -0.11209495674537054   -0.07135200249468757
1.399503052197864   0.164460100117264   0.11802073713313582
1.399503052197864   0.164460100117264   0.11802073713313582
1.399503052197864   0.164460100117264   0.11802073713313582
1.399503052197864   0.164460100117264   0.11802073713313582
-0.10795835871111824   -0.3759896376550314   -0.0578966373919195
-0.10795835871111824   -0.3759896376550314   -0.0578966373919195
-0.10795835871111824   -0.3759896376550314   -0.0578966373919195
-0.10795835871111824   -0.3759896376550314   -0.0578966373919195
0.013677119364119965   -0.08783051462757119   0.020906610271842048
0.013677119364119965   -0.08783051462757119   0.020906610271842048
0.013677119364119965   -0.08783051462757119   0.020906610271842048
0.013677119364119965   -0.08783051462757119   0.020906610271842048
1.3866251297278394   -0.035830399328602436   -0.011040796540702946
1.3866251297278394   -0.035830399328602436   -0.011040796540702946
1.3866251297278394   -0.035830399328602436   -0.011040796540702946
1.3866251297278394   -0.035830399328602436   -0.011040796540702946
0.6480448898963164   -0.07964417615625796   -0.04629691388809139
0.6480448898963164   -0.07964417615625796   -0.04629691388809139
0.6480448898963164   -0.07964417615625796   -0.04629691388809139
0.6480448898963164   -0.07964417615625796   -0.04629691388809139
1.4607502064946973   0.21846134861433125   0.10529283935065407
1.4607502064946973   0.21846134861433125   0.10529283935065407
1.4607502064946973   0.21846134861433125   0.10529283935065407
1.4607502064946973   0.21846134861433125   0.10529283935065407
-0.057563350427204465   -0.3392376555949316   -0.08388859771742743
-0.057563350427204465   -0.3392376555949316   -0.08388859771742743
-0.057563350427204465   -0.3392376555949316   -0.08388859771742743
-0.057563350427204465   -0.3392376555949316   -0.08388859771742743
0.05775791066040977   -0.025989997385658575   0.007519404934258548
0.05775791066040977   -0.025989997385658575   0.007519404934258548
0.05775791066040977   -0.025989997385658575   0.007519404934258548
0.05775791066040977   -0.025989997385658575   0.007519404934258548
1.4296916122148609   0.014955006755831668   -0.026857439407886444
1.4296916122148609   0.014955006755831668   -0.026857439407886444
1.4296916122148609   0.014955006755831668   -0.026857439407886444
1.4296916122148609   0.014955006755831668   -0.026857439407886444
0.7076798626649399   -0.03114368922677782   -0.01947752939253681
0.7076798626649399   -0.03114368922677782   -0.01947752939253681
0.7076798626649399   -0.03114368922677782   -0.01947752939253681
0.7076798626649399   -0.03114368922677782   -0.01947752939253681
-0.05612207157797442   0.03286857873340977   0.06613354923068904
-0.05612207157797442   0.03286857873340977   0.06613354923068904
-0.05612207157797442   0.03286857873340977   0.06613354923068904
-0.05612207157797442   0.03286857873340977   0.06613354923068904
-1.5280722948925876   -0.5027353471151645   -0.030682245124591903
-1.5280722948925876   -0.5027353471151645   -0.030682245124591903
-1.5280722948925876   -0.5027353471151645   -0.030682245124591903
-1.5280722948925876   -0.5027353471151645   -0.030682245124591903
-1.4053426743862762   -0.21597324806434665   -0.03210604055241141
-1.4053426743862762   -0.21597324806434665   -0.03210604055241141
-1.4053426743862762   -0.21597324806434665   -0.03210604055241141
-1.4053426743862762   -0.21597324806434665   -0.03210604055241141
-0.0502534571526025   -0.1750649757216107   0.02970320846723848
-0.0502534571526025   -0.1750649757216107   0.02970320846723848
-0.0502534571526025   -0.1750649757216107   0.02970320846723848
-0.0502534571526025   -0.1750649757216107   0.02970320846723848
-0.7634501028734169   -0.20369791386776143   -0.06380385226105631
-0.7634501028734169   -0.20369791386776143   -0.06380385226105631
-0.7634501028734169   -0.20369791386776143   -0.06380385226105631
-0.7634501028734169   -0.20369791386776143   -0.06380385226105631
0.006258158178058606   0.08350615703232442   0.0536901523666089
0.006258158178058606   0.08350615703232442   0.0536901523666089
0.006258158178058606   0.08350615703232442   0.0536901523666089
0.006258158178058606   0.08350615703232442   0.0536901523666089
-1.458336551891767   -0.4710266429931114   -0.042022033151100535
-1.458336551891767   -0.4710266429931114   -0.042022033151100535
-1.458336551891767   -0.4710266429931114   -0.042022033151100535
-1.458336551891767   -0.4710266429931114   -0.042022033151100535
-1.3356901281408384   -0.15724919135849658   -0.0437853910062124
-1.3356901281408384   -0.15724919135849658   -0.0437853910062124
-1.3356901281408384   -0.15724919135849658   -0.0437853910062124
-1.3356901281408384   -0.15724919135849658   -0.0437853910062124
0.0020994263941666105   -0.13677101363803945   0.011958644432535859
0.0020994263941666105   -0.13677101363803945   0.011958644432535859
0.0020994263941666105   -0.13677101363803945   0.011958644432535859
0.0020994263941666105   -0.13677101363803945   0.011958644432535859
-0.6958348839056407   -0.16151325479812204   -0.03551194856826662
-0.6958348839056407   -0.16151325479812204   -0.03551194856826662
-0.6958348839056407   -0.16151325479812204   -0.03551194856826662
-0.6958348839056407   -0.16151325479812204   -0.03551194856826662
0.0633498154698027   0.1396698256661746   0.04176975050650224
0.0633498154698027   0.1396698256661746   0.04176975050650224
0.0633498154698027   0.1396698256661746   0.04176975050650224
0.0633498154698027   0.1396698256661746   0.04176975050650224
-1.3970122543790655   -0.4337617678252999   -0.07388344573053421
-1.3970122543790655   -0.4337617678252999   -0.07388344573053421
-1.3970122543790655   -0.4337617678252999   -0.07388344573053421
-1.3970122543790655   -0.4337617678252999   -0.07388344573053421
-1.2864806522807066   -0.10130512268826558   -0.05686067333081776
-1.2864806522807066   -0.10130512268826558   -0.05686067333081776
-1.2864806522807066   -0.10130512268826558   -0.05686067333081776
-1.2864806522807066   -0.10130512268826558   -0.05686067333081776
0.03650560343783506   -0.10625404394903361   -0.018478084615239934
0.03650560343783506   -0.10625404394903361   -0.018478084615239934
0.03650560343783506   -0.10625404394903361   -0.018478084615239934
0.03650560343783506   -0.10625404394903361   -0.018478084615239934
-0.6462286468637389   -0.12221226568602775   -0.01785963023012633
-0.6462286468637389   -0.12221226568602775   -0.01785963023012633
-0.6462286468637389   -0.12221226568602775   -0.01785963023012633
-0.6462286468637389   -0.12221226568602775   -0.01785963023012633
-1.4302885041006812   -0.04216506783151314   -0.0023335704487257164
-1.4302885041006812   -0.04216506783151314   -0.0023335704487257164
-1.4302885041006812   -0.04216506783151314   -0.0023335704487257164
-1.4302885041006812   -0.04216506783151314   -0.0023335704487257164
-2.8984096685699106   -0.5405008875288594   -0.024808889658437645
-2.8984096685699106   -0.5405008875288594   -0.024808889658437645
-2.8984096685699106   -0.5405008875288594   -0.024808889658437645
-2.8984096685699106   -0.5405008875288594   -0.024808889658437645
-2.7663329495474254   -0.27638103441786677   -0.09582393589948734
-2.7663329495474254   -0.27638103441786677   -0.09582393589948734
-2.7663329495474254   -0.27638103441786677   -0.09582393589948734
-2.7663329495474254   -0.27638103441786677   -0.09582393589948734
-1.3794385241426772   -0.1817917632059976   0.06323322580722206
-1.3794385241426772   -0.1817917632059976   0.06323322580722206
-1.3794385241426772   -0.1817917632059976   0.06323322580722206
-1.3794385241426772   -0.1817917632059976   0.06323322580722206
-2.099987876187299   -0.24460787396330558   -0.045007348744331835
-2.099987876187299   -0.24460787396330558   -0.045007348744331835
-2.099987876187299   -0.24460787396330558   -0.045007348744331835
-2.099987876187299   -0.24460787396330558   -0.045007348744331835
-1.3533484586351432   0.023132507476888164   -0.011240717337994865
-1.3533484586351432   0.023132507476888164   -0.011240717337994865
-1.3533484586351432   0.023132507476888164   -0.011240717337994865
-1.3533484586351432   0.023132507476888164   -0.011240717337994865
-2.7936193210182987   -0.48250161106408745   -0.026135216607605715
-2.7936193210182987   -0.48250161106408745   -0.026135216607605715
-2.7936193210182987   -0.48250161106408745   -0.026135216607605715
-2.7936193210182987   -0.48250161106408745   -0.026135216607605715
-2.666843508344829   -0.21499658200036958   -0.1110251857984303
-2.666843508344829   -0.21499658200036958   -0.1110251857984303
-2.666843508344829   -0.21499658200036958   -0.1110251857984303
-2.666843508344829   -0.21499658200036958   -0.1110251857984303
-1.3117393733507396   -0.13565294964160968   0.05437214122740529
-1.3117393733507396   -0.13565294964160968   0.05437214122740529
-1.3117393733507396   -0.13565294964160968   0.05437214122740529
-1.3117393733507396   -0.13565294964160968   0.05437214122740529
-1.9978705218023343   -0.18571999681397908   -0.01495965317147447
-1.9978705218023343   -0.18571999681397908   -0.01495965317147447
-1.9978705218023343   -0.18571999681397908   -0.01495965317147447
-1.9978705218023343   -0.18571999681397908   -0.01495965317147447
-1.283516446716757   0.07986719369672463   -0.020033368941031318
-1.283516446716757   0.07986719369672463   -0.020033368941031318
-1.283516446716757   0.07986719369672463   -0.020033368941031318
-1.283516446716757   0.07986719369672463   -0.020033368941031318
-2.6999290476028297   -0.43537933796272127   -0.05607012612606256
-2.6999290476028297   -0.43537933796272127   -0.05607012612606256
-2.6999290476028297   -0.43537933796272127   -0.05607012612606256
-2.6999290476028297   -0.43537933796272127   -0.05607012612606256
-2.5859936425171552   -0.1502134719870814   -0.11453091017182225
-2.5859936425171552   -0.1502134719870814   -0.11453091017182225
-2.5859936425171552   -0.1502134719870814   -0.11453091017182225
-2.5859936425171552   -0.1502134719870814   -0.11453091017182225
-1.2728231112462913   -0.10632068942339787   0.016442598576401034
-1.2728231112462913   -0.10632068942339787   0.016442598576401034
-1.2728231112462913   -0.10632068942339787   0.016442598576401034
-1.2728231112462913   -0.10632068942339787   0.016442598576401034
-1.9411889267867408   -0.14979455778779566   -0.0051909490863492475
-1.9411889267867408   -0.14979455778779566   -0.0051909490863492475
-1.9411889267867408   -0.14979455778779566   -0.0051909490863492475
-1.9411889267867408   -0.14979455778779566   -0.0051909490863492475
-2.818771987710599   -0.0967381968685056   -0.0703831760222344
-2.818771987710599   -0.0967381968685056   -0.0703831760222344
-2.818771987710599   -0.0967381968685056   -0.0703831760222344
-2.818771987710599   -0.0967381968685056   -0.0703831760222344
-4.250071131422506   -0.3642657449301673   0.16199538548235073
-4.250071131422506   -0.3642657449301673   0.16199538548235073
-4.250071131422506   -0.3642657449301673   0.16199538548235073
-4.250071131422506   -0.3642657449301673   0.16199538548235073
-4.102655934342368   -0.2895428614559763   -0.09387412318719843
-4.102655934342368   -0.2895428614559763   -0.09387412318719843
-4.102655934342368   -0.2895428614559763   -0.09387412318719843
-4.102655934342368   -0.2895428614559763   -0.09387412318719843
-2.6470955314519067   0.07535667074107233   0.14862544941914793
-2.6470955314519067   0.07535667074107233   0.14862544941914793
-2.6470955314519067   0.07535667074107233   0.14862544941914793
-2.6470955314519067   0.07535667074107233   0.14862544941914793
-3.300229554856841   -0.1146632298359942   0.015081659968246092
-3.300229554856841   -0.1146632298359942   0.015081659968246092
-3.300229554856841   -0.1146632298359942   0.015081659968246092
-3.300229554856841   -0.1146632298359942   0.015081659968246092
-2.709017177670909   -0.007637923059329865   -0.07798818787542602
-2.709017177670909   -0.007637923059329865   -0.07798818787542602
-2.709017177670909   -0.007637923059329865   -0.07798818787542602
-2.709017177670909   -0.007637923059329865   -0.07798818787542602
-4.030742234121782   -0.1965562136539838   0.17270773011374288
-4.030742234121782   -0.1965562136539838   0.17270773011374288
-4.030742234121782   -0.1965562136539838   0.17270773011374288
-4.030742234121782   -0.1965562136539838   0.17270773011374288
-3.944606064920401   -0.24348583864426498   -0.11179363620595986
-3.944606064920401   -0.24348583864426498   -0.11179363620595986
-3.944606064920401   -0.24348583864426498   -0.11179363620595986
-3.944606064920401   -0.24348583864426498   -0.11179363620595986
-2.54864378700349   0.12134718874976735   0.14362965015812693
-2.54864378700349   0.12134718874976735   0.14362965015812693
-2.54864378700349   0.12134718874976735   0.14362965015812693
-2.54864378700349   0.12134718874976735   0.14362965015812693
-3.2062940132531996   -0.04626248514412756   0.0655346144302067
-3.2062940132531996   -0.04626248514412756   0.0655346144302067
-3.2062940132531996   -0.04626248514412756   0.0655346144302067
-3.2062940132531996   -0.04626248514412756   0.0655346144302067
-2.6127922235639502   0.028402156741136775   -0.08416750063552383
-2.6127922235639502   0.028402156741136775   -0.08416750063552383
-2.6127922235639502   0.028402156741136775   -0.08416750063552383
-2.6127922235639502   0.028402156741136775   -0.08416750063552383
-3.8784794299663   -0.14856260824197676   0.12391630816221624
-3.8784794299663   -0.14856260824197676   0.12391630816221624
-3.8784794299663   -0.14856260824197676   0.12391630816221624
-3.8784794299663   -0.14856260824197676   0.12391630816221624
-3.7812179423078174   -0.19976067265091468   -0.13506058691186365
-3.7812179423078174   -0.19976067265091468   -0.13506058691186365
-3.7812179423078174   -0.19976067265091468   -0.13506058691186365
-3.7812179423078174   -0.19976067265091468   -0.13506058691186365
-2.475447346056479   0.17673751530727222   0.11124958483720479
-2.475447346056479   0.17673751530727222   0.11124958483720479
-2.475447346056479   0.17673751530727222   0.11124958483720479
-2.475447346056479   0.17673751530727222   0.11124958483720479
-3.030974493008471   0.012290093966273785   0.11586979140975984
-3.030974493008471   0.012290093966273785   0.11586979140975984
-3.030974493008471   0.012290093966273785   0.11586979140975984
-3.030974493008471   0.012290093966273785   0.11586979140975984
3.7522794306752876   0.2244901178344969   0.13672954984371383
3.7522794306752876   0.2244901178344969   0.13672954984371383
3.7522794306752876   0.2244901178344969   0.13672954984371383
3.7522794306752876   0.2244901178344969   0.13672954984371383
1.7901143022019608   -0.3360863768043937   0.03130940742527391
1.7901143022019608   -0.3360863768043937   0.03130940742527391
1.7901143022019608   -0.3360863768043937   0.03130940742527391
1.7901143022019608   -0.3360863768043937   0.03130940742527391
1.8895360883439312   -0.1413087753945637   0.10540310437024603
1.8895360883439312   -0.1413087753945637   0.10540310437024603
1.8895360883439312   -0.1413087753945637   0.10540310437024603
1.8895360883439312   -0.1413087753945637   0.10540310437024603
3.772446032206818   0.030637594568967197   -0.029821259321403448
3.772446032206818   0.030637594568967197   -0.029821259321403448
3.772446032206818   0.030637594568967197   -0.029821259321403448
3.772446032206818   0.030637594568967197   -0.029821259321403448
2.6388905332423827   -0.07260374464644292   -0.17583132158402645
2.6388905332423827   -0.07260374464644292   -0.17583132158402645
2.6388905332423827   -0.07260374464644292   -0.17583132158402645
2.6388905332423827   -0.07260374464644292   -0.17583132158402645
3.843940085651303   0.25012393640571573   0.10816266606427122
3.843940085651303   0.25012393640571573   0.10816266606427122
3.843940085651303   0.25012393640571573   0.10816266606427122
3.843940085651303   0.25012393640571573   0.10816266606427122
1.8352445936413964   -0.3435925584893622   0.03622941395237095
1.8352445936413964   -0.3435925584893622   0.03622941395237095
1.8352445936413964   -0.3435925584893622   0.03622941395237095
1.8352445936413964   -0.3435925584893622   0.03622941395237095
1.927353291521304   -0.12004751352552456   0.08026141297860556
1.927353291521304   -0.12004751352552456   0.08026141297860556
1.927353291521304   -0.12004751352552456   0.08026141297860556
1.927353291521304   -0.12004751352552456   0.08026141297860556
3.8390355249099115   0.054634901951665205   -0.00853221689205269
3.8390355249099115   0.054634901951665205   -0.00853221689205269
3.8390355249099115   0.054634901951665205   -0.00853221689205269
3.8390355249099115   0.054634901951665205   -0.00853221689205269
2.7482354648513256   -0.0575182135324962   -0.11998062330393874
2.7482354648513256   -0.0575182135324962   -0.11998062330393874
2.7482354648513256   -0.0575182135324962   -0.11998062330393874
2.7482354648513256   -0.0575182135324962   -0.11998062330393874
3.8994763114110196   0.27332177614143993   0.07498484142371209
3.8994763114110196   0.27332177614143993   0.07498484142371209
3.8994763114110196   0.27332177614143993   0.07498484142371209
3.8994763114110196   0.27332177614143993   0.07498484142371209
1.8788804634676985   -0.32676642926779675   0.04461618845285087
1.8788804634676985   -0.32676642926779675   0.04461618845285087
1.8788804634676985   -0.32676642926779675   0.04461618845285087
1.8788804634676985   -0.32676642926779675   0.04461618845285087
1.982936458691108   -0.03715444892493647   0.0733696387512094
1.982936458691108   -0.03715444892493647   0.0733696387512094
1.982936458691108   -0.03715444892493647   0.0733696387512094
1.982936458691108   -0.03715444892493647   0.0733696387512094
3.9081801653359296   0.1093600843875665   -0.0007561878277521639
3.9081801653359296   0.1093600843875665   -0.0007561878277521639
3.9081801653359296   0.1093600843875665   -0.0007561878277521639
3.9081801653359296   0.1093600843875665   -0.0007561878277521639
2.7622561028172123   -0.02681632372261855   -0.08949379254328135
2.7622561028172123   -0.02681632372261855   -0.08949379254328135
2.7622561028172123   -0.02681632372261855   -0.08949379254328135
2.7622561028172123   -0.02681632372261855   -0.08949379254328135
1.8889361956375466   0.04648968074243953   0.14284281705636975
1.8889361956375466   0.04648968074243953   0.14284281705636975
1.8889361956375466   0.04648968074243953   0.14284281705636975
1.8889361956375466   0.04648968074243953   0.14284281705636975
0.10268043965875265   -0.6713329538371565   0.06958051956329761
0.10268043965875265   -0.6713329538371565   0.06958051956329761
0.10268043965875265   -0.6713329538371565   0.06958051956329761
0.10268043965875265   -0.6713329538371565   0.06958051956329761
0.23251142313250028   -0.2833984561189915   0.06458948844478442
0.23251142313250028   -0.2833984561189915   0.06458948844478442
0.23251142313250028   -0.2833984561189915   0.06458948844478442
0.23251142313250028   -0.2833984561189915   0.06458948844478442
1.8402925282084273   -0.32557149974108035   0.043448028039228315
1.8402925282084273   -0.32557149974108035   0.043448028039228315
1.8402925282084273   -0.32557149974108035   0.043448028039228315
1.8402925282084273   -0.32557149974108035   0.043448028039228315
0.9830159013310851   -0.3019519456281802   -0.11290269428212613
0.9830159013310851   -0.3019519456281802   -0.11290269428212613
0.9830159013310851   -0.3019519456281802   -0.11290269428212613
0.9830159013310851   -0.3019519456281802   -0.11290269428212613
1.9341251414278262   0.06784525727512475   0.11919433712003984
1.9341251414278262   0.06784525727512475   0.11919433712003984
1.9341251414278262   0.06784525727512475   0.11919433712003984
1.9341251414278262   0.06784525727512475   0.11919433712003984
0.16344434014676068   -0.6520496829015541   0.08790530029864912
0.16344434014676068   -0.6520496829015541   0.08790530029864912
0.16344434014676068   -0.6520496829015541   0.08790530029864912
0.16344434014676068   -0.6520496829015541   0.08790530029864912
0.28480516717366655   -0.24459940986256573   0.04693411334353058
0.28480516717366655   -0.24459940986256573   0.04693411334353058
0.28480516717366655   -0.24459940986256573   0.04693411334353058
0.28480516717366655   -0.24459940986256573   0.04693411334353058
1.8850110326326952   -0.30533217369872123   0.05383477870875891
1.8850110326326952   -0.30533217369872123   0.05383477870875891
1.8850110326326952   -0.30533217369872123   0.05383477870875891
1.8850110326326952   -0.30533217369872123   0.05383477870875891
1.02763027956816   -0.2871630218020099   -0.056444079448868395
1.02763027956816   -0.2871630218020099   -0.056444079448868395
1.02763027956816   -0.2871630218020099   -0.056444079448868395
1.02763027956816   -0.2871630218020099   -0.056444079448868395
1.9762522270429779   0.10437074571240057   0.10033783134905076
1.9762522270429779   0.10437074571240057   0.10033783134905076
1.9762522270429779   0.10437074571240057   0.10033783134905076
1.9762522270429779   0.10437074571240057   0.10033783134905076
0.21739848972608544   -0.6304678123109859   0.09576912855404529
0.21739848972608544   -0.6304678123109859   0.09576912855404529
0.21739848972608544   -0.6304678123109859   0.09576912855404529
0.21739848972608544   -0.6304678123109859   0.09576912855404529
0.36500550820451927   -0.18637102618654022   0.031198499890595588
0.36500550820451927   -0.18637102618654022   0.031198499890595588
0.36500550820451927   -0.18637102618654022   0.031198499890595588
0.36500550820451927   -0.18637102618654022   0.031198499890595588
1.9340049706721074   -0.27453052168000736   0.06608827141129206
1.9340049706721074   -0.27453052168000736   0.06608827141129206
1.9340049706721074   -0.27453052168000736   0.06608827141129206
1.9340049706721074   -0.27453052168000736   0.06608827141129206
1.1055104965382225   -0.2512300528133036   0.00922068827574829
1.1055104965382225   -0.2512300528133036   0.00922068827574829
1.1055104965382225   -0.2512300528133036   0.00922068827574829
1.1055104965382225   -0.2512300528133036   0.00922068827574829
0.21552948944011824   -0.12948331524761308   0.09197612988058215
0.21552948944011824   -0.12948331524761308   0.09197612988058215
0.21552948944011824   -0.12948331524761308   0.09197612988058215
0.21552948944011824   -0.12948331524761308   0.09197612988058215
-1.5991585407631097   -1.1545411044486535   0.10032811158695878
-1.5991585407631097   -1.1545411044486535   0.10032811158695878
-1.5991585407631097   -1.1545411044486535   0.10032811158695878
-1.5991585407631097   -1.1545411044486535   0.10032811158695878
-1.393651928383737   -0.44826617931376933   0.007095661737457223
-1.393651928383737   -0.44826617931376933   0.007095661737457223
-1.393651928383737   -0.44826617931376933   0.007095661737457223
-1.393651928383737   -0.44826617931376933   0.007095661737457223
0.11513417771043491   -0.8433608772713327   0.03766568248679883
0.11513417771043491   -0.8433608772713327   0.03766568248679883
0.11513417771043491   -0.8433608772713327   0.03766568248679883
0.11513417771043491   -0.8433608772713327   0.03766568248679883
-0.6866707930124599   -0.6485600267118522   -0.13550264459070877
-0.6866707930124599   -0.6485600267118522   -0.13550264459070877
-0.6866707930124599   -0.6485600267118522   -0.13550264459070877
-0.6866707930124599   -0.6485600267118522   -0.13550264459070877
0.2702863618239344   -0.10240375705261148   0.07246948283557501
0.2702863618239344   -0.10240375705261148   0.07246948283557501
0.2702863618239344   -0.10240375705261148   0.07246948283557501
0.2702863618239344   -0.10240375705261148   0.07246948283557501
-1.5130403187294212   -1.1534595057646944   0.11534703645996949
-1.5130403187294212   -1.1534595057646944   0.11534703645996949
-1.5130403187294212   -1.1534595057646944   0.11534703645996949
-1.5130403187294212   -1.1534595057646944   0.11534703645996949
-1.314397810790834   -0.40236248044583867   0.0004985475785405924
-1.314397810790834   -0.40236248044583867   0.0004985475785405924
-1.314397810790834   -0.40236248044583867   0.0004985475785405924
-1.314397810790834   -0.40236248044583867   0.0004985475785405924
0.1702373797843398   -0.8251483985601218   0.05464416509445294
0.1702373797843398   -0.8251483985601218   0.05464416509445294
0.1702373797843398   -0.8251483985601218   0.05464416509445294
0.1702373797843398   -0.8251483985601218   0.05464416509445294
-0.6064670686515857   -0.6267448614134016   -0.05072403787676072
-0.6064670686515857   -0.6267448614134016   -0.05072403787676072
-0.6064670686515857   -0.6267448614134016   -0.05072403787676072
-0.6064670686515857   -0.6267448614134016   -0.05072403787676072
0.3203449671093095   -0.06625574479140178   0.04628944795058132
0.3203449671093095   -0.06625574479140178   0.04628944795058132
0.3203449671093095   -0.06625574479140178   0.04628944795058132
0.3203449671093095   -0.06625574479140178   0.04628944795058132
-1.4321547954073746   -1.1289045315061257   0.13825567555614823
-1.4321547954073746   -1.1289045315061257   0.13825567555614823
-1.4321547954073746   -1.1289045315061257   0.13825567555614823
-1.4321547954073746   -1.1289045315061257   0.13825567555614823
-1.1836331299049256   -0.3494554449465027   -0.014346356259947589
-1.1836331299049256   -0.3494554449465027   -0.014346356259947589
-1.1836331299049256   -0.3494554449465027   -0.014346356259947589
-1.1836331299049256   -0.3494554449465027   -0.014346356259947589
0.256274232157208   -0.773722288362472   0.07489338182997099
0.256274232157208   -0.773722288362472   0.07489338182997099
0.256274232157208   -0.773722288362472   0.07489338182997099
0.256274232157208   -0.773722288362472   0.07489338182997099
-0.5023064684499983   -0.5774089512470648   0.038206349072005125
-0.5023064684499983   -0.5774089512470648   0.038206349072005125
-0.5023064684499983   -0.5774089512470648   0.038206349072005125
-0.5023064684499983   -0.5774089512470648   0.038206349072005125
-1.4260115726025848   -0.23229593401293588   0.04381778195385438
-1.4260115726025848   -0.23229593401293588   0.04381778195385438
-1.4260115726025848   -0.23229593401293588   0.04381778195385438
-1.4260115726025848   -0.23229593401293588   0.04381778195385438
-3.564469267425891   -1.7991717276452437   -0.08615341212551314
-3.564469267425891   -1.7991717276452437   -0.08615341212551314
-3.564469267425891   -1.7991717276452437   -0.08615341212551314
-3.564469267425891   -1.7991717276452437   -0.08615341212551314
-3.2250604997658683   -0.5833026866359127   -0.09869941571903984
-3.2250604997658683   -0.5833026866359127   -0.09869941571903984
-3.2250604997658683   -0.5833026866359127   -0.09869941571903984
-3.2250604997658683   -0.5833026866359127   -0.09869941571903984
-1.6008238378197226   -1.506611114851339   0.029581050095099093
-1.6008238378197226   -1.506611114851339   0.029581050095099093
-1.6008238378197226   -1.506611114851339   0.029581050095099093
-1.6008238378197226   -1.506611114851339   0.029581050095099093
-2.4512661241782596   -1.0640616708417339   -0.14219106259502592
-2.4512661241782596   -1.0640616708417339   -0.14219106259502592
-2.4512661241782596   -1.0640616708417339   -0.14219106259502592
-2.4512661241782596   -1.0640616708417339   -0.14219106259502592
-1.3323253881074875   -0.1766027869995344   0.0420649708044708
-1.3323253881074875   -0.1766027869995344   0.0420649708044708
-1.3323253881074875   -0.1766027869995344   0.0420649708044708
-1.3323253881074875   -0.1766027869995344   0.0420649708044708
-3.4857515509258974   -1.905503615935511   -0.07995374221958595
-3.4857515509258974   -1.905503615935511   -0.07995374221958595
-3.4857515509258974   -1.905503615935511   -0.07995374221958595
-3.4857515509258974   -1.905503615935511   -0.07995374221958595
-3.1197208497810833   -0.5282236595860714   -0.10049993206455944
-3.1197208497810833   -0.5282236595860714   -0.10049993206455944
-3.1197208497810833   -0.5282236595860714   -0.10049993206455944
-3.1197208497810833   -0.5282236595860714   -0.10049993206455944
-1.5241011922496341   -1.4951730025584598   0.04479216239717221
-1.5241011922496341   -1.4951730025584598   0.04479216239717221
-1.5241011922496341   -1.4951730025584598   0.04479216239717221
-1.5241011922496341   -1.4951730025584598   0.04479216239717221
-2.3409816620464725   -1.0357665497340403   -0.10042182855315754
-2.3409816620464725   -1.0357665497340403   -0.10042182855315754
-2.3409816620464725   -1.0357665497340403   -0.10042182855315754
-2.3409816620464725   -1.0357665497340403   -0.10042182855315754
-1.257780067048918   -0.13290879954855767   0.014133585390843736
-1.257780067048918   -0.13290879954855767   0.014133585390843736
-1.257780067048918   -0.13290879954855767   0.014133585390843736
-1.257780067048918   -0.13290879954855767   0.014133585390843736
-3.386127576658851   -1.890573464273022   -0.07018376176642266
-3.386127576658851   -1.890573464273022   -0.07018376176642266
-3.386127576658851   -1.890573464273022   -0.07018376176642266
-3.386127576658851   -1.890573464273022   -0.07018376176642266
-2.955545950023415   -0.4689346923933647   -0.11390457749630975
-2.955545950023415   -0.4689346923933647   -0.11390457749630975
-2.955545950023415   -0.4689346923933647   -0.11390457749630975
-2.955545950023415   -0.4689346923933647   -0.11390457749630975
-1.3581367992961204   -1.345966941035023   0.10964679287261797
-1.3581367992961204   -1.345966941035023   0.10964679287261797
-1.3581367992961204   -1.345966941035023   0.10964679287261797
-1.3581367992961204   -1.345966941035023   0.10964679287261797
-2.217735426915431   -0.9397112265971062   -0.05671559991824904
-2.217735426915431   -0.9397112265971062   -0.05671559991824904
-2.217735426915431   -0.9397112265971062   -0.05671559991824904
-2.217735426915431   -0.9397112265971062   -0.05671559991824904
-3.2314706477965984   -0.19750927802190854   -0.022822763602385054
-3.2314706477965984   -0.19750927802190854   -0.022822763602385054
-3.2314706477965984   -0.19750927802190854   -0.022822763602385054
-3.2314706477965984   -0.19750927802190854   -0.022822763602385054
-5.70935433857587   -1.130240805747338   0.058150309839179126
-5.70935433857587   -1.130240805747338   0.058150309839179126
-5.70935433857587   -1.130240805747338   0.058150309839179126
-5.70935433857587   -1.130240805747338   0.058150309839179126
-5.483607144844287   -0.545877578608753   -0.12103418393772106
-5.483607144844287   -0.545877578608753   -0.12103418393772106
-5.483607144844287   -0.545877578608753   -0.12103418393772106
-5.483607144844287   -0.545877578608753   -0.12103418393772106
-3.157795980636327   -0.583912581223933   0.23823307451666187
-3.157795980636327   -0.583912581223933   0.23823307451666187
-3.157795980636327   -0.583912581223933   0.23823307451666187
-3.157795980636327   -0.583912581223933   0.23823307451666187
-4.217346794868823   -0.656116240237977   0.06124851228486699
-4.217346794868823   -0.656116240237977   0.06124851228486699
-4.217346794868823   -0.656116240237977   0.06124851228486699
-4.217346794868823   -0.656116240237977   0.06124851228486699
-3.097361294506383   -0.04426898913761368   0.0007629130800721196
-3.097361294506383   -0.04426898913761368   0.0007629130800721196
-3.097361294506383   -0.04426898913761368   0.0007629130800721196
-3.097361294506383   -0.04426898913761368   0.0007629130800721196
-5.5657270489221515   -1.107206388643   0.029695105707151725
-5.5657270489221515   -1.107206388643   0.029695105707151725
-5.5657270489221515   -1.107206388643   0.029695105707151725
-5.5657270489221515   -1.107206388643   0.029695105707151725
-5.35869290508183   -0.5001070803823121   -0.15359257742393004
-5.35869290508183   -0.5001070803823121   -0.15359257742393004
-5.35869290508183   -0.5001070803823121   -0.15359257742393004
-5.35869290508183   -0.5001070803823121   -0.15359257742393004
-3.0493353429586536   -0.5543552334161851   0.27755917587772794
-3.0493353429586536   -0.5543552334161851   0.27755917587772794
-3.0493353429586536   -0.5543552334161851   0.27755917587772794
-3.0493353429586536   -0.5543552334161851   0.27755917587772794
-4.150938396792666   -0.5401386954258962   0.058692308556241926
-4.150938396792666   -0.5401386954258962   0.058692308556241926
-4.150938396792666   -0.5401386954258962   0.058692308556241926
-4.150938396792666   -0.5401386954258962   0.058692308556241926
-3.0007119329716554   -0.003773476663487263   -0.029905530939980912
-3.0007119329716554   -0.003773476663487263   -0.029905530939980912
-3.0007119329716554   -0.003773476663487263   -0.029905530939980912
-3.0007119329716554   -0.003773476663487263   -0.029905530939980912
-5.4154426736422385   -1.0588151957084282   0.12136669510009779
-5.4154426736422385   -1.0588151957084282   0.12136669510009779
-5.4154426736422385   -1.0588151957084282   0.12136669510009779
-5.4154426736422385   -1.0588151957084282   0.12136669510009779
-5.099355853605839   -0.40458686890989537   -0.17146382869927382
-5.099355853605839   -0.40458686890989537   -0.17146382869927382
-5.099355853605839   -0.40458686890989537   -0.17146382869927382
-5.099355853605839   -0.40458686890989537   -0.17146382869927382
-2.8807655382672186   -0.5149504582293143   0.3060132471206469
-2.8807655382672186   -0.5149504582293143   0.3060132471206469
-2.8807655382672186   -0.5149504582293143   0.3060132471206469
-2.8807655382672186   -0.5149504582293143   0.3060132471206469
-3.9010187608882343   -0.41276725805404746   0.11952307777934121
-3.9010187608882343   -0.41276725805404746   0.11952307777934121
-3.9010187608882343   -0.41276725805404746   0.11952307777934121
-3.9010187608882343   -0.41276725805404746   0.11952307777934121
4.109745089027074   0.13320844343890104   0.05815272181663447
4.109745089027074   0.13320844343890104   0.05815272181663447
4.109745089027074   0.13320844343890104   0.05815272181663447
4.109745089027074   0.13320844343890104   0.05815272181663447
2.100657872809102   -0.10972387114780169   0.04339408734855349
2.100657872809102   -0.10972387114780169   0.04339408734855349
2.100657872809102   -0.10972387114780169   0.04339408734855349
2.100657872809102   -0.10972387114780169   0.04339408734855349
2.0178775539978693   -0.29739164852028643   0.08460100344127708
2.0178775539978693   -0.29739164852028643   0.08460100344127708
2.0178775539978693   -0.29739164852028643   0.08460100344127708
2.0178775539978693   -0.29739164852028643   0.08460100344127708
4.079821471827938   0.22997414926999216   0.031624079701526336
4.079821471827938   0.22997414926999216   0.031624079701526336
4.079821471827938   0.22997414926999216   0.031624079701526336
4.079821471827938   0.22997414926999216   0.031624079701526336
2.9130177668464303   -0.04175261420561438   -0.10743647839098827
2.9130177668464303   -0.04175261420561438   -0.10743647839098827
2.9130177668464303   -0.04175261420561438   -0.10743647839098827
2.9130177668464303   -0.04175261420561438   -0.10743647839098827
4.056903789406126   0.10241280103800121   0.04459701582445752
4.056903789406126   0.10241280103800121   0.04459701582445752
4.056903789406126   0.10241280103800121   0.04459701582445752
4.056903789406126   0.10241280103800121   0.04459701582445752
2.0339819561399155   -0.1766435805680609   0.04437494619928398
2.0339819561399155   -0.1766435805680609   0.04437494619928398
2.0339819561399155   -0.1766435805680609   0.04437494619928398
2.0339819561399155   -0.1766435805680609   0.04437494619928398
1.9652066387185   -0.30441288018236856   0.07005775862919039
1.9652066387185   -0.30441288018236856   0.07005775862919039
1.9652066387185   -0.30441288018236856   0.07005775862919039
1.9652066387185   -0.30441288018236856   0.07005775862919039
4.031593026527941   0.21983614932947781   0.05433811736873817
4.031593026527941   0.21983614932947781   0.05433811736873817
4.031593026527941   0.21983614932947781   0.05433811736873817
4.031593026527941   0.21983614932947781   0.05433811736873817
2.90378974103818   -0.0576251560225326   -0.1247204964195999
2.90378974103818   -0.0576251560225326   -0.1247204964195999
2.90378974103818   -0.0576251560225326   -0.1247204964195999
2.90378974103818   -0.0576251560225326   -0.1247204964195999
3.997584082035796   0.09073080466895223   0.013398739568498297
3.997584082035796   0.09073080466895223   0.013398739568498297
3.997584082035796   0.09073080466895223   0.013398739568498297
3.997584082035796   0.09073080466895223   0.013398739568498297
1.9870289362106321   -0.1874941825218625   0.06225054842934513
1.9870289362106321   -0.1874941825218625   0.06225054842934513
1.9870289362106321   -0.1874941825218625   0.06225054842934513
1.9870289362106321   -0.1874941825218625   0.06225054842934513
1.9095691310897553   -0.2781140034687013   0.06048440713708286
1.9095691310897553   -0.2781140034687013   0.06048440713708286
1.9095691310897553   -0.2781140034687013   0.06048440713708286
1.9095691310897553   -0.2781140034687013   0.06048440713708286
3.9571935728799414   0.2218255524246735   0.07783259325683173
3.9571935728799414   0.2218255524246735   0.07783259325683173
3.9571935728799414   0.2218255524246735   0.07783259325683173
3.9571935728799414   0.2218255524246735   0.07783259325683173
2.794166053498055   -0.05826042521904029   -0.1687082523669651
2.794166053498055   -0.05826042521904029   -0.1687082523669651
2.794166053498055   -0.05826042521904029   -0.1687082523669651
2.794166053498055   -0.05826042521904029   -0.1687082523669651
2.0806705541500006   -0.26908692522543165   0.10282054813067423
2.0806705541500006   -0.26908692522543165   0.10282054813067423
2.0806705541500006   -0.26908692522543165   0.10282054813067423
2.0806705541500006   -0.26908692522543165   0.10282054813067423
0.40948469544287175   -0.24788065737251033   0.022680285877223663
0.40948469544287175   -0.24788065737251033   0.022680285877223663
0.40948469544287175   -0.24788065737251033   0.022680285877223663
0.40948469544287175   -0.24788065737251033   0.022680285877223663
0.26679282094466455   -0.6266949265459592   0.11133060127871941
0.26679282094466455   -0.6266949265459592   0.11133060127871941
0.26679282094466455   -0.6266949265459592   0.11133060127871941
0.26679282094466455   -0.6266949265459592   0.11133060127871941
2.092297527683019   0.07970202566153484   0.07960719768520416
2.092297527683019   0.07970202566153484   0.07960719768520416
2.092297527683019   0.07970202566153484   0.07960719768520416
2.092297527683019   0.07970202566153484   0.07960719768520416
1.1937035834175451   -0.26704442109522425   -0.00447522464464431
1.1937035834175451   -0.26704442109522425   -0.00447522464464431
1.1937035834175451   -0.26704442109522425   -0.00447522464464431
1.1937035834175451   -0.26704442109522425   -0.00447522464464431
2.021478368885011   -0.28081770945189155   0.08603113880858804
2.021478368885011   -0.28081770945189155   0.08603113880858804
2.021478368885011   -0.28081770945189155   0.08603113880858804
2.021478368885011   -0.28081770945189155   0.08603113880858804
0.3197385878129606   -0.2840485833622246   0.033413092436465064
0.3197385878129606   -0.2840485833622246   0.033413092436465064
0.3197385878129606   -0.2840485833622246   0.033413092436465064
0.3197385878129606   -0.2840485833622246   0.033413092436465064
0.2029692146343014   -0.632566094463394   0.09970699288378926
0.2029692146343014   -0.632566094463394   0.09970699288378926
0.2029692146343014   -0.632566094463394   0.09970699288378926
0.2029692146343014   -0.632566094463394   0.09970699288378926
2.0437136316347364   0.06377487134678561   0.09440497168121738
2.0437136316347364   0.06377487134678561   0.09440497168121738
2.0437136316347364   0.06377487134678561   0.09440497168121738
2.0437136316347364   0.06377487134678561   0.09440497168121738
1.1071057614629458   -0.2847117963763195   -0.057500369565278486
1.1071057614629458   -0.2847117963763195   -0.057500369565278486
1.1071057614629458   -0.2847117963763195   -0.057500369565278486
1.1071057614629458   -0.2847117963763195   -0.057500369565278486
1.9692785271562192   -0.28503730534059335   0.07104162597599722
1.9692785271562192   -0.28503730534059335   0.07104162597599722
1.9692785271562192   -0.28503730534059335   0.07104162597599722
1.9692785271562192   -0.28503730534059335   0.07104162597599722
0.25799092478099117   -0.30316731210786496   0.045416761261709473
0.25799092478099117   -0.30316731210786496   0.045416761261709473
0.25799092478099117   -0.30316731210786496   0.045416761261709473
0.25799092478099117   -0.30316731210786496   0.045416761261709473
0.13152766655883694   -0.6326103453212101   0.07816645731854918
0.13152766655883694   -0.6326103453212101   0.07816645731854918
0.13152766655883694   -0.6326103453212101   0.07816645731854918
0.13152766655883694   -0.6326103453212101   0.07816645731854918
1.9885766642161082   0.06445761563778557   0.11295045366236847
1.9885766642161082   0.06445761563778557   0.11295045366236847
1.9885766642161082   0.06445761563778557   0.11295045366236847
1.9885766642161082   0.06445761563778557   0.11295045366236847
1.0540449897937845   -0.2828156448346349   -0.10267740338805767
1.0540449897937845   -0.2828156448346349   -0.10267740338805767
1.0540449897937845   -0.2828156448346349   -0.10267740338805767
1.0540449897937845   -0.2828156448346349   -0.10267740338805767
0.3185097452092446   -0.7725734117535511   0.09249828909011706
0.3185097452092446   -0.7725734117535511   0.09249828909011706
0.3185097452092446   -0.7725734117535511   0.09249828909011706
0.3185097452092446   -0.7725734117535511   0.09249828909011706
-1.2159297183902236   -0.38542369601327386   0.001940983582725063
-1.2159297183902236   -0.38542369601327386   0.001940983582725063
-1.2159297183902236   -0.38542369601327386   0.001940983582725063
-1.2159297183902236   -0.38542369601327386   0.001940983582725063
-1.4740872243212584   -1.1432168489812955   0.12760722596880067
-1.4740872243212584   -1.1432168489812955   0.12760722596880067
-1.4740872243212584   -1.1432168489812955   0.12760722596880067
-1.4740872243212584   -1.1432168489812955   0.12760722596880067
0.36643110813104834   -0.06734882435390478   0.050175935018580094
0.36643110813104834   -0.06734882435390478   0.050175935018580094
0.36643110813104834   -0.06734882435390478   0.050175935018580094
0.36643110813104834   -0.06734882435390478   0.050175935018580094
-0.49445587238980143   -0.583821643519928   0.021828086464158902
-0.49445587238980143   -0.583821643519928   0.021828086464158902
-0.49445587238980143   -0.583821643519928   0.021828086464158902
-0.49445587238980143   -0.583821643519928   0.021828086464158902
0.2197689620920222   -0.8167198173320545   0.06623619780160292
0.2197689620920222   -0.8167198173320545   0.06623619780160292
0.2197689620920222   -0.8167198173320545   0.06623619780160292
0.2197689620920222   -0.8167198173320545   0.06623619780160292
-1.3523853060268067   -0.41880608374768213   0.011706052207425481
-1.3523853060268067   -0.41880608374768213   0.011706052207425481
-1.3523853060268067   -0.41880608374768213   0.011706052207425481
-1.3523853060268067   -0.41880608374768213   0.011706052207425481
-1.5630812152535962   -1.1620154155468592   0.1036276751987015
-1.5630812152535962   -1.1620154155468592   0.1036276751987015
-1.5630812152535962   -1.1620154155468592   0.1036276751987015
-1.5630812152535962   -1.1620154155468592   0.1036276751987015
0.30665196092196223   -0.08504237822667554   0.07059700808537522
0.30665196092196223   -0.08504237822667554   0.07059700808537522
0.30665196092196223   -0.08504237822667554   0.07059700808537522
0.30665196092196223   -0.08504237822667554   0.07059700808537522
-0.6056122218871631   -0.619567869841112   -0.05248083863981454
-0.6056122218871631   -0.619567869841112   -0.05248083863981454
-0.6056122218871631   -0.619567869841112   -0.05248083863981454
-0.6056122218871631   -0.619567869841112   -0.05248083863981454
0.15178400703778602   -0.8312707783672988   0.04248563880512127
0.15178400703778602   -0.8312707783672988   0.04248563880512127
0.15178400703778602   -0.8312707783672988   0.04248563880512127
0.15178400703778602   -0.8312707783672988   0.04248563880512127
-1.4378245383466537   -0.44539829238347073   0.013293936570015194
-1.4378245383466537   -0.44539829238347073   0.013293936570015194
-1.4378245383466537   -0.44539829238347073   0.013293936570015194
-1.4378245383466537   -0.44539829238347073   0.013293936570015194
-1.6594157808887455   -1.1542938441514972   0.08772561593079972
-1.6594157808887455   -1.1542938441514972   0.08772561593079972
-1.6594157808887455   -1.1542938441514972   0.08772561593079972
-1.6594157808887455   -1.1542938441514972   0.08772561593079972
0.2401133703280878   -0.09499173495759355   0.08347636580118306
0.2401133703280878   -0.09499173495759355   0.08347636580118306
0.2401133703280878   -0.09499173495759355   0.08347636580118306
0.2401133703280878   -0.09499173495759355   0.08347636580118306
-0.6957134547954028   -0.6332579168650326   -0.12653939318526952
-0.6957134547954028   -0.6332579168650326   -0.12653939318526952
-0.6957134547954028   -0.6332579168650326   -0.12653939318526952
-0.6957134547954028   -0.6332579168650326   -0.12653939318526952
-1.3819199596450316   -1.3234316395040708   0.10999772079949094
-1.3819199596450316   -1.3234316395040708   0.10999772079949094
-1.3819199596450316   -1.3234316395040708   0.10999772079949094
-1.3819199596450316   -1.3234316395040708   0.10999772079949094
-3.066695445468292   -0.480097577478785   -0.07143608041948935
-3.066695445468292   -0.480097577478785   -0.07143608041948935
-3.066695445468292   -0.480097577478785   -0.07143608041948935
-3.066695445468292   -0.480097577478785   -0.07143608041948935
-3.517610687819137   -1.9159105885471504   -0.10012946838454362
-3.517610687819137   -1.9159105885471504   -0.10012946838454362
-3.517610687819137   -1.9159105885471504   -0.10012946838454362
-3.517610687819137   -1.9159105885471504   -0.10012946838454362
-1.284294525829453   -0.10999907654251787   0.043352945989030396
-1.284294525829453   -0.10999907654251787   0.043352945989030396
-1.284294525829453   -0.10999907654251787   0.043352945989030396
-1.284294525829453   -0.10999907654251787   0.043352945989030396
-2.2906201431190145   -0.920644469634825   -0.08034388851394515
-2.2906201431190145   -0.920644469634825   -0.08034388851394515
-2.2906201431190145   -0.920644469634825   -0.08034388851394515
-2.2906201431190145   -0.920644469634825   -0.08034388851394515
-1.5632157652285161   -1.4977134798848954   0.03646115233611025
-1.5632157652285161   -1.4977134798848954   0.03646115233611025
-1.5632157652285161   -1.4977134798848954   0.03646115233611025
-1.5632157652285161   -1.4977134798848954   0.03646115233611025
-3.23136111039709   -0.5208678471817657   -0.06392432263969444
-3.23136111039709   -0.5208678471817657   -0.06392432263969444
-3.23136111039709   -0.5208678471817657   -0.06392432263969444
-3.23136111039709   -0.5208678471817657   -0.06392432263969444
-3.6233604786567652   -1.9471440137865121   -0.11580360733595979
-3.6233604786567652   -1.9471440137865121   -0.11580360733595979
-3.6233604786567652   -1.9471440137865121   -0.11580360733595979
-3.6233604786567652   -1.9471440137865121   -0.11580360733595979
-1.366202323672233   -0.13891428989102417   0.06492100744967186
-1.366202323672233   -0.13891428989102417   0.06492100744967186
-1.366202323672233   -0.13891428989102417   0.06492100744967186
-1.366202323672233   -0.13891428989102417   0.06492100744967186
-2.419733412168851   -1.0195605102888128   -0.1127587420133461
-2.419733412168851   -1.0195605102888128   -0.1127587420133461
-2.419733412168851   -1.0195605102888128   -0.1127587420133461
-2.419733412168851   -1.0195605102888128   -0.1127587420133461
-1.6540162012180468   -1.527272475721385   0.014209805550958798
-1.6540162012180468   -1.527272475721385   0.014209805550958798
-1.6540162012180468   -1.527272475721385   0.014209805550958798
-1.6540162012180468   -1.527272475721385   0.014209805550958798
-3.3356918324619524   -0.5589310593071574   -0.06567333084127516
-3.3356918324619524   -0.5589310593071574   -0.06567333084127516
-3.3356918324619524   -0.5589310593071574   -0.06567333084127516
-3.3356918324619524   -0.5589310593071574   -0.06567333084127516
-3.713684137363945   -1.8651269202434155   -0.13060576510152017
-3.713684137363945   -1.8651269202434155   -0.13060576510152017
-3.713684137363945   -1.8651269202434155   -0.13060576510152017
-3.713684137363945   -1.8651269202434155   -0.13060576510152017
-1.4700430606669044   -0.17969543141181116   0.059990804300296977
-1.4700430606669044   -0.17969543141181116   0.059990804300296977
-1.4700430606669044   -0.17969543141181116   0.059990804300296977
-1.4700430606669044   -0.17969543141181116   0.059990804300296977
-2.5383966103249387   -1.05346760969457   -0.14353421795752855
-2.5383966103249387   -1.05346760969457   -0.14353421795752855
-2.5383966103249387   -1.05346760969457   -0.14353421795752855
-2.5383966103249387   -1.05346760969457   -0.14353421795752855
-3.0108277968516104   -0.5471705352777542   0.27497512046283934
-3.0108277968516104   -0.5471705352777542   0.27497512046283934
-3.0108277968516104   -0.5471705352777542   0.27497512046283934
-3.0108277968516104   -0.5471705352777542   0.27497512046283934
-5.312518213096339   -0.39877490036988417   -0.09551700037808958
-5.312518213096339   -0.39877490036988417   -0.09551700037808958
-5.312518213096339   -0.39877490036988417   -0.09551700037808958
-5.312518213096339   -0.39877490036988417   -0.09551700037808958
-5.639557478624279   -1.1127915907594403   0.07559952482707688
-5.639557478624279   -1.1127915907594403   0.07559952482707688
-5.639557478624279   -1.1127915907594403   0.07559952482707688
-5.639557478624279   -1.1127915907594403   0.07559952482707688
-3.100358244480177   0.0436427370743252   0.02657942268875413
-3.100358244480177   0.0436427370743252   0.02657942268875413
-3.100358244480177   0.0436427370743252   0.02657942268875413
-3.100358244480177   0.0436427370743252   0.02657942268875413
-4.062643227203655   -0.39098199236302167   0.08191075432907977
-4.062643227203655   -0.39098199236302167   0.08191075432907977
-4.062643227203655   -0.39098199236302167   0.08191075432907977
-4.062643227203655   -0.39098199236302167   0.08191075432907977
-3.1831426151606843   -0.5878070514666932   0.24410735782721849
-3.1831426151606843   -0.5878070514666932   0.24410735782721849
-3.1831426151606843   -0.5878070514666932   0.24410735782721849
-3.1831426151606843   -0.5878070514666932   0.24410735782721849
-5.542255783004046   -0.4668244772786925   -0.08385911055246464
-5.542255783004046   -0.4668244772786925   -0.08385911055246464
-5.542255783004046   -0.4668244772786925   -0.08385911055246464
-5.542255783004046   -0.4668244772786925   -0.08385911055246464
-5.779042474183931   -1.1605352449584447   -0.02363375060829309
-5.779042474183931   -1.1605352449584447   -0.02363375060829309
-5.779042474183931   -1.1605352449584447   -0.02363375060829309
-5.779042474183931   -1.1605352449584447   -0.02363375060829309
-3.198690961587801   0.011347239719839974   0.04905272450248299
-3.198690961587801   0.011347239719839974   0.04905272450248299
-3.198690961587801   0.011347239719839974   0.04905272450248299
-3.198690961587801   0.011347239719839974   0.04905272450248299
-4.307365002021829   -0.5165394387095434   0.03398609498765573
-4.307365002021829   -0.5165394387095434   0.03398609498765573
-4.307365002021829   -0.5165394387095434   0.03398609498765573
-4.307365002021829   -0.5165394387095434   0.03398609498765573
-3.2938687142525307   -0.6182262522256428   0.20273745312431724
-3.2938687142525307   -0.6182262522256428   0.20273745312431724
-3.2938687142525307   -0.6182262522256428   0.20273745312431724
-3.2938687142525307   -0.6182262522256428   0.20273745312431724
-5.654934240829887   -0.5020312723236127   -0.06159655647281742
-5.654934240829887   -0.5020312723236127   -0.06159655647281742
-5.654934240829887   -0.5020312723236127   -0.06159655647281742
-5.654934240829887   -0.5020312723236127   -0.06159655647281742
-5.901111763350448   -1.1802324681354803   -5.057732695457062e-05
-5.901111763350448   -1.1802324681354803   -5.057732695457062e-05
-5.901111763350448   -1.1802324681354803   -5.057732695457062e-05
-5.901111763350448   -1.1802324681354803   -5.057732695457062e-05
-3.3366294365231797   -0.130320451124184   0.019861269983073998
-3.3366294365231797   -0.130320451124184   0.019861269983073998
-3.3366294365231797   -0.130320451124184   0.019861269983073998
-3.3366294365231797   -0.130320451124184   0.019861269983073998
-4.360980360820707   -0.6245502986143407   0.053735716487707585
-4.360980360820707   -0.6245502986143407   0.053735716487707585
-4.360980360820707   -0.6245502986143407   0.053735716487707585
-4.360980360820707   -0.6245502986143407   0.053735716487707585
3.5931254875190253   0.1643217134600221   -0.0788456043222504
3.5931254875190253   0.1643217134600221   -0.0788456043222504
3.5931254875190253   0.1643217134600221   -0.0788456043222504
3.5931254875190253   0.1643217134600221   -0.0788456043222504
1.8104271268564975   -0.03530268234776274   0.03912899558599571
1.8104271268564975   -0.03530268234776274   0.03912899558599571
1.8104271268564975   -0.03530268234776274   0.03912899558599571
1.8104271268564975   -0.03530268234776274   0.03912899558599571
1.6942596213348564   -0.26734499428362135   -0.06940978757345881
1.6942596213348564   -0.26734499428362135   -0.06940978757345881
1.6942596213348564   -0.26734499428362135   -0.06940978757345881
1.6942596213348564   -0.26734499428362135   -0.06940978757345881
3.5512461434096694   0.2598879563858141   0.04578066371008921
3.5512461434096694   0.2598879563858141   0.04578066371008921
3.5512461434096694   0.2598879563858141   0.04578066371008921
3.5512461434096694   0.2598879563858141   0.04578066371008921
2.522700907088275   0.006165531022273907   -0.09747689189755326
2.522700907088275   0.006165531022273907   -0.09747689189755326
2.522700907088275   0.006165531022273907   -0.09747689189755326
2.522700907088275   0.006165531022273907   -0.09747689189755326
3.492274166312023   0.09025134929003731   -0.07944261468233274
3.492274166312023   0.09025134929003731   -0.07944261468233274
3.492274166312023   0.09025134929003731   -0.07944261468233274
3.492274166312023   0.09025134929003731   -0.07944261468233274
1.7499282788098574   -0.10101170681048677   0.04260021232839689
1.7499282788098574   -0.10101170681048677   0.04260021232839689
1.7499282788098574   -0.10101170681048677   0.04260021232839689
1.7499282788098574   -0.10101170681048677   0.04260021232839689
1.6317523635736055   -0.2824458937241774   -0.057231434945202886
1.6317523635736055   -0.2824458937241774   -0.057231434945202886
1.6317523635736055   -0.2824458937241774   -0.057231434945202886
1.6317523635736055   -0.2824458937241774   -0.057231434945202886
3.464330590133551   0.23855635143917975   0.0667052634415265
3.464330590133551   0.23855635143917975   0.0667052634415265
3.464330590133551   0.23855635143917975   0.0667052634415265
3.464330590133551   0.23855635143917975   0.0667052634415265
2.4881117615801975   -0.025564773706373667   -0.11668675726565192
2.4881117615801975   -0.025564773706373667   -0.11668675726565192
2.4881117615801975   -0.025564773706373667   -0.11668675726565192
2.4881117615801975   -0.025564773706373667   -0.11668675726565192
3.4049421548265806   0.07108519932052437   -0.0627657609746688
3.4049421548265806   0.07108519932052437   -0.0627657609746688
3.4049421548265806   0.07108519932052437   -0.0627657609746688
3.4049421548265806   0.07108519932052437   -0.0627657609746688
1.6865910067143695   -0.11952453377172856   0.054040420806166445
1.6865910067143695   -0.11952453377172856   0.054040420806166445
1.6865910067143695   -0.11952453377172856   0.054040420806166445
1.6865910067143695   -0.11952453377172856   0.054040420806166445
1.5711479786909823   -0.2787869233109658   -0.03918419123240552
1.5711479786909823   -0.2787869233109658   -0.03918419123240552
1.5711479786909823   -0.2787869233109658   -0.03918419123240552
1.5711479786909823   -0.2787869233109658   -0.03918419123240552
3.3566525928578885   0.2236807895888855   0.08658700903594785
3.3566525928578885   0.2236807895888855   0.08658700903594785
3.3566525928578885   0.2236807895888855   0.08658700903594785
3.3566525928578885   0.2236807895888855   0.08658700903594785
2.3642662426169565   -0.04469779561336956   -0.15347209133887202
2.3642662426169565   -0.04469779561336956   -0.15347209133887202
2.3642662426169565   -0.04469779561336956   -0.15347209133887202
2.3642662426169565   -0.04469779561336956   -0.15347209133887202
1.8193169695042228   0.03267070463309091   0.015604821843756153
1.8193169695042228   0.03267070463309091   0.015604821843756153
1.8193169695042228   0.03267070463309091   0.015604821843756153
1.8193169695042228   0.03267070463309091   0.015604821843756153
0.17853100975141412   -0.10835154466303726   -0.003748916623812021
0.17853100975141412   -0.10835154466303726   -0.003748916623812021
0.17853100975141412   -0.10835154466303726   -0.003748916623812021
0.17853100975141412   -0.10835154466303726   -0.003748916623812021
0.06907521154945878   -0.35419684686209313   -0.06666484879937548
0.06907521154945878   -0.35419684686209313   -0.06666484879937548
0.06907521154945878   -0.35419684686209313   -0.06666484879937548
0.06907521154945878   -0.35419684686209313   -0.06666484879937548
1.82166605403719   0.2098667201357396   0.09041066151883469
1.82166605403719   0.2098667201357396   0.09041066151883469
1.82166605403719   0.2098667201357396   0.09041066151883469
1.82166605403719   0.2098667201357396   0.09041066151883469
0.9543000691937689   -0.05030657248854853   -0.03810304970770097
0.9543000691937689   -0.05030657248854853   -0.03810304970770097
0.9543000691937689   -0.05030657248854853   -0.03810304970770097
0.9543000691937689   -0.05030657248854853   -0.03810304970770097
1.7679640729160828   0.00438949198409655   0.027377984064948874
1.7679640729160828   0.00438949198409655   0.027377984064948874
1.7679640729160828   0.00438949198409655   0.027377984064948874
1.7679640729160828   0.00438949198409655   0.027377984064948874
0.12478937899657226   -0.14670743238444262   0.0044165739585414615
0.12478937899657226   -0.14670743238444262   0.0044165739585414615
0.12478937899657226   -0.14670743238444262   0.0044165739585414615
0.12478937899657226   -0.14670743238444262   0.0044165739585414615
0.008807625513760464   -0.37133333425399895   -0.04623005020172982
0.008807625513760464   -0.37133333425399895   -0.04623005020172982
0.008807625513760464   -0.37133333425399895   -0.04623005020172982
0.008807625513760464   -0.37133333425399895   -0.04623005020172982
1.7554899043865564   0.17924624715794862   0.09976412823742375
1.7554899043865564   0.17924624715794862   0.09976412823742375
1.7554899043865564   0.17924624715794862   0.09976412823742375
1.7554899043865564   0.17924624715794862   0.09976412823742375
0.8850639598322873   -0.0784358167577093   -0.053954185047016406
0.8850639598322873   -0.0784358167577093   -0.053954185047016406
0.8850639598322873   -0.0784358167577093   -0.053954185047016406
0.8850639598322873   -0.0784358167577093   -0.053954185047016406
1.704790573779194   -0.014823325074041993   0.04033704743262158
1.704790573779194   -0.014823325074041993   0.04033704743262158
1.704790573779194   -0.014823325074041993   0.04033704743262158
1.704790573779194   -0.014823325074041993   0.04033704743262158
0.059205646367482545   -0.17756507177564546   0.011991791588527104
0.059205646367482545   -0.17756507177564546   0.011991791588527104
0.059205646367482545   -0.17756507177564546   0.011991791588527104
0.059205646367482545   -0.17756507177564546   0.011991791588527104
-0.05593091643914281   -0.37331335431029916   -0.031396815422804175
-0.05593091643914281   -0.37331335431029916   -0.031396815422804175
-0.05593091643914281   -0.37331335431029916   -0.031396815422804175
-0.05593091643914281   -0.37331335431029916   -0.031396815422804175
1.6887286096997127   0.15963266028559225   0.11029938021469998
1.6887286096997127   0.15963266028559225   0.11029938021469998
1.6887286096997127   0.15963266028559225   0.11029938021469998
1.6887286096997127   0.15963266028559225   0.11029938021469998
0.8306738000598627   -0.08984894954786776   -0.0676572011160779
0.8306738000598627   -0.08984894954786776   -0.0676572011160779
0.8306738000598627   -0.08984894954786776   -0.0676572011160779
0.8306738000598627   -0.08984894954786776   -0.0676572011160779
0.18098276034625363   -0.1053314488708782   0.005489740558226465
0.18098276034625363   -0.1053314488708782   0.005489740558226465
0.18098276034625363   -0.1053314488708782   0.005489740558226465
0.18098276034625363   -0.1053314488708782   0.005489740558226465
-1.3984780966658144   -0.1618608238756664   -0.04406923631917372
-1.3984780966658144   -0.1618608238756664   -0.04406923631917372
-1.3984780966658144   -0.1618608238756664   -0.04406923631917372
-1.3984780966658144   -0.1618608238756664   -0.04406923631917372
-1.5201588842409643   -0.46986044990515885   -0.07579220036580009
-1.5201588842409643   -0.46986044990515885   -0.07579220036580009
-1.5201588842409643   -0.46986044990515885   -0.07579220036580009
-1.5201588842409643   -0.46986044990515885   -0.07579220036580009
0.1942692037097261   0.15336602836617516   0.051742236773692864
0.1942692037097261   0.15336602836617516   0.051742236773692864
0.1942692037097261   0.15336602836617516   0.051742236773692864
0.1942692037097261   0.15336602836617516   0.051742236773692864
-0.6377768113895247   -0.1389198091494759   -0.03790403722494451
-0.6377768113895247   -0.1389198091494759   -0.03790403722494451
-0.6377768113895247   -0.1389198091494759   -0.03790403722494451
-0.6377768113895247   -0.1389198091494759   -0.03790403722494451
0.13572085035820056   -0.11754396936309816   0.029910467745338364
0.13572085035820056   -0.11754396936309816   0.029910467745338364
0.13572085035820056   -0.11754396936309816   0.029910467745338364
0.13572085035820056   -0.11754396936309816   0.029910467745338364
-1.457151812274169   -0.19449173356061564   -0.03612555687636617
-1.457151812274169   -0.19449173356061564   -0.03612555687636617
-1.457151812274169   -0.19449173356061564   -0.03612555687636617
-1.457151812274169   -0.19449173356061564   -0.03612555687636617
-1.5908652098212759   -0.48865724620081724   -0.049960161042095344
-1.5908652098212759   -0.48865724620081724   -0.049960161042095344
-1.5908652098212759   -0.48865724620081724   -0.049960161042095344
-1.5908652098212759   -0.48865724620081724   -0.049960161042095344
0.1281426143827728   0.12056904364721899   0.05854251624211389
0.1281426143827728   0.12056904364721899   0.05854251624211389
0.1281426143827728   0.12056904364721899   0.05854251624211389
0.1281426143827728   0.12056904364721899   0.05854251624211389
-0.6962408081994417   -0.1585247304056336   -0.0454921273306745
-0.6962408081994417   -0.1585247304056336   -0.0454921273306745
-0.6962408081994417   -0.1585247304056336   -0.0454921273306745
-0.6962408081994417   -0.1585247304056336   -0.0454921273306745
0.07312252119960168   -0.13755454082793936   0.04156563480141669
0.07312252119960168   -0.13755454082793936   0.04156563480141669
0.07312252119960168   -0.13755454082793936   0.04156563480141669
0.07312252119960168   -0.13755454082793936   0.04156563480141669
-1.5349255709364198   -0.22961411602397652   -0.029305096794671224
-1.5349255709364198   -0.22961411602397652   -0.029305096794671224
-1.5349255709364198   -0.22961411602397652   -0.029305096794671224
-1.5349255709364198   -0.22961411602397652   -0.029305096794671224
-1.6693532691735415   -0.5024653815019683   -0.044425227419061096
-1.6693532691735415   -0.5024653815019683   -0.044425227419061096
-1.6693532691735415   -0.5024653815019683   -0.044425227419061096
-1.6693532691735415   -0.5024653815019683   -0.044425227419061096
0.0566214446864768   0.09255305857294974   0.06549857732204499
0.0566214446864768   0.09255305857294974   0.06549857732204499
0.0566214446864768   0.09255305857294974   0.06549857732204499
0.0566214446864768   0.09255305857294974   0.06549857732204499
-0.7722340825056565   -0.18200061654518657   -0.06373077715680134
-0.7722340825056565   -0.18200061654518657   -0.06373077715680134
-0.7722340825056565   -0.18200061654518657   -0.06373077715680134
-0.7722340825056565   -0.18200061654518657   -0.06373077715680134
-1.3776188734292194   -0.12360152982456354   0.02196758581266795
-1.3776188734292194   -0.12360152982456354   0.02196758581266795
-1.3776188734292194   -0.12360152982456354   0.02196758581266795
-1.3776188734292194   -0.12360152982456354   0.02196758581266795
-2.9364867551360163   -0.18936657419092517   -0.07791148271748705
-2.9364867551360163   -0.18936657419092517   -0.07791148271748705
-2.9364867551360163   -0.18936657419092517   -0.07791148271748705
-2.9364867551360163   -0.18936657419092517   -0.07791148271748705
-3.0749090905475107   -0.4918796223665113   -0.07543521841287837
-3.0749090905475107   -0.4918796223665113   -0.07543521841287837
-3.0749090905475107   -0.4918796223665113   -0.07543521841287837
-3.0749090905475107   -0.4918796223665113   -0.07543521841287837
-1.384778171983779   0.11683999801881534   0.01441091299612969
-1.384778171983779   0.11683999801881534   0.01441091299612969
-1.384778171983779   0.11683999801881534   0.01441091299612969
-1.384778171983779   0.11683999801881534   0.01441091299612969
-2.175321629889707   -0.16401928600888466   -0.032016022465660876
-2.175321629889707   -0.16401928600888466   -0.032016022465660876
-2.175321629889707   -0.16401928600888466   -0.032016022465660876
-2.175321629889707   -0.16401928600888466   -0.032016022465660876
-1.427772179766443   -0.1367575184228282   0.05303839052446902
-1.427772179766443   -0.1367575184228282   0.05303839052446902
-1.427772179766443   -0.1367575184228282   0.05303839052446902
-1.427772179766443   -0.1367575184228282   0.05303839052446902
-3.0231358526049688   -0.22950287576499212   -0.07894577530171808
-3.0231358526049688   -0.22950287576499212   -0.07894577530171808
-3.0231358526049688   -0.22950287576499212   -0.07894577530171808
-3.0231358526049688   -0.22950287576499212   -0.07894577530171808
-3.172806768092228   -0.5237784970973499   -0.0527955841618389
-3.172806768092228   -0.5237784970973499   -0.0527955841618389
-3.172806768092228   -0.5237784970973499   -0.0527955841618389
-3.172806768092228   -0.5237784970973499   -0.0527955841618389
-1.4634161255441926   0.08092340580061208   0.017704608341874623
-1.4634161255441926   0.08092340580061208   0.017704608341874623
-1.4634161255441926   0.08092340580061208   0.017704608341874623
-1.4634161255441926   0.08092340580061208   0.017704608341874623
-2.237427180483222   -0.18181043896098503   -0.03219274888700879
-2.237427180483222   -0.18181043896098503   -0.03219274888700879
-2.237427180483222   -0.18181043896098503   -0.03219274888700879
-2.237427180483222   -0.18181043896098503   -0.03219274888700879
-1.505912899283674   -0.16884314784519322   0.05498729329026744
-1.505912899283674   -0.16884314784519322   0.05498729329026744
-1.505912899283674   -0.16884314784519322   0.05498729329026744
-1.505912899283674   -0.16884314784519322   0.05498729329026744
-3.124433642217544   -0.26813559131632225   -0.06657286056944581
-3.124433642217544   -0.26813559131632225   -0.06657286056944581
-3.124433642217544   -0.26813559131632225   -0.06657286056944581
-3.124433642217544   -0.26813559131632225   -0.06657286056944581
-3.28364830323417   -0.565739920221022   -0.05662639717849165
-3.28364830323417   -0.565739920221022   -0.05662639717849165
-3.28364830323417   -0.565739920221022   -0.05662639717849165
-3.28364830323417   -0.565739920221022   -0.05662639717849165
-1.5483879991821476   0.036675416895778135   0.021260324140134915
-1.5483879991821476   0.036675416895778135   0.021260324140134915
-1.5483879991821476   0.036675416895778135   0.021260324140134915
-1.5483879991821476   0.036675416895778135   0.021260324140134915
-2.347079854690646   -0.22468757605205852   -0.05212127730335818
-2.347079854690646   -0.22468757605205852   -0.05212127730335818
-2.347079854690646   -0.22468757605205852   -0.05212127730335818
-2.347079854690646   -0.22468757605205852   -0.05212127730335818
-2.8364916412562247   0.13506109714322156   0.09763641534732387
-2.8364916412562247   0.13506109714322156   0.09763641534732387
-2.8364916412562247   0.13506109714322156   0.09763641534732387
-2.8364916412562247   0.13506109714322156   0.09763641534732387
-4.399040782458998   -0.2192693591971442   -0.05982505034984653
-4.399040782458998   -0.2192693591971442   -0.05982505034984653
-4.399040782458998   -0.2192693591971442   -0.05982505034984653
-4.399040782458998   -0.2192693591971442   -0.05982505034984653
-4.508459384721558   -0.22321190253909695   0.10040736486302415
-4.508459384721558   -0.22321190253909695   0.10040736486302415
-4.508459384721558   -0.22321190253909695   0.10040736486302415
-4.508459384721558   -0.22321190253909695   0.10040736486302415
-2.948164173058279   0.09065283177540973   -0.02424308510867268
-2.948164173058279   0.09065283177540973   -0.02424308510867268
-2.948164173058279   0.09065283177540973   -0.02424308510867268
-2.948164173058279   0.09065283177540973   -0.02424308510867268
-3.5019280190963893   0.002941011156855411   0.08873157024838768
-3.5019280190963893   0.002941011156855411   0.08873157024838768
-3.5019280190963893   0.002941011156855411   0.08873157024838768
-3.5019280190963893   0.002941011156855411   0.08873157024838768
-2.9169068109049423   0.09963037561527421   0.1230661818181416
-2.9169068109049423   0.09963037561527421   0.1230661818181416
-2.9169068109049423   0.09963037561527421   0.1230661818181416
-2.9169068109049423   0.09963037561527421   0.1230661818181416
-4.537696621481682   -0.23016932098572895   -0.038821400490963165
-4.537696621481682   -0.23016932098572895   -0.038821400490963165
-4.537696621481682   -0.23016932098572895   -0.038821400490963165
-4.537696621481682   -0.23016932098572895   -0.038821400490963165
-4.646723535079173   -0.26077851352216863   0.13645653178381179
-4.646723535079173   -0.26077851352216863   0.13645653178381179
-4.646723535079173   -0.26077851352216863   0.13645653178381179
-4.646723535079173   -0.26077851352216863   0.13645653178381179
-3.0495211570516254   0.06514686248487123   -0.025292888541076697
-3.0495211570516254   0.06514686248487123   -0.025292888541076697
-3.0495211570516254   0.06514686248487123   -0.025292888541076697
-3.0495211570516254   0.06514686248487123   -0.025292888541076697
-3.6796785267293615   -0.04109363027092838   0.048010766144005346
-3.6796785267293615   -0.04109363027092838   0.048010766144005346
-3.6796785267293615   -0.04109363027092838   0.048010766144005346
-3.6796785267293615   -0.04109363027092838   0.048010766144005346
-3.0209560201978016   0.06134967894993815   0.12132997926297406
-3.0209560201978016   0.06134967894993815   0.12132997926297406
-3.0209560201978016   0.06134967894993815   0.12132997926297406
-3.0209560201978016   0.06134967894993815   0.12132997926297406
-4.680666837550397   -0.2623594956046562   -0.031678998489819754
-4.680666837550397   -0.2623594956046562   -0.031678998489819754
-4.680666837550397   -0.2623594956046562   -0.031678998489819754
-4.680666837550397   -0.2623594956046562   -0.031678998489819754
-4.843122834849827   -0.4118301968213761   0.1188059398236381
-4.843122834849827   -0.4118301968213761   0.1188059398236381
-4.843122834849827   -0.4118301968213761   0.1188059398236381
-4.843122834849827   -0.4118301968213761   0.1188059398236381
-3.166372761292815   -0.012212534642963013   -0.02377607304982976
-3.166372761292815   -0.012212534642963013   -0.02377607304982976
-3.166372761292815   -0.012212534642963013   -0.02377607304982976
-3.166372761292815   -0.012212534642963013   -0.02377607304982976
-3.756334514589534   -0.09636983139400113   0.011943630236046138
-3.756334514589534   -0.09636983139400113   0.011943630236046138
-3.756334514589534   -0.09636983139400113   0.011943630236046138
-3.756334514589534   -0.09636983139400113   0.011943630236046138
2.9047378172303873   0.15482701880128097   -0.10453318904267543
2.9047378172303873   0.15482701880128097   -0.10453318904267543
2.9047378172303873   0.15482701880128097   -0.10453318904267543
2.9047378172303873   0.15482701880128097   -0.10453318904267543
1.4415452483185045   -0.000413331582480303   0.03815192954242008
1.4415452483185045   -0.000413331582480303   0.03815192954242008
1.4415452483185045   -0.000413331582480303   0.03815192954242008
1.4415452483185045   -0.000413331582480303   0.03815192954242008
1.3164546379558197   -0.2153619485331943   -0.09567735543122538
1.3164546379558197   -0.2153619485331943   -0.09567735543122538
1.3164546379558197   -0.2153619485331943   -0.09567735543122538
1.3164546379558197   -0.2153619485331943   -0.09567735543122538
2.8495094492253883   0.23538258840374787   0.04781229340466041
2.8495094492253883   0.23538258840374787   0.04781229340466041
2.8495094492253883   0.23538258840374787   0.04781229340466041
2.8495094492253883   0.23538258840374787   0.04781229340466041
2.0180441979700903   0.017873961195833787   -0.06638703373210676
2.0180441979700903   0.017873961195833787   -0.06638703373210676
2.0180441979700903   0.017873961195833787   -0.06638703373210676
2.0180441979700903   0.017873961195833787   -0.06638703373210676
2.788358989317688   0.07803575773284199   -0.10059317546291216
2.788358989317688   0.07803575773284199   -0.10059317546291216
2.788358989317688   0.07803575773284199   -0.10059317546291216
2.788358989317688   0.07803575773284199   -0.10059317546291216
1.3749636666349936   -0.060656549090814804   0.0421623885222419
1.3749636666349936   -0.060656549090814804   0.0421623885222419
1.3749636666349936   -0.060656549090814804   0.0421623885222419
1.3749636666349936   -0.060656549090814804   0.0421623885222419
1.2538795223706054   -0.23349620241790192   -0.08310643808093654
1.2538795223706054   -0.23349620241790192   -0.08310643808093654
1.2538795223706054   -0.23349620241790192   -0.08310643808093654
1.2538795223706054   -0.23349620241790192   -0.08310643808093654
2.7558791306557144   0.21050800254996044   0.06522530490345403
2.7558791306557144   0.21050800254996044   0.06522530490345403
2.7558791306557144   0.21050800254996044   0.06522530490345403
2.7558791306557144   0.21050800254996044   0.06522530490345403
1.9687086730681065   -0.014698052121213168   -0.08752311758726052
1.9687086730681065   -0.014698052121213168   -0.08752311758726052
1.9687086730681065   -0.014698052121213168   -0.08752311758726052
1.9687086730681065   -0.014698052121213168   -0.08752311758726052
2.696055386091902   0.055735979057853546   -0.07912139442345523
2.696055386091902   0.055735979057853546   -0.07912139442345523
2.696055386091902   0.055735979057853546   -0.07912139442345523
2.696055386091902   0.055735979057853546   -0.07912139442345523
1.31135157794753   -0.08107586791267718   0.05183350529845014
1.31135157794753   -0.08107586791267718   0.05183350529845014
1.31135157794753   -0.08107586791267718   0.05183350529845014
1.31135157794753   -0.08107586791267718   0.05183350529845014
1.1966934588298315   -0.23920341190330213   -0.06787486439705512
1.1966934588298315   -0.23920341190330213   -0.06787486439705512
1.1966934588298315   -0.23920341190330213   -0.06787486439705512
1.1966934588298315   -0.23920341190330213   -0.06787486439705512
2.6503246189829577   0.18844855129051002   0.08103271834122176
2.6503246189829577   0.18844855129051002   0.08103271834122176
2.6503246189829577   0.18844855129051002   0.08103271834122176
2.6503246189829577   0.18844855129051002   0.08103271834122176
1.8549264083203523   -0.037235716818846576   -0.11902014365272275
1.8549264083203523   -0.037235716818846576   -0.11902014365272275
1.8549264083203523   -0.037235716818846576   -0.11902014365272275
1.8549264083203523   -0.037235716818846576   -0.11902014365272275
1.46577396063937   0.15135271729345454   0.007529442270813667
1.46577396063937   0.15135271729345454   0.007529442270813667
1.46577396063937   0.15135271729345454   0.007529442270813667
1.46577396063937   0.15135271729345454   0.007529442270813667
0.05237868778923088   -0.04726086533710331   -0.005695911851502283
0.05237868778923088   -0.04726086533710331   -0.005695911851502283
0.05237868778923088   -0.04726086533710331   -0.005695911851502283
0.05237868778923088   -0.04726086533710331   -0.005695911851502283
-0.04189619834692099   -0.19391736719484196   -0.06494752274983921
-0.04189619834692099   -0.19391736719484196   -0.06494752274983921
-0.04189619834692099   -0.19391736719484196   -0.06494752274983921
-0.04189619834692099   -0.19391736719484196   -0.06494752274983921
1.437244329227216   0.21294561695989916   0.07996353543263823
1.437244329227216   0.21294561695989916   0.07996353543263823
1.437244329227216   0.21294561695989916   0.07996353543263823
1.437244329227216   0.21294561695989916   0.07996353543263823
0.717037247532066   0.030318369910862897   -0.008323672049309776
0.717037247532066   0.030318369910862897   -0.008323672049309776
0.717037247532066   0.030318369910862897   -0.008323672049309776
0.717037247532066   0.030318369910862897   -0.008323672049309776
1.4041439638744126   0.111468029104269   0.015939296524259114
1.4041439638744126   0.111468029104269   0.015939296524259114
1.4041439638744126   0.111468029104269   0.015939296524259114
1.4041439638744126   0.111468029104269   0.015939296524259114
-0.008216193549593243   -0.09186013989466564   0.0013952739366231877
-0.008216193549593243   -0.09186013989466564   0.0013952739366231877
-0.008216193549593243   -0.09186013989466564   0.0013952739366231877
-0.008216193549593243   -0.09186013989466564   0.0013952739366231877
-0.10117711131317503   -0.22325732203621032   -0.05608670203376231
-0.10117711131317503   -0.22325732203621032   -0.05608670203376231
-0.10117711131317503   -0.22325732203621032   -0.05608670203376231
-0.10117711131317503   -0.22325732203621032   -0.05608670203376231
1.3700986518381477   0.17597692621485445   0.08851608062400654
1.3700986518381477   0.17597692621485445   0.08851608062400654
1.3700986518381477   0.17597692621485445   0.08851608062400654
1.3700986518381477   0.17597692621485445   0.08851608062400654
0.6447327293363496   -0.006073571887208112   -0.02901961304793383
0.6447327293363496   -0.006073571887208112   -0.02901961304793383
0.6447327293363496   -0.006073571887208112   -0.02901961304793383
0.6447327293363496   -0.006073571887208112   -0.02901961304793383
1.3382285468700856   0.08072470533908904   0.024417776659473964
1.3382285468700856   0.08072470533908904   0.024417776659473964
1.3382285468700856   0.08072470533908904   0.024417776659473964
1.3382285468700856   0.08072470533908904   0.024417776659473964
-0.06924699003217388   -0.12794508484752426   0.008251667182557355
-0.06924699003217388   -0.12794508484752426   0.008251667182557355
-0.06924699003217388   -0.12794508484752426   0.008251667182557355
-0.06924699003217388   -0.12794508484752426   0.008251667182557355
-0.15987378566710697   -0.24105199054519638   -0.04452147857230099
-0.15987378566710697   -0.24105199054519638   -0.04452147857230099
-0.15987378566710697   -0.24105199054519638   -0.04452147857230099
-0.15987378566710697   -0.24105199054519638   -0.04452147857230099
1.3062410356073   0.1446941976450225   0.09596540994194407
1.3062410356073   0.1446941976450225   0.09596540994194407
1.3062410356073   0.1446941976450225   0.09596540994194407
1.3062410356073   0.1446941976450225   0.09596540994194407
0.591100229818949   -0.029497307677786494   -0.04432283074622282
0.591100229818949   -0.029497307677786494   -0.04432283074622282
0.591100229818949   -0.029497307677786494   -0.04432283074622282
0.591100229818949   -0.029497307677786494   -0.04432283074622282
0.10020666832990352   0.1532721679085529   0.032910957606204654
0.10020666832990352   0.1532721679085529   0.032910957606204654
0.10020666832990352   0.1532721679085529   0.032910957606204654
0.10020666832990352   0.1532721679085529   0.032910957606204654
-1.2933812913457243   -0.08320439362817048   -0.044568101136419076
-1.2933812913457243   -0.08320439362817048   -0.044568101136419076
-1.2933812913457243   -0.08320439362817048   -0.044568101136419076
-1.2933812913457243   -0.08320439362817048   -0.044568101136419076
-1.3669386457927732   -0.17739773454471375   -0.04086872827837498
-1.3669386457927732   -0.17739773454471375   -0.04086872827837498
-1.3669386457927732   -0.17739773454471375   -0.04086872827837498
-1.3669386457927732   -0.17739773454471375   -0.04086872827837498
0.052468405463714424   0.174319936964734   0.038638192143761886
0.052468405463714424   0.174319936964734   0.038638192143761886
0.052468405463714424   0.174319936964734   0.038638192143761886
0.052468405463714424   0.174319936964734   0.038638192143761886
-0.6261333903151238   0.01975805700930433   0.0023121421285605542
-0.6261333903151238   0.01975805700930433   0.0023121421285605542
-0.6261333903151238   0.01975805700930433   0.0023121421285605542
-0.6261333903151238   0.01975805700930433   0.0023121421285605542
0.04235306763158123   0.12092553482116512   0.041455905126664805
0.04235306763158123   0.12092553482116512   0.041455905126664805
0.04235306763158123   0.12092553482116512   0.041455905126664805
0.04235306763158123   0.12092553482116512   0.041455905126664805
-1.3552115399433122   -0.12239156438383739   -0.037239369191945766
-1.3552115399433122   -0.12239156438383739   -0.037239369191945766
-1.3552115399433122   -0.12239156438383739   -0.037239369191945766
-1.3552115399433122   -0.12239156438383739   -0.037239369191945766
-1.4305668739325346   -0.20964937683692553   -0.03384009786330125
-1.4305668739325346   -0.20964937683692553   -0.03384009786330125
-1.4305668739325346   -0.20964937683692553   -0.03384009786330125
-1.4305668739325346   -0.20964937683692553   -0.03384009786330125
-0.008665046860514884   0.13628230578329675   0.046933992410031336
-0.008665046860514884   0.13628230578329675   0.046933992410031336
-0.008665046860514884   0.13628230578329675   0.046933992410031336
-0.008665046860514884   0.13628230578329675   0.046933992410031336
-0.6870831832025037   -0.011741765342101307   -0.013276598487994763
-0.6870831832025037   -0.011741765342101307   -0.013276598487994763
-0.6870831832025037   -0.011741765342101307   -0.013276598487994763
-0.6870831832025037   -0.011741765342101307   -0.013276598487994763
-0.01731598105676256   0.08980095562773545   0.05016067158435426
-0.01731598105676256   0.08980095562773545   0.05016067158435426
-0.01731598105676256   0.08980095562773545   0.05016067158435426
-0.01731598105676256   0.08980095562773545   0.05016067158435426
-1.4205235649062709   -0.16177565185136622   -0.0314972777175274
-1.4205235649062709   -0.16177565185136622   -0.0314972777175274
-1.4205235649062709   -0.16177565185136622   -0.0314972777175274
-1.4205235649062709   -0.16177565185136622   -0.0314972777175274
-1.4937791759397387   -0.23505977076542728   -0.022164948743624402
-1.4937791759397387   -0.23505977076542728   -0.022164948743624402
-1.4937791759397387   -0.23505977076542728   -0.022164948743624402
-1.4937791759397387   -0.23505977076542728   -0.022164948743624402
-0.07199289110477855   0.1004495831305067   0.05338142056364185
-0.07199289110477855   0.1004495831305067   0.05338142056364185
-0.07199289110477855   0.1004495831305067   0.05338142056364185
-0.07199289110477855   0.1004495831305067   0.05338142056364185
-0.7526588237817357   -0.04378181838438314   -0.030293462518249763
-0.7526588237817357   -0.04378181838438314   -0.030293462518249763
-0.7526588237817357   -0.04378181838438314   -0.030293462518249763
-0.7526588237817357   -0.04378181838438314   -0.030293462518249763
-1.2193876523339828   0.18172890247650453   0.06046679781762826
-1.2193876523339828   0.18172890247650453   0.06046679781762826
-1.2193876523339828   0.18172890247650453   0.06046679781762826
-1.2193876523339828   0.18172890247650453   0.06046679781762826
-2.593452536814103   -0.11459465364641996   -0.07316024870742188
-2.593452536814103   -0.11459465364641996   -0.07316024870742188
-2.593452536814103   -0.11459465364641996   -0.07316024870742188
-2.593452536814103   -0.11459465364641996   -0.07316024870742188
-2.650835957760434   -0.14149514939229502   -0.011207038282644605
-2.650835957760434   -0.14149514939229502   -0.011207038282644605
-2.650835957760434   -0.14149514939229502   -0.011207038282644605
-2.650835957760434   -0.14149514939229502   -0.011207038282644605
-1.2974297767273875   0.13167900165913704   -0.0024011191552893996
-1.2974297767273875   0.13167900165913704   -0.0024011191552893996
-1.2974297767273875   0.13167900165913704   -0.0024011191552893996
-1.2974297767273875   0.13167900165913704   -0.0024011191552893996
-1.9262756842955777   0.020368312970137914   0.013983143218813651
-1.9262756842955777   0.020368312970137914   0.013983143218813651
-1.9262756842955777   0.020368312970137914   0.013983143218813651
-1.9262756842955777   0.020368312970137914   0.013983143218813651
-1.2800068918904772   0.14849211064658752   0.06790019604181127
-1.2800068918904772   0.14849211064658752   0.06790019604181127
-1.2800068918904772   0.14849211064658752   0.06790019604181127
-1.2800068918904772   0.14849211064658752   0.06790019604181127
-2.6660462741910353   -0.15609568997341988   -0.07265807985454888
-2.6660462741910353   -0.15609568997341988   -0.07265807985454888
-2.6660462741910353   -0.15609568997341988   -0.07265807985454888
-2.6660462741910353   -0.15609568997341988   -0.07265807985454888
-2.7292126546636477   -0.1777384727122343   -0.009808255102902314
-2.7292126546636477   -0.1777384727122343   -0.009808255102902314
-2.7292126546636477   -0.1777384727122343   -0.009808255102902314
-2.7292126546636477   -0.1777384727122343   -0.009808255102902314
-1.361793253684192   0.09538002133737972   0.004998605204122555
-1.361793253684192   0.09538002133737972   0.004998605204122555
-1.361793253684192   0.09538002133737972   0.004998605204122555
-1.361793253684192   0.09538002133737972   0.004998605204122555
-1.981297077841679   -0.008532058980041779   0.0011814132508929792
-1.981297077841679   -0.008532058980041779   0.0011814132508929792
-1.981297077841679   -0.008532058980041779   0.0011814132508929792
-1.981297077841679   -0.008532058980041779   0.0011814132508929792
-1.3427242683698482   0.11722130515814433   0.07850224795506879
-1.3427242683698482   0.11722130515814433   0.07850224795506879
-1.3427242683698482   0.11722130515814433   0.07850224795506879
-1.3427242683698482   0.11722130515814433   0.07850224795506879
-2.7438201641056814   -0.19511828066067344   -0.06546599436465399
-2.7438201641056814   -0.19511828066067344   -0.06546599436465399
-2.7438201641056814   -0.19511828066067344   -0.06546599436465399
-2.7438201641056814   -0.19511828066067344   -0.06546599436465399
-2.8014120143426546   -0.2165101399068659   0.0083565552874217
-2.8014120143426546   -0.2165101399068659   0.0083565552874217
-2.8014120143426546   -0.2165101399068659   0.0083565552874217
-2.8014120143426546   -0.2165101399068659   0.0083565552874217
-1.4299989879924966   0.05226121015973484   0.009415010067447688
-1.4299989879924966   0.05226121015973484   0.009415010067447688
-1.4299989879924966   0.05226121015973484   0.009415010067447688
-1.4299989879924966   0.05226121015973484   0.009415010067447688
-2.0667803006416006   -0.048895814344510125   -0.015957325811850956
-2.0667803006416006   -0.048895814344510125   -0.015957325811850956
-2.0667803006416006   -0.048895814344510125   -0.015957325811850956
-2.0667803006416006   -0.048895814344510125   -0.015957325811850956
-2.5010675652391097   0.18927023785085284   0.08489971767024984
-2.5010675652391097   0.18927023785085284   0.08489971767024984
-2.5010675652391097   0.18927023785085284   0.08489971767024984
-2.5010675652391097   0.18927023785085284   0.08489971767024984
-3.827359773479222   -0.17688793367088052   -0.0679062236029466
-3.827359773479222   -0.17688793367088052   -0.0679062236029466
-3.827359773479222   -0.17688793367088052   -0.0679062236029466
-3.827359773479222   -0.17688793367088052   -0.0679062236029466
-3.880607875622356   -0.07650438660860881   0.07241452553518896
-3.880607875622356   -0.07650438660860881   0.07241452553518896
-3.880607875622356   -0.07650438660860881   0.07241452553518896
-3.880607875622356   -0.07650438660860881   0.07241452553518896
-2.6123355245534965   0.07818157823813698   -0.03838159987838849
-2.6123355245534965   0.07818157823813698   -0.03838159987838849
-2.6123355245534965   0.07818157823813698   -0.03838159987838849
-2.6123355245534965   0.07818157823813698   -0.03838159987838849
-3.063816932655566   0.039678736990512165   0.07010786864328014
-3.063816932655566   0.039678736990512165   0.07010786864328014
-3.063816932655566   0.039678736990512165   0.07010786864328014
-3.063816932655566   0.039678736990512165   0.07010786864328014
-2.5623516186446285   0.1921732177172587   0.09754629018679867
-2.5623516186446285   0.1921732177172587   0.09754629018679867
-2.5623516186446285   0.1921732177172587   0.09754629018679867
-2.5623516186446285   0.1921732177172587   0.09754629018679867
-3.927638269741194   -0.1875425142976943   -0.051699317369847425
-3.927638269741194   -0.1875425142976943   -0.051699317369847425
-3.927638269741194   -0.1875425142976943   -0.051699317369847425
-3.927638269741194   -0.1875425142976943   -0.051699317369847425
-3.9779261656631544   -0.09546067766173616   0.10007441933753919
-3.9779261656631544   -0.09546067766173616   0.10007441933753919
-3.9779261656631544   -0.09546067766173616   0.10007441933753919
-3.9779261656631544   -0.09546067766173616   0.10007441933753919
-2.6870769345620586   0.057314122189063954   -0.03418224949625531
-2.6870769345620586   0.057314122189063954   -0.03418224949625531
-2.6870769345620586   0.057314122189063954   -0.03418224949625531
-2.6870769345620586   0.057314122189063954   -0.03418224949625531
-3.1970884019186365   0.019515520253858165   0.044737252665404015
-3.1970884019186365   0.019515520253858165   0.044737252665404015
-3.1970884019186365   0.019515520253858165   0.044737252665404015
-3.1970884019186365   0.019515520253858165   0.044737252665404015
-2.6318784940727133   0.17796565651395935   0.12115841862557503
-2.6318784940727133   0.17796565651395935   0.12115841862557503
-2.6318784940727133   0.17796565651395935   0.12115841862557503
-2.6318784940727133   0.17796565651395935   0.12115841862557503
-4.030284872545507   -0.21327247837963037   -0.043907314356278204
-4.030284872545507   -0.21327247837963037   -0.043907314356278204
-4.030284872545507   -0.21327247837963037   -0.043907314356278204
-4.030284872545507   -0.21327247837963037   -0.043907314356278204
-4.109900346925869   -0.1762224973004215   0.09970169929593198
-4.109900346925869   -0.1762224973004215   0.09970169929593198
-4.109900346925869   -0.1762224973004215   0.09970169929593198
-4.109900346925869   -0.1762224973004215   0.09970169929593198
-2.767162482669157   -0.004829270255619633   -0.032076655996336884
-2.767162482669157   -0.004829270255619633   -0.032076655996336884
-2.767162482669157   -0.004829270255619633   -0.032076655996336884
-2.767162482669157   -0.004829270255619633   -0.032076655996336884
-3.236713474945165   -0.00931530215706633   0.036157594070518634
-3.236713474945165   -0.00931530215706633   0.036157594070518634
-3.236713474945165   -0.00931530215706633   0.036157594070518634
-3.236713474945165   -0.00931530215706633   0.036157594070518634
2.195175313220727   0.12151675541049595   -0.1058277003949214
2.195175313220727   0.12151675541049595   -0.1058277003949214
2.195175313220727   0.12151675541049595   -0.1058277003949214
2.195175313220727   0.12151675541049595   -0.1058277003949214
1.0449463339598863   0.021923646294536192   0.04057916716246602
1.0449463339598863   0.021923646294536192   0.04057916716246602
1.0449463339598863   0.021923646294536192   0.04057916716246602
1.0449463339598863   0.021923646294536192   0.04057916716246602
0.9272573065198007   -0.1787030180400439   -0.1003635961088334
0.9272573065198007   -0.1787030180400439   -0.1003635961088334
0.9272573065198007   -0.1787030180400439   -0.1003635961088334
0.9272573065198007   -0.1787030180400439   -0.1003635961088334
2.147032473284771   0.20229014348735813   0.050144709338307905
2.147032473284771   0.20229014348735813   0.050144709338307905
2.147032473284771   0.20229014348735813   0.050144709338307905
2.147032473284771   0.20229014348735813   0.050144709338307905
1.4970752796626863   0.02028511056221577   -0.044243099577943465
1.4970752796626863   0.02028511056221577   -0.044243099577943465
1.4970752796626863   0.02028511056221577   -0.044243099577943465
1.4970752796626863   0.02028511056221577   -0.044243099577943465
2.087235591394065   0.05337953902583542   -0.09992909565370085
2.087235591394065   0.05337953902583542   -0.09992909565370085
2.087235591394065   0.05337953902583542   -0.09992909565370085
2.087235591394065   0.05337953902583542   -0.09992909565370085
0.9858683134017601   -0.03097828858726931   0.04496670884818148
0.9858683134017601   -0.03097828858726931   0.04496670884818148
0.9858683134017601   -0.03097828858726931   0.04496670884818148
0.9858683134017601   -0.03097828858726931   0.04496670884818148
0.872230748531116   -0.19637219990802027   -0.08552732526197396
0.872230748531116   -0.19637219990802027   -0.08552732526197396
0.872230748531116   -0.19637219990802027   -0.08552732526197396
0.872230748531116   -0.19637219990802027   -0.08552732526197396
2.061484280914525   0.17706907996771137   0.06582588409231166
2.061484280914525   0.17706907996771137   0.06582588409231166
2.061484280914525   0.17706907996771137   0.06582588409231166
2.061484280914525   0.17706907996771137   0.06582588409231166
1.4474994156659045   -0.010267131784616135   -0.06240329586241232
1.4474994156659045   -0.010267131784616135   -0.06240329586241232
1.4474994156659045   -0.010267131784616135   -0.06240329586241232
1.4474994156659045   -0.010267131784616135   -0.06240329586241232
2.003107320037423   0.03092550948376488   -0.07991534980923275
2.003107320037423   0.03092550948376488   -0.07991534980923275
2.003107320037423   0.03092550948376488   -0.07991534980923275
2.003107320037423   0.03092550948376488   -0.07991534980923275
0.9291293952325499   -0.051706943599760774   0.0543006519369261
0.9291293952325499   -0.051706943599760774   0.0543006519369261
0.9291293952325499   -0.051706943599760774   0.0543006519369261
0.9291293952325499   -0.051706943599760774   0.0543006519369261
0.8225939676452491   -0.20754655341786007   -0.07121215386304264
0.8225939676452491   -0.20754655341786007   -0.07121215386304264
0.8225939676452491   -0.20754655341786007   -0.07121215386304264
0.8225939676452491   -0.20754655341786007   -0.07121215386304264
1.965054047222447   0.1495525971508338   0.07809138195494682
1.965054047222447   0.1495525971508338   0.07809138195494682
1.965054047222447   0.1495525971508338   0.07809138195494682
1.965054047222447   0.1495525971508338   0.07809138195494682
1.3504763219351485   -0.033456077351812885   -0.08910666923818981
1.3504763219351485   -0.033456077351812885   -0.08910666923818981
1.3504763219351485   -0.033456077351812885   -0.08910666923818981
1.3504763219351485   -0.033456077351812885   -0.08910666923818981
1.0619753363179092   0.15443934315694569   -0.006791517909813031
1.0619753363179092   0.15443934315694569   -0.006791517909813031
1.0619753363179092   0.15443934315694569   -0.006791517909813031
1.0619753363179092   0.15443934315694569   -0.006791517909813031
-0.06833388167729716   -0.014366164856900348   -0.00026730662025745974
-0.06833388167729716   -0.014366164856900348   -0.00026730662025745974
-0.06833388167729716   -0.014366164856900348   -0.00026730662025745974
-0.06833388167729716   -0.014366164856900348   -0.00026730662025745974
-0.15123247332681908   -0.13347463004051435   -0.06366089701539449
-0.15123247332681908   -0.13347463004051435   -0.06366089701539449
-0.15123247332681908   -0.13347463004051435   -0.06366089701539449
-0.15123247332681908   -0.13347463004051435   -0.06366089701539449
1.033965340064418   0.1837294287081143   0.07074412486608797
1.033965340064418   0.1837294287081143   0.07074412486608797
1.033965340064418   0.1837294287081143   0.07074412486608797
1.033965340064418   0.1837294287081143   0.07074412486608797
0.4618794364023099   0.04546535350370398   0.003220635266096082
0.4618794364023099   0.04546535350370398   0.003220635266096082
0.4618794364023099   0.04546535350370398   0.003220635266096082
0.4618794364023099   0.04546535350370398   0.003220635266096082
1.0058576462332316   0.1112188251318596   0.002716259286424383
1.0058576462332316   0.1112188251318596   0.002716259286424383
1.0058576462332316   0.1112188251318596   0.002716259286424383
1.0058576462332316   0.1112188251318596   0.002716259286424383
-0.12263832867886669   -0.06047757564749138   0.00631277183134449
-0.12263832867886669   -0.06047757564749138   0.00631277183134449
-0.12263832867886669   -0.06047757564749138   0.00631277183134449
-0.12263832867886669   -0.06047757564749138   0.00631277183134449
-0.2030731803228285   -0.16687653690623433   -0.052579402820338364
-0.2030731803228285   -0.16687653690623433   -0.052579402820338364
-0.2030731803228285   -0.16687653690623433   -0.052579402820338364
-0.2030731803228285   -0.16687653690623433   -0.052579402820338364
0.9728700148648861   0.14394508303382186   0.07735172346502492
0.9728700148648861   0.14394508303382186   0.07735172346502492
0.9728700148648861   0.14394508303382186   0.07735172346502492
0.9728700148648861   0.14394508303382186   0.07735172346502492
0.39808374736668156   0.006156958199099574   -0.016524570131766184
0.39808374736668156   0.006156958199099574   -0.016524570131766184
0.39808374736668156   0.006156958199099574   -0.016524570131766184
0.39808374736668156   0.006156958199099574   -0.016524570131766184
0.9456874881317673   0.07539025992952467   0.009993912903737967
0.9456874881317673   0.07539025992952467   0.009993912903737967
0.9456874881317673   0.07539025992952467   0.009993912903737967
0.9456874881317673   0.07539025992952467   0.009993912903737967
-0.17627510194248486   -0.09870616215469018   0.013240614329835709
-0.17627510194248486   -0.09870616215469018   0.013240614329835709
-0.17627510194248486   -0.09870616215469018   0.013240614329835709
-0.17627510194248486   -0.09870616215469018   0.013240614329835709
-0.2542494989424644   -0.19503016122845676   -0.04216584987568801
-0.2542494989424644   -0.19503016122845676   -0.04216584987568801
-0.2542494989424644   -0.19503016122845676   -0.04216584987568801
-0.2542494989424644   -0.19503016122845676   -0.04216584987568801
0.9164633421579055   0.10706611270035345   0.08352205258202007
0.9164633421579055   0.10706611270035345   0.08352205258202007
0.9164633421579055   0.10706611270035345   0.08352205258202007
0.9164633421579055   0.10706611270035345   0.08352205258202007
0.34900856769188127   -0.023761931208074405   -0.033015390983164646
0.34900856769188127   -0.023761931208074405   -0.033015390983164646
0.34900856769188127   -0.023761931208074405   -0.033015390983164646
0.34900856769188127   -0.023761931208074405   -0.033015390983164646
-0.02332298361143236   0.18483757659698372   0.025583442255182474
-0.02332298361143236   0.18483757659698372   0.025583442255182474
-0.02332298361143236   0.18483757659698372   0.025583442255182474
-0.02332298361143236   0.18483757659698372   0.025583442255182474
-1.1578386155178857   -0.04960394422534822   -0.03841202861888204
-1.1578386155178857   -0.04960394422534822   -0.03841202861888204
-1.1578386155178857   -0.04960394422534822   -0.03841202861888204
-1.1578386155178857   -0.04960394422534822   -0.03841202861888204
-1.2112778206816872   -0.09214401286324872   -0.029935330850627336
-1.2112778206816872   -0.09214401286324872   -0.029935330850627336
-1.2112778206816872   -0.09214401286324872   -0.029935330850627336
-1.2112778206816872   -0.09214401286324872   -0.029935330850627336
-0.07597331821579673   0.14840184121314953   0.03075840728605337
-0.07597331821579673   0.14840184121314953   0.03075840728605337
-0.07597331821579673   0.14840184121314953   0.03075840728605337
-0.07597331821579673   0.14840184121314953   0.03075840728605337
-0.6156451344024018   0.04822022252767852   0.012089072598759389
-0.6156451344024018   0.04822022252767852   0.012089072598759389
-0.6156451344024018   0.04822022252767852   0.012089072598759389
-0.6156451344024018   0.04822022252767852   0.012089072598759389
-0.07492008710939897   0.14833323402299772   0.036093170008193946
-0.07492008710939897   0.14833323402299772   0.036093170008193946
-0.07492008710939897   0.14833323402299772   0.036093170008193946
-0.07492008710939897   0.14833323402299772   0.036093170008193946
-1.2113249230661975   -0.09106927695119932   -0.031245578685228495
-1.2113249230661975   -0.09106927695119932   -0.031245578685228495
-1.2113249230661975   -0.09106927695119932   -0.031245578685228495
-1.2113249230661975   -0.09106927695119932   -0.031245578685228495
-1.2643744925119138   -0.1282969908278842   -0.020253044994474653
-1.2643744925119138   -0.1282969908278842   -0.020253044994474653
-1.2643744925119138   -0.1282969908278842   -0.020253044994474653
-1.2643744925119138   -0.1282969908278842   -0.020253044994474653
-0.1300113317490635   0.10743301399620803   0.03842028914604424
-0.1300113317490635   0.10743301399620803   0.03842028914604424
-0.1300113317490635   0.10743301399620803   0.03842028914604424
-0.1300113317490635   0.10743301399620803   0.03842028914604424
-0.6692877936484461   0.012601283196786911   -0.003952215417236622
-0.6692877936484461   0.012601283196786911   -0.003952215417236622
-0.6692877936484461   0.012601283196786911   -0.003952215417236622
-0.6692877936484461   0.012601283196786911   -0.003952215417236622
-0.12789149185504595   0.11195059902071025   0.044501903591629845
-0.12789149185504595   0.11195059902071025   0.044501903591629845
-0.12789149185504595   0.11195059902071025   0.044501903591629845
-0.12789149185504595   0.11195059902071025   0.044501903591629845
-1.266190219382129   -0.13251046282858422   -0.025118207344851422
-1.266190219382129   -0.13251046282858422   -0.025118207344851422
-1.266190219382129   -0.13251046282858422   -0.025118207344851422
-1.266190219382129   -0.13251046282858422   -0.025118207344851422
-1.3168611483799597   -0.16133571379755862   -0.010676806801503628
-1.3168611483799597   -0.16133571379755862   -0.010676806801503628
-1.3168611483799597   -0.16133571379755862   -0.010676806801503628
-1.3168611483799597   -0.16133571379755862   -0.010676806801503628
-0.1842592110655811   0.06780866945342721   0.04494675882684071
-0.1842592110655811   0.06780866945342721   0.04494675882684071
-0.1842592110655811   0.06780866945342721   0.04494675882684071
-0.1842592110655811   0.06780866945342721   0.04494675882684071
-0.72537646169613   -0.02332437812283686   -0.02180767784785416
-0.72537646169613   -0.02332437812283686   -0.02180767784785416
-0.72537646169613   -0.02332437812283686   -0.02180767784785416
-0.72537646169613   -0.02332437812283686   -0.02180767784785416
-1.086517984577757   0.21261811909465705   0.055969062761739866
-1.086517984577757   0.21261811909465705   0.055969062761739866
-1.086517984577757   0.21261811909465705   0.055969062761739866
-1.086517984577757   0.21261811909465705   0.055969062761739866
-2.2217043596443675   -0.08554981455805022   -0.06939006515645285
-2.2217043596443675   -0.08554981455805022   -0.06939006515645285
-2.2217043596443675   -0.08554981455805022   -0.06939006515645285
-2.2217043596443675   -0.08554981455805022   -0.06939006515645285
-2.2509397134826705   -0.05717761721169995   0.0068257232458086015
-2.2509397134826705   -0.05717761721169995   0.0068257232458086015
-2.2509397134826705   -0.05717761721169995   0.0068257232458086015
-2.2509397134826705   -0.05717761721169995   0.0068257232458086015
-1.167389808943808   0.106468494528772   -0.009107779553242434
-1.167389808943808   0.106468494528772   -0.009107779553242434
-1.167389808943808   0.106468494528772   -0.009107779553242434
-1.167389808943808   0.106468494528772   -0.009107779553242434
-1.6707533810500113   0.046256527513087675   0.02050106007129536
-1.6707533810500113   0.046256527513087675   0.02050106007129536
-1.6707533810500113   0.046256527513087675   0.02050106007129536
-1.6707533810500113   0.046256527513087675   0.02050106007129536
-1.1382003820129074   0.17722222863260023   0.06608562099742353
-1.1382003820129074   0.17722222863260023   0.06608562099742353
-1.1382003820129074   0.17722222863260023   0.06608562099742353
-1.1382003820129074   0.17722222863260023   0.06608562099742353
-2.2798409230199046   -0.1276431339218428   -0.06721480773021943
-2.2798409230199046   -0.1276431339218428   -0.06721480773021943
-2.2798409230199046   -0.1276431339218428   -0.06721480773021943
-2.2798409230199046   -0.1276431339218428   -0.06721480773021943
-2.3127578804052624   -0.09371758090437593   0.010475220716415226
-2.3127578804052624   -0.09371758090437593   0.010475220716415226
-2.3127578804052624   -0.09371758090437593   0.010475220716415226
-2.3127578804052624   -0.09371758090437593   0.010475220716415226
-1.2212196310383454   0.06852911369575032   -0.0013048421502673824
-1.2212196310383454   0.06852911369575032   -0.0013048421502673824
-1.2212196310383454   0.06852911369575032   -0.0013048421502673824
-1.2212196310383454   0.06852911369575032   -0.0013048421502673824
-1.7162361348097672   0.014416022522255212   0.005555199629761129
-1.7162361348097672   0.014416022522255212   0.005555199629761129
-1.7162361348097672   0.014416022522255212   0.005555199629761129
-1.7162361348097672   0.014416022522255212   0.005555199629761129
-1.1908212290895486   0.14368163456114785   0.0755346467283199
-1.1908212290895486   0.14368163456114785   0.0755346467283199
-1.1908212290895486   0.14368163456114785   0.0755346467283199
-1.1908212290895486   0.14368163456114785   0.0755346467283199
-2.341584624043586   -0.16729844345929967   -0.06007763492027729
-2.341584624043586   -0.16729844345929967   -0.06007763492027729
-2.341584624043586   -0.16729844345929967   -0.06007763492027729
-2.341584624043586   -0.16729844345929967   -0.06007763492027729
-2.368865009617656   -0.13300547671434293   0.021947597322218654
-2.368865009617656   -0.13300547671434293   0.021947597322218654
-2.368865009617656   -0.13300547671434293   0.021947597322218654
-2.368865009617656   -0.13300547671434293   0.021947597322218654
-1.2765517212650677   0.025185858442613063   0.004348756532800327
-1.2765517212650677   0.025185858442613063   0.004348756532800327
-1.2765517212650677   0.025185858442613063   0.004348756532800327
-1.2765517212650677   0.025185858442613063   0.004348756532800327
-1.7851993439366711   -0.02537979168351351   -0.013367620077920389
-1.7851993439366711   -0.02537979168351351   -0.013367620077920389
-1.7851993439366711   -0.02537979168351351   -0.013367620077920389
-1.7851993439366711   -0.02537979168351351   -0.013367620077920389
-2.1367364110210088   0.1906649635181747   0.07923489988411583
-2.1367364110210088   0.1906649635181747   0.07923489988411583
-2.1367364110210088   0.1906649635181747   0.07923489988411583
-2.1367364110210088   0.1906649635181747   0.07923489988411583
-3.232008650330393   -0.14894158595360596   -0.07685108880011152
-3.232008650330393   -0.14894158595360596   -0.07685108880011152
-3.232008650330393   -0.14894158595360596   -0.07685108880011152
-3.232008650330393   -0.14894158595360596   -0.07685108880011152
-3.2684411960119197   -0.030741896200970786   0.0731066993844958
-3.2684411960119197   -0.030741896200970786   0.0731066993844958
-3.2684411960119197   -0.030741896200970786   0.0731066993844958
-3.2684411960119197   -0.030741896200970786   0.0731066993844958
-2.2392713549820034   0.053152833208176986   -0.04516293467073307
-2.2392713549820034   0.053152833208176986   -0.04516293467073307
-2.2392713549820034   0.053152833208176986   -0.04516293467073307
-2.2392713549820034   0.053152833208176986   -0.04516293467073307
-2.598922014529343   0.04315601660775159   0.06344037490765736
-2.598922014529343   0.04315601660775159   0.06344037490765736
-2.598922014529343   0.04315601660775159   0.06344037490765736
-2.598922014529343   0.04315601660775159   0.06344037490765736
-2.184272784070854   0.19005583077416882   0.09292692231900584
-2.184272784070854   0.19005583077416882   0.09292692231900584
-2.184272784070854   0.19005583077416882   0.09292692231900584
-2.184272784070854   0.19005583077416882   0.09292692231900584
-3.3224937779513075   -0.1666989047951779   -0.061199201718203144
-3.3224937779513075   -0.1666989047951779   -0.061199201718203144
-3.3224937779513075   -0.1666989047951779   -0.061199201718203144
-3.3224937779513075   -0.1666989047951779   -0.061199201718203144
-3.3493251345890935   -0.050004901471947805   0.09147083222572044
-3.3493251345890935   -0.050004901471947805   0.09147083222572044
-3.3493251345890935   -0.050004901471947805   0.09147083222572044
-3.3493251345890935   -0.050004901471947805   0.09147083222572044
-2.2973846856341793   0.032348789280134405   -0.03872517561267891
-2.2973846856341793   0.032348789280134405   -0.03872517561267891
-2.2973846856341793   0.032348789280134405   -0.03872517561267891
-2.2973846856341793   0.032348789280134405   -0.03872517561267891
-2.711444929710119   0.02162406047112342   0.038332180793342746
-2.711444929710119   0.02162406047112342   0.038332180793342746
-2.711444929710119   0.02162406047112342   0.038332180793342746
-2.711444929710119   0.02162406047112342   0.038332180793342746
-2.239041661078149   0.17568781172884862   0.10965092471875842
-2.239041661078149   0.17568781172884862   0.10965092471875842
-2.239041661078149   0.17568781172884862   0.10965092471875842
-2.239041661078149   0.17568781172884862   0.10965092471875842
-3.4061256647328957   -0.19180142950843881   -0.05073529045676789
-3.4061256647328957   -0.19180142950843881   -0.05073529045676789
-3.4061256647328957   -0.19180142950843881   -0.05073529045676789
-3.4061256647328957   -0.19180142950843881   -0.05073529045676789
-3.456064623657096   -0.11820429274424427   0.08995037254847896
-3.456064623657096   -0.11820429274424427   0.08995037254847896
-3.456064623657096   -0.11820429274424427   0.08995037254847896
-3.456064623657096   -0.11820429274424427   0.08995037254847896
-2.3587065161924516   -0.025185906339924347   -0.03507950592617534
-2.3587065161924516   -0.025185906339924347   -0.03507950592617534
-2.3587065161924516   -0.025185906339924347   -0.03507950592617534
-2.3587065161924516   -0.025185906339924347   -0.03507950592617534
-2.741067983122989   -0.0050474212607598545   0.02984976370642059
-2.741067983122989   -0.0050474212607598545   0.02984976370642059
-2.741067983122989   -0.0050474212607598545   0.02984976370642059
-2.741067983122989   -0.0050474212607598545   0.02984976370642059
1.5014928241937433   0.08461756361807599   -0.10249773645375296
1.5014928241937433   0.08461756361807599   -0.10249773645375296
1.5014928241937433   0.08461756361807599   -0.10249773645375296
1.5014928241937433   0.08461756361807599   -0.10249773645375296
0.641403928527487   0.04191372849041684   0.044173212319656666
0.641403928527487   0.04191372849041684   0.044173212319656666
0.641403928527487   0.04191372849041684   0.044173212319656666
0.641403928527487   0.04191372849041684   0.044173212319656666
0.535618096463731   -0.14912074548296447   -0.0954953586922652
0.535618096463731   -0.14912074548296447   -0.0954953586922652
0.535618096463731   -0.14912074548296447   -0.0954953586922652
0.535618096463731   -0.14912074548296447   -0.0954953586922652
1.4657404608488491   0.17122589348059386   0.05364785516447919
1.4657404608488491   0.17122589348059386   0.05364785516447919
1.4657404608488491   0.17122589348059386   0.05364785516447919
1.4657404608488491   0.17122589348059386   0.05364785516447919
0.9811730842412519   0.021809219776193517   -0.02682544107792597
0.9811730842412519   0.021809219776193517   -0.02682544107792597
0.9811730842412519   0.021809219776193517   -0.02682544107792597
0.9811730842412519   0.021809219776193517   -0.02682544107792597
1.4066757675994326   0.025083264135186634   -0.09553298173721107
1.4066757675994326   0.025083264135186634   -0.09553298173721107
1.4066757675994326   0.025083264135186634   -0.09553298173721107
1.4066757675994326   0.025083264135186634   -0.09553298173721107
0.5935746510023822   -0.004086254848323118   0.04925292336636089
0.5935746510023822   -0.004086254848323118   0.04925292336636089
0.5935746510023822   -0.004086254848323118   0.04925292336636089
0.5935746510023822   -0.004086254848323118   0.04925292336636089
0.4905070716415307   -0.16653491152357475   -0.08121686409112472
0.4905070716415307   -0.16653491152357475   -0.08121686409112472
0.4905070716415307   -0.16653491152357475   -0.08121686409112472
0.4905070716415307   -0.16653491152357475   -0.08121686409112472
1.3915541961635773   0.14652745266833705   0.06903446757073871
1.3915541961635773   0.14652745266833705   0.06903446757073871
1.3915541961635773   0.14652745266833705   0.06903446757073871
1.3915541961635773   0.14652745266833705   0.06903446757073871
0.9343008643685518   -0.006854047106038708   -0.04392718810829144
0.9343008643685518   -0.006854047106038708   -0.04392718810829144
0.9343008643685518   -0.006854047106038708   -0.04392718810829144
0.9343008643685518   -0.006854047106038708   -0.04392718810829144
1.3334845412526921   0.002788903628175299   -0.07757525794353581
1.3334845412526921   0.002788903628175299   -0.07757525794353581
1.3334845412526921   0.002788903628175299   -0.07757525794353581
1.3334845412526921   0.002788903628175299   -0.07757525794353581
0.5469528769125073   -0.024420212123322765   0.05889746286350982
0.5469528769125073   -0.024420212123322765   0.05889746286350982
0.5469528769125073   -0.024420212123322765   0.05889746286350982
0.5469528769125073   -0.024420212123322765   0.05889746286350982
0.45015058777741435   -0.1825803284333248   -0.0676697865208138
0.45015058777741435   -0.1825803284333248   -0.0676697865208138
0.45015058777741435   -0.1825803284333248   -0.0676697865208138
0.45015058777741435   -0.1825803284333248   -0.0676697865208138
1.3050085890872816   0.11390025402016388   0.07870749619888184
1.3050085890872816   0.11390025402016388   0.07870749619888184
1.3050085890872816   0.11390025402016388   0.07870749619888184
1.3050085890872816   0.11390025402016388   0.07870749619888184
0.8556912616793141   -0.03046092840534681   -0.06729341425783833
0.8556912616793141   -0.03046092840534681   -0.06729341425783833
0.8556912616793141   -0.03046092840534681   -0.06729341425783833
0.8556912616793141   -0.03046092840534681   -0.06729341425783833
0.6453626126044693   0.12466888963541614   -0.01878852844044144
0.6453626126044693   0.12466888963541614   -0.01878852844044144
0.6453626126044693   0.12466888963541614   -0.01878852844044144
0.6453626126044693   0.12466888963541614   -0.01878852844044144
-0.19931802177574656   0.011357439740966695   0.006183733842718548
-0.19931802177574656   0.011357439740966695   0.006183733842718548
-0.19931802177574656   0.011357439740966695   0.006183733842718548
-0.19931802177574656   0.011357439740966695   0.006183733842718548
-0.27163404004507163   -0.10328134724113304   -0.05871037477065888
-0.27163404004507163   -0.10328134724113304   -0.05871037477065888
-0.27163404004507163   -0.10328134724113304   -0.05871037477065888
-0.27163404004507163   -0.10328134724113304   -0.05871037477065888
0.627128935647108   0.1500021864134745   0.06293590532819242
0.627128935647108   0.1500021864134745   0.06293590532819242
0.627128935647108   0.1500021864134745   0.06293590532819242
0.627128935647108   0.1500021864134745   0.06293590532819242
0.19597874718816954   0.04347782467676393   0.007486211134710975
0.19597874718816954   0.04347782467676393   0.007486211134710975
0.19597874718816954   0.04347782467676393   0.007486211134710975
0.19597874718816954   0.04347782467676393   0.007486211134710975
0.5985948635562226   0.0804667122422533   -0.010198980955021504
0.5985948635562226   0.0804667122422533   -0.010198980955021504
0.5985948635562226   0.0804667122422533   -0.010198980955021504
0.5985948635562226   0.0804667122422533   -0.010198980955021504
-0.24351242730481407   -0.0341583324205404   0.01277467411004009
-0.24351242730481407   -0.0341583324205404   0.01277467411004009
-0.24351242730481407   -0.0341583324205404   0.01277467411004009
-0.24351242730481407   -0.0341583324205404   0.01277467411004009
-0.31360298387745933   -0.13830915648273684   -0.047446475375423125
-0.31360298387745933   -0.13830915648273684   -0.047446475375423125
-0.31360298387745933   -0.13830915648273684   -0.047446475375423125
-0.31360298387745933   -0.13830915648273684   -0.047446475375423125
0.5756730758134855   0.10965698828902679   0.06842125695605153
0.5756730758134855   0.10965698828902679   0.06842125695605153
0.5756730758134855   0.10965698828902679   0.06842125695605153
0.5756730758134855   0.10965698828902679   0.06842125695605153
0.1442934180496553   0.003965960485832927   -0.011495654362309902
0.1442934180496553   0.003965960485832927   -0.011495654362309902
0.1442934180496553   0.003965960485832927   -0.011495654362309902
0.1442934180496553   0.003965960485832927   -0.011495654362309902
0.5480407233433593   0.04291014717949952   -0.0029936642850599514
0.5480407233433593   0.04291014717949952   -0.0029936642850599514
0.5480407233433593   0.04291014717949952   -0.0029936642850599514
0.5480407233433593   0.04291014717949952   -0.0029936642850599514
-0.2870252073082309   -0.072616891274108   0.019750142262094005
-0.2870252073082309   -0.072616891274108   0.019750142262094005
-0.2870252073082309   -0.072616891274108   0.019750142262094005
-0.2870252073082309   -0.072616891274108   0.019750142262094005
-0.3550237580793001   -0.17134301537167645   -0.037036487540923826
-0.3550237580793001   -0.17134301537167645   -0.037036487540923826
-0.3550237580793001   -0.17134301537167645   -0.037036487540923826
-0.3550237580793001   -0.17134301537167645   -0.037036487540923826
0.5292378215078222   0.07078963290889428   0.0743964207890162
0.5292378215078222   0.07078963290889428   0.0743964207890162
0.5292378215078222   0.07078963290889428   0.0743964207890162
0.5292378215078222   0.07078963290889428   0.0743964207890162
0.10268797592157827   -0.02894728407956372   -0.028297628322622587
0.10268797592157827   -0.02894728407956372   -0.028297628322622587
0.10268797592157827   -0.02894728407956372   -0.028297628322622587
0.10268797592157827   -0.02894728407956372   -0.028297628322622587
-0.16816281630038016   0.15889755127833952   0.014419649682173921
-0.16816281630038016   0.15889755127833952   0.014419649682173921
-0.16816281630038016   0.15889755127833952   0.014419649682173921
-0.16816281630038016   0.15889755127833952   0.014419649682173921
-1.0276757775117804   -0.02535136484393069   -0.031183210722413056
-1.0276757775117804   -0.02535136484393069   -0.031183210722413056
-1.0276757775117804   -0.02535136484393069   -0.031183210722413056
-1.0276757775117804   -0.02535136484393069   -0.031183210722413056
-1.0690421206027847   -0.060947905082934545   -0.0229215218073791
-1.0690421206027847   -0.060947905082934545   -0.0229215218073791
-1.0690421206027847   -0.060947905082934545   -0.0229215218073791
-1.0690421206027847   -0.060947905082934545   -0.0229215218073791
-0.21148344186661056   0.11440175583680082   0.024359513043712575
-0.21148344186661056   0.11440175583680082   0.024359513043712575
-0.21148344186661056   0.11440175583680082   0.024359513043712575
-0.21148344186661056   0.11440175583680082   0.024359513043712575
-0.6175916972744853   0.04604923976137734   0.012161498135962588
-0.6175916972744853   0.04604923976137734   0.012161498135962588
-0.6175916972744853   0.04604923976137734   0.012161498135962588
-0.6175916972744853   0.04604923976137734   0.012161498135962588
-0.21015611290976094   0.1204109862917486   0.02498692737301287
-0.21015611290976094   0.1204109862917486   0.02498692737301287
-0.21015611290976094   0.1204109862917486   0.02498692737301287
-0.21015611290976094   0.1204109862917486   0.02498692737301287
-1.0704765955320727   -0.06706428151031066   -0.023977520026444064
-1.0704765955320727   -0.06706428151031066   -0.023977520026444064
-1.0704765955320727   -0.06706428151031066   -0.023977520026444064
-1.0704765955320727   -0.06706428151031066   -0.023977520026444064
-1.1114374591698566   -0.09911157856281608   -0.01287654622828293
-1.1114374591698566   -0.09911157856281608   -0.01287654622828293
-1.1114374591698566   -0.09911157856281608   -0.01287654622828293
-1.1114374591698566   -0.09911157856281608   -0.01287654622828293
-0.2555197994623311   0.0728795200456936   0.03178077017178348
-0.2555197994623311   0.0728795200456936   0.03178077017178348
-0.2555197994623311   0.0728795200456936   0.03178077017178348
-0.2555197994623311   0.0728795200456936   0.03178077017178348
-0.661183046499558   0.008926041483763553   -0.004174274114969609
-0.661183046499558   0.008926041483763553   -0.004174274114969609
-0.661183046499558   0.008926041483763553   -0.004174274114969609
-0.661183046499558   0.008926041483763553   -0.004174274114969609
-0.25328315009923025   0.0818860832529697   0.033957453780019374
-0.25328315009923025   0.0818860832529697   0.033957453780019374
-0.25328315009923025   0.0818860832529697   0.033957453780019374
-0.25328315009923025   0.0818860832529697   0.033957453780019374
-1.1143358138073471   -0.10877984704449056   -0.017700050934060046
-1.1143358138073471   -0.10877984704449056   -0.017700050934060046
-1.1143358138073471   -0.10877984704449056   -0.017700050934060046
-1.1143358138073471   -0.10877984704449056   -0.017700050934060046
-1.1531321024822987   -0.13557933216158138   -0.0031203578314847533
-1.1531321024822987   -0.13557933216158138   -0.0031203578314847533
-1.1531321024822987   -0.13557933216158138   -0.0031203578314847533
-1.1531321024822987   -0.13557933216158138   -0.0031203578314847533
-0.29917222632006624   0.03252836597418131   0.038349789909384036
-0.29917222632006624   0.03252836597418131   0.038349789909384036
-0.29917222632006624   0.03252836597418131   0.038349789909384036
-0.29917222632006624   0.03252836597418131   0.038349789909384036
-0.7065581994197527   -0.02824338524838757   -0.0218742595393314
-0.7065581994197527   -0.02824338524838757   -0.0218742595393314
-0.7065581994197527   -0.02824338524838757   -0.0218742595393314
-0.7065581994197527   -0.02824338524838757   -0.0218742595393314
-0.9693694155172689   0.1881621951499191   0.046835039256294786
-0.9693694155172689   0.1881621951499191   0.046835039256294786
-0.9693694155172689   0.1881621951499191   0.046835039256294786
-0.9693694155172689   0.1881621951499191   0.046835039256294786
-1.8408675300401343   -0.061802888782353516   -0.06363775731055835
-1.8408675300401343   -0.061802888782353516   -0.06363775731055835
-1.8408675300401343   -0.061802888782353516   -0.06363775731055835
-1.8408675300401343   -0.061802888782353516   -0.06363775731055835
-1.8564496523304528   -0.026424739994083568   0.015485891219124914
-1.8564496523304528   -0.026424739994083568   0.015485891219124914
-1.8564496523304528   -0.026424739994083568   0.015485891219124914
-1.8564496523304528   -0.026424739994083568   0.015485891219124914
-1.0401098170523455   0.07449319710299876   -0.01370110624114021
-1.0401098170523455   0.07449319710299876   -0.01370110624114021
-1.0401098170523455   0.07449319710299876   -0.01370110624114021
-1.0401098170523455   0.07449319710299876   -0.01370110624114021
-1.4182828074898182   0.04404717651323237   0.017694302206092277
-1.4182828074898182   0.04404717651323237   0.017694302206092277
-1.4182828074898182   0.04404717651323237   0.017694302206092277
-1.4182828074898182   0.04404717651323237   0.017694302206092277
-1.0105754631534558   0.15112140972397414   0.05734245063235528
-1.0105754631534558   0.15112140972397414   0.05734245063235528
-1.0105754631534558   0.15112140972397414   0.05734245063235528
-1.0105754631534558   0.15112140972397414   0.05734245063235528
-1.8872573918972706   -0.10432633828298576   -0.06065120832607669
-1.8872573918972706   -0.10432633828298576   -0.06065120832607669
-1.8872573918972706   -0.10432633828298576   -0.06065120832607669
-1.8872573918972706   -0.10432633828298576   -0.06065120832607669
-1.9064069101685506   -0.06421588476599294   0.02015744467122138
-1.9064069101685506   -0.06421588476599294   0.02015744467122138
-1.9064069101685506   -0.06421588476599294   0.02015744467122138
-1.9064069101685506   -0.06421588476599294   0.02015744467122138
-1.0829544995629352   0.03623909814503329   -0.0058124249015477775
-1.0829544995629352   0.03623909814503329   -0.0058124249015477775
-1.0829544995629352   0.03623909814503329   -0.0058124249015477775
-1.0829544995629352   0.03623909814503329   -0.0058124249015477775
-1.4550673850710198   0.010336005836888151   0.0013030583523162553
-1.4550673850710198   0.010336005836888151   0.0013030583523162553
-1.4550673850710198   0.010336005836888151   0.0013030583523162553
-1.4550673850710198   0.010336005836888151   0.0013030583523162553
-1.0523620553932715   0.11603281339431876   0.06735608069750071
-1.0523620553932715   0.11603281339431876   0.06735608069750071
-1.0523620553932715   0.11603281339431876   0.06735608069750071
-1.0523620553932715   0.11603281339431876   0.06735608069750071
-1.937101406815348   -0.14411165249241226   -0.053419270836362345
-1.937101406815348   -0.14411165249241226   -0.053419270836362345
-1.937101406815348   -0.14411165249241226   -0.053419270836362345
-1.937101406815348   -0.14411165249241226   -0.053419270836362345
-1.9509217566789265   -0.10443226510189152   0.03062817422413623
-1.9509217566789265   -0.10443226510189152   0.03062817422413623
-1.9509217566789265   -0.10443226510189152   0.03062817422413623
-1.9509217566789265   -0.10443226510189152   0.03062817422413623
-1.12654164942265   -0.006135146705512212   0.0003877220106735038
-1.12654164942265   -0.006135146705512212   0.0003877220106735038
-1.12654164942265   -0.006135146705512212   0.0003877220106735038
-1.12654164942265   -0.006135146705512212   0.0003877220106735038
-1.5100390443265255   -0.028684953639772415   -0.01767915985295776
-1.5100390443265255   -0.028684953639772415   -0.01767915985295776
-1.5100390443265255   -0.028684953639772415   -0.01767915985295776
-1.5100390443265255   -0.028684953639772415   -0.01767915985295776
-1.7661740199249114   0.1743341156534608   0.07369278882974059
-1.7661740199249114   0.1743341156534608   0.07369278882974059
-1.7661740199249114   0.1743341156534608   0.07369278882974059
-1.7661740199249114   0.1743341156534608   0.07369278882974059
-2.6045045952208383   -0.11970199005679455   -0.08301500512263647
-2.6045045952208383   -0.11970199005679455   -0.08301500512263647
-2.6045045952208383   -0.11970199005679455   -0.08301500512263647
-2.6045045952208383   -0.11970199005679455   -0.08301500512263647
-2.6299748804206535   -0.0013400921571821156   0.07307596394112126
-2.6299748804206535   -0.0013400921571821156   0.07307596394112126
-2.6299748804206535   -0.0013400921571821156   0.07307596394112126
-2.6299748804206535   -0.0013400921571821156   0.07307596394112126
-1.8592610795317013   0.02496658722597428   -0.049962572007206205
-1.8592610795317013   0.02496658722597428   -0.049962572007206205
-1.8592610795317013   0.02496658722597428   -0.049962572007206205
-1.8592610795317013   0.02496658722597428   -0.049962572007206205
-2.117602500137567   0.04071826853949484   0.05343070875944378
-2.117602500137567   0.04071826853949484   0.05343070875944378
-2.117602500137567   0.04071826853949484   0.05343070875944378
-2.117602500137567   0.04071826853949484   0.05343070875944378
-1.8035349543069419   0.1667163571215461   0.08691828422105091
-1.8035349543069419   0.1667163571215461   0.08691828422105091
-1.8035349543069419   0.1667163571215461   0.08691828422105091
-1.8035349543069419   0.1667163571215461   0.08691828422105091
-2.6867826977886793   -0.1441715541960103   -0.06813166086015109
-2.6867826977886793   -0.1441715541960103   -0.06813166086015109
-2.6867826977886793   -0.1441715541960103   -0.06813166086015109
-2.6867826977886793   -0.1441715541960103   -0.06813166086015109
-2.7005000062933786   -0.022105596890310664   0.09211821419435545
-2.7005000062933786   -0.022105596890310664   0.09211821419435545
-2.7005000062933786   -0.022105596890310664   0.09211821419435545
-2.7005000062933786   -0.022105596890310664   0.09211821419435545
-1.9053182876390204   0.003985660308900296   -0.042600987756050146
-1.9053182876390204   0.003985660308900296   -0.042600987756050146
-1.9053182876390204   0.003985660308900296   -0.042600987756050146
-1.9053182876390204   0.003985660308900296   -0.042600987756050146
-2.212393643850325   0.01681917366306085   0.02774561518374921
-2.212393643850325   0.01681917366306085   0.02774561518374921
-2.212393643850325   0.01681917366306085   0.02774561518374921
-2.212393643850325   0.01681917366306085   0.02774561518374921
-1.8469753190246052   0.15066300070797994   0.10243651491697475
-1.8469753190246052   0.15066300070797994   0.10243651491697475
-1.8469753190246052   0.15066300070797994   0.10243651491697475
-1.8469753190246052   0.15066300070797994   0.10243651491697475
-2.759626809874457   -0.16956677225603922   -0.0560546283453105
-2.759626809874457   -0.16956677225603922   -0.0560546283453105
-2.759626809874457   -0.16956677225603922   -0.0560546283453105
-2.759626809874457   -0.16956677225603922   -0.0560546283453105
-2.7948498367734835   -0.08689858027451602   0.09250044498189833
-2.7948498367734835   -0.08689858027451602   0.09250044498189833
-2.7948498367734835   -0.08689858027451602   0.09250044498189833
-2.7948498367734835   -0.08689858027451602   0.09250044498189833
-1.9534825500094142   -0.04894574046129002   -0.03766231706895111
-1.9534825500094142   -0.04894574046129002   -0.03766231706895111
-1.9534825500094142   -0.04894574046129002   -0.03766231706895111
-1.9534825500094142   -0.04894574046129002   -0.03766231706895111
-2.2396598160315664   -0.01036689309037181   0.01544426445682405
-2.2396598160315664   -0.01036689309037181   0.01544426445682405
-2.2396598160315664   -0.01036689309037181   0.01544426445682405
-2.2396598160315664   -0.01036689309037181   0.01544426445682405
0.8198762407147192   0.048770328075248795   -0.1000161019434158
0.8198762407147192   0.048770328075248795   -0.1000161019434158
0.8198762407147192   0.048770328075248795   -0.1000161019434158
0.8198762407147192   0.048770328075248795   -0.1000161019434158
0.23652376136803818   0.060397796326068544   0.047993929839374436
0.23652376136803818   0.060397796326068544   0.047993929839374436
0.23652376136803818   0.060397796326068544   0.047993929839374436
0.23652376136803818   0.060397796326068544   0.047993929839374436
0.1433306654338431   -0.12161507691119426   -0.08814720137939433
0.1433306654338431   -0.12161507691119426   -0.08814720137939433
0.1433306654338431   -0.12161507691119426   -0.08814720137939433
0.1433306654338431   -0.12161507691119426   -0.08814720137939433
0.7968519055441466   0.14091246980004973   0.05775297284549779
0.7968519055441466   0.14091246980004973   0.05775297284549779
0.7968519055441466   0.14091246980004973   0.05775297284549779
0.7968519055441466   0.14091246980004973   0.05775297284549779
0.4699105520199855   0.023460304627393305   -0.010929849772966935
0.4699105520199855   0.023460304627393305   -0.010929849772966935
0.4699105520199855   0.023460304627393305   -0.010929849772966935
0.4699105520199855   0.023460304627393305   -0.010929849772966935
0.7381226767062286   -0.0033528122413729877   -0.09162788930267343
0.7381226767062286   -0.0033528122413729877   -0.09162788930267343
0.7381226767062286   -0.0033528122413729877   -0.09162788930267343
0.7381226767062286   -0.0033528122413729877   -0.09162788930267343
0.20022601543510107   0.020816326293567937   0.05389814542213441
0.20022601543510107   0.020816326293567937   0.05389814542213441
0.20022601543510107   0.020816326293567937   0.05389814542213441
0.20022601543510107   0.020816326293567937   0.05389814542213441
0.10812765278917713   -0.13892561935625164   -0.07480434917786583
0.10812765278917713   -0.13892561935625164   -0.07480434917786583
0.10812765278917713   -0.13892561935625164   -0.07480434917786583
0.10812765278917713   -0.13892561935625164   -0.07480434917786583
0.7335793801492885   0.11701714341860794   0.07410655015369333
0.7335793801492885   0.11701714341860794   0.07410655015369333
0.7335793801492885   0.11701714341860794   0.07410655015369333
0.7335793801492885   0.11701714341860794   0.07410655015369333
0.4255524243943577   -0.0035435434974887686   -0.028503226829057024
0.4255524243943577   -0.0035435434974887686   -0.028503226829057024
0.4255524243943577   -0.0035435434974887686   -0.028503226829057024
0.4255524243943577   -0.0035435434974887686   -0.028503226829057024
0.6752094481217181   -0.025577986472745146   -0.07514798009281302
0.6752094481217181   -0.025577986472745146   -0.07514798009281302
0.6752094481217181   -0.025577986472745146   -0.07514798009281302
0.6752094481217181   -0.025577986472745146   -0.07514798009281302
0.16404869852573734   0.001220624244080433   0.06465463590460703
0.16404869852573734   0.001220624244080433   0.06465463590460703
0.16404869852573734   0.001220624244080433   0.06465463590460703
0.16404869852573734   0.001220624244080433   0.06465463590460703
0.0766335424667971   -0.1599715904832323   -0.06227667969761449
0.0766335424667971   -0.1599715904832323   -0.06227667969761449
0.0766335424667971   -0.1599715904832323   -0.06227667969761449
0.0766335424667971   -0.1599715904832323   -0.06227667969761449
0.6552772276320923   0.07867879631285116   0.08220671514828619
0.6552772276320923   0.07867879631285116   0.08220671514828619
0.6552772276320923   0.07867879631285116   0.08220671514828619
0.6552772276320923   0.07867879631285116   0.08220671514828619
0.36467401424374746   -0.02766317890179283   -0.04991083126385247
0.36467401424374746   -0.02766317890179283   -0.04991083126385247
0.36467401424374746   -0.02766317890179283   -0.04991083126385247
0.36467401424374746   -0.02766317890179283   -0.04991083126385247
0.22690990077317683   0.08952563510035172   -0.02920321190921838
0.22690990077317683   0.08952563510035172   -0.02920321190921838
0.22690990077317683   0.08952563510035172   -0.02920321190921838
0.22690990077317683   0.08952563510035172   -0.02920321190921838
-0.3378552950786216   0.029322285751883448   0.011778893558232539
-0.3378552950786216   0.029322285751883448   0.011778893558232539
-0.3378552950786216   0.029322285751883448   0.011778893558232539
-0.3378552950786216   0.029322285751883448   0.011778893558232539
-0.39786698445732926   -0.07785800833478916   -0.05136914830874993
-0.39786698445732926   -0.07785800833478916   -0.05136914830874993
-0.39786698445732926   -0.07785800833478916   -0.05136914830874993
-0.39786698445732926   -0.07785800833478916   -0.05136914830874993
0.21842579355427563   0.1111821544168042   0.05453120789477098
0.21842579355427563   0.1111821544168042   0.05453120789477098
0.21842579355427563   0.1111821544168042   0.05453120789477098
0.21842579355427563   0.1111821544168042   0.05453120789477098
-0.07454449460504575   0.03644725922673407   0.009128562118574516
-0.07454449460504575   0.03644725922673407   0.009128562118574516
-0.07454449460504575   0.03644725922673407   0.009128562118574516
-0.07454449460504575   0.03644725922673407   0.009128562118574516
0.19013248520050166   0.04572089947254646   -0.02147407892984131
0.19013248520050166   0.04572089947254646   -0.02147407892984131
0.19013248520050166   0.04572089947254646   -0.02147407892984131
0.19013248520050166   0.04572089947254646   -0.02147407892984131
-0.37113011622480696   -0.01395319351178316   0.018410378030855507
-0.37113011622480696   -0.01395319351178316   0.018410378030855507
-0.37113011622480696   -0.01395319351178316   0.018410378030855507
-0.37113011622480696   -0.01395319351178316   0.018410378030855507
-0.42936502520867414   -0.11307054073325828   -0.0401782871332755
-0.42936502520867414   -0.11307054073325828   -0.0401782871332755
-0.42936502520867414   -0.11307054073325828   -0.0401782871332755
-0.42936502520867414   -0.11307054073325828   -0.0401782871332755
0.17709716602901177   0.07167373948571248   0.059443858179346984
0.17709716602901177   0.07167373948571248   0.059443858179346984
0.17709716602901177   0.07167373948571248   0.059443858179346984
0.17709716602901177   0.07167373948571248   0.059443858179346984
-0.11342791907102195   -0.0014687820656100747   -0.009032923251343007
-0.11342791907102195   -0.0014687820656100747   -0.009032923251343007
-0.11342791907102195   -0.0014687820656100747   -0.009032923251343007
-0.11342791907102195   -0.0014687820656100747   -0.009032923251343007
0.14964545489577621   0.007949184261708528   -0.014090142262830499
0.14964545489577621   0.007949184261708528   -0.014090142262830499
0.14964545489577621   0.007949184261708528   -0.014090142262830499
0.14964545489577621   0.007949184261708528   -0.014090142262830499
-0.403926847961739   -0.05135951939555405   0.025301577763703766
-0.403926847961739   -0.05135951939555405   0.025301577763703766
-0.403926847961739   -0.05135951939555405   0.025301577763703766
-0.403926847961739   -0.05135951939555405   0.025301577763703766
-0.4606266592968866   -0.1480748972770978   -0.030061749336235483
-0.4606266592968866   -0.1480748972770978   -0.030061749336235483
-0.4606266592968866   -0.1480748972770978   -0.030061749336235483
-0.4606266592968866   -0.1480748972770978   -0.030061749336235483
0.14091318270648162   0.03280543593802984   0.06634449507954768
0.14091318270648162   0.03280543593802984   0.06634449507954768
0.14091318270648162   0.03280543593802984   0.06634449507954768
0.14091318270648162   0.03280543593802984   0.06634449507954768
-0.14714369041467887   -0.035508725107991426   -0.026208427123889953
-0.14714369041467887   -0.035508725107991426   -0.026208427123889953
-0.14714369041467887   -0.035508725107991426   -0.026208427123889953
-0.14714369041467887   -0.035508725107991426   -0.026208427123889953
-0.3205849557527771   0.12316168070018357   0.004291195239155048
-0.3205849557527771   0.12316168070018357   0.004291195239155048
-0.3205849557527771   0.12316168070018357   0.004291195239155048
-0.3205849557527771   0.12316168070018357   0.004291195239155048
-0.9047790860776843   -0.010383988948111905   -0.02476750014894935
-0.9047790860776843   -0.010383988948111905   -0.02476750014894935
-0.9047790860776843   -0.010383988948111905   -0.02476750014894935
-0.9047790860776843   -0.010383988948111905   -0.02476750014894935
-0.9331225074522685   -0.03774835066397714   -0.014751953874519212
-0.9331225074522685   -0.03774835066397714   -0.014751953874519212
-0.9331225074522685   -0.03774835066397714   -0.014751953874519212
-0.9331225074522685   -0.03774835066397714   -0.014751953874519212
-0.3539240149166777   0.07315583218288527   0.01733185887682208
-0.3539240149166777   0.07315583218288527   0.01733185887682208
-0.3539240149166777   0.07315583218288527   0.01733185887682208
-0.3539240149166777   0.07315583218288527   0.01733185887682208
-0.6266242587996116   0.03628820475010808   0.009493274131569335
-0.6266242587996116   0.03628820475010808   0.009493274131569335
-0.6266242587996116   0.03628820475010808   0.009493274131569335
-0.6266242587996116   0.03628820475010808   0.009493274131569335
-0.3522085680161059   0.08433151092557253   0.01473341463700508
-0.3522085680161059   0.08433151092557253   0.01473341463700508
-0.3522085680161059   0.08433151092557253   0.01473341463700508
-0.3522085680161059   0.08433151092557253   0.01473341463700508
-0.9361983684382653   -0.050284443492088826   -0.01759516597639936
-0.9361983684382653   -0.050284443492088826   -0.01759516597639936
-0.9361983684382653   -0.050284443492088826   -0.01759516597639936
-0.9361983684382653   -0.050284443492088826   -0.01759516597639936
-0.9644782021680927   -0.07618886618765086   -0.004602758289116077
-0.9644782021680927   -0.07618886618765086   -0.004602758289116077
-0.9644782021680927   -0.07618886618765086   -0.004602758289116077
-0.9644782021680927   -0.07618886618765086   -0.004602758289116077
-0.38717591544301366   0.03308738672683176   0.024609334234936768
-0.38717591544301366   0.03308738672683176   0.024609334234936768
-0.38717591544301366   0.03308738672683176   0.024609334234936768
-0.38717591544301366   0.03308738672683176   0.024609334234936768
-0.6593449902484632   -0.00020612394726080008   -0.006798483251438579
-0.6593449902484632   -0.00020612394726080008   -0.006798483251438579
-0.6593449902484632   -0.00020612394726080008   -0.006798483251438579
-0.6593449902484632   -0.00020612394726080008   -0.006798483251438579
-0.3848764307386454   0.04540905721065441   0.02378508727296319
-0.3848764307386454   0.04540905721065441   0.02378508727296319
-0.3848764307386454   0.04540905721065441   0.02378508727296319
-0.3848764307386454   0.04540905721065441   0.02378508727296319
-0.968712716054927   -0.09044556585394996   -0.011518628056997066
-0.968712716054927   -0.09044556585394996   -0.011518628056997066
-0.968712716054927   -0.09044556585394996   -0.011518628056997066
-0.968712716054927   -0.09044556585394996   -0.011518628056997066
-0.9952417640828812   -0.11331307695449193   0.005212113028832861
-0.9952417640828812   -0.11331307695449193   0.005212113028832861
-0.9952417640828812   -0.11331307695449193   0.005212113028832861
-0.9952417640828812   -0.11331307695449193   0.005212113028832861
-0.41984659722171686   -0.0055215566902531155   0.03128522045276838
-0.41984659722171686   -0.0055215566902531155   0.03128522045276838
-0.41984659722171686   -0.0055215566902531155   0.03128522045276838
-0.41984659722171686   -0.0055215566902531155   0.03128522045276838
-0.6937643644728811   -0.03679286346359037   -0.024482758528021308
-0.6937643644728811   -0.03679286346359037   -0.024482758528021308
-0.6937643644728811   -0.03679286346359037   -0.024482758528021308
-0.6937643644728811   -0.03679286346359037   -0.024482758528021308
-0.8590207684990484   0.1550183622893325   0.038621736506785964
-0.8590207684990484   0.1550183622893325   0.038621736506785964
-0.8590207684990484   0.1550183622893325   0.038621736506785964
-0.8590207684990484   0.1550183622893325   0.038621736506785964
-1.4589263587382377   -0.04285538019922075   -0.05667377390367906
-1.4589263587382377   -0.04285538019922075   -0.05667377390367906
-1.4589263587382377   -0.04285538019922075   -0.05667377390367906
-1.4589263587382377   -0.04285538019922075   -0.05667377390367906
-1.4617451515720705   -0.0022751972133469023   0.02409225669685644
-1.4617451515720705   -0.0022751972133469023   0.02409225669685644
-1.4617451515720705   -0.0022751972133469023   0.02409225669685644
-1.4617451515720705   -0.0022751972133469023   0.02409225669685644
-0.9187054589139559   0.03755076256636114   -0.017965824413309454
-0.9187054589139559   0.03755076256636114   -0.017965824413309454
-0.9187054589139559   0.03755076256636114   -0.017965824413309454
-0.9187054589139559   0.03755076256636114   -0.017965824413309454
-1.1686640635441887   0.036807621262707035   0.012551866386692714
-1.1686640635441887   0.036807621262707035   0.012551866386692714
-1.1686640635441887   0.036807621262707035   0.012551866386692714
-1.1686640635441887   0.036807621262707035   0.012551866386692714
-0.8893621525096002   0.11720270441227726   0.04909876576256804
-0.8893621525096002   0.11720270441227726   0.04909876576256804
-0.8893621525096002   0.11720270441227726   0.04909876576256804
-0.8893621525096002   0.11720270441227726   0.04909876576256804
-1.4937053550165569   -0.08454403609940372   -0.053439921639532866
-1.4937053550165569   -0.08454403609940372   -0.053439921639532866
-1.4937053550165569   -0.08454403609940372   -0.053439921639532866
-1.4937053550165569   -0.08454403609940372   -0.053439921639532866
-1.5003360455918715   -0.04016152121054606   0.029566024349491835
-1.5003360455918715   -0.04016152121054606   0.029566024349491835
-1.5003360455918715   -0.04016152121054606   0.029566024349491835
-1.5003360455918715   -0.04016152121054606   0.029566024349491835
-0.9502259791467131   0.0006777417081545167   -0.010208251078040277
-0.9502259791467131   0.0006777417081545167   -0.010208251078040277
-0.9502259791467131   0.0006777417081545167   -0.010208251078040277
-0.9502259791467131   0.0006777417081545167   -0.010208251078040277
-1.1965171229322646   0.002771041034588473   -0.0045364762087753835
-1.1965171229322646   0.002771041034588473   -0.0045364762087753835
-1.1965171229322646   0.002771041034588473   -0.0045364762087753835
-1.1965171229322646   0.002771041034588473   -0.0045364762087753835
-0.9201010957824204   0.08182587114313594   0.05926803630845061
-0.9201010957824204   0.08182587114313594   0.05926803630845061
-0.9201010957824204   0.08182587114313594   0.05926803630845061
-0.9201010957824204   0.08182587114313594   0.05926803630845061
-1.5320909026342382   -0.12293962432360508   -0.0464301577493132
-1.5320909026342382   -0.12293962432360508   -0.0464301577493132
-1.5320909026342382   -0.12293962432360508   -0.0464301577493132
-1.5320909026342382   -0.12293962432360508   -0.0464301577493132
-1.5336957331141523   -0.07961111350570352   0.040161971701219386
-1.5336957331141523   -0.07961111350570352   0.040161971701219386
-1.5336957331141523   -0.07961111350570352   0.040161971701219386
-1.5336957331141523   -0.07961111350570352   0.040161971701219386
-0.9821350971836934   -0.038711365264818276   -0.003856264164924357
-0.9821350971836934   -0.038711365264818276   -0.003856264164924357
-0.9821350971836934   -0.038711365264818276   -0.003856264164924357
-0.9821350971836934   -0.038711365264818276   -0.003856264164924357
-1.2378092810281902   -0.03423853321988607   -0.02313077529939718
-1.2378092810281902   -0.03423853321988607   -0.02313077529939718
-1.2378092810281902   -0.03423853321988607   -0.02313077529939718
-1.2378092810281902   -0.03423853321988607   -0.02313077529939718
-1.3948288486680005   0.1525231996066338   0.06843519664166738
-1.3948288486680005   0.1525231996066338   0.06843519664166738
-1.3948288486680005   0.1525231996066338   0.06843519664166738
-1.3948288486680005   0.1525231996066338   0.06843519664166738
-1.9609761936373291   -0.09001129805064867   -0.08636022061947699
-1.9609761936373291   -0.09001129805064867   -0.08636022061947699
-1.9609761936373291   -0.09001129805064867   -0.08636022061947699
-1.9609761936373291   -0.09001129805064867   -0.08636022061947699
-1.9754681583511873   0.026108564495884223   0.07195439316182951
-1.9754681583511873   0.026108564495884223   0.07195439316182951
-1.9754681583511873   0.026108564495884223   0.07195439316182951
-1.9754681583511873   0.026108564495884223   0.07195439316182951
-1.4776411789215975   -0.004847846136360745   -0.05281523112777903
-1.4776411789215975   -0.004847846136360745   -0.05281523112777903
-1.4776411789215975   -0.004847846136360745   -0.05281523112777903
-1.4776411789215975   -0.004847846136360745   -0.05281523112777903
-1.6291536213076503   0.0368164826163756   0.0392723864320752
-1.6291536213076503   0.0368164826163756   0.0392723864320752
-1.6291536213076503   0.0368164826163756   0.0392723864320752
-1.6291536213076503   0.0368164826163756   0.0392723864320752
-1.4222103885087076   0.13855617899339673   0.08093469580691239
-1.4222103885087076   0.13855617899339673   0.08093469580691239
-1.4222103885087076   0.13855617899339673   0.08093469580691239
-1.4222103885087076   0.13855617899339673   0.08093469580691239
-2.0336801017493746   -0.12007661361917055   -0.0729201457140512
-2.0336801017493746   -0.12007661361917055   -0.0729201457140512
-2.0336801017493746   -0.12007661361917055   -0.0729201457140512
-2.0336801017493746   -0.12007661361917055   -0.0729201457140512
-2.035524741628548   0.004849390942116949   0.0919241193994998
-2.035524741628548   0.004849390942116949   0.0919241193994998
-2.035524741628548   0.004849390942116949   0.0919241193994998
-2.035524741628548   0.004849390942116949   0.0919241193994998
-1.5123715178390176   -0.02542375926055851   -0.045349098836256374
-1.5123715178390176   -0.02542375926055851   -0.045349098836256374
-1.5123715178390176   -0.02542375926055851   -0.045349098836256374
-1.5123715178390176   -0.02542375926055851   -0.045349098836256374
-1.7057292437853055   0.011646437273898247   0.013917177494513502
-1.7057292437853055   0.011646437273898247   0.013917177494513502
-1.7057292437853055   0.011646437273898247   0.013917177494513502
-1.7057292437853055   0.011646437273898247   0.013917177494513502
-1.4545763690181985   0.12191234898812175   0.09629053701917441
-1.4545763690181985   0.12191234898812175   0.09629053701917441
-1.4545763690181985   0.12191234898812175   0.09629053701917441
-1.4545763690181985   0.12191234898812175   0.09629053701917441
-2.095959644067846   -0.14512647092503927   -0.06027453092983187
-2.095959644067846   -0.14512647092503927   -0.06027453092983187
-2.095959644067846   -0.14512647092503927   -0.06027453092983187
-2.095959644067846   -0.14512647092503927   -0.06027453092983187
-2.118615188151453   -0.05544541102688327   0.09497196824512145
-2.118615188151453   -0.05544541102688327   0.09497196824512145
-2.118615188151453   -0.05544541102688327   0.09497196824512145
-2.118615188151453   -0.05544541102688327   0.09497196824512145
-1.548196556135068   -0.07240824443694499   -0.03954501247214713
-1.548196556135068   -0.07240824443694499   -0.03954501247214713
-1.548196556135068   -0.07240824443694499   -0.03954501247214713
-1.548196556135068   -0.07240824443694499   -0.03954501247214713
-1.730970215814842   -0.015064852314575272   -0.0012248313423438295
-1.730970215814842   -0.015064852314575272   -0.0012248313423438295
-1.730970215814842   -0.015064852314575272   -0.0012248313423438295
-1.730970215814842   -0.015064852314575272   -0.0012248313423438295
0.13965777438968865   0.011512649472336413   -0.09956581745093668
0.13965777438968865   0.011512649472336413   -0.09956581745093668
0.13965777438968865   0.011512649472336413   -0.09956581745093668
0.13965777438968865   0.011512649472336413   -0.09956581745093668
-0.16691096283790666   0.07485005428419016   0.05103648278104341
-0.16691096283790666   0.07485005428419016   0.05103648278104341
-0.16691096283790666   0.07485005428419016   0.05103648278104341
-0.16691096283790666   0.07485005428419016   0.05103648278104341
-0.2480397705156128   -0.09564179910574502   -0.08012669562371655
-0.2480397705156128   -0.09564179910574502   -0.08012669562371655
-0.2480397705156128   -0.09564179910574502   -0.08012669562371655
-0.2480397705156128   -0.09564179910574502   -0.08012669562371655
0.12736416372489426   0.10479938930250848   0.06272971185025285
0.12736416372489426   0.10479938930250848   0.06272971185025285
0.12736416372489426   0.10479938930250848   0.06272971185025285
0.12736416372489426   0.10479938930250848   0.06272971185025285
-0.04004975690601686   0.022987169854972754   0.008696482205191584
-0.04004975690601686   0.022987169854972754   0.008696482205191584
-0.04004975690601686   0.022987169854972754   0.008696482205191584
-0.04004975690601686   0.022987169854972754   0.008696482205191584
0.06928114264988969   -0.03394123182696128   -0.0889447723953003
0.06928114264988969   -0.03394123182696128   -0.0889447723953003
0.06928114264988969   -0.03394123182696128   -0.0889447723953003
0.06928114264988969   -0.03394123182696128   -0.0889447723953003
-0.19340511241061445   0.0396504590537185   0.057754336741811685
-0.19340511241061445   0.0396504590537185   0.057754336741811685
-0.19340511241061445   0.0396504590537185   0.057754336741811685
-0.19340511241061445   0.0396504590537185   0.057754336741811685
-0.27473583713747307   -0.11304032097884291   -0.06786555454686066
-0.27473583713747307   -0.11304032097884291   -0.06786555454686066
-0.27473583713747307   -0.11304032097884291   -0.06786555454686066
-0.27473583713747307   -0.11304032097884291   -0.06786555454686066
0.07231762178856851   0.08114359869569365   0.0859664337425666
0.07231762178856851   0.08114359869569365   0.0859664337425666
0.07231762178856851   0.08114359869569365   0.0859664337425666
0.07231762178856851   0.08114359869569365   0.0859664337425666
-0.08360606068918477   -0.0030706060115494142   -0.011433387070757656
-0.08360606068918477   -0.0030706060115494142   -0.011433387070757656
-0.08360606068918477   -0.0030706060115494142   -0.011433387070757656
-0.08360606068918477   -0.0030706060115494142   -0.011433387070757656
0.012910535811381926   -0.05660251247437216   -0.07332288497330054
0.012910535811381926   -0.05660251247437216   -0.07332288497330054
0.012910535811381926   -0.05660251247437216   -0.07332288497330054
0.012910535811381926   -0.05660251247437216   -0.07332288497330054
-0.22010702636661655   0.019927514984882114   0.07231066334369399
-0.22010702636661655   0.019927514984882114   0.07231066334369399
-0.22010702636661655   0.019927514984882114   0.07231066334369399
-0.22010702636661655   0.019927514984882114   0.07231066334369399
-0.29919140294887464   -0.1398997652925264   -0.056217462297634815
-0.29919140294887464   -0.1398997652925264   -0.056217462297634815
-0.29919140294887464   -0.1398997652925264   -0.056217462297634815
-0.29919140294887464   -0.1398997652925264   -0.056217462297634815
-0.004125451822822989   0.03147952740248242   0.09794623799004297
-0.004125451822822989   0.03147952740248242   0.09794623799004297
-0.004125451822822989   0.03147952740248242   0.09794623799004297
-0.004125451822822989   0.03147952740248242   0.09794623799004297
-0.13012448266716575   -0.029356136808580815   -0.03459507299714934
-0.13012448266716575   -0.029356136808580815   -0.03459507299714934
-0.13012448266716575   -0.029356136808580815   -0.03459507299714934
-0.13012448266716575   -0.029356136808580815   -0.03459507299714934
-0.19033497129091592   0.04851989229817964   -0.03975339749799224
-0.19033497129091592   0.04851989229817964   -0.03975339749799224
-0.19033497129091592   0.04851989229817964   -0.03975339749799224
-0.19033497129091592   0.04851989229817964   -0.03975339749799224
-0.47800006313930266   0.020082781609121678   0.013377916324495448
-0.47800006313930266   0.020082781609121678   0.013377916324495448
-0.47800006313930266   0.020082781609121678   0.013377916324495448
-0.47800006313930266   0.020082781609121678   0.013377916324495448
-0.5197876260363276   -0.055688726080216286   -0.041609774999728205
-0.5197876260363276   -0.055688726080216286   -0.041609774999728205
-0.5197876260363276   -0.055688726080216286   -0.041609774999728205
-0.5197876260363276   -0.055688726080216286   -0.041609774999728205
-0.19556432412450223   0.046894114632670764   0.039714622593420415
-0.19556432412450223   0.046894114632670764   0.039714622593420415
-0.19556432412450223   0.046894114632670764   0.039714622593420415
-0.19556432412450223   0.046894114632670764   0.039714622593420415
-0.3451902422132858   0.01399472867765214   0.007411820182976297
-0.3451902422132858   0.01399472867765214   0.007411820182976297
-0.3451902422132858   0.01399472867765214   0.007411820182976297
-0.3451902422132858   0.01399472867765214   0.007411820182976297
-0.2181288486320792   0.006435172781850372   -0.03264905809364324
-0.2181288486320792   0.006435172781850372   -0.03264905809364324
-0.2181288486320792   0.006435172781850372   -0.03264905809364324
-0.2181288486320792   0.006435172781850372   -0.03264905809364324
-0.5000438323963583   -0.018050515097003506   0.019470982216905176
-0.5000438323963583   -0.018050515097003506   0.019470982216905176
-0.5000438323963583   -0.018050515097003506   0.019470982216905176
-0.5000438323963583   -0.018050515097003506   0.019470982216905176
-0.5405556788469622   -0.08987752112874531   -0.030659600016967978
-0.5405556788469622   -0.08987752112874531   -0.030659600016967978
-0.5405556788469622   -0.08987752112874531   -0.030659600016967978
-0.5405556788469622   -0.08987752112874531   -0.030659600016967978
-0.22777538239037964   0.009121839395538067   0.044774558814222556
-0.22777538239037964   0.009121839395538067   0.044774558814222556
-0.22777538239037964   0.009121839395538067   0.044774558814222556
-0.22777538239037964   0.009121839395538067   0.044774558814222556
-0.37142949081260657   -0.020276020252889444   -0.009767494884689634
-0.37142949081260657   -0.020276020252889444   -0.009767494884689634
-0.37142949081260657   -0.020276020252889444   -0.009767494884689634
-0.37142949081260657   -0.020276020252889444   -0.009767494884689634
-0.24951453948184193   -0.030414375584854138   -0.02438501166269382
-0.24951453948184193   -0.030414375584854138   -0.02438501166269382
-0.24951453948184193   -0.030414375584854138   -0.02438501166269382
-0.24951453948184193   -0.030414375584854138   -0.02438501166269382
-0.5218421966403655   -0.05336698103320793   0.02639727092047844
-0.5218421966403655   -0.05336698103320793   0.02639727092047844
-0.5218421966403655   -0.05336698103320793   0.02639727092047844
-0.5218421966403655   -0.05336698103320793   0.02639727092047844
-0.5614607373596412   -0.1251301107692265   -0.020959318390611166
-0.5614607373596412   -0.1251301107692265   -0.020959318390611166
-0.5614607373596412   -0.1251301107692265   -0.020959318390611166
-0.5614607373596412   -0.1251301107692265   -0.020959318390611166
-0.254703809382901   -0.02923755291979567   0.05555829315950155
-0.254703809382901   -0.02923755291979567   0.05555829315950155
-0.254703809382901   -0.02923755291979567   0.05555829315950155
-0.254703809382901   -0.02923755291979567   0.05555829315950155
-0.3976868414047612   -0.054257754473309834   -0.02726152663996754
-0.3976868414047612   -0.054257754473309834   -0.02726152663996754
-0.3976868414047612   -0.054257754473309834   -0.02726152663996754
-0.3976868414047612   -0.054257754473309834   -0.02726152663996754
-0.4693772186620285   0.08080405719067094   -0.004229136870690958
-0.4693772186620285   0.08080405719067094   -0.004229136870690958
-0.4693772186620285   0.08080405719067094   -0.004229136870690958
-0.4693772186620285   0.08080405719067094   -0.004229136870690958
-0.7865600379250852   -0.02679083592553408   -0.022132822015518576
-0.7865600379250852   -0.02679083592553408   -0.022132822015518576
-0.7865600379250852   -0.02679083592553408   -0.022132822015518576
-0.7865600379250852   -0.02679083592553408   -0.022132822015518576
-0.7947681300251537   -0.019392775879102625   -0.004567066324641364
-0.7947681300251537   -0.019392775879102625   -0.004567066324641364
-0.7947681300251537   -0.019392775879102625   -0.004567066324641364
-0.7947681300251537   -0.019392775879102625   -0.004567066324641364
-0.4982924215917114   0.004062194025788987   0.0061153271173471635
-0.4982924215917114   0.004062194025788987   0.0061153271173471635
-0.4982924215917114   0.004062194025788987   0.0061153271173471635
-0.4982924215917114   0.004062194025788987   0.0061153271173471635
-0.635927952091574   0.009065770559122083   0.002442299171586726
-0.635927952091574   0.009065770559122083   0.002442299171586726
-0.635927952091574   0.009065770559122083   0.002442299171586726
-0.635927952091574   0.009065770559122083   0.002442299171586726
-0.4903917777534235   0.043610046589239004   0.006070693745336628
-0.4903917777534235   0.043610046589239004   0.006070693745336628
-0.4903917777534235   0.043610046589239004   0.006070693745336628
-0.4903917777534235   0.043610046589239004   0.006070693745336628
-0.8053784878692373   -0.06165034244834833   -0.015361288975813625
-0.8053784878692373   -0.06165034244834833   -0.015361288975813625
-0.8053784878692373   -0.06165034244834833   -0.015361288975813625
-0.8053784878692373   -0.06165034244834833   -0.015361288975813625
-0.8142319852399845   -0.056119473132515446   0.005631104735171484
-0.8142319852399845   -0.056119473132515446   0.005631104735171484
-0.8142319852399845   -0.056119473132515446   0.005631104735171484
-0.8142319852399845   -0.056119473132515446   0.005631104735171484
-0.5203314689787765   -0.032033024770505514   0.012616952965721146
-0.5203314689787765   -0.032033024770505514   0.012616952965721146
-0.5203314689787765   -0.032033024770505514   0.012616952965721146
-0.5203314689787765   -0.032033024770505514   0.012616952965721146
-0.6570409539895833   -0.024335131143108535   -0.013337966758893503
-0.6570409539895833   -0.024335131143108535   -0.013337966758893503
-0.6570409539895833   -0.024335131143108535   -0.013337966758893503
-0.6570409539895833   -0.024335131143108535   -0.013337966758893503
-0.5121759622965747   0.006198169025314254   0.015163292580910294
-0.5121759622965747   0.006198169025314254   0.015163292580910294
-0.5121759622965747   0.006198169025314254   0.015163292580910294
-0.5121759622965747   0.006198169025314254   0.015163292580910294
-0.8256528660559105   -0.09761604106206077   -0.009976731414921097
-0.8256528660559105   -0.09761604106206077   -0.009976731414921097
-0.8256528660559105   -0.09761604106206077   -0.009976731414921097
-0.8256528660559105   -0.09761604106206077   -0.009976731414921097
-0.8331926796749056   -0.0913676237432135   0.015400967641155283
-0.8331926796749056   -0.0913676237432135   0.015400967641155283
-0.8331926796749056   -0.0913676237432135   0.015400967641155283
-0.8331926796749056   -0.0913676237432135   0.015400967641155283
-0.5414802482262058   -0.06610836691884397   0.01992138342618316
-0.5414802482262058   -0.06610836691884397   0.01992138342618316
-0.5414802482262058   -0.06610836691884397   0.01992138342618316
-0.5414802482262058   -0.06610836691884397   0.01992138342618316
-0.6797605982576017   -0.05795271543937491   -0.0304830859124572
-0.6797605982576017   -0.05795271543937491   -0.0304830859124572
-0.6797605982576017   -0.05795271543937491   -0.0304830859124572
-0.6797605982576017   -0.05795271543937491   -0.0304830859124572
-0.7468254067117016   0.1173745538433422   0.032374944282538384
-0.7468254067117016   0.1173745538433422   0.032374944282538384
-0.7468254067117016   0.1173745538433422   0.032374944282538384
-0.7468254067117016   0.1173745538433422   0.032374944282538384
-1.0826464091333599   -0.04440586388534071   -0.0497152425056055
-1.0826464091333599   -0.04440586388534071   -0.0497152425056055
-1.0826464091333599   -0.04440586388534071   -0.0497152425056055
-1.0826464091333599   -0.04440586388534071   -0.0497152425056055
-1.06797114203024   0.01802964575138688   0.033694274628042004
-1.06797114203024   0.01802964575138688   0.033694274628042004
-1.06797114203024   0.01802964575138688   0.033694274628042004
-1.06797114203024   0.01802964575138688   0.033694274628042004
-0.7976248378488454   -0.0160464720891991   -0.02219690923300361
-0.7976248378488454   -0.0160464720891991   -0.02219690923300361
-0.7976248378488454   -0.0160464720891991   -0.02219690923300361
-0.7976248378488454   -0.0160464720891991   -0.02219690923300361
-0.9206167095349922   0.01888600155585901   0.004330901091464098
-0.9206167095349922   0.01888600155585901   0.004330901091464098
-0.9206167095349922   0.01888600155585901   0.004330901091464098
-0.9206167095349922   0.01888600155585901   0.004330901091464098
-0.7653661751933706   0.08035147548681207   0.04269845646835977
-0.7653661751933706   0.08035147548681207   0.04269845646835977
-0.7653661751933706   0.08035147548681207   0.04269845646835977
-0.7653661751933706   0.08035147548681207   0.04269845646835977
-1.104185432829707   -0.08232392996863183   -0.04702360364930561
-1.104185432829707   -0.08232392996863183   -0.04702360364930561
-1.104185432829707   -0.08232392996863183   -0.04702360364930561
-1.104185432829707   -0.08232392996863183   -0.04702360364930561
-1.0940753625848834   -0.018095320781807173   0.039775819910321523
-1.0940753625848834   -0.018095320781807173   0.039775819910321523
-1.0940753625848834   -0.018095320781807173   0.039775819910321523
-1.0940753625848834   -0.018095320781807173   0.039775819910321523
-0.8169220553557766   -0.04883232082737754   -0.015106398148927336
-0.8169220553557766   -0.04883232082737754   -0.015106398148927336
-0.8169220553557766   -0.04883232082737754   -0.015106398148927336
-0.8169220553557766   -0.04883232082737754   -0.015106398148927336
-0.9383602523482879   -0.013306654732531065   -0.012776469388064815
-0.9383602523482879   -0.013306654732531065   -0.012776469388064815
-0.9383602523482879   -0.013306654732531065   -0.012776469388064815
-0.9383602523482879   -0.013306654732531065   -0.012776469388064815
-0.7842943417122719   0.046454741049078874   0.05274510819214014
-0.7842943417122719   0.046454741049078874   0.05274510819214014
-0.7842943417122719   0.046454741049078874   0.05274510819214014
-0.7842943417122719   0.046454741049078874   0.05274510819214014
-1.1298266282063152   -0.11650593463619313   -0.04056989434246655
-1.1298266282063152   -0.11650593463619313   -0.04056989434246655
-1.1298266282063152   -0.11650593463619313   -0.04056989434246655
-1.1298266282063152   -0.11650593463619313   -0.04056989434246655
-1.1153012151240962   -0.05444811989211104   0.05062608063901474
-1.1153012151240962   -0.05444811989211104   0.05062608063901474
-1.1153012151240962   -0.05444811989211104   0.05062608063901474
-1.1153012151240962   -0.05444811989211104   0.05062608063901474
-0.8362837307001746   -0.08236851258087378   -0.009053398647536699
-0.8362837307001746   -0.08236851258087378   -0.009053398647536699
-0.8362837307001746   -0.08236851258087378   -0.009053398647536699
-0.8362837307001746   -0.08236851258087378   -0.009053398647536699
-0.9650263578041616   -0.04608536334555338   -0.03028782576211849
-0.9650263578041616   -0.04608536334555338   -0.03028782576211849
-0.9650263578041616   -0.04608536334555338   -0.03028782576211849
-0.9650263578041616   -0.04608536334555338   -0.03028782576211849
-1.0255972757600433   0.12713453478652575   0.06399002568910947
-1.0255972757600433   0.12713453478652575   0.06399002568910947
-1.0255972757600433   0.12713453478652575   0.06399002568910947
-1.0255972757600433   0.12713453478652575   0.06399002568910947
-1.3172620245959112   -0.06567372778276961   -0.08342858150995855
-1.3172620245959112   -0.06567372778276961   -0.08342858150995855
-1.3172620245959112   -0.06567372778276961   -0.08342858150995855
-1.3172620245959112   -0.06567372778276961   -0.08342858150995855
-1.3182116077986004   0.051708443276535454   0.07053664481370486
-1.3182116077986004   0.051708443276535454   0.07053664481370486
-1.3182116077986004   0.051708443276535454   0.07053664481370486
-1.3182116077986004   0.051708443276535454   0.07053664481370486
-1.0960658924138778   -0.037693220961765556   -0.05105661057699482
-1.0960658924138778   -0.037693220961765556   -0.05105661057699482
-1.0960658924138778   -0.037693220961765556   -0.05105661057699482
-1.0960658924138778   -0.037693220961765556   -0.05105661057699482
-1.141257630924768   0.03038289215290574   0.021866828559335846
-1.141257630924768   0.03038289215290574   0.021866828559335846
-1.141257630924768   0.03038289215290574   0.021866828559335846
-1.141257630924768   0.03038289215290574   0.021866828559335846
-1.041613975546477   0.10801882610322067   0.07549092669500757
-1.041613975546477   0.10801882610322067   0.07549092669500757
-1.041613975546477   0.10801882610322067   0.07549092669500757
-1.041613975546477   0.10801882610322067   0.07549092669500757
-1.3767641940295554   -0.09810427315199996   -0.07241356991248937
-1.3767641940295554   -0.09810427315199996   -0.07241356991248937
-1.3767641940295554   -0.09810427315199996   -0.07241356991248937
-1.3767641940295554   -0.09810427315199996   -0.07241356991248937
-1.3657004980633385   0.031165087511694445   0.09092411524932903
-1.3657004980633385   0.031165087511694445   0.09092411524932903
-1.3657004980633385   0.031165087511694445   0.09092411524932903
-1.3657004980633385   0.031165087511694445   0.09092411524932903
-1.1186707114468317   -0.05653364316851958   -0.04476260201270813
-1.1186707114468317   -0.05653364316851958   -0.04476260201270813
-1.1186707114468317   -0.05653364316851958   -0.04476260201270813
-1.1186707114468317   -0.05653364316851958   -0.04476260201270813
-1.197695207767262   0.005378072084140206   -0.0018028556773018733
-1.197695207767262   0.005378072084140206   -0.0018028556773018733
-1.197695207767262   0.005378072084140206   -0.0018028556773018733
-1.197695207767262   0.005378072084140206   -0.0018028556773018733
-1.0619304272015537   0.09184609486934853   0.09055908117581479
-1.0619304272015537   0.09184609486934853   0.09055908117581479
-1.0619304272015537   0.09184609486934853   0.09055908117581479
-1.0619304272015537   0.09184609486934853   0.09055908117581479
-1.4266303774812847   -0.12140424569883682   -0.06115594862984131
-1.4266303774812847   -0.12140424569883682   -0.06115594862984131
-1.4266303774812847   -0.12140424569883682   -0.06115594862984131
-1.4266303774812847   -0.12140424569883682   -0.06115594862984131
-1.4359858394327139   -0.02282082683917125   0.09618135881436769
-1.4359858394327139   -0.02282082683917125   0.09618135881436769
-1.4359858394327139   -0.02282082683917125   0.09618135881436769
-1.4359858394327139   -0.02282082683917125   0.09618135881436769
-1.1413614258678577   -0.09545618835363978   -0.038666904618264414
-1.1413614258678577   -0.09545618835363978   -0.038666904618264414
-1.1413614258678577   -0.09545618835363978   -0.038666904618264414
-1.1413614258678577   -0.09545618835363978   -0.038666904618264414
-1.219504355534513   -0.019348884855298232   -0.018651347929430476
-1.219504355534513   -0.019348884855298232   -0.018651347929430476
-1.219504355534513   -0.019348884855298232   -0.018651347929430476
-1.219504355534513   -0.019348884855298232   -0.018651347929430476
-0.5717422390647471   -0.03743102794898129   -0.1055376521579734
-0.5717422390647471   -0.03743102794898129   -0.1055376521579734
-0.5717422390647471   -0.03743102794898129   -0.1055376521579734
-0.5717422390647471   -0.03743102794898129   -0.1055376521579734
-0.5612176931964029   0.08113566822854976   0.047553735094112204
-0.5612176931964029   0.08113566822854976   0.047553735094112204
-0.5612176931964029   0.08113566822854976   0.047553735094112204
-0.5612176931964029   0.08113566822854976   0.047553735094112204
-0.6307115047334516   -0.07364626463561665   -0.07142288938202693
-0.6307115047334516   -0.07364626463561665   -0.07142288938202693
-0.6307115047334516   -0.07364626463561665   -0.07142288938202693
-0.6307115047334516   -0.07364626463561665   -0.07142288938202693
-0.5832339067979229   0.04159096883943311   0.07166158190552611
-0.5832339067979229   0.04159096883943311   0.07166158190552611
-0.5832339067979229   0.04159096883943311   0.07166158190552611
-0.5832339067979229   0.04159096883943311   0.07166158190552611
-0.557297157409964   0.013477291859020982   0.048509983223077084
-0.557297157409964   0.013477291859020982   0.048509983223077084
-0.557297157409964   0.013477291859020982   0.048509983223077084
-0.557297157409964   0.013477291859020982   0.048509983223077084
-0.6393007955429088   -0.07874660293091272   -0.08833529004905004
-0.6393007955429088   -0.07874660293091272   -0.08833529004905004
-0.6393007955429088   -0.07874660293091272   -0.08833529004905004
-0.6393007955429088   -0.07874660293091272   -0.08833529004905004
-0.5816597383096089   0.03967618481358717   0.060513493287982514
-0.5816597383096089   0.03967618481358717   0.060513493287982514
-0.5816597383096089   0.03967618481358717   0.060513493287982514
-0.5816597383096089   0.03967618481358717   0.060513493287982514
-0.6514966893570348   -0.0928868378891495   -0.060371438036045964
-0.6514966893570348   -0.0928868378891495   -0.060371438036045964
-0.6514966893570348   -0.0928868378891495   -0.060371438036045964
-0.6514966893570348   -0.0928868378891495   -0.060371438036045964
-0.6371519233745646   0.01534624678247691   0.1329907486504811
-0.6371519233745646   0.01534624678247691   0.1329907486504811
-0.6371519233745646   0.01534624678247691   0.1329907486504811
-0.6371519233745646   0.01534624678247691   0.1329907486504811
-0.6071346071549094   -0.019599210841574163   0.0192999725559144
-0.6071346071549094   -0.019599210841574163   0.0192999725559144
-0.6071346071549094   -0.019599210841574163   0.0192999725559144
-0.6071346071549094   -0.019599210841574163   0.0192999725559144
-0.7014764109391807   -0.10455465256366092   -0.06873078982645703
-0.7014764109391807   -0.10455465256366092   -0.06873078982645703
-0.7014764109391807   -0.10455465256366092   -0.06873078982645703
-0.7014764109391807   -0.10455465256366092   -0.06873078982645703
-0.6037029253394239   0.010483337909983709   0.07522720625287442
-0.6037029253394239   0.010483337909983709   0.07522720625287442
-0.6037029253394239   0.010483337909983709   0.07522720625287442
-0.6037029253394239   0.010483337909983709   0.07522720625287442
-0.6684866525897623   -0.13047095138385034   -0.04744495517468164
-0.6684866525897623   -0.13047095138385034   -0.04744495517468164
-0.6684866525897623   -0.13047095138385034   -0.04744495517468164
-0.6684866525897623   -0.13047095138385034   -0.04744495517468164
-0.7210230331625351   -0.0713792672893625   0.12449738082746739
-0.7210230331625351   -0.0713792672893625   0.12449738082746739
-0.7210230331625351   -0.0713792672893625   0.12449738082746739
-0.7210230331625351   -0.0713792672893625   0.12449738082746739
-0.6500308461607831   -0.05872872899865385   -0.026860481261284454
-0.6500308461607831   -0.05872872899865385   -0.026860481261284454
-0.6500308461607831   -0.05872872899865385   -0.026860481261284454
-0.6500308461607831   -0.05872872899865385   -0.026860481261284454
-0.6014906722166299   -0.01818835152244866   -0.05448714025602909
-0.6014906722166299   -0.01818835152244866   -0.05448714025602909
-0.6014906722166299   -0.01818835152244866   -0.05448714025602909
-0.6014906722166299   -0.01818835152244866   -0.05448714025602909
-0.6061576912734543   -0.07433360394349162   -0.0031474210891784243
-0.6061576912734543   -0.07433360394349162   -0.0031474210891784243
-0.6061576912734543   -0.07433360394349162   -0.0031474210891784243
-0.6061576912734543   -0.07433360394349162   -0.0031474210891784243
-0.6103025243628385   -0.04939195456467481   -0.026977523154971022
-0.6103025243628385   -0.04939195456467481   -0.026977523154971022
-0.6103025243628385   -0.04939195456467481   -0.026977523154971022
-0.6103025243628385   -0.04939195456467481   -0.026977523154971022
-0.6222914320942892   -0.10173387040888021   -0.0012349204129510263
-0.6222914320942892   -0.10173387040888021   -0.0012349204129510263
-0.6222914320942892   -0.10173387040888021   -0.0012349204129510263
-0.6222914320942892   -0.10173387040888021   -0.0012349204129510263
-0.6048614748602094   -0.0635497987035971   -0.0023849947101472306
-0.6048614748602094   -0.0635497987035971   -0.0023849947101472306
-0.6048614748602094   -0.0635497987035971   -0.0023849947101472306
-0.6048614748602094   -0.0635497987035971   -0.0023849947101472306
-0.6222837148243363   -0.05581560743366189   -0.04711459703840869
-0.6222837148243363   -0.05581560743366189   -0.04711459703840869
-0.6222837148243363   -0.05581560743366189   -0.04711459703840869
-0.6222837148243363   -0.05581560743366189   -0.04711459703840869
-0.6142009091446258   -0.09920088505173061   0.0033394834231335966
-0.6142009091446258   -0.09920088505173061   0.0033394834231335966
-0.6142009091446258   -0.09920088505173061   0.0033394834231335966
-0.6142009091446258   -0.09920088505173061   0.0033394834231335966
-0.6203041783281945   -0.08180523785925174   -0.017332031521911543
-0.6203041783281945   -0.08180523785925174   -0.017332031521911543
-0.6203041783281945   -0.08180523785925174   -0.017332031521911543
-0.6203041783281945   -0.08180523785925174   -0.017332031521911543
-0.644483157210125   -0.1318368231131743   0.013646207922527001
-0.644483157210125   -0.1318368231131743   0.013646207922527001
-0.644483157210125   -0.1318368231131743   0.013646207922527001
-0.644483157210125   -0.1318368231131743   0.013646207922527001
-0.6184732770837001   -0.08969360269548263   -0.017339317474532046
-0.6184732770837001   -0.08969360269548263   -0.017339317474532046
-0.6184732770837001   -0.08969360269548263   -0.017339317474532046
-0.6184732770837001   -0.08969360269548263   -0.017339317474532046
-0.6459198797103255   -0.09044734780802131   -0.034926879883628484
-0.6459198797103255   -0.09044734780802131   -0.034926879883628484
-0.6459198797103255   -0.09044734780802131   -0.034926879883628484
-0.6459198797103255   -0.09044734780802131   -0.034926879883628484
-0.6238466273491738   -0.12817388468559085   0.0113243701995237
-0.6238466273491738   -0.12817388468559085   0.0113243701995237
-0.6238466273491738   -0.12817388468559085   0.0113243701995237
-0.6238466273491738   -0.12817388468559085   0.0113243701995237
-0.629249581132015   -0.11681304984975081   -0.00777341974116005
-0.629249581132015   -0.11681304984975081   -0.00777341974116005
-0.629249581132015   -0.11681304984975081   -0.00777341974116005
-0.629249581132015   -0.11681304984975081   -0.00777341974116005
-0.6614308407963277   -0.17018483597571593   0.02754798838435374
-0.6614308407963277   -0.17018483597571593   0.02754798838435374
-0.6614308407963277   -0.17018483597571593   0.02754798838435374
-0.6614308407963277   -0.17018483597571593   0.02754798838435374
-0.6373230916147925   -0.12138724186728757   -0.03641051695323448
-0.6373230916147925   -0.12138724186728757   -0.03641051695323448
-0.6373230916147925   -0.12138724186728757   -0.03641051695323448
-0.6373230916147925   -0.12138724186728757   -0.03641051695323448
-0.589649121215158   0.015025230726099043   -0.00996340546728016
-0.589649121215158   0.015025230726099043   -0.00996340546728016
-0.589649121215158   0.015025230726099043   -0.00996340546728016
-0.589649121215158   0.015025230726099043   -0.00996340546728016
-0.6641883279101867   -0.12605841754309424   -0.0317564055138111
-0.6641883279101867   -0.12605841754309424   -0.0317564055138111
-0.6641883279101867   -0.12605841754309424   -0.0317564055138111
-0.6641883279101867   -0.12605841754309424   -0.0317564055138111
-0.6368248171516299   -0.023159242338341934   0.008540540856610934
-0.6368248171516299   -0.023159242338341934   0.008540540856610934
-0.6368248171516299   -0.023159242338341934   0.008540540856610934
-0.6368248171516299   -0.023159242338341934   0.008540540856610934
-0.6263552168839589   -0.13692727908556826   -0.019705661239694448
-0.6263552168839589   -0.13692727908556826   -0.019705661239694448
-0.6263552168839589   -0.13692727908556826   -0.019705661239694448
-0.6263552168839589   -0.13692727908556826   -0.019705661239694448
-0.6288166642828725   -0.06991724236819921   -0.014369921445108111
-0.6288166642828725   -0.06991724236819921   -0.014369921445108111
-0.6288166642828725   -0.06991724236819921   -0.014369921445108111
-0.6288166642828725   -0.06991724236819921   -0.014369921445108111
-0.5984797362887215   -0.01720786817241221   -4.7669176648640343e-05
-0.5984797362887215   -0.01720786817241221   -4.7669176648640343e-05
-0.5984797362887215   -0.01720786817241221   -4.7669176648640343e-05
-0.5984797362887215   -0.01720786817241221   -4.7669176648640343e-05
-0.6682275392468967   -0.1464058947515199   -0.025226417206545497
-0.6682275392468967   -0.1464058947515199   -0.025226417206545497
-0.6682275392468967   -0.1464058947515199   -0.025226417206545497
-0.6682275392468967   -0.1464058947515199   -0.025226417206545497
-0.6439471743449136   -0.055654737492846815   0.018124094720151796
-0.6439471743449136   -0.055654737492846815   0.018124094720151796
-0.6439471743449136   -0.055654737492846815   0.018124094720151796
-0.6439471743449136   -0.055654737492846815   0.018124094720151796
-0.6357144262172336   -0.16255455487109732   -0.013633953955261433
-0.6357144262172336   -0.16255455487109732   -0.013633953955261433
-0.6357144262172336   -0.16255455487109732   -0.013633953955261433
-0.6357144262172336   -0.16255455487109732   -0.013633953955261433
-0.6364054022525693   -0.09469078161154017   -0.027191411587766143
-0.6364054022525693   -0.09469078161154017   -0.027191411587766143
-0.6364054022525693   -0.09469078161154017   -0.027191411587766143
-0.6364054022525693   -0.09469078161154017   -0.027191411587766143
-0.6085994202557113   -0.05027725118566537   0.009663772166918154
-0.6085994202557113   -0.05027725118566537   0.009663772166918154
-0.6085994202557113   -0.05027725118566537   0.009663772166918154
-0.6085994202557113   -0.05027725118566537   0.009663772166918154
-0.6750020545390929   -0.17187191541094599   -0.020933128332676264
-0.6750020545390929   -0.17187191541094599   -0.020933128332676264
-0.6750020545390929   -0.17187191541094599   -0.020933128332676264
-0.6750020545390929   -0.17187191541094599   -0.020933128332676264
-0.6497064361913463   -0.08624034233648731   0.027487694303106824
-0.6497064361913463   -0.08624034233648731   0.027487694303106824
-0.6497064361913463   -0.08624034233648731   0.027487694303106824
-0.6497064361913463   -0.08624034233648731   0.027487694303106824
-0.6426176969251467   -0.18719331814835327   -0.004233730408223207
-0.6426176969251467   -0.18719331814835327   -0.004233730408223207
-0.6426176969251467   -0.18719331814835327   -0.004233730408223207
-0.6426176969251467   -0.18719331814835327   -0.004233730408223207
-0.6454796644701779   -0.1206104843465351   -0.04128197819707852
-0.6454796644701779   -0.1206104843465351   -0.04128197819707852
-0.6454796644701779   -0.1206104843465351   -0.04128197819707852
-0.6454796644701779   -0.1206104843465351   -0.04128197819707852
-0.6133048983328235   0.06560495978489142   0.03099736504501887
-0.6133048983328235   0.06560495978489142   0.03099736504501887
-0.6133048983328235   0.06560495978489142   0.03099736504501887
-0.6133048983328235   0.06560495978489142   0.03099736504501887
-0.7223428627335047   -0.09368645290741894   -0.04413981340203507
-0.7223428627335047   -0.09368645290741894   -0.04413981340203507
-0.7223428627335047   -0.09368645290741894   -0.04413981340203507
-0.7223428627335047   -0.09368645290741894   -0.04413981340203507
-0.6830316114053216   0.019926388551583768   0.04307416752738701
-0.6830316114053216   0.019926388551583768   0.04307416752738701
-0.6830316114053216   0.019926388551583768   0.04307416752738701
-0.6830316114053216   0.019926388551583768   0.04307416752738701
-0.6603138069029817   -0.10524486036228187   -0.02681878987620799
-0.6603138069029817   -0.10524486036228187   -0.02681878987620799
-0.6603138069029817   -0.10524486036228187   -0.02681878987620799
-0.6603138069029817   -0.10524486036228187   -0.02681878987620799
-0.6697332866940681   -0.027633682720032332   -0.008585459227165956
-0.6697332866940681   -0.027633682720032332   -0.008585459227165956
-0.6697332866940681   -0.027633682720032332   -0.008585459227165956
-0.6697332866940681   -0.027633682720032332   -0.008585459227165956
-0.6193449869461835   0.03217080820586185   0.04060964133963917
-0.6193449869461835   0.03217080820586185   0.04060964133963917
-0.6193449869461835   0.03217080820586185   0.04060964133963917
-0.6193449869461835   0.03217080820586185   0.04060964133963917
-0.7286774835112483   -0.12216633216568834   -0.04306247228497383
-0.7286774835112483   -0.12216633216568834   -0.04306247228497383
-0.7286774835112483   -0.12216633216568834   -0.04306247228497383
-0.7286774835112483   -0.12216633216568834   -0.04306247228497383
-0.6955322754538469   -0.011769502555507905   0.048817913308491195
-0.6955322754538469   -0.011769502555507905   0.048817913308491195
-0.6955322754538469   -0.011769502555507905   0.048817913308491195
-0.6955322754538469   -0.011769502555507905   0.048817913308491195
-0.6664857302121997   -0.1288554547165453   -0.021367967392611337
-0.6664857302121997   -0.1288554547165453   -0.021367967392611337
-0.6664857302121997   -0.1288554547165453   -0.021367967392611337
-0.6664857302121997   -0.1288554547165453   -0.021367967392611337
-0.6759564133774822   -0.05446657949632022   -0.023615357787537164
-0.6759564133774822   -0.05446657949632022   -0.023615357787537164
-0.6759564133774822   -0.05446657949632022   -0.023615357787537164
-0.6759564133774822   -0.05446657949632022   -0.023615357787537164
-0.6259760453553438   0.00236930103126598   0.04995570114385742
-0.6259760453553438   0.00236930103126598   0.04995570114385742
-0.6259760453553438   0.00236930103126598   0.04995570114385742
-0.6259760453553438   0.00236930103126598   0.04995570114385742
-0.7400962611646762   -0.14704855915729764   -0.03872295864386588
-0.7400962611646762   -0.14704855915729764   -0.03872295864386588
-0.7400962611646762   -0.14704855915729764   -0.03872295864386588
-0.7400962611646762   -0.14704855915729764   -0.03872295864386588
-0.7037474050898992   -0.04214702113302109   0.05951773298145145
-0.7037474050898992   -0.04214702113302109   0.05951773298145145
-0.7037474050898992   -0.04214702113302109   0.05951773298145145
-0.7037474050898992   -0.04214702113302109   0.05951773298145145
-0.6717525384899282   -0.15256193123804346   -0.016421228288262642
-0.6717525384899282   -0.15256193123804346   -0.016421228288262642
-0.6717525384899282   -0.15256193123804346   -0.016421228288262642
-0.6717525384899282   -0.15256193123804346   -0.016421228288262642
-0.6869536857972174   -0.07971761266781903   -0.038162760442932694
-0.6869536857972174   -0.07971761266781903   -0.038162760442932694
-0.6869536857972174   -0.07971761266781903   -0.038162760442932694
-0.6869536857972174   -0.07971761266781903   -0.038162760442932694
-0.663597453430529   0.09410421566115032   0.06179656454425885
-0.663597453430529   0.09410421566115032   0.06179656454425885
-0.663597453430529   0.09410421566115032   0.06179656454425885
-0.663597453430529   0.09410421566115032   0.06179656454425885
-0.7062116782078882   -0.05628354361715503   -0.06406300576505401
-0.7062116782078882   -0.05628354361715503   -0.06406300576505401
-0.7062116782078882   -0.05628354361715503   -0.06406300576505401
-0.7062116782078882   -0.05628354361715503   -0.06406300576505401
-0.6899745901258554   0.0674678039576529   0.06865721173213632
-0.6899745901258554   0.0674678039576529   0.06865721173213632
-0.6899745901258554   0.0674678039576529   0.06865721173213632
-0.6899745901258554   0.0674678039576529   0.06865721173213632
-0.7180666962803407   -0.07302298230518425   -0.03915188599095554
-0.7180666962803407   -0.07302298230518425   -0.03915188599095554
-0.7180666962803407   -0.07302298230518425   -0.03915188599095554
-0.7180666962803407   -0.07302298230518425   -0.03915188599095554
-0.6709457209076006   0.016992681132156434   0.0023658743957460163
-0.6709457209076006   0.016992681132156434   0.0023658743957460163
-0.6709457209076006   0.016992681132156434   0.0023658743957460163
-0.6709457209076006   0.016992681132156434   0.0023658743957460163
-0.66681037276047   0.07265879578745452   0.07144795351575906
-0.66681037276047   0.07265879578745452   0.07144795351575906
-0.66681037276047   0.07265879578745452   0.07144795351575906
-0.66681037276047   0.07265879578745452   0.07144795351575906
-0.7450261902386838   -0.08200925072794357   -0.05712373414640899
-0.7450261902386838   -0.08200925072794357   -0.05712373414640899
-0.7450261902386838   -0.08200925072794357   -0.05712373414640899
-0.7450261902386838   -0.08200925072794357   -0.05712373414640899
-0.7203726173293158   0.049766266738650616   0.0884388534056883
-0.7203726173293158   0.049766266738650616   0.0884388534056883
-0.7203726173293158   0.049766266738650616   0.0884388534056883
-0.7203726173293158   0.049766266738650616   0.0884388534056883
-0.7274747033279084   -0.08689589900180998   -0.0357678296155302
-0.7274747033279084   -0.08689589900180998   -0.0357678296155302
-0.7274747033279084   -0.08689589900180998   -0.0357678296155302
-0.7274747033279084   -0.08689589900180998   -0.0357678296155302
-0.7036528800278757   -0.00447863582835481   -0.01530131868773537
-0.7036528800278757   -0.00447863582835481   -0.01530131868773537
-0.7036528800278757   -0.00447863582835481   -0.01530131868773537
-0.7036528800278757   -0.00447863582835481   -0.01530131868773537
-0.6741439424078718   0.058435205198652335   0.08555487078419124
-0.6741439424078718   0.058435205198652335   0.08555487078419124
-0.6741439424078718   0.058435205198652335   0.08555487078419124
-0.6741439424078718   0.058435205198652335   0.08555487078419124
-0.7786670880081754   -0.10052854722061665   -0.05273868602932727
-0.7786670880081754   -0.10052854722061665   -0.05273868602932727
-0.7786670880081754   -0.10052854722061665   -0.05273868602932727
-0.7786670880081754   -0.10052854722061665   -0.05273868602932727
-0.7742481256046103   0.004604294583023416   0.09452220980186526
-0.7742481256046103   0.004604294583023416   0.09452220980186526
-0.7742481256046103   0.004604294583023416   0.09452220980186526
-0.7742481256046103   0.004604294583023416   0.09452220980186526
-0.7360362691523028   -0.11297696671139315   -0.031096641752210295
-0.7360362691523028   -0.11297696671139315   -0.031096641752210295
-0.7360362691523028   -0.11297696671139315   -0.031096641752210295
-0.7360362691523028   -0.11297696671139315   -0.031096641752210295
-0.7191798639879241   -0.02419292806610024   -0.03128425149317859
-0.7191798639879241   -0.02419292806610024   -0.03128425149317859
-0.7191798639879241   -0.02419292806610024   -0.03128425149317859
-0.7191798639879241   -0.02419292806610024   -0.03128425149317859
-1.4425015926622156   -0.13159780051092207   -0.1348297091374036
-1.4425015926622156   -0.13159780051092207   -0.1348297091374036
-1.4425015926622156   -0.13159780051092207   -0.1348297091374036
-1.4425015926622156   -0.13159780051092207   -0.1348297091374036
-0.9122772211171789   0.07894124150634749   0.031873033524796965
-0.9122772211171789   0.07894124150634749   0.031873033524796965
-0.9122772211171789   0.07894124150634749   0.031873033524796965
-0.9122772211171789   0.07894124150634749   0.031873033524796965
-0.9576482945998942   -0.05960013423804747   -0.05987954567990546
-0.9576482945998942   -0.05960013423804747   -0.05987954567990546
-0.9576482945998942   -0.05960013423804747   -0.05987954567990546
-0.9576482945998942   -0.05960013423804747   -0.05987954567990546
-1.5321475701202452   -0.17102635806534583   0.15174593892153534
-1.5321475701202452   -0.17102635806534583   0.15174593892153534
-1.5321475701202452   -0.17102635806534583   0.15174593892153534
-1.5321475701202452   -0.17102635806534583   0.15174593892153534
-1.1137644920751557   -0.04185983334879462   0.146831581457456
-1.1137644920751557   -0.04185983334879462   0.146831581457456
-1.1137644920751557   -0.04185983334879462   0.146831581457456
-1.1137644920751557   -0.04185983334879462   0.146831581457456
-1.586641285383092   -0.19314385195859363   -0.09860514349943829
-1.586641285383092   -0.19314385195859363   -0.09860514349943829
-1.586641285383092   -0.19314385195859363   -0.09860514349943829
-1.586641285383092   -0.19314385195859363   -0.09860514349943829
-0.9414377950711867   -0.07576585607893699   0.03733867380452108
-0.9414377950711867   -0.07576585607893699   0.03733867380452108
-0.9414377950711867   -0.07576585607893699   0.03733867380452108
-0.9414377950711867   -0.07576585607893699   0.03733867380452108
-0.9717841885426789   -0.08673716950574156   -0.04279406762249692
-0.9717841885426789   -0.08673716950574156   -0.04279406762249692
-0.9717841885426789   -0.08673716950574156   -0.04279406762249692
-0.9717841885426789   -0.08673716950574156   -0.04279406762249692
-1.5801171676963863   -0.2391850165235085   0.004175765435730675
-1.5801171676963863   -0.2391850165235085   0.004175765435730675
-1.5801171676963863   -0.2391850165235085   0.004175765435730675
-1.5801171676963863   -0.2391850165235085   0.004175765435730675
-1.2320140431120206   -0.1443409917716852   0.03377565124405858
-1.2320140431120206   -0.1443409917716852   0.03377565124405858
-1.2320140431120206   -0.1443409917716852   0.03377565124405858
-1.2320140431120206   -0.1443409917716852   0.03377565124405858
-1.5925847075750532   -0.2181732082366143   -0.07917374224448635
-1.5925847075750532   -0.2181732082366143   -0.07917374224448635
-1.5925847075750532   -0.2181732082366143   -0.07917374224448635
-1.5925847075750532   -0.2181732082366143   -0.07917374224448635
-0.9709692184943067   -0.11940154762292977   -0.00605483926345551
-0.9709692184943067   -0.11940154762292977   -0.00605483926345551
-0.9709692184943067   -0.11940154762292977   -0.00605483926345551
-0.9709692184943067   -0.11940154762292977   -0.00605483926345551
-0.9719208032802278   -0.15266760923109482   -0.03104655876350168
-0.9719208032802278   -0.15266760923109482   -0.03104655876350168
-0.9719208032802278   -0.15266760923109482   -0.03104655876350168
-0.9719208032802278   -0.15266760923109482   -0.03104655876350168
-1.6169545475012437   -0.3656398148435204   0.02461976048962017
-1.6169545475012437   -0.3656398148435204   0.02461976048962017
-1.6169545475012437   -0.3656398148435204   0.02461976048962017
-1.6169545475012437   -0.3656398148435204   0.02461976048962017
-1.2300532241311306   -0.19854874584728835   0.0023516385305866524
-1.2300532241311306   -0.19854874584728835   0.0023516385305866524
-1.2300532241311306   -0.19854874584728835   0.0023516385305866524
-1.2300532241311306   -0.19854874584728835   0.0023516385305866524
-0.9851840960769225   -0.16687785053321857   -0.08684224923434511
-0.9851840960769225   -0.16687785053321857   -0.08684224923434511
-0.9851840960769225   -0.16687785053321857   -0.08684224923434511
-0.9851840960769225   -0.16687785053321857   -0.08684224923434511
-0.6747104313486074   -0.4335946735605759   -0.08140955442806593
-0.6747104313486074   -0.4335946735605759   -0.08140955442806593
-0.6747104313486074   -0.4335946735605759   -0.08140955442806593
-0.6747104313486074   -0.4335946735605759   -0.08140955442806593
-0.5927768484289645   -0.09656757910369541   -0.004918047552321006
-0.5927768484289645   -0.09656757910369541   -0.004918047552321006
-0.5927768484289645   -0.09656757910369541   -0.004918047552321006
-0.5927768484289645   -0.09656757910369541   -0.004918047552321006
-1.046439603226425   -0.46057377654357046   -0.10286244650703581
-1.046439603226425   -0.46057377654357046   -0.10286244650703581
-1.046439603226425   -0.46057377654357046   -0.10286244650703581
-1.046439603226425   -0.46057377654357046   -0.10286244650703581
-0.8151541174010986   -0.30730007239353396   -0.023696336163848412
-0.8151541174010986   -0.30730007239353396   -0.023696336163848412
-0.8151541174010986   -0.30730007239353396   -0.023696336163848412
-0.8151541174010986   -0.30730007239353396   -0.023696336163848412
-0.984202175107075   -0.18693237618301967   -0.06531670627083175
-0.984202175107075   -0.18693237618301967   -0.06531670627083175
-0.984202175107075   -0.18693237618301967   -0.06531670627083175
-0.984202175107075   -0.18693237618301967   -0.06531670627083175
-0.6590162488438711   -0.37421095175980346   -0.058471676970754186
-0.6590162488438711   -0.37421095175980346   -0.058471676970754186
-0.6590162488438711   -0.37421095175980346   -0.058471676970754186
-0.6590162488438711   -0.37421095175980346   -0.058471676970754186
-0.5989879493587854   -0.125231846509669   0.001175883088713867
-0.5989879493587854   -0.125231846509669   0.001175883088713867
-0.5989879493587854   -0.125231846509669   0.001175883088713867
-0.5989879493587854   -0.125231846509669   0.001175883088713867
-1.0496791739702234   -0.458208111255391   -0.060798053010577044
-1.0496791739702234   -0.458208111255391   -0.060798053010577044
-1.0496791739702234   -0.458208111255391   -0.060798053010577044
-1.0496791739702234   -0.458208111255391   -0.060798053010577044
-0.8057408045466626   -0.2880622645738119   -0.02516966216102009
-0.8057408045466626   -0.2880622645738119   -0.02516966216102009
-0.8057408045466626   -0.2880622645738119   -0.02516966216102009
-0.8057408045466626   -0.2880622645738119   -0.02516966216102009
-0.9986972427736158   -0.21519015288913534   -0.0489063553937874
-0.9986972427736158   -0.21519015288913534   -0.0489063553937874
-0.9986972427736158   -0.21519015288913534   -0.0489063553937874
-0.9986972427736158   -0.21519015288913534   -0.0489063553937874
-0.6582110620102375   -0.37649098633076783   -0.0436805403474471
-0.6582110620102375   -0.37649098633076783   -0.0436805403474471
-0.6582110620102375   -0.37649098633076783   -0.0436805403474471
-0.6582110620102375   -0.37649098633076783   -0.0436805403474471
-0.5981446861464002   -0.16105968296579354   0.009887598784038054
-0.5981446861464002   -0.16105968296579354   0.009887598784038054
-0.5981446861464002   -0.16105968296579354   0.009887598784038054
-0.5981446861464002   -0.16105968296579354   0.009887598784038054
-1.046504567854625   -0.4661261593797189   -0.09050683148687695
-1.046504567854625   -0.4661261593797189   -0.09050683148687695
-1.046504567854625   -0.4661261593797189   -0.09050683148687695
-1.046504567854625   -0.4661261593797189   -0.09050683148687695
-0.8173008367823266   -0.30996925466952385   -0.046697193246012264
-0.8173008367823266   -0.30996925466952385   -0.046697193246012264
-0.8173008367823266   -0.30996925466952385   -0.046697193246012264
-0.8173008367823266   -0.30996925466952385   -0.046697193246012264
-0.5946547155298888   -0.10728795311940183   -0.007437695775646963
-0.5946547155298888   -0.10728795311940183   -0.007437695775646963
-0.5946547155298888   -0.10728795311940183   -0.007437695775646963
-0.5946547155298888   -0.10728795311940183   -0.007437695775646963
-0.49648522483531676   -0.3312673166458726   -0.05719192310568944
-0.49648522483531676   -0.3312673166458726   -0.05719192310568944
-0.49648522483531676   -0.3312673166458726   -0.05719192310568944
-0.49648522483531676   -0.3312673166458726   -0.05719192310568944
-0.4277538142762391   -0.08866398976225627   0.02300938276914564
-0.4277538142762391   -0.08866398976225627   0.02300938276914564
-0.4277538142762391   -0.08866398976225627   0.02300938276914564
-0.4277538142762391   -0.08866398976225627   0.02300938276914564
-0.6572925451815919   -0.36071422328051095   -0.06334988713865018
-0.6572925451815919   -0.36071422328051095   -0.06334988713865018
-0.6572925451815919   -0.36071422328051095   -0.06334988713865018
-0.6572925451815919   -0.36071422328051095   -0.06334988713865018
-0.5416178908574963   -0.225167451345817   -0.026429629063641106
-0.5416178908574963   -0.225167451345817   -0.026429629063641106
-0.5416178908574963   -0.225167451345817   -0.026429629063641106
-0.5416178908574963   -0.225167451345817   -0.026429629063641106
-0.5976705982192976   -0.12703341518852923   0.0010790395808394034
-0.5976705982192976   -0.12703341518852923   0.0010790395808394034
-0.5976705982192976   -0.12703341518852923   0.0010790395808394034
-0.5976705982192976   -0.12703341518852923   0.0010790395808394034
-0.490904697838717   -0.3258737344544191   -0.05553529035106583
-0.490904697838717   -0.3258737344544191   -0.05553529035106583
-0.490904697838717   -0.3258737344544191   -0.05553529035106583
-0.490904697838717   -0.3258737344544191   -0.05553529035106583
-0.4273858113771037   -0.1122056454671621   0.029781978224284685
-0.4273858113771037   -0.1122056454671621   0.029781978224284685
-0.4273858113771037   -0.1122056454671621   0.029781978224284685
-0.4273858113771037   -0.1122056454671621   0.029781978224284685
-0.6588412933077831   -0.3664401563786396   -0.056882526787303954
-0.6588412933077831   -0.3664401563786396   -0.056882526787303954
-0.6588412933077831   -0.3664401563786396   -0.056882526787303954
-0.6588412933077831   -0.3664401563786396   -0.056882526787303954
-0.540205699891239   -0.23409199634457822   -0.03428418575046637
-0.540205699891239   -0.23409199634457822   -0.03428418575046637
-0.540205699891239   -0.23409199634457822   -0.03428418575046637
-0.540205699891239   -0.23409199634457822   -0.03428418575046637
-0.6021287313690259   -0.1508854998373573   0.011125626365200212
-0.6021287313690259   -0.1508854998373573   0.011125626365200212
-0.6021287313690259   -0.1508854998373573   0.011125626365200212
-0.6021287313690259   -0.1508854998373573   0.011125626365200212
-0.48603135375999484   -0.3296932824525783   -0.04595809670477045
-0.48603135375999484   -0.3296932824525783   -0.04595809670477045
-0.48603135375999484   -0.3296932824525783   -0.04595809670477045
-0.48603135375999484   -0.3296932824525783   -0.04595809670477045
-0.42176426225275465   -0.1347480442613208   0.03713920435451641
-0.42176426225275465   -0.1347480442613208   0.03713920435451641
-0.42176426225275465   -0.1347480442613208   0.03713920435451641
-0.42176426225275465   -0.1347480442613208   0.03713920435451641
-0.6503720372037282   -0.3712452511236699   -0.041063588344725815
-0.6503720372037282   -0.3712452511236699   -0.041063588344725815
-0.6503720372037282   -0.3712452511236699   -0.041063588344725815
-0.6503720372037282   -0.3712452511236699   -0.041063588344725815
-0.5380086723458404   -0.24576413441293993   -0.03965857265450789
-0.5380086723458404   -0.24576413441293993   -0.03965857265450789
-0.5380086723458404   -0.24576413441293993   -0.03965857265450789
-0.5380086723458404   -0.24576413441293993   -0.03965857265450789
-0.4136862449009641   -0.01501669556372226   0.0405523554839078
-0.4136862449009641   -0.01501669556372226   0.0405523554839078
-0.4136862449009641   -0.01501669556372226   0.0405523554839078
-0.4136862449009641   -0.01501669556372226   0.0405523554839078
-0.3888171152931501   -0.1748767261084773   -0.03402164665378314
-0.3888171152931501   -0.1748767261084773   -0.03402164665378314
-0.3888171152931501   -0.1748767261084773   -0.03402164665378314
-0.3888171152931501   -0.1748767261084773   -0.03402164665378314
-0.33475341356755467   -0.025360364913986598   0.04704329402984139
-0.33475341356755467   -0.025360364913986598   0.04704329402984139
-0.33475341356755467   -0.025360364913986598   0.04704329402984139
-0.33475341356755467   -0.025360364913986598   0.04704329402984139
-0.4600053566767367   -0.2027248607089996   -0.024187458286599114
-0.4600053566767367   -0.2027248607089996   -0.024187458286599114
-0.4600053566767367   -0.2027248607089996   -0.024187458286599114
-0.4600053566767367   -0.2027248607089996   -0.024187458286599114
-0.40066724556665695   -0.103567876001326   -0.014309335436735383
-0.40066724556665695   -0.103567876001326   -0.014309335436735383
-0.40066724556665695   -0.103567876001326   -0.014309335436735383
-0.40066724556665695   -0.103567876001326   -0.014309335436735383
-0.41350267858993717   -0.04116555203062635   0.04676662346902513
-0.41350267858993717   -0.04116555203062635   0.04676662346902513
-0.41350267858993717   -0.04116555203062635   0.04676662346902513
-0.41350267858993717   -0.04116555203062635   0.04676662346902513
-0.3849850061847765   -0.19064858812278213   -0.03882644584747208
-0.3849850061847765   -0.19064858812278213   -0.03882644584747208
-0.3849850061847765   -0.19064858812278213   -0.03882644584747208
-0.3849850061847765   -0.19064858812278213   -0.03882644584747208
-0.3347430948459375   -0.04812687477972033   0.050532296925281925
-0.3347430948459375   -0.04812687477972033   0.050532296925281925
-0.3347430948459375   -0.04812687477972033   0.050532296925281925
-0.3347430948459375   -0.04812687477972033   0.050532296925281925
-0.4593211768465152   -0.21504721277350725   -0.027053281816443293
-0.4593211768465152   -0.21504721277350725   -0.027053281816443293
-0.4593211768465152   -0.21504721277350725   -0.027053281816443293
-0.4593211768465152   -0.21504721277350725   -0.027053281816443293
-0.3984547530156954   -0.1218938068674272   -0.02424406925452355
-0.3984547530156954   -0.1218938068674272   -0.02424406925452355
-0.3984547530156954   -0.1218938068674272   -0.02424406925452355
-0.3984547530156954   -0.1218938068674272   -0.02424406925452355
-0.4129020447923217   -0.06322174251487511   0.05321690819589214
-0.4129020447923217   -0.06322174251487511   0.05321690819589214
-0.4129020447923217   -0.06322174251487511   0.05321690819589214
-0.4129020447923217   -0.06322174251487511   0.05321690819589214
-0.3834180876459816   -0.202208205784203   -0.03876133607045574
-0.3834180876459816   -0.202208205784203   -0.03876133607045574
-0.3834180876459816   -0.202208205784203   -0.03876133607045574
-0.3834180876459816   -0.202208205784203   -0.03876133607045574
-0.3313411742233686   -0.06948735272074383   0.05854030003170641
-0.3313411742233686   -0.06948735272074383   0.05854030003170641
-0.3313411742233686   -0.06948735272074383   0.05854030003170641
-0.3313411742233686   -0.06948735272074383   0.05854030003170641
-0.45144085418270524   -0.2274087160481336   -0.018583083508423887
-0.45144085418270524   -0.2274087160481336   -0.018583083508423887
-0.45144085418270524   -0.2274087160481336   -0.018583083508423887
-0.45144085418270524   -0.2274087160481336   -0.018583083508423887
-0.3966864169210031   -0.13757032930217566   -0.031086255865065873
-0.3966864169210031   -0.13757032930217566   -0.031086255865065873
-0.3966864169210031   -0.13757032930217566   -0.031086255865065873
-0.3966864169210031   -0.13757032930217566   -0.031086255865065873
-0.325364533349782   0.04530949491532241   0.06305504203925773
-0.325364533349782   0.04530949491532241   0.06305504203925773
-0.325364533349782   0.04530949491532241   0.06305504203925773
-0.325364533349782   0.04530949491532241   0.06305504203925773
-0.21299420068897054   -0.05715603152725463   -0.020767797880058295
-0.21299420068897054   -0.05715603152725463   -0.020767797880058295
-0.21299420068897054   -0.05715603152725463   -0.020767797880058295
-0.21299420068897054   -0.05715603152725463   -0.020767797880058295
-0.18502277271222017   0.05385674626888862   0.06220283331128832
-0.18502277271222017   0.05385674626888862   0.06220283331128832
-0.18502277271222017   0.05385674626888862   0.06220283331128832
-0.18502277271222017   0.05385674626888862   0.06220283331128832
-0.35889538591785064   -0.08830414756549758   -0.010722785070127507
-0.35889538591785064   -0.08830414756549758   -0.010722785070127507
-0.35889538591785064   -0.08830414756549758   -0.010722785070127507
-0.35889538591785064   -0.08830414756549758   -0.010722785070127507
-0.26698621481235135   -0.00552539090546867   -0.011573427049388687
-0.26698621481235135   -0.00552539090546867   -0.011573427049388687
-0.26698621481235135   -0.00552539090546867   -0.011573427049388687
-0.26698621481235135   -0.00552539090546867   -0.011573427049388687
-0.31967582571205944   0.028249785571107723   0.06882108282222314
-0.31967582571205944   0.028249785571107723   0.06882108282222314
-0.31967582571205944   0.028249785571107723   0.06882108282222314
-0.31967582571205944   0.028249785571107723   0.06882108282222314
-0.22458778213915712   -0.06304263608885988   -0.01872283146564785
-0.22458778213915712   -0.06304263608885988   -0.01872283146564785
-0.22458778213915712   -0.06304263608885988   -0.01872283146564785
-0.22458778213915712   -0.06304263608885988   -0.01872283146564785
-0.19283016659907581   0.042843790013002966   0.0782860787297019
-0.19283016659907581   0.042843790013002966   0.0782860787297019
-0.19283016659907581   0.042843790013002966   0.0782860787297019
-0.19283016659907581   0.042843790013002966   0.0782860787297019
-0.356778345166317   -0.09392952786426001   -0.013841301592075951
-0.356778345166317   -0.09392952786426001   -0.013841301592075951
-0.356778345166317   -0.09392952786426001   -0.013841301592075951
-0.356778345166317   -0.09392952786426001   -0.013841301592075951
-0.2744307269116338   -0.017565547394529944   -0.0160921693651215
-0.2744307269116338   -0.017565547394529944   -0.0160921693651215
-0.2744307269116338   -0.017565547394529944   -0.0160921693651215
-0.2744307269116338   -0.017565547394529944   -0.0160921693651215
-0.31567725113688516   0.01847007124805962   0.07926456944276379
-0.31567725113688516   0.01847007124805962   0.07926456944276379
-0.31567725113688516   0.01847007124805962   0.07926456944276379
-0.31567725113688516   0.01847007124805962   0.07926456944276379
-0.2367446182951481   -0.07236916676595197   -0.0260732229716893
-0.2367446182951481   -0.07236916676595197   -0.0260732229716893
-0.2367446182951481   -0.07236916676595197   -0.0260732229716893
-0.2367446182951481   -0.07236916676595197   -0.0260732229716893
-0.2208021322697567   0.0125804082583897   0.08145609621415775
-0.2208021322697567   0.0125804082583897   0.08145609621415775
-0.2208021322697567   0.0125804082583897   0.08145609621415775
-0.2208021322697567   0.0125804082583897   0.08145609621415775
-0.35124762000853105   -0.0988280668572701   -0.011651214757579416
-0.35124762000853105   -0.0988280668572701   -0.011651214757579416
-0.35124762000853105   -0.0988280668572701   -0.011651214757579416
-0.35124762000853105   -0.0988280668572701   -0.011651214757579416
-0.2778348359147464   -0.026193378877279717   -0.023562601262242223
-0.2778348359147464   -0.026193378877279717   -0.023562601262242223
-0.2778348359147464   -0.026193378877279717   -0.023562601262242223
-0.2778348359147464   -0.026193378877279717   -0.023562601262242223
-3.3867059291061117   -0.4784491656759499   -0.2806502943977571
-3.3867059291061117   -0.4784491656759499   -0.2806502943977571
-3.3867059291061117   -0.4784491656759499   -0.2806502943977571
-3.3867059291061117   -0.4784491656759499   -0.2806502943977571
-1.1733549051333827   -1.8310543136799964   -0.2199697783909243
-1.1733549051333827   -1.8310543136799964   -0.2199697783909243
-1.1733549051333827   -1.8310543136799964   -0.2199697783909243
-1.1733549051333827   -1.8310543136799964   -0.2199697783909243
-0.9089143238828415   -0.07643481632093038   0.0014704014062090487
-0.9089143238828415   -0.07643481632093038   0.0014704014062090487
-0.9089143238828415   -0.07643481632093038   0.0014704014062090487
-0.9089143238828415   -0.07643481632093038   0.0014704014062090487
-3.612076624963303   -2.1554274534140627   -1.1535008156754731
-3.612076624963303   -2.1554274534140627   -1.1535008156754731
-3.612076624963303   -2.1554274534140627   -1.1535008156754731
-3.612076624963303   -2.1554274534140627   -1.1535008156754731
-2.213594163578954   -1.0727307632532572   -0.1562560572161557
-2.213594163578954   -1.0727307632532572   -0.1562560572161557
-2.213594163578954   -1.0727307632532572   -0.1562560572161557
-2.213594163578954   -1.0727307632532572   -0.1562560572161557
-3.146687142813183   -0.6005663600466934   -0.3814144982922648
-3.146687142813183   -0.6005663600466934   -0.3814144982922648
-3.146687142813183   -0.6005663600466934   -0.3814144982922648
-3.146687142813183   -0.6005663600466934   -0.3814144982922648
-1.2664891162027265   -1.523481219858067   -0.339357156656071
-1.2664891162027265   -1.523481219858067   -0.339357156656071
-1.2664891162027265   -1.523481219858067   -0.339357156656071
-1.2664891162027265   -1.523481219858067   -0.339357156656071
-0.9266982635477449   -0.1023421234540873   0.03497132663417964
-0.9266982635477449   -0.1023421234540873   0.03497132663417964
-0.9266982635477449   -0.1023421234540873   0.03497132663417964
-0.9266982635477449   -0.1023421234540873   0.03497132663417964
-3.3797155587817405   -1.9210269501390256   -1.0601485017841532
-3.3797155587817405   -1.9210269501390256   -1.0601485017841532
-3.3797155587817405   -1.9210269501390256   -1.0601485017841532
-3.3797155587817405   -1.9210269501390256   -1.0601485017841532
-2.0846204759245492   -0.9667752343041864   0.08479622779895651
-2.0846204759245492   -0.9667752343041864   0.08479622779895651
-2.0846204759245492   -0.9667752343041864   0.08479622779895651
-2.0846204759245492   -0.9667752343041864   0.08479622779895651
-2.954661104639222   -0.5717579943677841   -0.2841451868428275
-2.954661104639222   -0.5717579943677841   -0.2841451868428275
-2.954661104639222   -0.5717579943677841   -0.2841451868428275
-2.954661104639222   -0.5717579943677841   -0.2841451868428275
-1.232008502119886   -1.3318668636549547   -0.2620551260256531
-1.232008502119886   -1.3318668636549547   -0.2620551260256531
-1.232008502119886   -1.3318668636549547   -0.2620551260256531
-1.232008502119886   -1.3318668636549547   -0.2620551260256531
-1.063628335724848   -0.27087478669079246   -0.05488131052313608
-1.063628335724848   -0.27087478669079246   -0.05488131052313608
-1.063628335724848   -0.27087478669079246   -0.05488131052313608
-1.063628335724848   -0.27087478669079246   -0.05488131052313608
-3.0801364753286458   -1.6123749070516857   -0.9385022764760663
-3.0801364753286458   -1.6123749070516857   -0.9385022764760663
-3.0801364753286458   -1.6123749070516857   -0.9385022764760663
-3.0801364753286458   -1.6123749070516857   -0.9385022764760663
-1.9306426059922976   -0.8377564049719101   0.3569351556785335
-1.9306426059922976   -0.8377564049719101   0.3569351556785335
-1.9306426059922976   -0.8377564049719101   0.3569351556785335
-1.9306426059922976   -0.8377564049719101   0.3569351556785335
-0.8712307760652964   -0.470581267470333   -0.06982217926016245
-0.8712307760652964   -0.470581267470333   -0.06982217926016245
-0.8712307760652964   -0.470581267470333   -0.06982217926016245
-0.8712307760652964   -0.470581267470333   -0.06982217926016245
-0.4011074631468542   -0.5734334613734543   -0.09902524523274268
-0.4011074631468542   -0.5734334613734543   -0.09902524523274268
-0.4011074631468542   -0.5734334613734543   -0.09902524523274268
-0.4011074631468542   -0.5734334613734543   -0.09902524523274268
-0.354868337383064   -0.29982445235214544   0.009312908606728593
-0.354868337383064   -0.29982445235214544   0.009312908606728593
-0.354868337383064   -0.29982445235214544   0.009312908606728593
-0.354868337383064   -0.29982445235214544   0.009312908606728593
-1.0626950843636114   -0.8435343881813258   -0.00033382913723595253
-1.0626950843636114   -0.8435343881813258   -0.00033382913723595253
-1.0626950843636114   -0.8435343881813258   -0.00033382913723595253
-1.0626950843636114   -0.8435343881813258   -0.00033382913723595253
-0.5715864423514481   -0.40955372106348764   0.18253111521934176
-0.5715864423514481   -0.40955372106348764   0.18253111521934176
-0.5715864423514481   -0.40955372106348764   0.18253111521934176
-0.5715864423514481   -0.40955372106348764   0.18253111521934176
-0.9904499239338667   -0.4377765286813512   -0.0448658864884975
-0.9904499239338667   -0.4377765286813512   -0.0448658864884975
-0.9904499239338667   -0.4377765286813512   -0.0448658864884975
-0.9904499239338667   -0.4377765286813512   -0.0448658864884975
-0.45691818512218546   -0.7353869991614972   -0.06537378327951912
-0.45691818512218546   -0.7353869991614972   -0.06537378327951912
-0.45691818512218546   -0.7353869991614972   -0.06537378327951912
-0.45691818512218546   -0.7353869991614972   -0.06537378327951912
-0.3827775664448223   -0.31077555122499184   0.009463139616017871
-0.3827775664448223   -0.31077555122499184   0.009463139616017871
-0.3827775664448223   -0.31077555122499184   0.009463139616017871
-0.3827775664448223   -0.31077555122499184   0.009463139616017871
-1.1137431846273846   -0.8320697298739257   -0.17052567234417418
-1.1137431846273846   -0.8320697298739257   -0.17052567234417418
-1.1137431846273846   -0.8320697298739257   -0.17052567234417418
-1.1137431846273846   -0.8320697298739257   -0.17052567234417418
-0.6805681622800203   -0.5259738680589457   0.08380230467765697
-0.6805681622800203   -0.5259738680589457   0.08380230467765697
-0.6805681622800203   -0.5259738680589457   0.08380230467765697
-0.6805681622800203   -0.5259738680589457   0.08380230467765697
-1.0213860468428588   -0.4571265149057486   -0.08368319838972955
-1.0213860468428588   -0.4571265149057486   -0.08368319838972955
-1.0213860468428588   -0.4571265149057486   -0.08368319838972955
-1.0213860468428588   -0.4571265149057486   -0.08368319838972955
-0.4723278651706627   -0.6829119271344835   -0.06615197810368482
-0.4723278651706627   -0.6829119271344835   -0.06615197810368482
-0.4723278651706627   -0.6829119271344835   -0.06615197810368482
-0.4723278651706627   -0.6829119271344835   -0.06615197810368482
-0.4256523970424173   -0.32107133430984147   0.013915123050302472
-0.4256523970424173   -0.32107133430984147   0.013915123050302472
-0.4256523970424173   -0.32107133430984147   0.013915123050302472
-0.4256523970424173   -0.32107133430984147   0.013915123050302472
-1.1898492269478966   -0.8080088792240865   -0.1488516741050811
-1.1898492269478966   -0.8080088792240865   -0.1488516741050811
-1.1898492269478966   -0.8080088792240865   -0.1488516741050811
-1.1898492269478966   -0.8080088792240865   -0.1488516741050811
-0.7113834257207019   -0.4956161641403656   0.08876310307887077
-0.7113834257207019   -0.4956161641403656   0.08876310307887077
-0.7113834257207019   -0.4956161641403656   0.08876310307887077
-0.7113834257207019   -0.4956161641403656   0.08876310307887077
-0.3185398077239888   -0.28013661208403595   0.02051618259216579
-0.3185398077239888   -0.28013661208403595   0.02051618259216579
-0.3185398077239888   -0.28013661208403595   0.02051618259216579
-0.3185398077239888   -0.28013661208403595   0.02051618259216579
-0.19313037275944256   -0.17609987984690212   -0.04820383892953855
-0.19313037275944256   -0.17609987984690212   -0.04820383892953855
-0.19313037275944256   -0.17609987984690212   -0.04820383892953855
-0.19313037275944256   -0.17609987984690212   -0.04820383892953855
-0.18779949542512808   -0.24998531112539957   0.020801623880442793
-0.18779949542512808   -0.24998531112539957   0.020801623880442793
-0.18779949542512808   -0.24998531112539957   0.020801623880442793
-0.18779949542512808   -0.24998531112539957   0.020801623880442793
-0.3499898964212624   -0.24333691610288954   -0.022782422833511208
-0.3499898964212624   -0.24333691610288954   -0.022782422833511208
-0.3499898964212624   -0.24333691610288954   -0.022782422833511208
-0.3499898964212624   -0.24333691610288954   -0.022782422833511208
-0.22175027249764823   -0.20040737038061793   0.09141183131787285
-0.22175027249764823   -0.20040737038061793   0.09141183131787285
-0.22175027249764823   -0.20040737038061793   0.09141183131787285
-0.22175027249764823   -0.20040737038061793   0.09141183131787285
-0.3487433578340013   -0.28192644798606953   0.02203980198596628
-0.3487433578340013   -0.28192644798606953   0.02203980198596628
-0.3487433578340013   -0.28192644798606953   0.02203980198596628
-0.3487433578340013   -0.28192644798606953   0.02203980198596628
-0.19197399374766   -0.21432373897749177   -0.035732439880124686
-0.19197399374766   -0.21432373897749177   -0.035732439880124686
-0.19197399374766   -0.21432373897749177   -0.035732439880124686
-0.19197399374766   -0.21432373897749177   -0.035732439880124686
-0.18947247318683053   -0.2575049028155721   0.018424920907081067
-0.18947247318683053   -0.2575049028155721   0.018424920907081067
-0.18947247318683053   -0.2575049028155721   0.018424920907081067
-0.18947247318683053   -0.2575049028155721   0.018424920907081067
-0.37096896636836624   -0.28430239294185866   0.04203298171517271
-0.37096896636836624   -0.28430239294185866   0.04203298171517271
-0.37096896636836624   -0.28430239294185866   0.04203298171517271
-0.37096896636836624   -0.28430239294185866   0.04203298171517271
-0.24040140571522095   -0.2231586022705899   0.0778610307728736
-0.24040140571522095   -0.2231586022705899   0.0778610307728736
-0.24040140571522095   -0.2231586022705899   0.0778610307728736
-0.24040140571522095   -0.2231586022705899   0.0778610307728736
-0.3750266276474948   -0.29234355117799293   0.029785833555656414
-0.3750266276474948   -0.29234355117799293   0.029785833555656414
-0.3750266276474948   -0.29234355117799293   0.029785833555656414
-0.3750266276474948   -0.29234355117799293   0.029785833555656414
-0.20136361275340636   -0.2654125454251461   -0.03312313431622426
-0.20136361275340636   -0.2654125454251461   -0.03312313431622426
-0.20136361275340636   -0.2654125454251461   -0.03312313431622426
-0.20136361275340636   -0.2654125454251461   -0.03312313431622426
-0.19085324666064937   -0.2659641032343606   0.02582336055874218
-0.19085324666064937   -0.2659641032343606   0.02582336055874218
-0.19085324666064937   -0.2659641032343606   0.02582336055874218
-0.19085324666064937   -0.2659641032343606   0.02582336055874218
-0.43273625916151515   -0.3507702086500582   0.008194686795030034
-0.43273625916151515   -0.3507702086500582   0.008194686795030034
-0.43273625916151515   -0.3507702086500582   0.008194686795030034
-0.43273625916151515   -0.3507702086500582   0.008194686795030034
-0.26766384077396155   -0.254757403646743   0.037380941963625645
-0.26766384077396155   -0.254757403646743   0.037380941963625645
-0.26766384077396155   -0.254757403646743   0.037380941963625645
-0.26766384077396155   -0.254757403646743   0.037380941963625645
-0.15973025126254445   -0.11142970519165799   0.054126593899707726
-0.15973025126254445   -0.11142970519165799   0.054126593899707726
-0.15973025126254445   -0.11142970519165799   0.054126593899707726
-0.15973025126254445   -0.11142970519165799   0.054126593899707726
-0.11065543560857663   0.0027749524990711254   -0.010736345831312492
-0.11065543560857663   0.0027749524990711254   -0.010736345831312492
-0.11065543560857663   0.0027749524990711254   -0.010736345831312492
-0.11065543560857663   0.0027749524990711254   -0.010736345831312492
-0.10510969086202696   -0.12017624916449002   0.03365993362123895
-0.10510969086202696   -0.12017624916449002   0.03365993362123895
-0.10510969086202696   -0.12017624916449002   0.03365993362123895
-0.10510969086202696   -0.12017624916449002   0.03365993362123895
-0.14706703335068547   -0.018125151495280822   -0.0073962253774629266
-0.14706703335068547   -0.018125151495280822   -0.0073962253774629266
-0.14706703335068547   -0.018125151495280822   -0.0073962253774629266
-0.14706703335068547   -0.018125151495280822   -0.0073962253774629266
-0.12086930722754291   -0.05970377961720738   0.026855567722748885
-0.12086930722754291   -0.05970377961720738   0.026855567722748885
-0.12086930722754291   -0.05970377961720738   0.026855567722748885
-0.12086930722754291   -0.05970377961720738   0.026855567722748885
-0.15719914819814387   -0.12713543131497362   0.050953480204937895
-0.15719914819814387   -0.12713543131497362   0.050953480204937895
-0.15719914819814387   -0.12713543131497362   0.050953480204937895
-0.15719914819814387   -0.12713543131497362   0.050953480204937895
-0.09213656359842895   -0.008324956928657614   -0.013325722296603405
-0.09213656359842895   -0.008324956928657614   -0.013325722296603405
-0.09213656359842895   -0.008324956928657614   -0.013325722296603405
-0.09213656359842895   -0.008324956928657614   -0.013325722296603405
-0.09591303435743981   -0.13076186946238877   0.030965292250073738
-0.09591303435743981   -0.13076186946238877   0.030965292250073738
-0.09591303435743981   -0.13076186946238877   0.030965292250073738
-0.09591303435743981   -0.13076186946238877   0.030965292250073738
-0.14761721752296605   -0.03817280562456765   0.008369102035398982
-0.14761721752296605   -0.03817280562456765   0.008369102035398982
-0.14761721752296605   -0.03817280562456765   0.008369102035398982
-0.14761721752296605   -0.03817280562456765   0.008369102035398982
-0.11038662443506253   -0.06832534736906251   0.03234161307992526
-0.11038662443506253   -0.06832534736906251   0.03234161307992526
-0.11038662443506253   -0.06832534736906251   0.03234161307992526
-0.11038662443506253   -0.06832534736906251   0.03234161307992526
-0.15755872158991685   -0.13765525845306956   0.058144034529146786
-0.15755872158991685   -0.13765525845306956   0.058144034529146786
-0.15755872158991685   -0.13765525845306956   0.058144034529146786
-0.15755872158991685   -0.13765525845306956   0.058144034529146786
-0.08670458759431401   -0.03201247393771186   -0.021741869458974085
-0.08670458759431401   -0.03201247393771186   -0.021741869458974085
-0.08670458759431401   -0.03201247393771186   -0.021741869458974085
-0.08670458759431401   -0.03201247393771186   -0.021741869458974085
-0.07945097369968929   -0.14249935174449688   0.033973857526743756
-0.07945097369968929   -0.14249935174449688   0.033973857526743756
-0.07945097369968929   -0.14249935174449688   0.033973857526743756
-0.07945097369968929   -0.14249935174449688   0.033973857526743756
-0.15815910053457818   -0.08772524104819415   0.01105522900293181
-0.15815910053457818   -0.08772524104819415   0.01105522900293181
-0.15815910053457818   -0.08772524104819415   0.01105522900293181
-0.15815910053457818   -0.08772524104819415   0.01105522900293181
-0.10553605784707301   -0.08643573936249054   0.028370144851952658
-0.10553605784707301   -0.08643573936249054   0.028370144851952658
-0.10553605784707301   -0.08643573936249054   0.028370144851952658
-0.10553605784707301   -0.08643573936249054   0.028370144851952658
-0.10220531609872777   -0.019989045158161522   0.05427824937516448
-0.10220531609872777   -0.019989045158161522   0.05427824937516448
-0.10220531609872777   -0.019989045158161522   0.05427824937516448
-0.10220531609872777   -0.019989045158161522   0.05427824937516448
-0.016913312129369043   0.012457601277526945   -0.0010951098044523237
-0.016913312129369043   0.012457601277526945   -0.0010951098044523237
-0.016913312129369043   0.012457601277526945   -0.0010951098044523237
-0.016913312129369043   0.012457601277526945   -0.0010951098044523237
0.0071653024785567   -0.006258740687924921   0.0334435609213131
0.0071653024785567   -0.006258740687924921   0.0334435609213131
0.0071653024785567   -0.006258740687924921   0.0334435609213131
0.0071653024785567   -0.006258740687924921   0.0334435609213131
-0.08678552402614999   0.009684893875646132   -0.004580375239512352
-0.08678552402614999   0.009684893875646132   -0.004580375239512352
-0.08678552402614999   0.009684893875646132   -0.004580375239512352
-0.08678552402614999   0.009684893875646132   -0.004580375239512352
-0.050585718678825345   -0.0036883627759526257   -0.004319513731227936
-0.050585718678825345   -0.0036883627759526257   -0.004319513731227936
-0.050585718678825345   -0.0036883627759526257   -0.004319513731227936
-0.050585718678825345   -0.0036883627759526257   -0.004319513731227936
-0.08036276426871028   -0.019174502280817168   0.05639281970413416
-0.08036276426871028   -0.019174502280817168   0.05639281970413416
-0.08036276426871028   -0.019174502280817168   0.05639281970413416
-0.08036276426871028   -0.019174502280817168   0.05639281970413416
0.0038205615002339065   0.025678674247650187   -0.015217558905875977
0.0038205615002339065   0.025678674247650187   -0.015217558905875977
0.0038205615002339065   0.025678674247650187   -0.015217558905875977
0.0038205615002339065   0.025678674247650187   -0.015217558905875977
0.019589096256145473   -0.007649546849078577   0.04119116206136873
0.019589096256145473   -0.007649546849078577   0.04119116206136873
0.019589096256145473   -0.007649546849078577   0.04119116206136873
0.019589096256145473   -0.007649546849078577   0.04119116206136873
-0.07573253827857668   0.007904857524084936   -0.006798954342084253
-0.07573253827857668   0.007904857524084936   -0.006798954342084253
-0.07573253827857668   0.007904857524084936   -0.006798954342084253
-0.07573253827857668   0.007904857524084936   -0.006798954342084253
-0.03245921792001019   -0.0005975816572605357   0.005464376446679076
-0.03245921792001019   -0.0005975816572605357   0.005464376446679076
-0.03245921792001019   -0.0005975816572605357   0.005464376446679076
-0.03245921792001019   -0.0005975816572605357   0.005464376446679076
-0.06812681987691967   -0.021336719541592716   0.06047121473187851
-0.06812681987691967   -0.021336719541592716   0.06047121473187851
-0.06812681987691967   -0.021336719541592716   0.06047121473187851
-0.06812681987691967   -0.021336719541592716   0.06047121473187851
0.014800379320706904   0.024409031682809855   -0.014811001147743242
0.014800379320706904   0.024409031682809855   -0.014811001147743242
0.014800379320706904   0.024409031682809855   -0.014811001147743242
0.014800379320706904   0.024409031682809855   -0.014811001147743242
0.03251541044075429   -0.011765306864747676   0.039899554755732036
0.03251541044075429   -0.011765306864747676   0.039899554755732036
0.03251541044075429   -0.011765306864747676   0.039899554755732036
0.03251541044075429   -0.011765306864747676   0.039899554755732036
-0.057539845332066346   0.008780478199453191   -0.007750330579091542
-0.057539845332066346   0.008780478199453191   -0.007750330579091542
-0.057539845332066346   0.008780478199453191   -0.007750330579091542
-0.057539845332066346   0.008780478199453191   -0.007750330579091542
-0.016173686776380494   0.0014844157953095767   0.014208484805101609
-0.016173686776380494   0.0014844157953095767   0.014208484805101609
-0.016173686776380494   0.0014844157953095767   0.014208484805101609
-0.016173686776380494   0.0014844157953095767   0.014208484805101609
              </DataArray>   
             <DataArray type="Float64" NumberOfComponents="3" Name="Displacements" format="ascii">   
0.0   0.0   0.0
-0.009412611319381722   -0.006164528971033509   -0.0031524430190795795
0.0   0.0   0.0
0.0   0.0   0.0
-0.009412611319381722   -0.006164528971033509   -0.0031524430190795795
-0.005990711370595641   -0.005537853124330703   -0.002315989106223865
0.0   0.0   0.0
-0.005873140264806729   -0.00581638910898997   -0.0019400333599288268
0.0   0.0   0.0
0.0   0.0   0.0
-0.005873140264806729   -0.00581638910898997   -0.0019400333599288268
0.0   0.0   0.0
0.0   0.0   0.0
-0.005873140264806729   -0.00581638910898997   -0.0019400333599288268
-0.009851863300293617   -0.006567938826938639   -0.0025305650564782633
-0.009412611319381722   -0.006164528971033509   -0.0031524430190795795
0.0   0.0   0.0
-0.005873140264806729   -0.00581638910898997   -0.0019400333599288268
-0.009412611319381722   -0.006164528971033509   -0.0031524430190795795
0.0   0.0   0.0
0.0   0.0   0.0
-0.009851863300293617   -0.006567938826938639   -0.0025305650564782633
0.0   0.0   0.0
0.0   0.0   0.0
-0.009851863300293617   -0.006567938826938639   -0.0025305650564782633
-0.005873140264806729   -0.00581638910898997   -0.0019400333599288268
0.0   0.0   0.0
-0.005890683003194561   -0.005959017506155324   -0.0015645075058392328
0.0   0.0   0.0
0.0   0.0   0.0
-0.005890683003194561   -0.005959017506155324   -0.0015645075058392328
0.0   0.0   0.0
0.0   0.0   0.0
-0.005890683003194561   -0.005959017506155324   -0.0015645075058392328
-0.010160795305652802   -0.00676405538348845   -0.0019344973430561253
-0.009851863300293617   -0.006567938826938639   -0.0025305650564782633
0.0   0.0   0.0
-0.005890683003194561   -0.005959017506155324   -0.0015645075058392328
-0.009851863300293617   -0.006567938826938639   -0.0025305650564782633
0.0   0.0   0.0
0.0   0.0   0.0
-0.010160795305652802   -0.00676405538348845   -0.0019344973430561253
0.0   0.0   0.0
0.0   0.0   0.0
-0.010160795305652802   -0.00676405538348845   -0.0019344973430561253
-0.005890683003194561   -0.005959017506155324   -0.0015645075058392328
0.0   0.0   0.0
-0.0058886908365490525   -0.005995512867843664   -0.0011760695630268591
0.0   0.0   0.0
0.0   0.0   0.0
-0.0058886908365490525   -0.005995512867843664   -0.0011760695630268591
0.0   0.0   0.0
0.0   0.0   0.0
-0.0058886908365490525   -0.005995512867843664   -0.0011760695630268591
-0.010825347962975688   -0.006912196396283675   -0.0012428361087586913
-0.010160795305652802   -0.00676405538348845   -0.0019344973430561253
0.0   0.0   0.0
-0.0058886908365490525   -0.005995512867843664   -0.0011760695630268591
-0.010160795305652802   -0.00676405538348845   -0.0019344973430561253
0.0   0.0   0.0
0.0   0.0   0.0
-0.005990711370595641   -0.005537853124330703   -0.002315989106223865
0.0   0.0   0.0
0.0   0.0   0.0
-0.005990711370595641   -0.005537853124330703   -0.002315989106223865
-0.002727069698375856   -0.005307813611270488   -0.0017611689364113294
0.0   0.0   0.0
-0.0026238116586083794   -0.0054892246442394595   -0.0015838018596479413
0.0   0.0   0.0
0.0   0.0   0.0
-0.0026238116586083794   -0.0054892246442394595   -0.0015838018596479413
0.0   0.0   0.0
0.0   0.0   0.0
-0.0026238116586083794   -0.0054892246442394595   -0.0015838018596479413
-0.005873140264806729   -0.00581638910898997   -0.0019400333599288268
-0.005990711370595641   -0.005537853124330703   -0.002315989106223865
0.0   0.0   0.0
-0.0026238116586083794   -0.0054892246442394595   -0.0015838018596479413
-0.005990711370595641   -0.005537853124330703   -0.002315989106223865
0.0   0.0   0.0
0.0   0.0   0.0
-0.005873140264806729   -0.00581638910898997   -0.0019400333599288268
0.0   0.0   0.0
0.0   0.0   0.0
-0.005873140264806729   -0.00581638910898997   -0.0019400333599288268
-0.0026238116586083794   -0.0054892246442394595   -0.0015838018596479413
0.0   0.0   0.0
-0.0025662191360902734   -0.00555833177309952   -0.001410956630140682
0.0   0.0   0.0
0.0   0.0   0.0
-0.0025662191360902734   -0.00555833177309952   -0.001410956630140682
0.0   0.0   0.0
0.0   0.0   0.0
-0.0025662191360902734   -0.00555833177309952   -0.001410956630140682
-0.005890683003194561   -0.005959017506155324   -0.0015645075058392328
-0.005873140264806729   -0.00581638910898997   -0.0019400333599288268
0.0   0.0   0.0
-0.0025662191360902734   -0.00555833177309952   -0.001410956630140682
-0.005873140264806729   -0.00581638910898997   -0.0019400333599288268
0.0   0.0   0.0
0.0   0.0   0.0
-0.005890683003194561   -0.005959017506155324   -0.0015645075058392328
0.0   0.0   0.0
0.0   0.0   0.0
-0.005890683003194561   -0.005959017506155324   -0.0015645075058392328
-0.0025662191360902734   -0.00555833177309952   -0.001410956630140682
0.0   0.0   0.0
-0.002513938431786886   -0.005529407646926284   -0.0012321513002031845
0.0   0.0   0.0
0.0   0.0   0.0
-0.002513938431786886   -0.005529407646926284   -0.0012321513002031845
0.0   0.0   0.0
0.0   0.0   0.0
-0.002513938431786886   -0.005529407646926284   -0.0012321513002031845
-0.0058886908365490525   -0.005995512867843664   -0.0011760695630268591
-0.005890683003194561   -0.005959017506155324   -0.0015645075058392328
0.0   0.0   0.0
-0.002513938431786886   -0.005529407646926284   -0.0012321513002031845
-0.005890683003194561   -0.005959017506155324   -0.0015645075058392328
0.0   0.0   0.0
0.0   0.0   0.0
-0.002727069698375856   -0.005307813611270488   -0.0017611689364113294
0.0   0.0   0.0
0.0   0.0   0.0
-0.002727069698375856   -0.005307813611270488   -0.0017611689364113294
0.0003572956532883104   -0.00533713493370416   -0.0014073594886768995
0.0   0.0   0.0
0.0004227510629240965   -0.005431288943849542   -0.0014321841746146736
0.0   0.0   0.0
0.0   0.0   0.0
0.0004227510629240965   -0.005431288943849542   -0.0014321841746146736
0.0   0.0   0.0
0.0   0.0   0.0
0.0004227510629240965   -0.005431288943849542   -0.0014321841746146736
-0.0026238116586083794   -0.0054892246442394595   -0.0015838018596479413
-0.002727069698375856   -0.005307813611270488   -0.0017611689364113294
0.0   0.0   0.0
0.0004227510629240965   -0.005431288943849542   -0.0014321841746146736
-0.002727069698375856   -0.005307813611270488   -0.0017611689364113294
0.0   0.0   0.0
0.0   0.0   0.0
-0.0026238116586083794   -0.0054892246442394595   -0.0015838018596479413
0.0   0.0   0.0
0.0   0.0   0.0
-0.0026238116586083794   -0.0054892246442394595   -0.0015838018596479413
0.0004227510629240965   -0.005431288943849542   -0.0014321841746146736
0.0   0.0   0.0
0.0004742831639725355   -0.0054235938805220485   -0.0014545132895480023
0.0   0.0   0.0
0.0   0.0   0.0
0.0004742831639725355   -0.0054235938805220485   -0.0014545132895480023
0.0   0.0   0.0
0.0   0.0   0.0
0.0004742831639725355   -0.0054235938805220485   -0.0014545132895480023
-0.0025662191360902734   -0.00555833177309952   -0.001410956630140682
-0.0026238116586083794   -0.0054892246442394595   -0.0015838018596479413
0.0   0.0   0.0
0.0004742831639725355   -0.0054235938805220485   -0.0014545132895480023
-0.0026238116586083794   -0.0054892246442394595   -0.0015838018596479413
0.0   0.0   0.0
0.0   0.0   0.0
-0.0025662191360902734   -0.00555833177309952   -0.001410956630140682
0.0   0.0   0.0
0.0   0.0   0.0
-0.0025662191360902734   -0.00555833177309952   -0.001410956630140682
0.0004742831639725355   -0.0054235938805220485   -0.0014545132895480023
0.0   0.0   0.0
0.0005439449844101704   -0.005305678301400032   -0.0014773479072125578
0.0   0.0   0.0
0.0   0.0   0.0
0.0005439449844101704   -0.005305678301400032   -0.0014773479072125578
0.0   0.0   0.0
0.0   0.0   0.0
0.0005439449844101704   -0.005305678301400032   -0.0014773479072125578
-0.002513938431786886   -0.005529407646926284   -0.0012321513002031845
-0.0025662191360902734   -0.00555833177309952   -0.001410956630140682
0.0   0.0   0.0
0.0005439449844101704   -0.005305678301400032   -0.0014773479072125578
-0.0025662191360902734   -0.00555833177309952   -0.001410956630140682
0.0   0.0   0.0
0.0   0.0   0.0
0.0003572956532883104   -0.00533713493370416   -0.0014073594886768995
0.0   0.0   0.0
0.0   0.0   0.0
0.0003572956532883104   -0.00533713493370416   -0.0014073594886768995
0.0037044942873400645   -0.0055978314424338215   -0.0012320489212973532
0.0   0.0   0.0
0.003709794519585578   -0.005627985258911381   -0.0014696157031760372
0.0   0.0   0.0
0.0   0.0   0.0
0.003709794519585578   -0.005627985258911381   -0.0014696157031760372
0.0   0.0   0.0
0.0   0.0   0.0
0.003709794519585578   -0.005627985258911381   -0.0014696157031760372
0.0004227510629240965   -0.005431288943849542   -0.0014321841746146736
0.0003572956532883104   -0.00533713493370416   -0.0014073594886768995
0.0   0.0   0.0
0.003709794519585578   -0.005627985258911381   -0.0014696157031760372
0.0003572956532883104   -0.00533713493370416   -0.0014073594886768995
0.0   0.0   0.0
0.0   0.0   0.0
0.0004227510629240965   -0.005431288943849542   -0.0014321841746146736
0.0   0.0   0.0
0.0   0.0   0.0
0.0004227510629240965   -0.005431288943849542   -0.0014321841746146736
0.003709794519585578   -0.005627985258911381   -0.0014696157031760372
0.0   0.0   0.0
0.003692796911166503   -0.00554761053423853   -0.0016973914550907992
0.0   0.0   0.0
0.0   0.0   0.0
0.003692796911166503   -0.00554761053423853   -0.0016973914550907992
0.0   0.0   0.0
0.0   0.0   0.0
0.003692796911166503   -0.00554761053423853   -0.0016973914550907992
0.0004742831639725355   -0.0054235938805220485   -0.0014545132895480023
0.0004227510629240965   -0.005431288943849542   -0.0014321841746146736
0.0   0.0   0.0
0.003692796911166503   -0.00554761053423853   -0.0016973914550907992
0.0004227510629240965   -0.005431288943849542   -0.0014321841746146736
0.0   0.0   0.0
0.0   0.0   0.0
0.0004742831639725355   -0.0054235938805220485   -0.0014545132895480023
0.0   0.0   0.0
0.0   0.0   0.0
0.0004742831639725355   -0.0054235938805220485   -0.0014545132895480023
0.003692796911166503   -0.00554761053423853   -0.0016973914550907992
0.0   0.0   0.0
0.0037632495810860415   -0.005331989166320271   -0.001920729598185514
0.0   0.0   0.0
0.0   0.0   0.0
0.0037632495810860415   -0.005331989166320271   -0.001920729598185514
0.0   0.0   0.0
0.0   0.0   0.0
0.0037632495810860415   -0.005331989166320271   -0.001920729598185514
0.0005439449844101704   -0.005305678301400032   -0.0014773479072125578
0.0004742831639725355   -0.0054235938805220485   -0.0014545132895480023
0.0   0.0   0.0
0.0037632495810860415   -0.005331989166320271   -0.001920729598185514
0.0004742831639725355   -0.0054235938805220485   -0.0014545132895480023
0.0   0.0   0.0
0.0   0.0   0.0
0.0037044942873400645   -0.0055978314424338215   -0.0012320489212973532
0.0   0.0   0.0
0.0   0.0   0.0
0.0037044942873400645   -0.0055978314424338215   -0.0012320489212973532
0.008356620073949187   -0.006258176407463993   -0.0011616710224075523
0.0   0.0   0.0
0.007846543132761792   -0.006190241595696457   -0.0016999183334050704
0.0   0.0   0.0
0.0   0.0   0.0
0.007846543132761792   -0.006190241595696457   -0.0016999183334050704
0.0   0.0   0.0
0.0   0.0   0.0
0.007846543132761792   -0.006190241595696457   -0.0016999183334050704
0.003709794519585578   -0.005627985258911381   -0.0014696157031760372
0.0037044942873400645   -0.0055978314424338215   -0.0012320489212973532
0.0   0.0   0.0
0.007846543132761792   -0.006190241595696457   -0.0016999183334050704
0.0037044942873400645   -0.0055978314424338215   -0.0012320489212973532
0.0   0.0   0.0
0.0   0.0   0.0
0.003709794519585578   -0.005627985258911381   -0.0014696157031760372
0.0   0.0   0.0
0.0   0.0   0.0
0.003709794519585578   -0.005627985258911381   -0.0014696157031760372
0.007846543132761792   -0.006190241595696457   -0.0016999183334050704
0.0   0.0   0.0
0.0076108252923062295   -0.0060615309273277535   -0.0021549754218750977
0.0   0.0   0.0
0.0   0.0   0.0
0.0076108252923062295   -0.0060615309273277535   -0.0021549754218750977
0.0   0.0   0.0
0.0   0.0   0.0
0.0076108252923062295   -0.0060615309273277535   -0.0021549754218750977
0.003692796911166503   -0.00554761053423853   -0.0016973914550907992
0.003709794519585578   -0.005627985258911381   -0.0014696157031760372
0.0   0.0   0.0
0.0076108252923062295   -0.0060615309273277535   -0.0021549754218750977
0.003709794519585578   -0.005627985258911381   -0.0014696157031760372
0.0   0.0   0.0
0.0   0.0   0.0
0.003692796911166503   -0.00554761053423853   -0.0016973914550907992
0.0   0.0   0.0
0.0   0.0   0.0
0.003692796911166503   -0.00554761053423853   -0.0016973914550907992
0.0076108252923062295   -0.0060615309273277535   -0.0021549754218750977
0.0   0.0   0.0
0.007260682926483566   -0.005731899867715146   -0.0026363040146848422
0.0   0.0   0.0
0.0   0.0   0.0
0.007260682926483566   -0.005731899867715146   -0.0026363040146848422
0.0   0.0   0.0
0.0   0.0   0.0
0.007260682926483566   -0.005731899867715146   -0.0026363040146848422
0.0037632495810860415   -0.005331989166320271   -0.001920729598185514
0.003692796911166503   -0.00554761053423853   -0.0016973914550907992
0.0   0.0   0.0
0.007260682926483566   -0.005731899867715146   -0.0026363040146848422
0.003692796911166503   -0.00554761053423853   -0.0016973914550907992
0.0   0.0   0.0
-0.009412611319381722   -0.006164528971033509   -0.0031524430190795795
-0.017589001867943096   -0.017223828734851114   -0.004246767793944521
-0.005990711370595641   -0.005537853124330703   -0.002315989106223865
-0.009851863300293617   -0.006567938826938639   -0.0025305650564782633
-0.017589001867943096   -0.017223828734851114   -0.004246767793944521
-0.011226758450138537   -0.016659920705070132   -0.003494741331595639
-0.005990711370595641   -0.005537853124330703   -0.002315989106223865
-0.011241476924169134   -0.01694506619794509   -0.0031468023085477526
-0.009851863300293617   -0.006567938826938639   -0.0025305650564782633
-0.005873140264806729   -0.00581638910898997   -0.0019400333599288268
-0.011241476924169134   -0.01694506619794509   -0.0031468023085477526
-0.005990711370595641   -0.005537853124330703   -0.002315989106223865
-0.009851863300293617   -0.006567938826938639   -0.0025305650564782633
-0.011241476924169134   -0.01694506619794509   -0.0031468023085477526
-0.018117912686136994   -0.017621566278440075   -0.003681551991724754
-0.017589001867943096   -0.017223828734851114   -0.004246767793944521
-0.009851863300293617   -0.006567938826938639   -0.0025305650564782633
-0.011241476924169134   -0.01694506619794509   -0.0031468023085477526
-0.017589001867943096   -0.017223828734851114   -0.004246767793944521
-0.005990711370595641   -0.005537853124330703   -0.002315989106223865
-0.009851863300293617   -0.006567938826938639   -0.0025305650564782633
-0.018117912686136994   -0.017621566278440075   -0.003681551991724754
-0.005873140264806729   -0.00581638910898997   -0.0019400333599288268
-0.010160795305652802   -0.00676405538348845   -0.0019344973430561253
-0.018117912686136994   -0.017621566278440075   -0.003681551991724754
-0.011241476924169134   -0.01694506619794509   -0.0031468023085477526
-0.005873140264806729   -0.00581638910898997   -0.0019400333599288268
-0.011287313929037016   -0.0171187605329625   -0.002812352703828722
-0.010160795305652802   -0.00676405538348845   -0.0019344973430561253
-0.005890683003194561   -0.005959017506155324   -0.0015645075058392328
-0.011287313929037016   -0.0171187605329625   -0.002812352703828722
-0.005873140264806729   -0.00581638910898997   -0.0019400333599288268
-0.010160795305652802   -0.00676405538348845   -0.0019344973430561253
-0.011287313929037016   -0.0171187605329625   -0.002812352703828722
-0.018486009733041764   -0.01784606420369248   -0.003127978714270705
-0.018117912686136994   -0.017621566278440075   -0.003681551991724754
-0.010160795305652802   -0.00676405538348845   -0.0019344973430561253
-0.011287313929037016   -0.0171187605329625   -0.002812352703828722
-0.018117912686136994   -0.017621566278440075   -0.003681551991724754
-0.005873140264806729   -0.00581638910898997   -0.0019400333599288268
-0.010160795305652802   -0.00676405538348845   -0.0019344973430561253
-0.018486009733041764   -0.01784606420369248   -0.003127978714270705
-0.005890683003194561   -0.005959017506155324   -0.0015645075058392328
-0.010825347962975688   -0.006912196396283675   -0.0012428361087586913
-0.018486009733041764   -0.01784606420369248   -0.003127978714270705
-0.011287313929037016   -0.0171187605329625   -0.002812352703828722
-0.005890683003194561   -0.005959017506155324   -0.0015645075058392328
-0.011255307851725899   -0.017208675987307093   -0.002499202148964008
-0.010825347962975688   -0.006912196396283675   -0.0012428361087586913
-0.0058886908365490525   -0.005995512867843664   -0.0011760695630268591
-0.011255307851725899   -0.017208675987307093   -0.002499202148964008
-0.005890683003194561   -0.005959017506155324   -0.0015645075058392328
-0.010825347962975688   -0.006912196396283675   -0.0012428361087586913
-0.011255307851725899   -0.017208675987307093   -0.002499202148964008
-0.018921152448580923   -0.017976206688519368   -0.002624120528315367
-0.018486009733041764   -0.01784606420369248   -0.003127978714270705
-0.010825347962975688   -0.006912196396283675   -0.0012428361087586913
-0.011255307851725899   -0.017208675987307093   -0.002499202148964008
-0.018486009733041764   -0.01784606420369248   -0.003127978714270705
-0.005890683003194561   -0.005959017506155324   -0.0015645075058392328
-0.005990711370595641   -0.005537853124330703   -0.002315989106223865
-0.011226758450138537   -0.016659920705070132   -0.003494741331595639
-0.002727069698375856   -0.005307813611270488   -0.0017611689364113294
-0.005873140264806729   -0.00581638910898997   -0.0019400333599288268
-0.011226758450138537   -0.016659920705070132   -0.003494741331595639
-0.005206663168964263   -0.016397536571566413   -0.002981249297248866
-0.002727069698375856   -0.005307813611270488   -0.0017611689364113294
-0.005163231533115043   -0.01657913888692872   -0.0028030854802006617
-0.005873140264806729   -0.00581638910898997   -0.0019400333599288268
-0.0026238116586083794   -0.0054892246442394595   -0.0015838018596479413
-0.005163231533115043   -0.01657913888692872   -0.0028030854802006617
-0.002727069698375856   -0.005307813611270488   -0.0017611689364113294
-0.005873140264806729   -0.00581638910898997   -0.0019400333599288268
-0.005163231533115043   -0.01657913888692872   -0.0028030854802006617
-0.011241476924169134   -0.01694506619794509   -0.0031468023085477526
-0.011226758450138537   -0.016659920705070132   -0.003494741331595639
-0.005873140264806729   -0.00581638910898997   -0.0019400333599288268
-0.005163231533115043   -0.01657913888692872   -0.0028030854802006617
-0.011226758450138537   -0.016659920705070132   -0.003494741331595639
-0.002727069698375856   -0.005307813611270488   -0.0017611689364113294
-0.005873140264806729   -0.00581638910898997   -0.0019400333599288268
-0.011241476924169134   -0.01694506619794509   -0.0031468023085477526
-0.0026238116586083794   -0.0054892246442394595   -0.0015838018596479413
-0.005890683003194561   -0.005959017506155324   -0.0015645075058392328
-0.011241476924169134   -0.01694506619794509   -0.0031468023085477526
-0.005163231533115043   -0.01657913888692872   -0.0028030854802006617
-0.0026238116586083794   -0.0054892246442394595   -0.0015838018596479413
-0.005124911699173921   -0.0166671665809841   -0.002641513598221403
-0.005890683003194561   -0.005959017506155324   -0.0015645075058392328
-0.0025662191360902734   -0.00555833177309952   -0.001410956630140682
-0.005124911699173921   -0.0166671665809841   -0.002641513598221403
-0.0026238116586083794   -0.0054892246442394595   -0.0015838018596479413
-0.005890683003194561   -0.005959017506155324   -0.0015645075058392328
-0.005124911699173921   -0.0166671665809841   -0.002641513598221403
-0.011287313929037016   -0.0171187605329625   -0.002812352703828722
-0.011241476924169134   -0.01694506619794509   -0.0031468023085477526
-0.005890683003194561   -0.005959017506155324   -0.0015645075058392328
-0.005124911699173921   -0.0166671665809841   -0.002641513598221403
-0.011241476924169134   -0.01694506619794509   -0.0031468023085477526
-0.0026238116586083794   -0.0054892246442394595   -0.0015838018596479413
-0.005890683003194561   -0.005959017506155324   -0.0015645075058392328
-0.011287313929037016   -0.0171187605329625   -0.002812352703828722
-0.0025662191360902734   -0.00555833177309952   -0.001410956630140682
-0.0058886908365490525   -0.005995512867843664   -0.0011760695630268591
-0.011287313929037016   -0.0171187605329625   -0.002812352703828722
-0.005124911699173921   -0.0166671665809841   -0.002641513598221403
-0.0025662191360902734   -0.00555833177309952   -0.001410956630140682
-0.005067032874938228   -0.016664941578778823   -0.0025007717098074252
-0.0058886908365490525   -0.005995512867843664   -0.0011760695630268591
-0.002513938431786886   -0.005529407646926284   -0.0012321513002031845
-0.005067032874938228   -0.016664941578778823   -0.0025007717098074252
-0.0025662191360902734   -0.00555833177309952   -0.001410956630140682
-0.0058886908365490525   -0.005995512867843664   -0.0011760695630268591
-0.005067032874938228   -0.016664941578778823   -0.0025007717098074252
-0.011255307851725899   -0.017208675987307093   -0.002499202148964008
-0.011287313929037016   -0.0171187605329625   -0.002812352703828722
-0.0058886908365490525   -0.005995512867843664   -0.0011760695630268591
-0.005067032874938228   -0.016664941578778823   -0.0025007717098074252
-0.011287313929037016   -0.0171187605329625   -0.002812352703828722
-0.0025662191360902734   -0.00555833177309952   -0.001410956630140682
-0.002727069698375856   -0.005307813611270488   -0.0017611689364113294
-0.005206663168964263   -0.016397536571566413   -0.002981249297248866
0.0003572956532883104   -0.00533713493370416   -0.0014073594886768995
-0.0026238116586083794   -0.0054892246442394595   -0.0015838018596479413
-0.005206663168964263   -0.016397536571566413   -0.002981249297248866
0.0005994851496429413   -0.01640525948422789   -0.0026563096507656874
0.0003572956532883104   -0.00533713493370416   -0.0014073594886768995
0.0006531275076087107   -0.016491479614354855   -0.0026447878415493437
-0.0026238116586083794   -0.0054892246442394595   -0.0015838018596479413
0.0004227510629240965   -0.005431288943849542   -0.0014321841746146736
0.0006531275076087107   -0.016491479614354855   -0.0026447878415493437
0.0003572956532883104   -0.00533713493370416   -0.0014073594886768995
-0.0026238116586083794   -0.0054892246442394595   -0.0015838018596479413
0.0006531275076087107   -0.016491479614354855   -0.0026447878415493437
-0.005163231533115043   -0.01657913888692872   -0.0028030854802006617
-0.005206663168964263   -0.016397536571566413   -0.002981249297248866
-0.0026238116586083794   -0.0054892246442394595   -0.0015838018596479413
0.0006531275076087107   -0.016491479614354855   -0.0026447878415493437
-0.005206663168964263   -0.016397536571566413   -0.002981249297248866
0.0003572956532883104   -0.00533713493370416   -0.0014073594886768995
-0.0026238116586083794   -0.0054892246442394595   -0.0015838018596479413
-0.005163231533115043   -0.01657913888692872   -0.0028030854802006617
0.0004227510629240965   -0.005431288943849542   -0.0014321841746146736
-0.0025662191360902734   -0.00555833177309952   -0.001410956630140682
-0.005163231533115043   -0.01657913888692872   -0.0028030854802006617
0.0006531275076087107   -0.016491479614354855   -0.0026447878415493437
0.0004227510629240965   -0.005431288943849542   -0.0014321841746146736
0.0006887484828362908   -0.01648632383968084   -0.0026521032789639746
-0.0025662191360902734   -0.00555833177309952   -0.001410956630140682
0.0004742831639725355   -0.0054235938805220485   -0.0014545132895480023
0.0006887484828362908   -0.01648632383968084   -0.0026521032789639746
0.0004227510629240965   -0.005431288943849542   -0.0014321841746146736
-0.0025662191360902734   -0.00555833177309952   -0.001410956630140682
0.0006887484828362908   -0.01648632383968084   -0.0026521032789639746
-0.005124911699173921   -0.0166671665809841   -0.002641513598221403
-0.005163231533115043   -0.01657913888692872   -0.0028030854802006617
-0.0025662191360902734   -0.00555833177309952   -0.001410956630140682
0.0006887484828362908   -0.01648632383968084   -0.0026521032789639746
-0.005163231533115043   -0.01657913888692872   -0.0028030854802006617
0.0004227510629240965   -0.005431288943849542   -0.0014321841746146736
-0.0025662191360902734   -0.00555833177309952   -0.001410956630140682
-0.005124911699173921   -0.0166671665809841   -0.002641513598221403
0.0004742831639725355   -0.0054235938805220485   -0.0014545132895480023
-0.002513938431786886   -0.005529407646926284   -0.0012321513002031845
-0.005124911699173921   -0.0166671665809841   -0.002641513598221403
0.0006887484828362908   -0.01648632383968084   -0.0026521032789639746
0.0004742831639725355   -0.0054235938805220485   -0.0014545132895480023
0.0007270753704805325   -0.01638699653542754   -0.0026785556964158386
-0.002513938431786886   -0.005529407646926284   -0.0012321513002031845
0.0005439449844101704   -0.005305678301400032   -0.0014773479072125578
0.0007270753704805325   -0.01638699653542754   -0.0026785556964158386
0.0004742831639725355   -0.0054235938805220485   -0.0014545132895480023
-0.002513938431786886   -0.005529407646926284   -0.0012321513002031845
0.0007270753704805325   -0.01638699653542754   -0.0026785556964158386
-0.005067032874938228   -0.016664941578778823   -0.0025007717098074252
-0.005124911699173921   -0.0166671665809841   -0.002641513598221403
-0.002513938431786886   -0.005529407646926284   -0.0012321513002031845
0.0007270753704805325   -0.01638699653542754   -0.0026785556964158386
-0.005124911699173921   -0.0166671665809841   -0.002641513598221403
0.0004742831639725355   -0.0054235938805220485   -0.0014545132895480023
0.0003572956532883104   -0.00533713493370416   -0.0014073594886768995
0.0005994851496429413   -0.01640525948422789   -0.0026563096507656874
0.0037044942873400645   -0.0055978314424338215   -0.0012320489212973532
0.0004227510629240965   -0.005431288943849542   -0.0014321841746146736
0.0005994851496429413   -0.01640525948422789   -0.0026563096507656874
0.0067515507474646625   -0.016673310659085474   -0.0025042713165139103
0.0037044942873400645   -0.0055978314424338215   -0.0012320489212973532
0.00678108517003102   -0.016672929245549334   -0.002664805788612878
0.0004227510629240965   -0.005431288943849542   -0.0014321841746146736
0.003709794519585578   -0.005627985258911381   -0.0014696157031760372
0.00678108517003102   -0.016672929245549334   -0.002664805788612878
0.0037044942873400645   -0.0055978314424338215   -0.0012320489212973532
0.0004227510629240965   -0.005431288943849542   -0.0014321841746146736
0.00678108517003102   -0.016672929245549334   -0.002664805788612878
0.0006531275076087107   -0.016491479614354855   -0.0026447878415493437
0.0005994851496429413   -0.01640525948422789   -0.0026563096507656874
0.0004227510629240965   -0.005431288943849542   -0.0014321841746146736
0.00678108517003102   -0.016672929245549334   -0.002664805788612878
0.0005994851496429413   -0.01640525948422789   -0.0026563096507656874
0.0037044942873400645   -0.0055978314424338215   -0.0012320489212973532
0.0004227510629240965   -0.005431288943849542   -0.0014321841746146736
0.0006531275076087107   -0.016491479614354855   -0.0026447878415493437
0.003709794519585578   -0.005627985258911381   -0.0014696157031760372
0.0004742831639725355   -0.0054235938805220485   -0.0014545132895480023
0.0006531275076087107   -0.016491479614354855   -0.0026447878415493437
0.00678108517003102   -0.016672929245549334   -0.002664805788612878
0.003709794519585578   -0.005627985258911381   -0.0014696157031760372
0.006748125530479689   -0.016582903841393385   -0.0028466537765035544
0.0004742831639725355   -0.0054235938805220485   -0.0014545132895480023
0.003692796911166503   -0.00554761053423853   -0.0016973914550907992
0.006748125530479689   -0.016582903841393385   -0.0028466537765035544
0.003709794519585578   -0.005627985258911381   -0.0014696157031760372
0.0004742831639725355   -0.0054235938805220485   -0.0014545132895480023
0.006748125530479689   -0.016582903841393385   -0.0028466537765035544
0.0006887484828362908   -0.01648632383968084   -0.0026521032789639746
0.0006531275076087107   -0.016491479614354855   -0.0026447878415493437
0.0004742831639725355   -0.0054235938805220485   -0.0014545132895480023
0.006748125530479689   -0.016582903841393385   -0.0028466537765035544
0.0006531275076087107   -0.016491479614354855   -0.0026447878415493437
0.003709794519585578   -0.005627985258911381   -0.0014696157031760372
0.0004742831639725355   -0.0054235938805220485   -0.0014545132895480023
0.0006887484828362908   -0.01648632383968084   -0.0026521032789639746
0.003692796911166503   -0.00554761053423853   -0.0016973914550907992
0.0005439449844101704   -0.005305678301400032   -0.0014773479072125578
0.0006887484828362908   -0.01648632383968084   -0.0026521032789639746
0.006748125530479689   -0.016582903841393385   -0.0028466537765035544
0.003692796911166503   -0.00554761053423853   -0.0016973914550907992
0.0067286484331335415   -0.01637855438201706   -0.0030430927598122824
0.0005439449844101704   -0.005305678301400032   -0.0014773479072125578
0.0037632495810860415   -0.005331989166320271   -0.001920729598185514
0.0067286484331335415   -0.01637855438201706   -0.0030430927598122824
0.003692796911166503   -0.00554761053423853   -0.0016973914550907992
0.0005439449844101704   -0.005305678301400032   -0.0014773479072125578
0.0067286484331335415   -0.01637855438201706   -0.0030430927598122824
0.0007270753704805325   -0.01638699653542754   -0.0026785556964158386
0.0006887484828362908   -0.01648632383968084   -0.0026521032789639746
0.0005439449844101704   -0.005305678301400032   -0.0014773479072125578
0.0067286484331335415   -0.01637855438201706   -0.0030430927598122824
0.0006887484828362908   -0.01648632383968084   -0.0026521032789639746
0.003692796911166503   -0.00554761053423853   -0.0016973914550907992
0.0037044942873400645   -0.0055978314424338215   -0.0012320489212973532
0.0067515507474646625   -0.016673310659085474   -0.0025042713165139103
0.008356620073949187   -0.006258176407463993   -0.0011616710224075523
0.003709794519585578   -0.005627985258911381   -0.0014696157031760372
0.0067515507474646625   -0.016673310659085474   -0.0025042713165139103
0.014173233702518983   -0.017171838274667395   -0.0024624882671021625
0.008356620073949187   -0.006258176407463993   -0.0011616710224075523
0.013882515718470306   -0.01712550293510578   -0.0028234329558906412
0.003709794519585578   -0.005627985258911381   -0.0014696157031760372
0.007846543132761792   -0.006190241595696457   -0.0016999183334050704
0.013882515718470306   -0.01712550293510578   -0.0028234329558906412
0.008356620073949187   -0.006258176407463993   -0.0011616710224075523
0.003709794519585578   -0.005627985258911381   -0.0014696157031760372
0.013882515718470306   -0.01712550293510578   -0.0028234329558906412
0.00678108517003102   -0.016672929245549334   -0.002664805788612878
0.0067515507474646625   -0.016673310659085474   -0.0025042713165139103
0.003709794519585578   -0.005627985258911381   -0.0014696157031760372
0.013882515718470306   -0.01712550293510578   -0.0028234329558906412
0.0067515507474646625   -0.016673310659085474   -0.0025042713165139103
0.008356620073949187   -0.006258176407463993   -0.0011616710224075523
0.003709794519585578   -0.005627985258911381   -0.0014696157031760372
0.00678108517003102   -0.016672929245549334   -0.002664805788612878
0.007846543132761792   -0.006190241595696457   -0.0016999183334050704
0.003692796911166503   -0.00554761053423853   -0.0016973914550907992
0.00678108517003102   -0.016672929245549334   -0.002664805788612878
0.013882515718470306   -0.01712550293510578   -0.0028234329558906412
0.007846543132761792   -0.006190241595696457   -0.0016999183334050704
0.013622908262967859   -0.016986628724445264   -0.003229241711631432
0.003692796911166503   -0.00554761053423853   -0.0016973914550907992
0.0076108252923062295   -0.0060615309273277535   -0.0021549754218750977
0.013622908262967859   -0.016986628724445264   -0.003229241711631432
0.007846543132761792   -0.006190241595696457   -0.0016999183334050704
0.003692796911166503   -0.00554761053423853   -0.0016973914550907992
0.013622908262967859   -0.016986628724445264   -0.003229241711631432
0.006748125530479689   -0.016582903841393385   -0.0028466537765035544
0.00678108517003102   -0.016672929245549334   -0.002664805788612878
0.003692796911166503   -0.00554761053423853   -0.0016973914550907992
0.013622908262967859   -0.016986628724445264   -0.003229241711631432
0.00678108517003102   -0.016672929245549334   -0.002664805788612878
0.007846543132761792   -0.006190241595696457   -0.0016999183334050704
0.003692796911166503   -0.00554761053423853   -0.0016973914550907992
0.006748125530479689   -0.016582903841393385   -0.0028466537765035544
0.0076108252923062295   -0.0060615309273277535   -0.0021549754218750977
0.0037632495810860415   -0.005331989166320271   -0.001920729598185514
0.006748125530479689   -0.016582903841393385   -0.0028466537765035544
0.013622908262967859   -0.016986628724445264   -0.003229241711631432
0.0076108252923062295   -0.0060615309273277535   -0.0021549754218750977
0.013234903394583128   -0.01667713026435171   -0.0036515238354484594
0.0037632495810860415   -0.005331989166320271   -0.001920729598185514
0.007260682926483566   -0.005731899867715146   -0.0026363040146848422
0.013234903394583128   -0.01667713026435171   -0.0036515238354484594
0.0076108252923062295   -0.0060615309273277535   -0.0021549754218750977
0.0037632495810860415   -0.005331989166320271   -0.001920729598185514
0.013234903394583128   -0.01667713026435171   -0.0036515238354484594
0.0067286484331335415   -0.01637855438201706   -0.0030430927598122824
0.006748125530479689   -0.016582903841393385   -0.0028466537765035544
0.0037632495810860415   -0.005331989166320271   -0.001920729598185514
0.013234903394583128   -0.01667713026435171   -0.0036515238354484594
0.006748125530479689   -0.016582903841393385   -0.0028466537765035544
0.0076108252923062295   -0.0060615309273277535   -0.0021549754218750977
-0.017589001867943096   -0.017223828734851114   -0.004246767793944521
-0.0241101446756851   -0.032322777277831706   -0.004835870047263839
-0.011226758450138537   -0.016659920705070132   -0.003494741331595639
-0.018117912686136994   -0.017621566278440075   -0.003681551991724754
-0.0241101446756851   -0.032322777277831706   -0.004835870047263839
-0.015500053860837009   -0.03189148383514   -0.0042253113847296065
-0.011226758450138537   -0.016659920705070132   -0.003494741331595639
-0.015535779477622665   -0.032137822031223465   -0.003955153975603574
-0.018117912686136994   -0.017621566278440075   -0.003681551991724754
-0.011241476924169134   -0.01694506619794509   -0.0031468023085477526
-0.015535779477622665   -0.032137822031223465   -0.003955153975603574
-0.011226758450138537   -0.016659920705070132   -0.003494741331595639
-0.018117912686136994   -0.017621566278440075   -0.003681551991724754
-0.015535779477622665   -0.032137822031223465   -0.003955153975603574
-0.024541262712535938   -0.032659341012801914   -0.004413870283794478
-0.0241101446756851   -0.032322777277831706   -0.004835870047263839
-0.018117912686136994   -0.017621566278440075   -0.003681551991724754
-0.015535779477622665   -0.032137822031223465   -0.003955153975603574
-0.0241101446756851   -0.032322777277831706   -0.004835870047263839
-0.011226758450138537   -0.016659920705070132   -0.003494741331595639
-0.018117912686136994   -0.017621566278440075   -0.003681551991724754
-0.024541262712535938   -0.032659341012801914   -0.004413870283794478
-0.011241476924169134   -0.01694506619794509   -0.0031468023085477526
-0.018486009733041764   -0.01784606420369248   -0.003127978714270705
-0.024541262712535938   -0.032659341012801914   -0.004413870283794478
-0.015535779477622665   -0.032137822031223465   -0.003955153975603574
-0.011241476924169134   -0.01694506619794509   -0.0031468023085477526
-0.01557763690813859   -0.0323091225330826   -0.003704485325556113
-0.018486009733041764   -0.01784606420369248   -0.003127978714270705
-0.011287313929037016   -0.0171187605329625   -0.002812352703828722
-0.01557763690813859   -0.0323091225330826   -0.003704485325556113
-0.011241476924169134   -0.01694506619794509   -0.0031468023085477526
-0.018486009733041764   -0.01784606420369248   -0.003127978714270705
-0.01557763690813859   -0.0323091225330826   -0.003704485325556113
-0.02481384343660373   -0.03287024433334208   -0.004020444357309499
-0.024541262712535938   -0.032659341012801914   -0.004413870283794478
-0.018486009733041764   -0.01784606420369248   -0.003127978714270705
-0.01557763690813859   -0.0323091225330826   -0.003704485325556113
-0.024541262712535938   -0.032659341012801914   -0.004413870283794478
-0.011241476924169134   -0.01694506619794509   -0.0031468023085477526
-0.018486009733041764   -0.01784606420369248   -0.003127978714270705
-0.02481384343660373   -0.03287024433334208   -0.004020444357309499
-0.011287313929037016   -0.0171187605329625   -0.002812352703828722
-0.018921152448580923   -0.017976206688519368   -0.002624120528315367
-0.02481384343660373   -0.03287024433334208   -0.004020444357309499
-0.01557763690813859   -0.0323091225330826   -0.003704485325556113
-0.011287313929037016   -0.0171187605329625   -0.002812352703828722
-0.015550277007258471   -0.0324216244437885   -0.0034691576813383317
-0.018921152448580923   -0.017976206688519368   -0.002624120528315367
-0.011255307851725899   -0.017208675987307093   -0.002499202148964008
-0.015550277007258471   -0.0324216244437885   -0.0034691576813383317
-0.011287313929037016   -0.0171187605329625   -0.002812352703828722
-0.018921152448580923   -0.017976206688519368   -0.002624120528315367
-0.015550277007258471   -0.0324216244437885   -0.0034691576813383317
-0.02512398643507763   -0.03302160101258542   -0.0036582628770454343
-0.02481384343660373   -0.03287024433334208   -0.004020444357309499
-0.018921152448580923   -0.017976206688519368   -0.002624120528315367
-0.015550277007258471   -0.0324216244437885   -0.0034691576813383317
-0.02481384343660373   -0.03287024433334208   -0.004020444357309499
-0.011287313929037016   -0.0171187605329625   -0.002812352703828722
-0.011226758450138537   -0.016659920705070132   -0.003494741331595639
-0.015500053860837009   -0.03189148383514   -0.0042253113847296065
-0.005206663168964263   -0.016397536571566413   -0.002981249297248866
-0.011241476924169134   -0.01694506619794509   -0.0031468023085477526
-0.015500053860837009   -0.03189148383514   -0.0042253113847296065
-0.007379541819901456   -0.03167658278546824   -0.0038010511353783563
-0.005206663168964263   -0.016397536571566413   -0.002981249297248866
-0.007362794403131847   -0.03183421792947934   -0.0036485333429012237
-0.011241476924169134   -0.01694506619794509   -0.0031468023085477526
-0.005163231533115043   -0.01657913888692872   -0.0028030854802006617
-0.007362794403131847   -0.03183421792947934   -0.0036485333429012237
-0.005206663168964263   -0.016397536571566413   -0.002981249297248866
-0.011241476924169134   -0.01694506619794509   -0.0031468023085477526
-0.007362794403131847   -0.03183421792947934   -0.0036485333429012237
-0.015535779477622665   -0.032137822031223465   -0.003955153975603574
-0.015500053860837009   -0.03189148383514   -0.0042253113847296065
-0.011241476924169134   -0.01694506619794509   -0.0031468023085477526
-0.007362794403131847   -0.03183421792947934   -0.0036485333429012237
-0.015500053860837009   -0.03189148383514   -0.0042253113847296065
-0.005206663168964263   -0.016397536571566413   -0.002981249297248866
-0.011241476924169134   -0.01694506619794509   -0.0031468023085477526
-0.015535779477622665   -0.032137822031223465   -0.003955153975603574
-0.005163231533115043   -0.01657913888692872   -0.0028030854802006617
-0.011287313929037016   -0.0171187605329625   -0.002812352703828722
-0.015535779477622665   -0.032137822031223465   -0.003955153975603574
-0.007362794403131847   -0.03183421792947934   -0.0036485333429012237
-0.005163231533115043   -0.01657913888692872   -0.0028030854802006617
-0.007341879800611058   -0.03192676175031904   -0.0035145838450088263
-0.011287313929037016   -0.0171187605329625   -0.002812352703828722
-0.005124911699173921   -0.0166671665809841   -0.002641513598221403
-0.007341879800611058   -0.03192676175031904   -0.0035145838450088263
-0.005163231533115043   -0.01657913888692872   -0.0028030854802006617
-0.011287313929037016   -0.0171187605329625   -0.002812352703828722
-0.007341879800611058   -0.03192676175031904   -0.0035145838450088263
-0.01557763690813859   -0.0323091225330826   -0.003704485325556113
-0.015535779477622665   -0.032137822031223465   -0.003955153975603574
-0.011287313929037016   -0.0171187605329625   -0.002812352703828722
-0.007341879800611058   -0.03192676175031904   -0.0035145838450088263
-0.015535779477622665   -0.032137822031223465   -0.003955153975603574
-0.005163231533115043   -0.01657913888692872   -0.0028030854802006617
-0.011287313929037016   -0.0171187605329625   -0.002812352703828722
-0.01557763690813859   -0.0323091225330826   -0.003704485325556113
-0.005124911699173921   -0.0166671665809841   -0.002641513598221403
-0.011255307851725899   -0.017208675987307093   -0.002499202148964008
-0.01557763690813859   -0.0323091225330826   -0.003704485325556113
-0.007341879800611058   -0.03192676175031904   -0.0035145838450088263
-0.005124911699173921   -0.0166671665809841   -0.002641513598221403
-0.007306414444545774   -0.031955537613238855   -0.0033991424429145566
-0.011255307851725899   -0.017208675987307093   -0.002499202148964008
-0.005067032874938228   -0.016664941578778823   -0.0025007717098074252
-0.007306414444545774   -0.031955537613238855   -0.0033991424429145566
-0.005124911699173921   -0.0166671665809841   -0.002641513598221403
-0.011255307851725899   -0.017208675987307093   -0.002499202148964008
-0.007306414444545774   -0.031955537613238855   -0.0033991424429145566
-0.015550277007258471   -0.0324216244437885   -0.0034691576813383317
-0.01557763690813859   -0.0323091225330826   -0.003704485325556113
-0.011255307851725899   -0.017208675987307093   -0.002499202148964008
-0.007306414444545774   -0.031955537613238855   -0.0033991424429145566
-0.01557763690813859   -0.0323091225330826   -0.003704485325556113
-0.005124911699173921   -0.0166671665809841   -0.002641513598221403
-0.005206663168964263   -0.016397536571566413   -0.002981249297248866
-0.007379541819901456   -0.03167658278546824   -0.0038010511353783563
0.0005994851496429413   -0.01640525948422789   -0.0026563096507656874
-0.005163231533115043   -0.01657913888692872   -0.0028030854802006617
-0.007379541819901456   -0.03167658278546824   -0.0038010511353783563
0.0005032123165334512   -0.03166517185925773   -0.003537697363578446
0.0005994851496429413   -0.01640525948422789   -0.0026563096507656874
0.0005354071130451104   -0.031735536159478335   -0.003502178005882113
-0.005163231533115043   -0.01657913888692872   -0.0028030854802006617
0.0006531275076087107   -0.016491479614354855   -0.0026447878415493437
0.0005354071130451104   -0.031735536159478335   -0.003502178005882113
0.0005994851496429413   -0.01640525948422789   -0.0026563096507656874
-0.005163231533115043   -0.01657913888692872   -0.0028030854802006617
0.0005354071130451104   -0.031735536159478335   -0.003502178005882113
-0.007362794403131847   -0.03183421792947934   -0.0036485333429012237
-0.007379541819901456   -0.03167658278546824   -0.0038010511353783563
-0.005163231533115043   -0.01657913888692872   -0.0028030854802006617
0.0005354071130451104   -0.031735536159478335   -0.003502178005882113
-0.007379541819901456   -0.03167658278546824   -0.0038010511353783563
0.0005994851496429413   -0.01640525948422789   -0.0026563096507656874
-0.005163231533115043   -0.01657913888692872   -0.0028030854802006617
-0.007362794403131847   -0.03183421792947934   -0.0036485333429012237
0.0006531275076087107   -0.016491479614354855   -0.0026447878415493437
-0.005124911699173921   -0.0166671665809841   -0.002641513598221403
-0.007362794403131847   -0.03183421792947934   -0.0036485333429012237
0.0005354071130451104   -0.031735536159478335   -0.003502178005882113
0.0006531275076087107   -0.016491479614354855   -0.0026447878415493437
0.000555428444978435   -0.03174107377414142   -0.003484736154689604
-0.005124911699173921   -0.0166671665809841   -0.002641513598221403
0.0006887484828362908   -0.01648632383968084   -0.0026521032789639746
0.000555428444978435   -0.03174107377414142   -0.003484736154689604
0.0006531275076087107   -0.016491479614354855   -0.0026447878415493437
-0.005124911699173921   -0.0166671665809841   -0.002641513598221403
0.000555428444978435   -0.03174107377414142   -0.003484736154689604
-0.007341879800611058   -0.03192676175031904   -0.0035145838450088263
-0.007362794403131847   -0.03183421792947934   -0.0036485333429012237
-0.005124911699173921   -0.0166671665809841   -0.002641513598221403
0.000555428444978435   -0.03174107377414142   -0.003484736154689604
-0.007362794403131847   -0.03183421792947934   -0.0036485333429012237
0.0006531275076087107   -0.016491479614354855   -0.0026447878415493437
-0.005124911699173921   -0.0166671665809841   -0.002641513598221403
-0.007341879800611058   -0.03192676175031904   -0.0035145838450088263
0.0006887484828362908   -0.01648632383968084   -0.0026521032789639746
-0.005067032874938228   -0.016664941578778823   -0.0025007717098074252
-0.007341879800611058   -0.03192676175031904   -0.0035145838450088263
0.000555428444978435   -0.03174107377414142   -0.003484736154689604
0.0006887484828362908   -0.01648632383968084   -0.0026521032789639746
0.0005694121428028614   -0.0316808159084289   -0.0034864768508773855
-0.005067032874938228   -0.016664941578778823   -0.0025007717098074252
0.0007270753704805325   -0.01638699653542754   -0.0026785556964158386
0.0005694121428028614   -0.0316808159084289   -0.0034864768508773855
0.0006887484828362908   -0.01648632383968084   -0.0026521032789639746
-0.005067032874938228   -0.016664941578778823   -0.0025007717098074252
0.0005694121428028614   -0.0316808159084289   -0.0034864768508773855
-0.007306414444545774   -0.031955537613238855   -0.0033991424429145566
-0.007341879800611058   -0.03192676175031904   -0.0035145838450088263
-0.005067032874938228   -0.016664941578778823   -0.0025007717098074252
0.0005694121428028614   -0.0316808159084289   -0.0034864768508773855
-0.007341879800611058   -0.03192676175031904   -0.0035145838450088263
0.0006887484828362908   -0.01648632383968084   -0.0026521032789639746
0.0005994851496429413   -0.01640525948422789   -0.0026563096507656874
0.0005032123165334512   -0.03166517185925773   -0.003537697363578446
0.0067515507474646625   -0.016673310659085474   -0.0025042713165139103
0.0006531275076087107   -0.016491479614354855   -0.0026447878415493437
0.0005032123165334512   -0.03166517185925773   -0.003537697363578446
0.008721922944823048   -0.03184517049504995   -0.0034307010857119453
0.0067515507474646625   -0.016673310659085474   -0.0025042713165139103
0.008749654089574371   -0.03183560232297785   -0.0035146235994593465
0.0006531275076087107   -0.016491479614354855   -0.0026447878415493437
0.00678108517003102   -0.016672929245549334   -0.002664805788612878
0.008749654089574371   -0.03183560232297785   -0.0035146235994593465
0.0067515507474646625   -0.016673310659085474   -0.0025042713165139103
0.0006531275076087107   -0.016491479614354855   -0.0026447878415493437
0.008749654089574371   -0.03183560232297785   -0.0035146235994593465
0.0005354071130451104   -0.031735536159478335   -0.003502178005882113
0.0005032123165334512   -0.03166517185925773   -0.003537697363578446
0.0006531275076087107   -0.016491479614354855   -0.0026447878415493437
0.008749654089574371   -0.03183560232297785   -0.0035146235994593465
0.0005032123165334512   -0.03166517185925773   -0.003537697363578446
0.0067515507474646625   -0.016673310659085474   -0.0025042713165139103
0.0006531275076087107   -0.016491479614354855   -0.0026447878415493437
0.0005354071130451104   -0.031735536159478335   -0.003502178005882113
0.00678108517003102   -0.016672929245549334   -0.002664805788612878
0.0006887484828362908   -0.01648632383968084   -0.0026521032789639746
0.0005354071130451104   -0.031735536159478335   -0.003502178005882113
0.008749654089574371   -0.03183560232297785   -0.0035146235994593465
0.00678108517003102   -0.016672929245549334   -0.002664805788612878
0.008725574993847409   -0.03176254288893147   -0.003615295269400054
0.0006887484828362908   -0.01648632383968084   -0.0026521032789639746
0.006748125530479689   -0.016582903841393385   -0.0028466537765035544
0.008725574993847409   -0.03176254288893147   -0.003615295269400054
0.00678108517003102   -0.016672929245549334   -0.002664805788612878
0.0006887484828362908   -0.01648632383968084   -0.0026521032789639746
0.008725574993847409   -0.03176254288893147   -0.003615295269400054
0.000555428444978435   -0.03174107377414142   -0.003484736154689604
0.0005354071130451104   -0.031735536159478335   -0.003502178005882113
0.0006887484828362908   -0.01648632383968084   -0.0026521032789639746
0.008725574993847409   -0.03176254288893147   -0.003615295269400054
0.0005354071130451104   -0.031735536159478335   -0.003502178005882113
0.00678108517003102   -0.016672929245549334   -0.002664805788612878
0.0006887484828362908   -0.01648632383968084   -0.0026521032789639746
0.000555428444978435   -0.03174107377414142   -0.003484736154689604
0.006748125530479689   -0.016582903841393385   -0.0028466537765035544
0.0007270753704805325   -0.01638699653542754   -0.0026785556964158386
0.000555428444978435   -0.03174107377414142   -0.003484736154689604
0.008725574993847409   -0.03176254288893147   -0.003615295269400054
0.006748125530479689   -0.016582903841393385   -0.0028466537765035544
0.008690583305754139   -0.03161033155672433   -0.0037346953333602874
0.0007270753704805325   -0.01638699653542754   -0.0026785556964158386
0.0067286484331335415   -0.01637855438201706   -0.0030430927598122824
0.008690583305754139   -0.03161033155672433   -0.0037346953333602874
0.006748125530479689   -0.016582903841393385   -0.0028466537765035544
0.0007270753704805325   -0.01638699653542754   -0.0026785556964158386
0.008690583305754139   -0.03161033155672433   -0.0037346953333602874
0.0005694121428028614   -0.0316808159084289   -0.0034864768508773855
0.000555428444978435   -0.03174107377414142   -0.003484736154689604
0.0007270753704805325   -0.01638699653542754   -0.0026785556964158386
0.008690583305754139   -0.03161033155672433   -0.0037346953333602874
0.000555428444978435   -0.03174107377414142   -0.003484736154689604
0.006748125530479689   -0.016582903841393385   -0.0028466537765035544
0.0067515507474646625   -0.016673310659085474   -0.0025042713165139103
0.008721922944823048   -0.03184517049504995   -0.0034307010857119453
0.014173233702518983   -0.017171838274667395   -0.0024624882671021625
0.00678108517003102   -0.016672929245549334   -0.002664805788612878
0.008721922944823048   -0.03184517049504995   -0.0034307010857119453
0.018080808804763072   -0.0321720227710132   -0.003431571271954306
0.014173233702518983   -0.017171838274667395   -0.0024624882671021625
0.01792078114258795   -0.032116490206217194   -0.0036504873609205907
0.00678108517003102   -0.016672929245549334   -0.002664805788612878
0.013882515718470306   -0.01712550293510578   -0.0028234329558906412
0.01792078114258795   -0.032116490206217194   -0.0036504873609205907
0.014173233702518983   -0.017171838274667395   -0.0024624882671021625
0.00678108517003102   -0.016672929245549334   -0.002664805788612878
0.01792078114258795   -0.032116490206217194   -0.0036504873609205907
0.008749654089574371   -0.03183560232297785   -0.0035146235994593465
0.008721922944823048   -0.03184517049504995   -0.0034307010857119453
0.00678108517003102   -0.016672929245549334   -0.002664805788612878
0.01792078114258795   -0.032116490206217194   -0.0036504873609205907
0.008721922944823048   -0.03184517049504995   -0.0034307010857119453
0.014173233702518983   -0.017171838274667395   -0.0024624882671021625
0.00678108517003102   -0.016672929245549334   -0.002664805788612878
0.008749654089574371   -0.03183560232297785   -0.0035146235994593465
0.013882515718470306   -0.01712550293510578   -0.0028234329558906412
0.006748125530479689   -0.016582903841393385   -0.0028466537765035544
0.008749654089574371   -0.03183560232297785   -0.0035146235994593465
0.01792078114258795   -0.032116490206217194   -0.0036504873609205907
0.013882515718470306   -0.01712550293510578   -0.0028234329558906412
0.017761424951074425   -0.03200389868092024   -0.0038996049521915054
0.006748125530479689   -0.016582903841393385   -0.0028466537765035544
0.013622908262967859   -0.016986628724445264   -0.003229241711631432
0.017761424951074425   -0.03200389868092024   -0.0038996049521915054
0.013882515718470306   -0.01712550293510578   -0.0028234329558906412
0.006748125530479689   -0.016582903841393385   -0.0028466537765035544
0.017761424951074425   -0.03200389868092024   -0.0038996049521915054
0.008725574993847409   -0.03176254288893147   -0.003615295269400054
0.008749654089574371   -0.03183560232297785   -0.0035146235994593465
0.006748125530479689   -0.016582903841393385   -0.0028466537765035544
0.017761424951074425   -0.03200389868092024   -0.0038996049521915054
0.008749654089574371   -0.03183560232297785   -0.0035146235994593465
0.013882515718470306   -0.01712550293510578   -0.0028234329558906412
0.006748125530479689   -0.016582903841393385   -0.0028466537765035544
0.008725574993847409   -0.03176254288893147   -0.003615295269400054
0.013622908262967859   -0.016986628724445264   -0.003229241711631432
0.0067286484331335415   -0.01637855438201706   -0.0030430927598122824
0.008725574993847409   -0.03176254288893147   -0.003615295269400054
0.017761424951074425   -0.03200389868092024   -0.0038996049521915054
0.013622908262967859   -0.016986628724445264   -0.003229241711631432
0.017480081994405625   -0.03176715143271965   -0.004178955516963686
0.0067286484331335415   -0.01637855438201706   -0.0030430927598122824
0.013234903394583128   -0.01667713026435171   -0.0036515238354484594
0.017480081994405625   -0.03176715143271965   -0.004178955516963686
0.013622908262967859   -0.016986628724445264   -0.003229241711631432
0.0067286484331335415   -0.01637855438201706   -0.0030430927598122824
0.017480081994405625   -0.03176715143271965   -0.004178955516963686
0.008690583305754139   -0.03161033155672433   -0.0037346953333602874
0.008725574993847409   -0.03176254288893147   -0.003615295269400054
0.0067286484331335415   -0.01637855438201706   -0.0030430927598122824
0.017480081994405625   -0.03176715143271965   -0.004178955516963686
0.008725574993847409   -0.03176254288893147   -0.003615295269400054
0.013622908262967859   -0.016986628724445264   -0.003229241711631432
-0.0241101446756851   -0.032322777277831706   -0.004835870047263839
-0.02880292191968768   -0.05023890006484091   -0.005155721473058074
-0.015500053860837009   -0.03189148383514   -0.0042253113847296065
-0.024541262712535938   -0.032659341012801914   -0.004413870283794478
-0.02880292191968768   -0.05023890006484091   -0.005155721473058074
-0.01869281823425707   -0.04996416111750233   -0.004657369285932583
-0.015500053860837009   -0.03189148383514   -0.0042253113847296065
-0.01871697190503281   -0.05017627776091426   -0.004463834081351113
-0.024541262712535938   -0.032659341012801914   -0.004413870283794478
-0.015535779477622665   -0.032137822031223465   -0.003955153975603574
-0.01871697190503281   -0.05017627776091426   -0.004463834081351113
-0.015500053860837009   -0.03189148383514   -0.0042253113847296065
-0.024541262712535938   -0.032659341012801914   -0.004413870283794478
-0.01871697190503281   -0.05017627776091426   -0.004463834081351113
-0.029094284722344974   -0.05052578499153613   -0.004875108039643547
-0.02880292191968768   -0.05023890006484091   -0.005155721473058074
-0.024541262712535938   -0.032659341012801914   -0.004413870283794478
-0.01871697190503281   -0.05017627776091426   -0.004463834081351113
-0.02880292191968768   -0.05023890006484091   -0.005155721473058074
-0.015500053860837009   -0.03189148383514   -0.0042253113847296065
-0.024541262712535938   -0.032659341012801914   -0.004413870283794478
-0.029094284722344974   -0.05052578499153613   -0.004875108039643547
-0.015535779477622665   -0.032137822031223465   -0.003955153975603574
-0.02481384343660373   -0.03287024433334208   -0.004020444357309499
-0.029094284722344974   -0.05052578499153613   -0.004875108039643547
-0.01871697190503281   -0.05017627776091426   -0.004463834081351113
-0.015535779477622665   -0.032137822031223465   -0.003955153975603574
-0.01873473760572084   -0.05034430755752039   -0.004289555637051566
-0.02481384343660373   -0.03287024433334208   -0.004020444357309499
-0.01557763690813859   -0.0323091225330826   -0.003704485325556113
-0.01873473760572084   -0.05034430755752039   -0.004289555637051566
-0.015535779477622665   -0.032137822031223465   -0.003955153975603574
-0.02481384343660373   -0.03287024433334208   -0.004020444357309499
-0.01873473760572084   -0.05034430755752039   -0.004289555637051566
-0.029262288987327613   -0.05072860062997064   -0.004621350935533867
-0.029094284722344974   -0.05052578499153613   -0.004875108039643547
-0.02481384343660373   -0.03287024433334208   -0.004020444357309499
-0.01873473760572084   -0.05034430755752039   -0.004289555637051566
-0.029094284722344974   -0.05052578499153613   -0.004875108039643547
-0.015535779477622665   -0.032137822031223465   -0.003955153975603574
-0.02481384343660373   -0.03287024433334208   -0.004020444357309499
-0.029262288987327613   -0.05072860062997064   -0.004621350935533867
-0.01557763690813859   -0.0323091225330826   -0.003704485325556113
-0.02512398643507763   -0.03302160101258542   -0.0036582628770454343
-0.029262288987327613   -0.05072860062997064   -0.004621350935533867
-0.01873473760572084   -0.05034430755752039   -0.004289555637051566
-0.01557763690813859   -0.0323091225330826   -0.003704485325556113
-0.01869766470886425   -0.050482170477579566   -0.004131984561735701
-0.02512398643507763   -0.03302160101258542   -0.0036582628770454343
-0.015550277007258471   -0.0324216244437885   -0.0034691576813383317
-0.01869766470886425   -0.050482170477579566   -0.004131984561735701
-0.01557763690813859   -0.0323091225330826   -0.003704485325556113
-0.02512398643507763   -0.03302160101258542   -0.0036582628770454343
-0.01869766470886425   -0.050482170477579566   -0.004131984561735701
-0.029435479551434367   -0.0509101283435468   -0.004397632892933585
-0.029262288987327613   -0.05072860062997064   -0.004621350935533867
-0.02512398643507763   -0.03302160101258542   -0.0036582628770454343
-0.01869766470886425   -0.050482170477579566   -0.004131984561735701
-0.029262288987327613   -0.05072860062997064   -0.004621350935533867
-0.01557763690813859   -0.0323091225330826   -0.003704485325556113
-0.015500053860837009   -0.03189148383514   -0.0042253113847296065
-0.01869281823425707   -0.04996416111750233   -0.004657369285932583
-0.007379541819901456   -0.03167658278546824   -0.0038010511353783563
-0.015535779477622665   -0.032137822031223465   -0.003955153975603574
-0.01869281823425707   -0.04996416111750233   -0.004657369285932583
-0.009213470782574909   -0.04982236815493563   -0.004312238519615864
-0.007379541819901456   -0.03167658278546824   -0.0038010511353783563
-0.009197589777109928   -0.049955584570648894   -0.004184647921382814
-0.015535779477622665   -0.032137822031223465   -0.003955153975603574
-0.007362794403131847   -0.03183421792947934   -0.0036485333429012237
-0.009197589777109928   -0.049955584570648894   -0.004184647921382814
-0.007379541819901456   -0.03167658278546824   -0.0038010511353783563
-0.015535779477622665   -0.032137822031223465   -0.003955153975603574
-0.009197589777109928   -0.049955584570648894   -0.004184647921382814
-0.01871697190503281   -0.05017627776091426   -0.004463834081351113
-0.01869281823425707   -0.04996416111750233   -0.004657369285932583
-0.015535779477622665   -0.032137822031223465   -0.003955153975603574
-0.009197589777109928   -0.049955584570648894   -0.004184647921382814
-0.01869281823425707   -0.04996416111750233   -0.004657369285932583
-0.007379541819901456   -0.03167658278546824   -0.0038010511353783563
-0.015535779477622665   -0.032137822031223465   -0.003955153975603574
-0.01871697190503281   -0.05017627776091426   -0.004463834081351113
-0.007362794403131847   -0.03183421792947934   -0.0036485333429012237
-0.01557763690813859   -0.0323091225330826   -0.003704485325556113
-0.01871697190503281   -0.05017627776091426   -0.004463834081351113
-0.009197589777109928   -0.049955584570648894   -0.004184647921382814
-0.007362794403131847   -0.03183421792947934   -0.0036485333429012237
-0.009175280433806032   -0.050051871049264424   -0.004076032907964593
-0.01557763690813859   -0.0323091225330826   -0.003704485325556113
-0.007341879800611058   -0.03192676175031904   -0.0035145838450088263
-0.009175280433806032   -0.050051871049264424   -0.004076032907964593
-0.007362794403131847   -0.03183421792947934   -0.0036485333429012237
-0.01557763690813859   -0.0323091225330826   -0.003704485325556113
-0.009175280433806032   -0.050051871049264424   -0.004076032907964593
-0.01873473760572084   -0.05034430755752039   -0.004289555637051566
-0.01871697190503281   -0.05017627776091426   -0.004463834081351113
-0.01557763690813859   -0.0323091225330826   -0.003704485325556113
-0.009175280433806032   -0.050051871049264424   -0.004076032907964593
-0.01871697190503281   -0.05017627776091426   -0.004463834081351113
-0.007362794403131847   -0.03183421792947934   -0.0036485333429012237
-0.01557763690813859   -0.0323091225330826   -0.003704485325556113
-0.01873473760572084   -0.05034430755752039   -0.004289555637051566
-0.007341879800611058   -0.03192676175031904   -0.0035145838450088263
-0.015550277007258471   -0.0324216244437885   -0.0034691576813383317
-0.01873473760572084   -0.05034430755752039   -0.004289555637051566
-0.009175280433806032   -0.050051871049264424   -0.004076032907964593
-0.007341879800611058   -0.03192676175031904   -0.0035145838450088263
-0.009141225311191038   -0.050111857021620174   -0.003986701934881118
-0.015550277007258471   -0.0324216244437885   -0.0034691576813383317
-0.007306414444545774   -0.031955537613238855   -0.0033991424429145566
-0.009141225311191038   -0.050111857021620174   -0.003986701934881118
-0.007341879800611058   -0.03192676175031904   -0.0035145838450088263
-0.015550277007258471   -0.0324216244437885   -0.0034691576813383317
-0.009141225311191038   -0.050111857021620174   -0.003986701934881118
-0.01869766470886425   -0.050482170477579566   -0.004131984561735701
-0.01873473760572084   -0.05034430755752039   -0.004289555637051566
-0.015550277007258471   -0.0324216244437885   -0.0034691576813383317
-0.009141225311191038   -0.050111857021620174   -0.003986701934881118
-0.01873473760572084   -0.05034430755752039   -0.004289555637051566
-0.007341879800611058   -0.03192676175031904   -0.0035145838450088263
-0.007379541819901456   -0.03167658278546824   -0.0038010511353783563
-0.009213470782574909   -0.04982236815493563   -0.004312238519615864
0.0005032123165334512   -0.03166517185925773   -0.003537697363578446
-0.007362794403131847   -0.03183421792947934   -0.0036485333429012237
-0.009213470782574909   -0.04982236815493563   -0.004312238519615864
8.857736924300699e-06   -0.04979811088751816   -0.004110910688126707
0.0005032123165334512   -0.03166517185925773   -0.003537697363578446
4.01552309037297e-05   -0.049852051862178594   -0.004049757645752085
-0.007362794403131847   -0.03183421792947934   -0.0036485333429012237
0.0005354071130451104   -0.031735536159478335   -0.003502178005882113
4.01552309037297e-05   -0.049852051862178594   -0.004049757645752085
0.0005032123165334512   -0.03166517185925773   -0.003537697363578446
-0.007362794403131847   -0.03183421792947934   -0.0036485333429012237
4.01552309037297e-05   -0.049852051862178594   -0.004049757645752085
-0.009197589777109928   -0.049955584570648894   -0.004184647921382814
-0.009213470782574909   -0.04982236815493563   -0.004312238519615864
-0.007362794403131847   -0.03183421792947934   -0.0036485333429012237
4.01552309037297e-05   -0.049852051862178594   -0.004049757645752085
-0.009213470782574909   -0.04982236815493563   -0.004312238519615864
0.0005032123165334512   -0.03166517185925773   -0.003537697363578446
-0.007362794403131847   -0.03183421792947934   -0.0036485333429012237
-0.009197589777109928   -0.049955584570648894   -0.004184647921382814
0.0005354071130451104   -0.031735536159478335   -0.003502178005882113
-0.007341879800611058   -0.03192676175031904   -0.0035145838450088263
-0.009197589777109928   -0.049955584570648894   -0.004184647921382814
4.01552309037297e-05   -0.049852051862178594   -0.004049757645752085
0.0005354071130451104   -0.031735536159478335   -0.003502178005882113
6.196808233707374e-05   -0.049868810300076345   -0.004007333921682242
-0.007341879800611058   -0.03192676175031904   -0.0035145838450088263
0.000555428444978435   -0.03174107377414142   -0.003484736154689604
6.196808233707374e-05   -0.049868810300076345   -0.004007333921682242
0.0005354071130451104   -0.031735536159478335   -0.003502178005882113
-0.007341879800611058   -0.03192676175031904   -0.0035145838450088263
6.196808233707374e-05   -0.049868810300076345   -0.004007333921682242
-0.009175280433806032   -0.050051871049264424   -0.004076032907964593
-0.009197589777109928   -0.049955584570648894   -0.004184647921382814
-0.007341879800611058   -0.03192676175031904   -0.0035145838450088263
6.196808233707374e-05   -0.049868810300076345   -0.004007333921682242
-0.009197589777109928   -0.049955584570648894   -0.004184647921382814
0.0005354071130451104   -0.031735536159478335   -0.003502178005882113
-0.007341879800611058   -0.03192676175031904   -0.0035145838450088263
-0.009175280433806032   -0.050051871049264424   -0.004076032907964593
0.000555428444978435   -0.03174107377414142   -0.003484736154689604
-0.007306414444545774   -0.031955537613238855   -0.0033991424429145566
-0.009175280433806032   -0.050051871049264424   -0.004076032907964593
6.196808233707374e-05   -0.049868810300076345   -0.004007333921682242
0.000555428444978435   -0.03174107377414142   -0.003484736154689604
7.519205128691625e-05   -0.04984787773290815   -0.003984473200279828
-0.007306414444545774   -0.031955537613238855   -0.0033991424429145566
0.0005694121428028614   -0.0316808159084289   -0.0034864768508773855
7.519205128691625e-05   -0.04984787773290815   -0.003984473200279828
0.000555428444978435   -0.03174107377414142   -0.003484736154689604
-0.007306414444545774   -0.031955537613238855   -0.0033991424429145566
7.519205128691625e-05   -0.04984787773290815   -0.003984473200279828
-0.009141225311191038   -0.050111857021620174   -0.003986701934881118
-0.009175280433806032   -0.050051871049264424   -0.004076032907964593
-0.007306414444545774   -0.031955537613238855   -0.0033991424429145566
7.519205128691625e-05   -0.04984787773290815   -0.003984473200279828
-0.009175280433806032   -0.050051871049264424   -0.004076032907964593
0.000555428444978435   -0.03174107377414142   -0.003484736154689604
0.0005032123165334512   -0.03166517185925773   -0.003537697363578446
8.857736924300699e-06   -0.04979811088751816   -0.004110910688126707
0.008721922944823048   -0.03184517049504995   -0.0034307010857119453
0.0005354071130451104   -0.031735536159478335   -0.003502178005882113
8.857736924300699e-06   -0.04979811088751816   -0.004110910688126707
0.00954822953425227   -0.0498813886452816   -0.004052513309616276
0.008721922944823048   -0.03184517049504995   -0.0034307010857119453
0.009586764691275299   -0.049860713678713774   -0.0040592109506119725
0.0005354071130451104   -0.031735536159478335   -0.003502178005882113
0.008749654089574371   -0.03183560232297785   -0.0035146235994593465
0.009586764691275299   -0.049860713678713774   -0.0040592109506119725
0.008721922944823048   -0.03184517049504995   -0.0034307010857119453
0.0005354071130451104   -0.031735536159478335   -0.003502178005882113
0.009586764691275299   -0.049860713678713774   -0.0040592109506119725
4.01552309037297e-05   -0.049852051862178594   -0.004049757645752085
8.857736924300699e-06   -0.04979811088751816   -0.004110910688126707
0.0005354071130451104   -0.031735536159478335   -0.003502178005882113
0.009586764691275299   -0.049860713678713774   -0.0040592109506119725
8.857736924300699e-06   -0.04979811088751816   -0.004110910688126707
0.008721922944823048   -0.03184517049504995   -0.0034307010857119453
0.0005354071130451104   -0.031735536159478335   -0.003502178005882113
4.01552309037297e-05   -0.049852051862178594   -0.004049757645752085
0.008749654089574371   -0.03183560232297785   -0.0035146235994593465
0.000555428444978435   -0.03174107377414142   -0.003484736154689604
4.01552309037297e-05   -0.049852051862178594   -0.004049757645752085
0.009586764691275299   -0.049860713678713774   -0.0040592109506119725
0.008749654089574371   -0.03183560232297785   -0.0035146235994593465
0.009588003437484987   -0.049805639347703996   -0.004083633978763328
0.000555428444978435   -0.03174107377414142   -0.003484736154689604
0.008725574993847409   -0.03176254288893147   -0.003615295269400054
0.009588003437484987   -0.049805639347703996   -0.004083633978763328
0.008749654089574371   -0.03183560232297785   -0.0035146235994593465
0.000555428444978435   -0.03174107377414142   -0.003484736154689604
0.009588003437484987   -0.049805639347703996   -0.004083633978763328
6.196808233707374e-05   -0.049868810300076345   -0.004007333921682242
4.01552309037297e-05   -0.049852051862178594   -0.004049757645752085
0.000555428444978435   -0.03174107377414142   -0.003484736154689604
0.009588003437484987   -0.049805639347703996   -0.004083633978763328
4.01552309037297e-05   -0.049852051862178594   -0.004049757645752085
0.008749654089574371   -0.03183560232297785   -0.0035146235994593465
0.000555428444978435   -0.03174107377414142   -0.003484736154689604
6.196808233707374e-05   -0.049868810300076345   -0.004007333921682242
0.008725574993847409   -0.03176254288893147   -0.003615295269400054
0.0005694121428028614   -0.0316808159084289   -0.0034864768508773855
6.196808233707374e-05   -0.049868810300076345   -0.004007333921682242
0.009588003437484987   -0.049805639347703996   -0.004083633978763328
0.008725574993847409   -0.03176254288893147   -0.003615295269400054
0.009565365753909035   -0.04970232085378295   -0.00412645173082605
0.0005694121428028614   -0.0316808159084289   -0.0034864768508773855
0.008690583305754139   -0.03161033155672433   -0.0037346953333602874
0.009565365753909035   -0.04970232085378295   -0.00412645173082605
0.008725574993847409   -0.03176254288893147   -0.003615295269400054
0.0005694121428028614   -0.0316808159084289   -0.0034864768508773855
0.009565365753909035   -0.04970232085378295   -0.00412645173082605
7.519205128691625e-05   -0.04984787773290815   -0.003984473200279828
6.196808233707374e-05   -0.049868810300076345   -0.004007333921682242
0.0005694121428028614   -0.0316808159084289   -0.0034864768508773855
0.009565365753909035   -0.04970232085378295   -0.00412645173082605
6.196808233707374e-05   -0.049868810300076345   -0.004007333921682242
0.008725574993847409   -0.03176254288893147   -0.003615295269400054
0.008721922944823048   -0.03184517049504995   -0.0034307010857119453
0.00954822953425227   -0.0498813886452816   -0.004052513309616276
0.018080808804763072   -0.0321720227710132   -0.003431571271954306
0.008749654089574371   -0.03183560232297785   -0.0035146235994593465
0.00954822953425227   -0.0498813886452816   -0.004052513309616276
0.02008221514066884   -0.05003472385772467   -0.004105539333139882
0.018080808804763072   -0.0321720227710132   -0.003431571271954306
0.02006098931526145   -0.0499635792818206   -0.004185637215677506
0.008749654089574371   -0.03183560232297785   -0.0035146235994593465
0.01792078114258795   -0.032116490206217194   -0.0036504873609205907
0.02006098931526145   -0.0499635792818206   -0.004185637215677506
0.018080808804763072   -0.0321720227710132   -0.003431571271954306
0.008749654089574371   -0.03183560232297785   -0.0035146235994593465
0.02006098931526145   -0.0499635792818206   -0.004185637215677506
0.009586764691275299   -0.049860713678713774   -0.0040592109506119725
0.00954822953425227   -0.0498813886452816   -0.004052513309616276
0.008749654089574371   -0.03183560232297785   -0.0035146235994593465
0.02006098931526145   -0.0499635792818206   -0.004185637215677506
0.00954822953425227   -0.0498813886452816   -0.004052513309616276
0.018080808804763072   -0.0321720227710132   -0.003431571271954306
0.008749654089574371   -0.03183560232297785   -0.0035146235994593465
0.009586764691275299   -0.049860713678713774   -0.0040592109506119725
0.01792078114258795   -0.032116490206217194   -0.0036504873609205907
0.008725574993847409   -0.03176254288893147   -0.003615295269400054
0.009586764691275299   -0.049860713678713774   -0.0040592109506119725
0.02006098931526145   -0.0499635792818206   -0.004185637215677506
0.01792078114258795   -0.032116490206217194   -0.0036504873609205907
0.02000837973121654   -0.0498736005055421   -0.004294481641060717
0.008725574993847409   -0.03176254288893147   -0.003615295269400054
0.017761424951074425   -0.03200389868092024   -0.0038996049521915054
0.02000837973121654   -0.0498736005055421   -0.004294481641060717
0.01792078114258795   -0.032116490206217194   -0.0036504873609205907
0.008725574993847409   -0.03176254288893147   -0.003615295269400054
0.02000837973121654   -0.0498736005055421   -0.004294481641060717
0.009588003437484987   -0.049805639347703996   -0.004083633978763328
0.009586764691275299   -0.049860713678713774   -0.0040592109506119725
0.008725574993847409   -0.03176254288893147   -0.003615295269400054
0.02000837973121654   -0.0498736005055421   -0.004294481641060717
0.009586764691275299   -0.049860713678713774   -0.0040592109506119725
0.01792078114258795   -0.032116490206217194   -0.0036504873609205907
0.008725574993847409   -0.03176254288893147   -0.003615295269400054
0.009588003437484987   -0.049805639347703996   -0.004083633978763328
0.017761424951074425   -0.03200389868092024   -0.0038996049521915054
0.008690583305754139   -0.03161033155672433   -0.0037346953333602874
0.009588003437484987   -0.049805639347703996   -0.004083633978763328
0.02000837973121654   -0.0498736005055421   -0.004294481641060717
0.017761424951074425   -0.03200389868092024   -0.0038996049521915054
0.01986876783396537   -0.049701547904400636   -0.004431864414123378
0.008690583305754139   -0.03161033155672433   -0.0037346953333602874
0.017480081994405625   -0.03176715143271965   -0.004178955516963686
0.01986876783396537   -0.049701547904400636   -0.004431864414123378
0.017761424951074425   -0.03200389868092024   -0.0038996049521915054
0.008690583305754139   -0.03161033155672433   -0.0037346953333602874
0.01986876783396537   -0.049701547904400636   -0.004431864414123378
0.009565365753909035   -0.04970232085378295   -0.00412645173082605
0.009588003437484987   -0.049805639347703996   -0.004083633978763328
0.008690583305754139   -0.03161033155672433   -0.0037346953333602874
0.01986876783396537   -0.049701547904400636   -0.004431864414123378
0.009588003437484987   -0.049805639347703996   -0.004083633978763328
0.017761424951074425   -0.03200389868092024   -0.0038996049521915054
-0.02880292191968768   -0.05023890006484091   -0.005155721473058074
-0.03164923702932723   -0.06975278210542828   -0.005248372385265823
-0.01869281823425707   -0.04996416111750233   -0.004657369285932583
-0.029094284722344974   -0.05052578499153613   -0.004875108039643547
-0.03164923702932723   -0.06975278210542828   -0.005248372385265823
-0.02079131157680913   -0.06964052697698621   -0.004850936842533906
-0.01869281823425707   -0.04996416111750233   -0.004657369285932583
-0.02078442507995624   -0.06982165167991529   -0.00473211983384952
-0.029094284722344974   -0.05052578499153613   -0.004875108039643547
-0.01871697190503281   -0.05017627776091426   -0.004463834081351113
-0.02078442507995624   -0.06982165167991529   -0.00473211983384952
-0.01869281823425707   -0.04996416111750233   -0.004657369285932583
-0.029094284722344974   -0.05052578499153613   -0.004875108039643547
-0.02078442507995624   -0.06982165167991529   -0.00473211983384952
-0.03178632985554227   -0.06999618970690705   -0.005103313523876268
-0.03164923702932723   -0.06975278210542828   -0.005248372385265823
-0.029094284722344974   -0.05052578499153613   -0.004875108039643547
-0.02078442507995624   -0.06982165167991529   -0.00473211983384952
-0.03164923702932723   -0.06975278210542828   -0.005248372385265823
-0.01869281823425707   -0.04996416111750233   -0.004657369285932583
-0.029094284722344974   -0.05052578499153613   -0.004875108039643547
-0.03178632985554227   -0.06999618970690705   -0.005103313523876268
-0.01871697190503281   -0.05017627776091426   -0.004463834081351113
-0.029262288987327613   -0.05072860062997064   -0.004621350935533867
-0.03178632985554227   -0.06999618970690705   -0.005103313523876268
-0.02078442507995624   -0.06982165167991529   -0.00473211983384952
-0.01871697190503281   -0.05017627776091426   -0.004463834081351113
-0.020757943115665364   -0.06998859152094673   -0.004633027216129743
-0.029262288987327613   -0.05072860062997064   -0.004621350935533867
-0.01873473760572084   -0.05034430755752039   -0.004289555637051566
-0.020757943115665364   -0.06998859152094673   -0.004633027216129743
-0.01871697190503281   -0.05017627776091426   -0.004463834081351113
-0.029262288987327613   -0.05072860062997064   -0.004621350935533867
-0.020757943115665364   -0.06998859152094673   -0.004633027216129743
-0.03183112131443861   -0.07019453938139131   -0.004986649027161845
-0.03178632985554227   -0.06999618970690705   -0.005103313523876268
-0.029262288987327613   -0.05072860062997064   -0.004621350935533867
-0.020757943115665364   -0.06998859152094673   -0.004633027216129743
-0.03178632985554227   -0.06999618970690705   -0.005103313523876268
-0.01871697190503281   -0.05017627776091426   -0.004463834081351113
-0.029262288987327613   -0.05072860062997064   -0.004621350935533867
-0.03183112131443861   -0.07019453938139131   -0.004986649027161845
-0.01873473760572084   -0.05034430755752039   -0.004289555637051566
-0.029435479551434367   -0.0509101283435468   -0.004397632892933585
-0.03183112131443861   -0.07019453938139131   -0.004986649027161845
-0.020757943115665364   -0.06998859152094673   -0.004633027216129743
-0.01873473760572084   -0.05034430755752039   -0.004289555637051566
-0.020690583680223886   -0.07015405775646832   -0.004552289485211155
-0.029435479551434367   -0.0509101283435468   -0.004397632892933585
-0.01869766470886425   -0.050482170477579566   -0.004131984561735701
-0.020690583680223886   -0.07015405775646832   -0.004552289485211155
-0.01873473760572084   -0.05034430755752039   -0.004289555637051566
-0.029435479551434367   -0.0509101283435468   -0.004397632892933585
-0.020690583680223886   -0.07015405775646832   -0.004552289485211155
-0.03184737969960637   -0.07040973139337257   -0.004900803520403976
-0.03183112131443861   -0.07019453938139131   -0.004986649027161845
-0.029435479551434367   -0.0509101283435468   -0.004397632892933585
-0.020690583680223886   -0.07015405775646832   -0.004552289485211155
-0.03183112131443861   -0.07019453938139131   -0.004986649027161845
-0.01873473760572084   -0.05034430755752039   -0.004289555637051566
-0.01869281823425707   -0.04996416111750233   -0.004657369285932583
-0.02079131157680913   -0.06964052697698621   -0.004850936842533906
-0.009213470782574909   -0.04982236815493563   -0.004312238519615864
-0.01871697190503281   -0.05017627776091426   -0.004463834081351113
-0.02079131157680913   -0.06964052697698621   -0.004850936842533906
-0.010704734324962243   -0.06957639566396832   -0.004580319445745748
-0.009213470782574909   -0.04982236815493563   -0.004312238519615864
-0.01066840889842588   -0.06968613536483537   -0.004476943314657468
-0.01871697190503281   -0.05017627776091426   -0.004463834081351113
-0.009197589777109928   -0.049955584570648894   -0.004184647921382814
-0.01066840889842588   -0.06968613536483537   -0.004476943314657468
-0.009213470782574909   -0.04982236815493563   -0.004312238519615864
-0.01871697190503281   -0.05017627776091426   -0.004463834081351113
-0.01066840889842588   -0.06968613536483537   -0.004476943314657468
-0.02078442507995624   -0.06982165167991529   -0.00473211983384952
-0.02079131157680913   -0.06964052697698621   -0.004850936842533906
-0.01871697190503281   -0.05017627776091426   -0.004463834081351113
-0.01066840889842588   -0.06968613536483537   -0.004476943314657468
-0.02079131157680913   -0.06964052697698621   -0.004850936842533906
-0.009213470782574909   -0.04982236815493563   -0.004312238519615864
-0.01871697190503281   -0.05017627776091426   -0.004463834081351113
-0.02078442507995624   -0.06982165167991529   -0.00473211983384952
-0.009197589777109928   -0.049955584570648894   -0.004184647921382814
-0.01873473760572084   -0.05034430755752039   -0.004289555637051566
-0.02078442507995624   -0.06982165167991529   -0.00473211983384952
-0.01066840889842588   -0.06968613536483537   -0.004476943314657468
-0.009197589777109928   -0.049955584570648894   -0.004184647921382814
-0.010623537025525012   -0.06978674760367087   -0.00439331470544252
-0.01873473760572084   -0.05034430755752039   -0.004289555637051566
-0.009175280433806032   -0.050051871049264424   -0.004076032907964593
-0.010623537025525012   -0.06978674760367087   -0.00439331470544252
-0.009197589777109928   -0.049955584570648894   -0.004184647921382814
-0.01873473760572084   -0.05034430755752039   -0.004289555637051566
-0.010623537025525012   -0.06978674760367087   -0.00439331470544252
-0.020757943115665364   -0.06998859152094673   -0.004633027216129743
-0.02078442507995624   -0.06982165167991529   -0.00473211983384952
-0.01873473760572084   -0.05034430755752039   -0.004289555637051566
-0.010623537025525012   -0.06978674760367087   -0.00439331470544252
-0.02078442507995624   -0.06982165167991529   -0.00473211983384952
-0.009197589777109928   -0.049955584570648894   -0.004184647921382814
-0.01873473760572084   -0.05034430755752039   -0.004289555637051566
-0.020757943115665364   -0.06998859152094673   -0.004633027216129743
-0.009175280433806032   -0.050051871049264424   -0.004076032907964593
-0.01869766470886425   -0.050482170477579566   -0.004131984561735701
-0.020757943115665364   -0.06998859152094673   -0.004633027216129743
-0.010623537025525012   -0.06978674760367087   -0.00439331470544252
-0.009175280433806032   -0.050051871049264424   -0.004076032907964593
-0.010569369731198265   -0.06987856066681188   -0.004329901749506744
-0.01869766470886425   -0.050482170477579566   -0.004131984561735701
-0.009141225311191038   -0.050111857021620174   -0.003986701934881118
-0.010569369731198265   -0.06987856066681188   -0.004329901749506744
-0.009175280433806032   -0.050051871049264424   -0.004076032907964593
-0.01869766470886425   -0.050482170477579566   -0.004131984561735701
-0.010569369731198265   -0.06987856066681188   -0.004329901749506744
-0.020690583680223886   -0.07015405775646832   -0.004552289485211155
-0.020757943115665364   -0.06998859152094673   -0.004633027216129743
-0.01869766470886425   -0.050482170477579566   -0.004131984561735701
-0.010569369731198265   -0.06987856066681188   -0.004329901749506744
-0.020757943115665364   -0.06998859152094673   -0.004633027216129743
-0.009175280433806032   -0.050051871049264424   -0.004076032907964593
-0.009213470782574909   -0.04982236815493563   -0.004312238519615864
-0.010704734324962243   -0.06957639566396832   -0.004580319445745748
8.857736924300699e-06   -0.04979811088751816   -0.004110910688126707
-0.009197589777109928   -0.049955584570648894   -0.004184647921382814
-0.010704734324962243   -0.06957639566396832   -0.004580319445745748
-0.000891016584896495   -0.06953985036953987   -0.004439997352187476
8.857736924300699e-06   -0.04979811088751816   -0.004110910688126707
-0.0008397657730384843   -0.06957693840999983   -0.004353079602246799
-0.009197589777109928   -0.049955584570648894   -0.004184647921382814
4.01552309037297e-05   -0.049852051862178594   -0.004049757645752085
-0.0008397657730384843   -0.06957693840999983   -0.004353079602246799
8.857736924300699e-06   -0.04979811088751816   -0.004110910688126707
-0.009197589777109928   -0.049955584570648894   -0.004184647921382814
-0.0008397657730384843   -0.06957693840999983   -0.004353079602246799
-0.01066840889842588   -0.06968613536483537   -0.004476943314657468
-0.010704734324962243   -0.06957639566396832   -0.004580319445745748
-0.009197589777109928   -0.049955584570648894   -0.004184647921382814
-0.0008397657730384843   -0.06957693840999983   -0.004353079602246799
-0.010704734324962243   -0.06957639566396832   -0.004580319445745748
8.857736924300699e-06   -0.04979811088751816   -0.004110910688126707
-0.009197589777109928   -0.049955584570648894   -0.004184647921382814
-0.01066840889842588   -0.06968613536483537   -0.004476943314657468
4.01552309037297e-05   -0.049852051862178594   -0.004049757645752085
-0.009175280433806032   -0.050051871049264424   -0.004076032907964593
-0.01066840889842588   -0.06968613536483537   -0.004476943314657468
-0.0008397657730384843   -0.06957693840999983   -0.004353079602246799
4.01552309037297e-05   -0.049852051862178594   -0.004049757645752085
-0.000795555476702419   -0.0696042599964748   -0.004285733370134671
-0.009175280433806032   -0.050051871049264424   -0.004076032907964593
6.196808233707374e-05   -0.049868810300076345   -0.004007333921682242
-0.000795555476702419   -0.0696042599964748   -0.004285733370134671
4.01552309037297e-05   -0.049852051862178594   -0.004049757645752085
-0.009175280433806032   -0.050051871049264424   -0.004076032907964593
-0.000795555476702419   -0.0696042599964748   -0.004285733370134671
-0.010623537025525012   -0.06978674760367087   -0.00439331470544252
-0.01066840889842588   -0.06968613536483537   -0.004476943314657468
-0.009175280433806032   -0.050051871049264424   -0.004076032907964593
-0.000795555476702419   -0.0696042599964748   -0.004285733370134671
-0.01066840889842588   -0.06968613536483537   -0.004476943314657468
4.01552309037297e-05   -0.049852051862178594   -0.004049757645752085
-0.009175280433806032   -0.050051871049264424   -0.004076032907964593
-0.010623537025525012   -0.06978674760367087   -0.00439331470544252
6.196808233707374e-05   -0.049868810300076345   -0.004007333921682242
-0.009141225311191038   -0.050111857021620174   -0.003986701934881118
-0.010623537025525012   -0.06978674760367087   -0.00439331470544252
-0.000795555476702419   -0.0696042599964748   -0.004285733370134671
6.196808233707374e-05   -0.049868810300076345   -0.004007333921682242
-0.0007621942572224971   -0.06962167926867871   -0.004238675802187264
-0.009141225311191038   -0.050111857021620174   -0.003986701934881118
7.519205128691625e-05   -0.04984787773290815   -0.003984473200279828
-0.0007621942572224971   -0.06962167926867871   -0.004238675802187264
6.196808233707374e-05   -0.049868810300076345   -0.004007333921682242
-0.009141225311191038   -0.050111857021620174   -0.003986701934881118
-0.0007621942572224971   -0.06962167926867871   -0.004238675802187264
-0.010569369731198265   -0.06987856066681188   -0.004329901749506744
-0.010623537025525012   -0.06978674760367087   -0.00439331470544252
-0.009141225311191038   -0.050111857021620174   -0.003986701934881118
-0.0007621942572224971   -0.06962167926867871   -0.004238675802187264
-0.010623537025525012   -0.06978674760367087   -0.00439331470544252
6.196808233707374e-05   -0.049868810300076345   -0.004007333921682242
8.857736924300699e-06   -0.04979811088751816   -0.004110910688126707
-0.000891016584896495   -0.06953985036953987   -0.004439997352187476
0.00954822953425227   -0.0498813886452816   -0.004052513309616276
4.01552309037297e-05   -0.049852051862178594   -0.004049757645752085
-0.000891016584896495   -0.06953985036953987   -0.004439997352187476
0.00922252082991404   -0.06952460577490542   -0.004431145412281589
0.00954822953425227   -0.0498813886452816   -0.004052513309616276
0.009290745599393304   -0.06949136154543423   -0.004361518224331819
4.01552309037297e-05   -0.049852051862178594   -0.004049757645752085
0.009586764691275299   -0.049860713678713774   -0.0040592109506119725
0.009290745599393304   -0.06949136154543423   -0.004361518224331819
0.00954822953425227   -0.0498813886452816   -0.004052513309616276
4.01552309037297e-05   -0.049852051862178594   -0.004049757645752085
0.009290745599393304   -0.06949136154543423   -0.004361518224331819
-0.0008397657730384843   -0.06957693840999983   -0.004353079602246799
-0.000891016584896495   -0.06953985036953987   -0.004439997352187476
4.01552309037297e-05   -0.049852051862178594   -0.004049757645752085
0.009290745599393304   -0.06949136154543423   -0.004361518224331819
-0.000891016584896495   -0.06953985036953987   -0.004439997352187476
0.00954822953425227   -0.0498813886452816   -0.004052513309616276
4.01552309037297e-05   -0.049852051862178594   -0.004049757645752085
-0.0008397657730384843   -0.06957693840999983   -0.004353079602246799
0.009586764691275299   -0.049860713678713774   -0.0040592109506119725
6.196808233707374e-05   -0.049868810300076345   -0.004007333921682242
-0.0008397657730384843   -0.06957693840999983   -0.004353079602246799
0.009290745599393304   -0.06949136154543423   -0.004361518224331819
0.009586764691275299   -0.049860713678713774   -0.0040592109506119725
0.009335864648251403   -0.06945236306810994   -0.004310906086017968
6.196808233707374e-05   -0.049868810300076345   -0.004007333921682242
0.009588003437484987   -0.049805639347703996   -0.004083633978763328
0.009335864648251403   -0.06945236306810994   -0.004310906086017968
0.009586764691275299   -0.049860713678713774   -0.0040592109506119725
6.196808233707374e-05   -0.049868810300076345   -0.004007333921682242
0.009335864648251403   -0.06945236306810994   -0.004310906086017968
-0.000795555476702419   -0.0696042599964748   -0.004285733370134671
-0.0008397657730384843   -0.06957693840999983   -0.004353079602246799
6.196808233707374e-05   -0.049868810300076345   -0.004007333921682242
0.009335864648251403   -0.06945236306810994   -0.004310906086017968
-0.0008397657730384843   -0.06957693840999983   -0.004353079602246799
0.009586764691275299   -0.049860713678713774   -0.0040592109506119725
6.196808233707374e-05   -0.049868810300076345   -0.004007333921682242
-0.000795555476702419   -0.0696042599964748   -0.004285733370134671
0.009588003437484987   -0.049805639347703996   -0.004083633978763328
7.519205128691625e-05   -0.04984787773290815   -0.003984473200279828
-0.000795555476702419   -0.0696042599964748   -0.004285733370134671
0.009335864648251403   -0.06945236306810994   -0.004310906086017968
0.009588003437484987   -0.049805639347703996   -0.004083633978763328
0.009343898122494051   -0.06939473788371511   -0.004278915726228574
7.519205128691625e-05   -0.04984787773290815   -0.003984473200279828
0.009565365753909035   -0.04970232085378295   -0.00412645173082605
0.009343898122494051   -0.06939473788371511   -0.004278915726228574
0.009588003437484987   -0.049805639347703996   -0.004083633978763328
7.519205128691625e-05   -0.04984787773290815   -0.003984473200279828
0.009343898122494051   -0.06939473788371511   -0.004278915726228574
-0.0007621942572224971   -0.06962167926867871   -0.004238675802187264
-0.000795555476702419   -0.0696042599964748   -0.004285733370134671
7.519205128691625e-05   -0.04984787773290815   -0.003984473200279828
0.009343898122494051   -0.06939473788371511   -0.004278915726228574
-0.000795555476702419   -0.0696042599964748   -0.004285733370134671
0.009588003437484987   -0.049805639347703996   -0.004083633978763328
0.00954822953425227   -0.0498813886452816   -0.004052513309616276
0.00922252082991404   -0.06952460577490542   -0.004431145412281589
0.02008221514066884   -0.05003472385772467   -0.004105539333139882
0.009586764691275299   -0.049860713678713774   -0.0040592109506119725
0.00922252082991404   -0.06952460577490542   -0.004431145412281589
0.020183764912845625   -0.06950388694985231   -0.004540351346253099
0.02008221514066884   -0.05003472385772467   -0.004105539333139882
0.020317897469132946   -0.06941510637509521   -0.004483813550407937
0.009586764691275299   -0.049860713678713774   -0.0040592109506119725
0.02006098931526145   -0.0499635792818206   -0.004185637215677506
0.020317897469132946   -0.06941510637509521   -0.004483813550407937
0.02008221514066884   -0.05003472385772467   -0.004105539333139882
0.009586764691275299   -0.049860713678713774   -0.0040592109506119725
0.020317897469132946   -0.06941510637509521   -0.004483813550407937
0.009290745599393304   -0.06949136154543423   -0.004361518224331819
0.00922252082991404   -0.06952460577490542   -0.004431145412281589
0.009586764691275299   -0.049860713678713774   -0.0040592109506119725
0.020317897469132946   -0.06941510637509521   -0.004483813550407937
0.00922252082991404   -0.06952460577490542   -0.004431145412281589
0.02008221514066884   -0.05003472385772467   -0.004105539333139882
0.009586764691275299   -0.049860713678713774   -0.0040592109506119725
0.009290745599393304   -0.06949136154543423   -0.004361518224331819
0.02006098931526145   -0.0499635792818206   -0.004185637215677506
0.009588003437484987   -0.049805639347703996   -0.004083633978763328
0.009290745599393304   -0.06949136154543423   -0.004361518224331819
0.020317897469132946   -0.06941510637509521   -0.004483813550407937
0.02006098931526145   -0.0499635792818206   -0.004185637215677506
0.020387928280923878   -0.06934484630535145   -0.004456151921543526
0.009588003437484987   -0.049805639347703996   -0.004083633978763328
0.02000837973121654   -0.0498736005055421   -0.004294481641060717
0.020387928280923878   -0.06934484630535145   -0.004456151921543526
0.02006098931526145   -0.0499635792818206   -0.004185637215677506
0.009588003437484987   -0.049805639347703996   -0.004083633978763328
0.020387928280923878   -0.06934484630535145   -0.004456151921543526
0.009335864648251403   -0.06945236306810994   -0.004310906086017968
0.009290745599393304   -0.06949136154543423   -0.004361518224331819
0.009588003437484987   -0.049805639347703996   -0.004083633978763328
0.020387928280923878   -0.06934484630535145   -0.004456151921543526
0.009290745599393304   -0.06949136154543423   -0.004361518224331819
0.02006098931526145   -0.0499635792818206   -0.004185637215677506
0.009588003437484987   -0.049805639347703996   -0.004083633978763328
0.009335864648251403   -0.06945236306810994   -0.004310906086017968
0.02000837973121654   -0.0498736005055421   -0.004294481641060717
0.009565365753909035   -0.04970232085378295   -0.00412645173082605
0.009335864648251403   -0.06945236306810994   -0.004310906086017968
0.020387928280923878   -0.06934484630535145   -0.004456151921543526
0.02000837973121654   -0.0498736005055421   -0.004294481641060717
0.020402879772206627   -0.06923165163243918   -0.004457857788514648
0.009565365753909035   -0.04970232085378295   -0.00412645173082605
0.01986876783396537   -0.049701547904400636   -0.004431864414123378
0.020402879772206627   -0.06923165163243918   -0.004457857788514648
0.02000837973121654   -0.0498736005055421   -0.004294481641060717
0.009565365753909035   -0.04970232085378295   -0.00412645173082605
0.020402879772206627   -0.06923165163243918   -0.004457857788514648
0.009343898122494051   -0.06939473788371511   -0.004278915726228574
0.009335864648251403   -0.06945236306810994   -0.004310906086017968
0.009565365753909035   -0.04970232085378295   -0.00412645173082605
0.020402879772206627   -0.06923165163243918   -0.004457857788514648
0.009335864648251403   -0.06945236306810994   -0.004310906086017968
0.02000837973121654   -0.0498736005055421   -0.004294481641060717
-0.03164923702932723   -0.06975278210542828   -0.005248372385265823
-0.03264666578478559   -0.08962929502125218   -0.005158053283796527
-0.02079131157680913   -0.06964052697698621   -0.004850936842533906
-0.03178632985554227   -0.06999618970690705   -0.005103313523876268
-0.03264666578478559   -0.08962929502125218   -0.005158053283796527
-0.02179653206797192   -0.08968099143298314   -0.004863777456416979
-0.02079131157680913   -0.06964052697698621   -0.004850936842533906
-0.021738968889118065   -0.08983043354047643   -0.004818645315051341
-0.03178632985554227   -0.06999618970690705   -0.005103313523876268
-0.02078442507995624   -0.06982165167991529   -0.00473211983384952
-0.021738968889118065   -0.08983043354047643   -0.004818645315051341
-0.02079131157680913   -0.06964052697698621   -0.004850936842533906
-0.03178632985554227   -0.06999618970690705   -0.005103313523876268
-0.021738968889118065   -0.08983043354047643   -0.004818645315051341
-0.032610499615805005   -0.08982918779215911   -0.005148183368823737
-0.03264666578478559   -0.08962929502125218   -0.005158053283796527
-0.03178632985554227   -0.06999618970690705   -0.005103313523876268
-0.021738968889118065   -0.08983043354047643   -0.004818645315051341
-0.03264666578478559   -0.08962929502125218   -0.005158053283796527
-0.02079131157680913   -0.06964052697698621   -0.004850936842533906
-0.03178632985554227   -0.06999618970690705   -0.005103313523876268
-0.032610499615805005   -0.08982918779215911   -0.005148183368823737
-0.02078442507995624   -0.06982165167991529   -0.00473211983384952
-0.03183112131443861   -0.07019453938139131   -0.004986649027161845
-0.032610499615805005   -0.08982918779215911   -0.005148183368823737
-0.021738968889118065   -0.08983043354047643   -0.004818645315051341
-0.02078442507995624   -0.06982165167991529   -0.00473211983384952
-0.021648629002673173   -0.0899958224355411   -0.004793883022518931
-0.03183112131443861   -0.07019453938139131   -0.004986649027161845
-0.020757943115665364   -0.06998859152094673   -0.004633027216129743
-0.021648629002673173   -0.0899958224355411   -0.004793883022518931
-0.02078442507995624   -0.06982165167991529   -0.00473211983384952
-0.03183112131443861   -0.07019453938139131   -0.004986649027161845
-0.021648629002673173   -0.0899958224355411   -0.004793883022518931
-0.03251182499499335   -0.09002304836545737   -0.0051687584450189296
-0.032610499615805005   -0.08982918779215911   -0.005148183368823737
-0.03183112131443861   -0.07019453938139131   -0.004986649027161845
-0.021648629002673173   -0.0899958224355411   -0.004793883022518931
-0.032610499615805005   -0.08982918779215911   -0.005148183368823737
-0.02078442507995624   -0.06982165167991529   -0.00473211983384952
-0.03183112131443861   -0.07019453938139131   -0.004986649027161845
-0.03251182499499335   -0.09002304836545737   -0.0051687584450189296
-0.020757943115665364   -0.06998859152094673   -0.004633027216129743
-0.03184737969960637   -0.07040973139337257   -0.004900803520403976
-0.03251182499499335   -0.09002304836545737   -0.0051687584450189296
-0.021648629002673173   -0.0899958224355411   -0.004793883022518931
-0.020757943115665364   -0.06998859152094673   -0.004633027216129743
-0.021531305391401984   -0.09018853287135938   -0.004789173821713978
-0.03184737969960637   -0.07040973139337257   -0.004900803520403976
-0.020690583680223886   -0.07015405775646832   -0.004552289485211155
-0.021531305391401984   -0.09018853287135938   -0.004789173821713978
-0.020757943115665364   -0.06998859152094673   -0.004633027216129743
-0.03184737969960637   -0.07040973139337257   -0.004900803520403976
-0.021531305391401984   -0.09018853287135938   -0.004789173821713978
-0.03235094910453652   -0.09027256713403516   -0.0052213005134051456
-0.03251182499499335   -0.09002304836545737   -0.0051687584450189296
-0.03184737969960637   -0.07040973139337257   -0.004900803520403976
-0.021531305391401984   -0.09018853287135938   -0.004789173821713978
-0.03251182499499335   -0.09002304836545737   -0.0051687584450189296
-0.020757943115665364   -0.06998859152094673   -0.004633027216129743
-0.02079131157680913   -0.06964052697698621   -0.004850936842533906
-0.02179653206797192   -0.08968099143298314   -0.004863777456416979
-0.010704734324962243   -0.06957639566396832   -0.004580319445745748
-0.02078442507995624   -0.06982165167991529   -0.00473211983384952
-0.02179653206797192   -0.08968099143298314   -0.004863777456416979
-0.011858604151643831   -0.08969241090024997   -0.0046681299953146285
-0.010704734324962243   -0.06957639566396832   -0.004580319445745748
-0.01178120897808411   -0.08977824107461971   -0.0045882923968068616
-0.02078442507995624   -0.06982165167991529   -0.00473211983384952
-0.01066840889842588   -0.06968613536483537   -0.004476943314657468
-0.01178120897808411   -0.08977824107461971   -0.0045882923968068616
-0.010704734324962243   -0.06957639566396832   -0.004580319445745748
-0.02078442507995624   -0.06982165167991529   -0.00473211983384952
-0.01178120897808411   -0.08977824107461971   -0.0045882923968068616
-0.021738968889118065   -0.08983043354047643   -0.004818645315051341
-0.02179653206797192   -0.08968099143298314   -0.004863777456416979
-0.02078442507995624   -0.06982165167991529   -0.00473211983384952
-0.01178120897808411   -0.08977824107461971   -0.0045882923968068616
-0.02179653206797192   -0.08968099143298314   -0.004863777456416979
-0.010704734324962243   -0.06957639566396832   -0.004580319445745748
-0.02078442507995624   -0.06982165167991529   -0.00473211983384952
-0.021738968889118065   -0.08983043354047643   -0.004818645315051341
-0.01066840889842588   -0.06968613536483537   -0.004476943314657468
-0.020757943115665364   -0.06998859152094673   -0.004633027216129743
-0.021738968889118065   -0.08983043354047643   -0.004818645315051341
-0.01178120897808411   -0.08977824107461971   -0.0045882923968068616
-0.01066840889842588   -0.06968613536483537   -0.004476943314657468
-0.011693633651797937   -0.0898824304624464   -0.0045289068570752225
-0.020757943115665364   -0.06998859152094673   -0.004633027216129743
-0.010623537025525012   -0.06978674760367087   -0.00439331470544252
-0.011693633651797937   -0.0898824304624464   -0.0045289068570752225
-0.01066840889842588   -0.06968613536483537   -0.004476943314657468
-0.020757943115665364   -0.06998859152094673   -0.004633027216129743
-0.011693633651797937   -0.0898824304624464   -0.0045289068570752225
-0.021648629002673173   -0.0899958224355411   -0.004793883022518931
-0.021738968889118065   -0.08983043354047643   -0.004818645315051341
-0.020757943115665364   -0.06998859152094673   -0.004633027216129743
-0.011693633651797937   -0.0898824304624464   -0.0045289068570752225
-0.021738968889118065   -0.08983043354047643   -0.004818645315051341
-0.01066840889842588   -0.06968613536483537   -0.004476943314657468
-0.020757943115665364   -0.06998859152094673   -0.004633027216129743
-0.021648629002673173   -0.0899958224355411   -0.004793883022518931
-0.010623537025525012   -0.06978674760367087   -0.00439331470544252
-0.020690583680223886   -0.07015405775646832   -0.004552289485211155
-0.021648629002673173   -0.0899958224355411   -0.004793883022518931
-0.011693633651797937   -0.0898824304624464   -0.0045289068570752225
-0.010623537025525012   -0.06978674760367087   -0.00439331470544252
-0.01159920409914604   -0.0900053034859956   -0.0044906295713594635
-0.020690583680223886   -0.07015405775646832   -0.004552289485211155
-0.010569369731198265   -0.06987856066681188   -0.004329901749506744
-0.01159920409914604   -0.0900053034859956   -0.0044906295713594635
-0.010623537025525012   -0.06978674760367087   -0.00439331470544252
-0.020690583680223886   -0.07015405775646832   -0.004552289485211155
-0.01159920409914604   -0.0900053034859956   -0.0044906295713594635
-0.021531305391401984   -0.09018853287135938   -0.004789173821713978
-0.021648629002673173   -0.0899958224355411   -0.004793883022518931
-0.020690583680223886   -0.07015405775646832   -0.004552289485211155
-0.01159920409914604   -0.0900053034859956   -0.0044906295713594635
-0.021648629002673173   -0.0899958224355411   -0.004793883022518931
-0.010623537025525012   -0.06978674760367087   -0.00439331470544252
-0.010704734324962243   -0.06957639566396832   -0.004580319445745748
-0.011858604151643831   -0.08969241090024997   -0.0046681299953146285
-0.000891016584896495   -0.06953985036953987   -0.004439997352187476
-0.01066840889842588   -0.06968613536483537   -0.004476943314657468
-0.011858604151643831   -0.08969241090024997   -0.0046681299953146285
-0.0022020074332253455   -0.08963996526628397   -0.00458774963738158
-0.000891016584896495   -0.06953985036953987   -0.004439997352187476
-0.0021103656052933713   -0.08966010478923431   -0.004474931456050692
-0.01066840889842588   -0.06968613536483537   -0.004476943314657468
-0.0008397657730384843   -0.06957693840999983   -0.004353079602246799
-0.0021103656052933713   -0.08966010478923431   -0.004474931456050692
-0.000891016584896495   -0.06953985036953987   -0.004439997352187476
-0.01066840889842588   -0.06968613536483537   -0.004476943314657468
-0.0021103656052933713   -0.08966010478923431   -0.004474931456050692
-0.01178120897808411   -0.08977824107461971   -0.0045882923968068616
-0.011858604151643831   -0.08969241090024997   -0.0046681299953146285
-0.01066840889842588   -0.06968613536483537   -0.004476943314657468
-0.0021103656052933713   -0.08966010478923431   -0.004474931456050692
-0.011858604151643831   -0.08969241090024997   -0.0046681299953146285
-0.000891016584896495   -0.06953985036953987   -0.004439997352187476
-0.01066840889842588   -0.06968613536483537   -0.004476943314657468
-0.01178120897808411   -0.08977824107461971   -0.0045882923968068616
-0.0008397657730384843   -0.06957693840999983   -0.004353079602246799
-0.010623537025525012   -0.06978674760367087   -0.00439331470544252
-0.01178120897808411   -0.08977824107461971   -0.0045882923968068616
-0.0021103656052933713   -0.08966010478923431   -0.004474931456050692
-0.0008397657730384843   -0.06957693840999983   -0.004353079602246799
-0.002023717024175124   -0.0896971503137596   -0.0043824149647752764
-0.010623537025525012   -0.06978674760367087   -0.00439331470544252
-0.000795555476702419   -0.0696042599964748   -0.004285733370134671
-0.002023717024175124   -0.0896971503137596   -0.0043824149647752764
-0.0008397657730384843   -0.06957693840999983   -0.004353079602246799
-0.010623537025525012   -0.06978674760367087   -0.00439331470544252
-0.002023717024175124   -0.0896971503137596   -0.0043824149647752764
-0.011693633651797937   -0.0898824304624464   -0.0045289068570752225
-0.01178120897808411   -0.08977824107461971   -0.0045882923968068616
-0.010623537025525012   -0.06978674760367087   -0.00439331470544252
-0.002023717024175124   -0.0896971503137596   -0.0043824149647752764
-0.01178120897808411   -0.08977824107461971   -0.0045882923968068616
-0.0008397657730384843   -0.06957693840999983   -0.004353079602246799
-0.010623537025525012   -0.06978674760367087   -0.00439331470544252
-0.011693633651797937   -0.0898824304624464   -0.0045289068570752225
-0.000795555476702419   -0.0696042599964748   -0.004285733370134671
-0.010569369731198265   -0.06987856066681188   -0.004329901749506744
-0.011693633651797937   -0.0898824304624464   -0.0045289068570752225
-0.002023717024175124   -0.0896971503137596   -0.0043824149647752764
-0.000795555476702419   -0.0696042599964748   -0.004285733370134671
-0.0019503192769107804   -0.08975195466066033   -0.0043109123215718925
-0.010569369731198265   -0.06987856066681188   -0.004329901749506744
-0.0007621942572224971   -0.06962167926867871   -0.004238675802187264
-0.0019503192769107804   -0.08975195466066033   -0.0043109123215718925
-0.000795555476702419   -0.0696042599964748   -0.004285733370134671
-0.010569369731198265   -0.06987856066681188   -0.004329901749506744
-0.0019503192769107804   -0.08975195466066033   -0.0043109123215718925
-0.01159920409914604   -0.0900053034859956   -0.0044906295713594635
-0.011693633651797937   -0.0898824304624464   -0.0045289068570752225
-0.010569369731198265   -0.06987856066681188   -0.004329901749506744
-0.0019503192769107804   -0.08975195466066033   -0.0043109123215718925
-0.011693633651797937   -0.0898824304624464   -0.0045289068570752225
-0.000795555476702419   -0.0696042599964748   -0.004285733370134671
-0.000891016584896495   -0.06953985036953987   -0.004439997352187476
-0.0022020074332253455   -0.08963996526628397   -0.00458774963738158
0.00922252082991404   -0.06952460577490542   -0.004431145412281589
-0.0008397657730384843   -0.06957693840999983   -0.004353079602246799
-0.0022020074332253455   -0.08963996526628397   -0.00458774963738158
0.007746035303068328   -0.08952327542447862   -0.004626413899101183
0.00922252082991404   -0.06952460577490542   -0.004431145412281589
0.007863046500676131   -0.08947753296348496   -0.004481222643096672
-0.0008397657730384843   -0.06957693840999983   -0.004353079602246799
0.009290745599393304   -0.06949136154543423   -0.004361518224331819
0.007863046500676131   -0.08947753296348496   -0.004481222643096672
0.00922252082991404   -0.06952460577490542   -0.004431145412281589
-0.0008397657730384843   -0.06957693840999983   -0.004353079602246799
0.007863046500676131   -0.08947753296348496   -0.004481222643096672
-0.0021103656052933713   -0.08966010478923431   -0.004474931456050692
-0.0022020074332253455   -0.08963996526628397   -0.00458774963738158
-0.0008397657730384843   -0.06957693840999983   -0.004353079602246799
0.007863046500676131   -0.08947753296348496   -0.004481222643096672
-0.0022020074332253455   -0.08963996526628397   -0.00458774963738158
0.00922252082991404   -0.06952460577490542   -0.004431145412281589
-0.0008397657730384843   -0.06957693840999983   -0.004353079602246799
-0.0021103656052933713   -0.08966010478923431   -0.004474931456050692
0.009290745599393304   -0.06949136154543423   -0.004361518224331819
-0.000795555476702419   -0.0696042599964748   -0.004285733370134671
-0.0021103656052933713   -0.08966010478923431   -0.004474931456050692
0.007863046500676131   -0.08947753296348496   -0.004481222643096672
0.009290745599393304   -0.06949136154543423   -0.004361518224331819
0.007971015745542423   -0.08945376434611717   -0.004356275938279495
-0.000795555476702419   -0.0696042599964748   -0.004285733370134671
0.009335864648251403   -0.06945236306810994   -0.004310906086017968
0.007971015745542423   -0.08945376434611717   -0.004356275938279495
0.009290745599393304   -0.06949136154543423   -0.004361518224331819
-0.000795555476702419   -0.0696042599964748   -0.004285733370134671
0.007971015745542423   -0.08945376434611717   -0.004356275938279495
-0.002023717024175124   -0.0896971503137596   -0.0043824149647752764
-0.0021103656052933713   -0.08966010478923431   -0.004474931456050692
-0.000795555476702419   -0.0696042599964748   -0.004285733370134671
0.007971015745542423   -0.08945376434611717   -0.004356275938279495
-0.0021103656052933713   -0.08966010478923431   -0.004474931456050692
0.009290745599393304   -0.06949136154543423   -0.004361518224331819
-0.000795555476702419   -0.0696042599964748   -0.004285733370134671
-0.002023717024175124   -0.0896971503137596   -0.0043824149647752764
0.009335864648251403   -0.06945236306810994   -0.004310906086017968
-0.0007621942572224971   -0.06962167926867871   -0.004238675802187264
-0.002023717024175124   -0.0896971503137596   -0.0043824149647752764
0.007971015745542423   -0.08945376434611717   -0.004356275938279495
0.009335864648251403   -0.06945236306810994   -0.004310906086017968
0.008028473797244867   -0.0894403565537547   -0.00425025220136418
-0.0007621942572224971   -0.06962167926867871   -0.004238675802187264
0.009343898122494051   -0.06939473788371511   -0.004278915726228574
0.008028473797244867   -0.0894403565537547   -0.00425025220136418
0.009335864648251403   -0.06945236306810994   -0.004310906086017968
-0.0007621942572224971   -0.06962167926867871   -0.004238675802187264
0.008028473797244867   -0.0894403565537547   -0.00425025220136418
-0.0019503192769107804   -0.08975195466066033   -0.0043109123215718925
-0.002023717024175124   -0.0896971503137596   -0.0043824149647752764
-0.0007621942572224971   -0.06962167926867871   -0.004238675802187264
0.008028473797244867   -0.0894403565537547   -0.00425025220136418
-0.002023717024175124   -0.0896971503137596   -0.0043824149647752764
0.009335864648251403   -0.06945236306810994   -0.004310906086017968
0.00922252082991404   -0.06952460577490542   -0.004431145412281589
0.007746035303068328   -0.08952327542447862   -0.004626413899101183
0.020183764912845625   -0.06950388694985231   -0.004540351346253099
0.009290745599393304   -0.06949136154543423   -0.004361518224331819
0.007746035303068328   -0.08952327542447862   -0.004626413899101183
0.018399257497650177   -0.08932741398889724   -0.00479019367963586
0.020183764912845625   -0.06950388694985231   -0.004540351346253099
0.018705402458489173   -0.08922199441402318   -0.004599849758669401
0.009290745599393304   -0.06949136154543423   -0.004361518224331819
0.020317897469132946   -0.06941510637509521   -0.004483813550407937
0.018705402458489173   -0.08922199441402318   -0.004599849758669401
0.020183764912845625   -0.06950388694985231   -0.004540351346253099
0.009290745599393304   -0.06949136154543423   -0.004361518224331819
0.018705402458489173   -0.08922199441402318   -0.004599849758669401
0.007863046500676131   -0.08947753296348496   -0.004481222643096672
0.007746035303068328   -0.08952327542447862   -0.004626413899101183
0.009290745599393304   -0.06949136154543423   -0.004361518224331819
0.018705402458489173   -0.08922199441402318   -0.004599849758669401
0.007746035303068328   -0.08952327542447862   -0.004626413899101183
0.020183764912845625   -0.06950388694985231   -0.004540351346253099
0.009290745599393304   -0.06949136154543423   -0.004361518224331819
0.007863046500676131   -0.08947753296348496   -0.004481222643096672
0.020317897469132946   -0.06941510637509521   -0.004483813550407937
0.009335864648251403   -0.06945236306810994   -0.004310906086017968
0.007863046500676131   -0.08947753296348496   -0.004481222643096672
0.018705402458489173   -0.08922199441402318   -0.004599849758669401
0.020317897469132946   -0.06941510637509521   -0.004483813550407937
0.018915341434498863   -0.08917089670901492   -0.004438319415123494
0.009335864648251403   -0.06945236306810994   -0.004310906086017968
0.020387928280923878   -0.06934484630535145   -0.004456151921543526
0.018915341434498863   -0.08917089670901492   -0.004438319415123494
0.020317897469132946   -0.06941510637509521   -0.004483813550407937
0.009335864648251403   -0.06945236306810994   -0.004310906086017968
0.018915341434498863   -0.08917089670901492   -0.004438319415123494
0.007971015745542423   -0.08945376434611717   -0.004356275938279495
0.007863046500676131   -0.08947753296348496   -0.004481222643096672
0.009335864648251403   -0.06945236306810994   -0.004310906086017968
0.018915341434498863   -0.08917089670901492   -0.004438319415123494
0.007863046500676131   -0.08947753296348496   -0.004481222643096672
0.020317897469132946   -0.06941510637509521   -0.004483813550407937
0.009335864648251403   -0.06945236306810994   -0.004310906086017968
0.007971015745542423   -0.08945376434611717   -0.004356275938279495
0.020387928280923878   -0.06934484630535145   -0.004456151921543526
0.009343898122494051   -0.06939473788371511   -0.004278915726228574
0.007971015745542423   -0.08945376434611717   -0.004356275938279495
0.018915341434498863   -0.08917089670901492   -0.004438319415123494
0.020387928280923878   -0.06934484630535145   -0.004456151921543526
0.01910119532815489   -0.08911499989067541   -0.004306794506945274
0.009343898122494051   -0.06939473788371511   -0.004278915726228574
0.020402879772206627   -0.06923165163243918   -0.004457857788514648
0.01910119532815489   -0.08911499989067541   -0.004306794506945274
0.020387928280923878   -0.06934484630535145   -0.004456151921543526
0.009343898122494051   -0.06939473788371511   -0.004278915726228574
0.01910119532815489   -0.08911499989067541   -0.004306794506945274
0.008028473797244867   -0.0894403565537547   -0.00425025220136418
0.007971015745542423   -0.08945376434611717   -0.004356275938279495
0.009343898122494051   -0.06939473788371511   -0.004278915726228574
0.01910119532815489   -0.08911499989067541   -0.004306794506945274
0.007971015745542423   -0.08945376434611717   -0.004356275938279495
0.020387928280923878   -0.06934484630535145   -0.004456151921543526
-0.03264666578478559   -0.08962929502125218   -0.005158053283796527
-0.03177690875528359   -0.10861931649072755   -0.004930207825440359
-0.02179653206797192   -0.08968099143298314   -0.004863777456416979
-0.032610499615805005   -0.08982918779215911   -0.005148183368823737
-0.03177690875528359   -0.10861931649072755   -0.004930207825440359
-0.021708326518578184   -0.10883819745330749   -0.004752648235336825
-0.02179653206797192   -0.08968099143298314   -0.004863777456416979
-0.021581209175277574   -0.10894987465110101   -0.00477934577539247
-0.032610499615805005   -0.08982918779215911   -0.005148183368823737
-0.021738968889118065   -0.08983043354047643   -0.004818645315051341
-0.021581209175277574   -0.10894987465110101   -0.00477934577539247
-0.02179653206797192   -0.08968099143298314   -0.004863777456416979
-0.032610499615805005   -0.08982918779215911   -0.005148183368823737
-0.021581209175277574   -0.10894987465110101   -0.00477934577539247
-0.03154750497295833   -0.10877008463806888   -0.00505602987056889
-0.03177690875528359   -0.10861931649072755   -0.004930207825440359
-0.032610499615805005   -0.08982918779215911   -0.005148183368823737
-0.021581209175277574   -0.10894987465110101   -0.00477934577539247
-0.03177690875528359   -0.10861931649072755   -0.004930207825440359
-0.02179653206797192   -0.08968099143298314   -0.004863777456416979
-0.032610499615805005   -0.08982918779215911   -0.005148183368823737
-0.03154750497295833   -0.10877008463806888   -0.00505602987056889
-0.021738968889118065   -0.08983043354047643   -0.004818645315051341
-0.03251182499499335   -0.09002304836545737   -0.0051687584450189296
-0.03154750497295833   -0.10877008463806888   -0.00505602987056889
-0.021581209175277574   -0.10894987465110101   -0.00477934577539247
-0.021738968889118065   -0.08983043354047643   -0.004818645315051341
-0.021408936167463626   -0.10910862718582338   -0.004826966214172926
-0.03251182499499335   -0.09002304836545737   -0.0051687584450189296
-0.021648629002673173   -0.0899958224355411   -0.004793883022518931
-0.021408936167463626   -0.10910862718582338   -0.004826966214172926
-0.021738968889118065   -0.08983043354047643   -0.004818645315051341
-0.03251182499499335   -0.09002304836545737   -0.0051687584450189296
-0.021408936167463626   -0.10910862718582338   -0.004826966214172926
-0.03128529560444553   -0.10895481938177154   -0.005214764360975384
-0.03154750497295833   -0.10877008463806888   -0.00505602987056889
-0.03251182499499335   -0.09002304836545737   -0.0051687584450189296
-0.021408936167463626   -0.10910862718582338   -0.004826966214172926
-0.03154750497295833   -0.10877008463806888   -0.00505602987056889
-0.021738968889118065   -0.08983043354047643   -0.004818645315051341
-0.03251182499499335   -0.09002304836545737   -0.0051687584450189296
-0.03128529560444553   -0.10895481938177154   -0.005214764360975384
-0.021648629002673173   -0.0899958224355411   -0.004793883022518931
-0.03235094910453652   -0.09027256713403516   -0.0052213005134051456
-0.03128529560444553   -0.10895481938177154   -0.005214764360975384
-0.021408936167463626   -0.10910862718582338   -0.004826966214172926
-0.021648629002673173   -0.0899958224355411   -0.004793883022518931
-0.021224012581625654   -0.10932412748089888   -0.004896138463055356
-0.03235094910453652   -0.09027256713403516   -0.0052213005134051456
-0.021531305391401984   -0.09018853287135938   -0.004789173821713978
-0.021224012581625654   -0.10932412748089888   -0.004896138463055356
-0.021648629002673173   -0.0899958224355411   -0.004793883022518931
-0.03235094910453652   -0.09027256713403516   -0.0052213005134051456
-0.021224012581625654   -0.10932412748089888   -0.004896138463055356
-0.030927990557014652   -0.10923586550245844   -0.005407000446254345
-0.03128529560444553   -0.10895481938177154   -0.005214764360975384
-0.03235094910453652   -0.09027256713403516   -0.0052213005134051456
-0.021224012581625654   -0.10932412748089888   -0.004896138463055356
-0.03128529560444553   -0.10895481938177154   -0.005214764360975384
-0.021648629002673173   -0.0899958224355411   -0.004793883022518931
-0.02179653206797192   -0.08968099143298314   -0.004863777456416979
-0.021708326518578184   -0.10883819745330749   -0.004752648235336825
-0.011858604151643831   -0.08969241090024997   -0.0046681299953146285
-0.021738968889118065   -0.08983043354047643   -0.004818645315051341
-0.021708326518578184   -0.10883819745330749   -0.004752648235336825
-0.012684910998932824   -0.10892510078876919   -0.004638929170675723
-0.011858604151643831   -0.08969241090024997   -0.0046681299953146285
-0.012546390256054845   -0.10898326956266094   -0.0045808106878758815
-0.021738968889118065   -0.08983043354047643   -0.004818645315051341
-0.01178120897808411   -0.08977824107461971   -0.0045882923968068616
-0.012546390256054845   -0.10898326956266094   -0.0045808106878758815
-0.011858604151643831   -0.08969241090024997   -0.0046681299953146285
-0.021738968889118065   -0.08983043354047643   -0.004818645315051341
-0.012546390256054845   -0.10898326956266094   -0.0045808106878758815
-0.021581209175277574   -0.10894987465110101   -0.00477934577539247
-0.021708326518578184   -0.10883819745330749   -0.004752648235336825
-0.021738968889118065   -0.08983043354047643   -0.004818645315051341
-0.012546390256054845   -0.10898326956266094   -0.0045808106878758815
-0.021708326518578184   -0.10883819745330749   -0.004752648235336825
-0.011858604151643831   -0.08969241090024997   -0.0046681299953146285
-0.021738968889118065   -0.08983043354047643   -0.004818645315051341
-0.021581209175277574   -0.10894987465110101   -0.00477934577539247
-0.01178120897808411   -0.08977824107461971   -0.0045882923968068616
-0.021648629002673173   -0.0899958224355411   -0.004793883022518931
-0.021581209175277574   -0.10894987465110101   -0.00477934577539247
-0.012546390256054845   -0.10898326956266094   -0.0045808106878758815
-0.01178120897808411   -0.08977824107461971   -0.0045882923968068616
-0.012397345539639773   -0.10908672097588232   -0.004543362418218767
-0.021648629002673173   -0.0899958224355411   -0.004793883022518931
-0.011693633651797937   -0.0898824304624464   -0.0045289068570752225
-0.012397345539639773   -0.10908672097588232   -0.004543362418218767
-0.01178120897808411   -0.08977824107461971   -0.0045882923968068616
-0.021648629002673173   -0.0899958224355411   -0.004793883022518931
-0.012397345539639773   -0.10908672097588232   -0.004543362418218767
-0.021408936167463626   -0.10910862718582338   -0.004826966214172926
-0.021581209175277574   -0.10894987465110101   -0.00477934577539247
-0.021648629002673173   -0.0899958224355411   -0.004793883022518931
-0.012397345539639773   -0.10908672097588232   -0.004543362418218767
-0.021581209175277574   -0.10894987465110101   -0.00477934577539247
-0.01178120897808411   -0.08977824107461971   -0.0045882923968068616
-0.021648629002673173   -0.0899958224355411   -0.004793883022518931
-0.021408936167463626   -0.10910862718582338   -0.004826966214172926
-0.011693633651797937   -0.0898824304624464   -0.0045289068570752225
-0.021531305391401984   -0.09018853287135938   -0.004789173821713978
-0.021408936167463626   -0.10910862718582338   -0.004826966214172926
-0.012397345539639773   -0.10908672097588232   -0.004543362418218767
-0.011693633651797937   -0.0898824304624464   -0.0045289068570752225
-0.012244143331210404   -0.10923677338285588   -0.004527587831240155
-0.021531305391401984   -0.09018853287135938   -0.004789173821713978
-0.01159920409914604   -0.0900053034859956   -0.0044906295713594635
-0.012244143331210404   -0.10923677338285588   -0.004527587831240155
-0.011693633651797937   -0.0898824304624464   -0.0045289068570752225
-0.021531305391401984   -0.09018853287135938   -0.004789173821713978
-0.012244143331210404   -0.10923677338285588   -0.004527587831240155
-0.021224012581625654   -0.10932412748089888   -0.004896138463055356
-0.021408936167463626   -0.10910862718582338   -0.004826966214172926
-0.021531305391401984   -0.09018853287135938   -0.004789173821713978
-0.012244143331210404   -0.10923677338285588   -0.004527587831240155
-0.021408936167463626   -0.10910862718582338   -0.004826966214172926
-0.011693633651797937   -0.0898824304624464   -0.0045289068570752225
-0.011858604151643831   -0.08969241090024997   -0.0046681299953146285
-0.012684910998932824   -0.10892510078876919   -0.004638929170675723
-0.0022020074332253455   -0.08963996526628397   -0.00458774963738158
-0.01178120897808411   -0.08977824107461971   -0.0045882923968068616
-0.012684910998932824   -0.10892510078876919   -0.004638929170675723
-0.003935096364509106   -0.10885896920319932   -0.0046195931490867655
-0.0022020074332253455   -0.08963996526628397   -0.00458774963738158
-0.0037818691152155374   -0.10886058045488806   -0.004479567962447982
-0.01178120897808411   -0.08977824107461971   -0.0045882923968068616
-0.0021103656052933713   -0.08966010478923431   -0.004474931456050692
-0.0037818691152155374   -0.10886058045488806   -0.004479567962447982
-0.0022020074332253455   -0.08963996526628397   -0.00458774963738158
-0.01178120897808411   -0.08977824107461971   -0.0045882923968068616
-0.0037818691152155374   -0.10886058045488806   -0.004479567962447982
-0.012546390256054845   -0.10898326956266094   -0.0045808106878758815
-0.012684910998932824   -0.10892510078876919   -0.004638929170675723
-0.01178120897808411   -0.08977824107461971   -0.0045882923968068616
-0.0037818691152155374   -0.10886058045488806   -0.004479567962447982
-0.012684910998932824   -0.10892510078876919   -0.004638929170675723
-0.0022020074332253455   -0.08963996526628397   -0.00458774963738158
-0.01178120897808411   -0.08977824107461971   -0.0045882923968068616
-0.012546390256054845   -0.10898326956266094   -0.0045808106878758815
-0.0021103656052933713   -0.08966010478923431   -0.004474931456050692
-0.011693633651797937   -0.0898824304624464   -0.0045289068570752225
-0.012546390256054845   -0.10898326956266094   -0.0045808106878758815
-0.0037818691152155374   -0.10886058045488806   -0.004479567962447982
-0.0021103656052933713   -0.08966010478923431   -0.004474931456050692
-0.0036326818002233156   -0.10890412776389997   -0.004360259119459376
-0.011693633651797937   -0.0898824304624464   -0.0045289068570752225
-0.002023717024175124   -0.0896971503137596   -0.0043824149647752764
-0.0036326818002233156   -0.10890412776389997   -0.004360259119459376
-0.0021103656052933713   -0.08966010478923431   -0.004474931456050692
-0.011693633651797937   -0.0898824304624464   -0.0045289068570752225
-0.0036326818002233156   -0.10890412776389997   -0.004360259119459376
-0.012397345539639773   -0.10908672097588232   -0.004543362418218767
-0.012546390256054845   -0.10898326956266094   -0.0045808106878758815
-0.011693633651797937   -0.0898824304624464   -0.0045289068570752225
-0.0036326818002233156   -0.10890412776389997   -0.004360259119459376
-0.012546390256054845   -0.10898326956266094   -0.0045808106878758815
-0.0021103656052933713   -0.08966010478923431   -0.004474931456050692
-0.011693633651797937   -0.0898824304624464   -0.0045289068570752225
-0.012397345539639773   -0.10908672097588232   -0.004543362418218767
-0.002023717024175124   -0.0896971503137596   -0.0043824149647752764
-0.01159920409914604   -0.0900053034859956   -0.0044906295713594635
-0.012397345539639773   -0.10908672097588232   -0.004543362418218767
-0.0036326818002233156   -0.10890412776389997   -0.004360259119459376
-0.002023717024175124   -0.0896971503137596   -0.0043824149647752764
-0.003499642749129229   -0.10899324348661683   -0.004262389080270005
-0.01159920409914604   -0.0900053034859956   -0.0044906295713594635
-0.0019503192769107804   -0.08975195466066033   -0.0043109123215718925
-0.003499642749129229   -0.10899324348661683   -0.004262389080270005
-0.002023717024175124   -0.0896971503137596   -0.0043824149647752764
-0.01159920409914604   -0.0900053034859956   -0.0044906295713594635
-0.003499642749129229   -0.10899324348661683   -0.004262389080270005
-0.012244143331210404   -0.10923677338285588   -0.004527587831240155
-0.012397345539639773   -0.10908672097588232   -0.004543362418218767
-0.01159920409914604   -0.0900053034859956   -0.0044906295713594635
-0.003499642749129229   -0.10899324348661683   -0.004262389080270005
-0.012397345539639773   -0.10908672097588232   -0.004543362418218767
-0.002023717024175124   -0.0896971503137596   -0.0043824149647752764
-0.0022020074332253455   -0.08963996526628397   -0.00458774963738158
-0.003935096364509106   -0.10885896920319932   -0.0046195931490867655
0.007746035303068328   -0.08952327542447862   -0.004626413899101183
-0.0021103656052933713   -0.08966010478923431   -0.004474931456050692
-0.003935096364509106   -0.10885896920319932   -0.0046195931490867655
0.005117766158308379   -0.10864444432925376   -0.004702058877252704
0.007746035303068328   -0.08952327542447862   -0.004626413899101183
0.00530508133782132   -0.10858569034748902   -0.004480925439288562
-0.0021103656052933713   -0.08966010478923431   -0.004474931456050692
0.007863046500676131   -0.08947753296348496   -0.004481222643096672
0.00530508133782132   -0.10858569034748902   -0.004480925439288562
0.007746035303068328   -0.08952327542447862   -0.004626413899101183
-0.0021103656052933713   -0.08966010478923431   -0.004474931456050692
0.00530508133782132   -0.10858569034748902   -0.004480925439288562
-0.0037818691152155374   -0.10886058045488806   -0.004479567962447982
-0.003935096364509106   -0.10885896920319932   -0.0046195931490867655
-0.0021103656052933713   -0.08966010478923431   -0.004474931456050692
0.00530508133782132   -0.10858569034748902   -0.004480925439288562
-0.003935096364509106   -0.10885896920319932   -0.0046195931490867655
0.007746035303068328   -0.08952327542447862   -0.004626413899101183
-0.0021103656052933713   -0.08966010478923431   -0.004474931456050692
-0.0037818691152155374   -0.10886058045488806   -0.004479567962447982
0.007863046500676131   -0.08947753296348496   -0.004481222643096672
-0.002023717024175124   -0.0896971503137596   -0.0043824149647752764
-0.0037818691152155374   -0.10886058045488806   -0.004479567962447982
0.00530508133782132   -0.10858569034748902   -0.004480925439288562
0.007863046500676131   -0.08947753296348496   -0.004481222643096672
0.005497048288305879   -0.10857483352183853   -0.0042818423777340785
-0.002023717024175124   -0.0896971503137596   -0.0043824149647752764
0.007971015745542423   -0.08945376434611717   -0.004356275938279495
0.005497048288305879   -0.10857483352183853   -0.0042818423777340785
0.007863046500676131   -0.08947753296348496   -0.004481222643096672
-0.002023717024175124   -0.0896971503137596   -0.0043824149647752764
0.005497048288305879   -0.10857483352183853   -0.0042818423777340785
-0.0036326818002233156   -0.10890412776389997   -0.004360259119459376
-0.0037818691152155374   -0.10886058045488806   -0.004479567962447982
-0.002023717024175124   -0.0896971503137596   -0.0043824149647752764
0.005497048288305879   -0.10857483352183853   -0.0042818423777340785
-0.0037818691152155374   -0.10886058045488806   -0.004479567962447982
0.007863046500676131   -0.08947753296348496   -0.004481222643096672
-0.002023717024175124   -0.0896971503137596   -0.0043824149647752764
-0.0036326818002233156   -0.10890412776389997   -0.004360259119459376
0.007971015745542423   -0.08945376434611717   -0.004356275938279495
-0.0019503192769107804   -0.08975195466066033   -0.0043109123215718925
-0.0036326818002233156   -0.10890412776389997   -0.004360259119459376
0.005497048288305879   -0.10857483352183853   -0.0042818423777340785
0.007971015745542423   -0.08945376434611717   -0.004356275938279495
0.005624532795280517   -0.10860301445349743   -0.004101904152671211
-0.0019503192769107804   -0.08975195466066033   -0.0043109123215718925
0.008028473797244867   -0.0894403565537547   -0.00425025220136418
0.005624532795280517   -0.10860301445349743   -0.004101904152671211
0.007971015745542423   -0.08945376434611717   -0.004356275938279495
-0.0019503192769107804   -0.08975195466066033   -0.0043109123215718925
0.005624532795280517   -0.10860301445349743   -0.004101904152671211
-0.003499642749129229   -0.10899324348661683   -0.004262389080270005
-0.0036326818002233156   -0.10890412776389997   -0.004360259119459376
-0.0019503192769107804   -0.08975195466066033   -0.0043109123215718925
0.005624532795280517   -0.10860301445349743   -0.004101904152671211
-0.0036326818002233156   -0.10890412776389997   -0.004360259119459376
0.007971015745542423   -0.08945376434611717   -0.004356275938279495
0.007746035303068328   -0.08952327542447862   -0.004626413899101183
0.005117766158308379   -0.10864444432925376   -0.004702058877252704
0.018399257497650177   -0.08932741398889724   -0.00479019367963586
0.007863046500676131   -0.08947753296348496   -0.004481222643096672
0.005117766158308379   -0.10864444432925376   -0.004702058877252704
0.014751636691792256   -0.10827571624643528   -0.004915879994094071
0.018399257497650177   -0.08932741398889724   -0.00479019367963586
0.015249878228238685   -0.10815434314520664   -0.004594268847460337
0.007863046500676131   -0.08947753296348496   -0.004481222643096672
0.018705402458489173   -0.08922199441402318   -0.004599849758669401
0.015249878228238685   -0.10815434314520664   -0.004594268847460337
0.018399257497650177   -0.08932741398889724   -0.00479019367963586
0.007863046500676131   -0.08947753296348496   -0.004481222643096672
0.015249878228238685   -0.10815434314520664   -0.004594268847460337
0.00530508133782132   -0.10858569034748902   -0.004480925439288562
0.005117766158308379   -0.10864444432925376   -0.004702058877252704
0.007863046500676131   -0.08947753296348496   -0.004481222643096672
0.015249878228238685   -0.10815434314520664   -0.004594268847460337
0.005117766158308379   -0.10864444432925376   -0.004702058877252704
0.018399257497650177   -0.08932741398889724   -0.00479019367963586
0.007863046500676131   -0.08947753296348496   -0.004481222643096672
0.00530508133782132   -0.10858569034748902   -0.004480925439288562
0.018705402458489173   -0.08922199441402318   -0.004599849758669401
0.007971015745542423   -0.08945376434611717   -0.004356275938279495
0.00530508133782132   -0.10858569034748902   -0.004480925439288562
0.015249878228238685   -0.10815434314520664   -0.004594268847460337
0.018705402458489173   -0.08922199441402318   -0.004599849758669401
0.015618594023005333   -0.1081210665392369   -0.004301966259232797
0.007971015745542423   -0.08945376434611717   -0.004356275938279495
0.018915341434498863   -0.08917089670901492   -0.004438319415123494
0.015618594023005333   -0.1081210665392369   -0.004301966259232797
0.018705402458489173   -0.08922199441402318   -0.004599849758669401
0.007971015745542423   -0.08945376434611717   -0.004356275938279495
0.015618594023005333   -0.1081210665392369   -0.004301966259232797
0.005497048288305879   -0.10857483352183853   -0.0042818423777340785
0.00530508133782132   -0.10858569034748902   -0.004480925439288562
0.007971015745542423   -0.08945376434611717   -0.004356275938279495
0.015618594023005333   -0.1081210665392369   -0.004301966259232797
0.00530508133782132   -0.10858569034748902   -0.004480925439288562
0.018705402458489173   -0.08922199441402318   -0.004599849758669401
0.007971015745542423   -0.08945376434611717   -0.004356275938279495
0.005497048288305879   -0.10857483352183853   -0.0042818423777340785
0.018915341434498863   -0.08917089670901492   -0.004438319415123494
0.008028473797244867   -0.0894403565537547   -0.00425025220136418
0.005497048288305879   -0.10857483352183853   -0.0042818423777340785
0.015618594023005333   -0.1081210665392369   -0.004301966259232797
0.018915341434498863   -0.08917089670901492   -0.004438319415123494
0.01599198666494779   -0.10812066105960425   -0.004040296387193112
0.008028473797244867   -0.0894403565537547   -0.00425025220136418
0.01910119532815489   -0.08911499989067541   -0.004306794506945274
0.01599198666494779   -0.10812066105960425   -0.004040296387193112
0.018915341434498863   -0.08917089670901492   -0.004438319415123494
0.008028473797244867   -0.0894403565537547   -0.00425025220136418
0.01599198666494779   -0.10812066105960425   -0.004040296387193112
0.005624532795280517   -0.10860301445349743   -0.004101904152671211
0.005497048288305879   -0.10857483352183853   -0.0042818423777340785
0.008028473797244867   -0.0894403565537547   -0.00425025220136418
0.01599198666494779   -0.10812066105960425   -0.004040296387193112
0.005497048288305879   -0.10857483352183853   -0.0042818423777340785
0.018915341434498863   -0.08917089670901492   -0.004438319415123494
-0.03177690875528359   -0.10861931649072755   -0.004930207825440359
-0.028998742058496806   -0.12543040984963988   -0.004596553856728986
-0.021708326518578184   -0.10883819745330749   -0.004752648235336825
-0.03154750497295833   -0.10877008463806888   -0.00505602987056889
-0.028998742058496806   -0.12543040984963988   -0.004596553856728986
-0.02052272488672125   -0.1258259716797955   -0.0045676955834794255
-0.021708326518578184   -0.10883819745330749   -0.004752648235336825
-0.020310715152608263   -0.12588323109679794   -0.004661132909031736
-0.03154750497295833   -0.10877008463806888   -0.00505602987056889
-0.021581209175277574   -0.10894987465110101   -0.00477934577539247
-0.020310715152608263   -0.12588323109679794   -0.004661132909031736
-0.021708326518578184   -0.10883819745330749   -0.004752648235336825
-0.03154750497295833   -0.10877008463806888   -0.00505602987056889
-0.020310715152608263   -0.12588323109679794   -0.004661132909031736
-0.028557676810517945   -0.12551544074068408   -0.004857894287839764
-0.028998742058496806   -0.12543040984963988   -0.004596553856728986
-0.03154750497295833   -0.10877008463806888   -0.00505602987056889
-0.020310715152608263   -0.12588323109679794   -0.004661132909031736
-0.028998742058496806   -0.12543040984963988   -0.004596553856728986
-0.021708326518578184   -0.10883819745330749   -0.004752648235336825
-0.03154750497295833   -0.10877008463806888   -0.00505602987056889
-0.028557676810517945   -0.12551544074068408   -0.004857894287839764
-0.021581209175277574   -0.10894987465110101   -0.00477934577539247
-0.03128529560444553   -0.10895481938177154   -0.005214764360975384
-0.028557676810517945   -0.12551544074068408   -0.004857894287839764
-0.020310715152608263   -0.12588323109679794   -0.004661132909031736
-0.021581209175277574   -0.10894987465110101   -0.00477934577539247
-0.02004444741253786   -0.1260201812126274   -0.004775839559991624
-0.03128529560444553   -0.10895481938177154   -0.005214764360975384
-0.021408936167463626   -0.10910862718582338   -0.004826966214172926
-0.02004444741253786   -0.1260201812126274   -0.004775839559991624
-0.021581209175277574   -0.10894987465110101   -0.00477934577539247
-0.03128529560444553   -0.10895481938177154   -0.005214764360975384
-0.02004444741253786   -0.1260201812126274   -0.004775839559991624
-0.028117466557585666   -0.12567615107184854   -0.005153870880032836
-0.028557676810517945   -0.12551544074068408   -0.004857894287839764
-0.03128529560444553   -0.10895481938177154   -0.005214764360975384
-0.02004444741253786   -0.1260201812126274   -0.004775839559991624
-0.028557676810517945   -0.12551544074068408   -0.004857894287839764
-0.021581209175277574   -0.10894987465110101   -0.00477934577539247
-0.03128529560444553   -0.10895481938177154   -0.005214764360975384
-0.028117466557585666   -0.12567615107184854   -0.005153870880032836
-0.021408936167463626   -0.10910862718582338   -0.004826966214172926
-0.030927990557014652   -0.10923586550245844   -0.005407000446254345
-0.028117466557585666   -0.12567615107184854   -0.005153870880032836
-0.02004444741253786   -0.1260201812126274   -0.004775839559991624
-0.021408936167463626   -0.10910862718582338   -0.004826966214172926
-0.019781675412569092   -0.12624459600293733   -0.004911616634002903
-0.030927990557014652   -0.10923586550245844   -0.005407000446254345
-0.021224012581625654   -0.10932412748089888   -0.004896138463055356
-0.019781675412569092   -0.12624459600293733   -0.004911616634002903
-0.021408936167463626   -0.10910862718582338   -0.004826966214172926
-0.030927990557014652   -0.10923586550245844   -0.005407000446254345
-0.019781675412569092   -0.12624459600293733   -0.004911616634002903
-0.027553510067145383   -0.1259758255250676   -0.005483824291315736
-0.028117466557585666   -0.12567615107184854   -0.005153870880032836
-0.030927990557014652   -0.10923586550245844   -0.005407000446254345
-0.019781675412569092   -0.12624459600293733   -0.004911616634002903
-0.028117466557585666   -0.12567615107184854   -0.005153870880032836
-0.021408936167463626   -0.10910862718582338   -0.004826966214172926
-0.021708326518578184   -0.10883819745330749   -0.004752648235336825
-0.02052272488672125   -0.1258259716797955   -0.0045676955834794255
-0.012684910998932824   -0.10892510078876919   -0.004638929170675723
-0.021581209175277574   -0.10894987465110101   -0.00477934577539247
-0.02052272488672125   -0.1258259716797955   -0.0045676955834794255
-0.01318682939530431   -0.12601177192387683   -0.004556088619199061
-0.012684910998932824   -0.10892510078876919   -0.004638929170675723
-0.01296921464978992   -0.12603062826048939   -0.004514401783039107
-0.021581209175277574   -0.10894987465110101   -0.00477934577539247
-0.012546390256054845   -0.10898326956266094   -0.0045808106878758815
-0.01296921464978992   -0.12603062826048939   -0.004514401783039107
-0.012684910998932824   -0.10892510078876919   -0.004638929170675723
-0.021581209175277574   -0.10894987465110101   -0.00477934577539247
-0.01296921464978992   -0.12603062826048939   -0.004514401783039107
-0.020310715152608263   -0.12588323109679794   -0.004661132909031736
-0.02052272488672125   -0.1258259716797955   -0.0045676955834794255
-0.021581209175277574   -0.10894987465110101   -0.00477934577539247
-0.01296921464978992   -0.12603062826048939   -0.004514401783039107
-0.02052272488672125   -0.1258259716797955   -0.0045676955834794255
-0.012684910998932824   -0.10892510078876919   -0.004638929170675723
-0.021581209175277574   -0.10894987465110101   -0.00477934577539247
-0.020310715152608263   -0.12588323109679794   -0.004661132909031736
-0.012546390256054845   -0.10898326956266094   -0.0045808106878758815
-0.021408936167463626   -0.10910862718582338   -0.004826966214172926
-0.020310715152608263   -0.12588323109679794   -0.004661132909031736
-0.01296921464978992   -0.12603062826048939   -0.004514401783039107
-0.012546390256054845   -0.10898326956266094   -0.0045808106878758815
-0.01274464756196808   -0.1261206200047349   -0.004493355087323835
-0.021408936167463626   -0.10910862718582338   -0.004826966214172926
-0.012397345539639773   -0.10908672097588232   -0.004543362418218767
-0.01274464756196808   -0.1261206200047349   -0.004493355087323835
-0.012546390256054845   -0.10898326956266094   -0.0045808106878758815
-0.021408936167463626   -0.10910862718582338   -0.004826966214172926
-0.01274464756196808   -0.1261206200047349   -0.004493355087323835
-0.02004444741253786   -0.1260201812126274   -0.004775839559991624
-0.020310715152608263   -0.12588323109679794   -0.004661132909031736
-0.021408936167463626   -0.10910862718582338   -0.004826966214172926
-0.01274464756196808   -0.1261206200047349   -0.004493355087323835
-0.020310715152608263   -0.12588323109679794   -0.004661132909031736
-0.012546390256054845   -0.10898326956266094   -0.0045808106878758815
-0.021408936167463626   -0.10910862718582338   -0.004826966214172926
-0.02004444741253786   -0.1260201812126274   -0.004775839559991624
-0.012397345539639773   -0.10908672097588232   -0.004543362418218767
-0.021224012581625654   -0.10932412748089888   -0.004896138463055356
-0.02004444741253786   -0.1260201812126274   -0.004775839559991624
-0.01274464756196808   -0.1261206200047349   -0.004493355087323835
-0.012397345539639773   -0.10908672097588232   -0.004543362418218767
-0.012520467762131442   -0.1262859869504687   -0.004492668501764761
-0.021224012581625654   -0.10932412748089888   -0.004896138463055356
-0.012244143331210404   -0.10923677338285588   -0.004527587831240155
-0.012520467762131442   -0.1262859869504687   -0.004492668501764761
-0.012397345539639773   -0.10908672097588232   -0.004543362418218767
-0.021224012581625654   -0.10932412748089888   -0.004896138463055356
-0.012520467762131442   -0.1262859869504687   -0.004492668501764761
-0.019781675412569092   -0.12624459600293733   -0.004911616634002903
-0.02004444741253786   -0.1260201812126274   -0.004775839559991624
-0.021224012581625654   -0.10932412748089888   -0.004896138463055356
-0.012520467762131442   -0.1262859869504687   -0.004492668501764761
-0.02004444741253786   -0.1260201812126274   -0.004775839559991624
-0.012397345539639773   -0.10908672097588232   -0.004543362418218767
-0.012684910998932824   -0.10892510078876919   -0.004638929170675723
-0.01318682939530431   -0.12601177192387683   -0.004556088619199061
-0.003935096364509106   -0.10885896920319932   -0.0046195931490867655
-0.012546390256054845   -0.10898326956266094   -0.0045808106878758815
-0.01318682939530431   -0.12601177192387683   -0.004556088619199061
-0.006094818276005054   -0.12597905148231903   -0.0046083106683222986
-0.003935096364509106   -0.10885896920319932   -0.0046195931490867655
-0.0058564441408468304   -0.12595481572170134   -0.0044362511018101
-0.012546390256054845   -0.10898326956266094   -0.0045808106878758815
-0.0037818691152155374   -0.10886058045488806   -0.004479567962447982
-0.0058564441408468304   -0.12595481572170134   -0.0044362511018101
-0.003935096364509106   -0.10885896920319932   -0.0046195931490867655
-0.012546390256054845   -0.10898326956266094   -0.0045808106878758815
-0.0058564441408468304   -0.12595481572170134   -0.0044362511018101
-0.01296921464978992   -0.12603062826048939   -0.004514401783039107
-0.01318682939530431   -0.12601177192387683   -0.004556088619199061
-0.012546390256054845   -0.10898326956266094   -0.0045808106878758815
-0.0058564441408468304   -0.12595481572170134   -0.0044362511018101
-0.01318682939530431   -0.12601177192387683   -0.004556088619199061
-0.003935096364509106   -0.10885896920319932   -0.0046195931490867655
-0.012546390256054845   -0.10898326956266094   -0.0045808106878758815
-0.01296921464978992   -0.12603062826048939   -0.004514401783039107
-0.0037818691152155374   -0.10886058045488806   -0.004479567962447982
-0.012397345539639773   -0.10908672097588232   -0.004543362418218767
-0.01296921464978992   -0.12603062826048939   -0.004514401783039107
-0.0058564441408468304   -0.12595481572170134   -0.0044362511018101
-0.0037818691152155374   -0.10886058045488806   -0.004479567962447982
-0.005625155093829059   -0.1259948469526456   -0.004286190752638336
-0.012397345539639773   -0.10908672097588232   -0.004543362418218767
-0.0036326818002233156   -0.10890412776389997   -0.004360259119459376
-0.005625155093829059   -0.1259948469526456   -0.004286190752638336
-0.0037818691152155374   -0.10886058045488806   -0.004479567962447982
-0.012397345539639773   -0.10908672097588232   -0.004543362418218767
-0.005625155093829059   -0.1259948469526456   -0.004286190752638336
-0.01274464756196808   -0.1261206200047349   -0.004493355087323835
-0.01296921464978992   -0.12603062826048939   -0.004514401783039107
-0.012397345539639773   -0.10908672097588232   -0.004543362418218767
-0.005625155093829059   -0.1259948469526456   -0.004286190752638336
-0.01296921464978992   -0.12603062826048939   -0.004514401783039107
-0.0037818691152155374   -0.10886058045488806   -0.004479567962447982
-0.012397345539639773   -0.10908672097588232   -0.004543362418218767
-0.01274464756196808   -0.1261206200047349   -0.004493355087323835
-0.0036326818002233156   -0.10890412776389997   -0.004360259119459376
-0.012244143331210404   -0.10923677338285588   -0.004527587831240155
-0.01274464756196808   -0.1261206200047349   -0.004493355087323835
-0.005625155093829059   -0.1259948469526456   -0.004286190752638336
-0.0036326818002233156   -0.10890412776389997   -0.004360259119459376
-0.00541624551045778   -0.12610857019170468   -0.004156216381812084
-0.012244143331210404   -0.10923677338285588   -0.004527587831240155
-0.003499642749129229   -0.10899324348661683   -0.004262389080270005
-0.00541624551045778   -0.12610857019170468   -0.004156216381812084
-0.0036326818002233156   -0.10890412776389997   -0.004360259119459376
-0.012244143331210404   -0.10923677338285588   -0.004527587831240155
-0.00541624551045778   -0.12610857019170468   -0.004156216381812084
-0.012520467762131442   -0.1262859869504687   -0.004492668501764761
-0.01274464756196808   -0.1261206200047349   -0.004493355087323835
-0.012244143331210404   -0.10923677338285588   -0.004527587831240155
-0.00541624551045778   -0.12610857019170468   -0.004156216381812084
-0.01274464756196808   -0.1261206200047349   -0.004493355087323835
-0.0036326818002233156   -0.10890412776389997   -0.004360259119459376
-0.003935096364509106   -0.10885896920319932   -0.0046195931490867655
-0.006094818276005054   -0.12597905148231903   -0.0046083106683222986
0.005117766158308379   -0.10864444432925376   -0.004702058877252704
-0.0037818691152155374   -0.10886058045488806   -0.004479567962447982
-0.006094818276005054   -0.12597905148231903   -0.0046083106683222986
0.0013319968031836227   -0.12572001330520413   -0.00473598418775196
0.005117766158308379   -0.10864444432925376   -0.004702058877252704
0.0016218745931776148   -0.12564098143618382   -0.004434029617143261
-0.0037818691152155374   -0.10886058045488806   -0.004479567962447982
0.00530508133782132   -0.10858569034748902   -0.004480925439288562
0.0016218745931776148   -0.12564098143618382   -0.004434029617143261
0.005117766158308379   -0.10864444432925376   -0.004702058877252704
-0.0037818691152155374   -0.10886058045488806   -0.004479567962447982
0.0016218745931776148   -0.12564098143618382   -0.004434029617143261
-0.0058564441408468304   -0.12595481572170134   -0.0044362511018101
-0.006094818276005054   -0.12597905148231903   -0.0046083106683222986
-0.0037818691152155374   -0.10886058045488806   -0.004479567962447982
0.0016218745931776148   -0.12564098143618382   -0.004434029617143261
-0.006094818276005054   -0.12597905148231903   -0.0046083106683222986
0.005117766158308379   -0.10864444432925376   -0.004702058877252704
-0.0037818691152155374   -0.10886058045488806   -0.004479567962447982
-0.0058564441408468304   -0.12595481572170134   -0.0044362511018101
0.00530508133782132   -0.10858569034748902   -0.004480925439288562
-0.0036326818002233156   -0.10890412776389997   -0.004360259119459376
-0.0058564441408468304   -0.12595481572170134   -0.0044362511018101
0.0016218745931776148   -0.12564098143618382   -0.004434029617143261
0.00530508133782132   -0.10858569034748902   -0.004480925439288562
0.0019271862335478666   -0.1256338110973506   -0.004159976123462102
-0.0036326818002233156   -0.10890412776389997   -0.004360259119459376
0.005497048288305879   -0.10857483352183853   -0.0042818423777340785
0.0019271862335478666   -0.1256338110973506   -0.004159976123462102
0.00530508133782132   -0.10858569034748902   -0.004480925439288562
-0.0036326818002233156   -0.10890412776389997   -0.004360259119459376
0.0019271862335478666   -0.1256338110973506   -0.004159976123462102
-0.005625155093829059   -0.1259948469526456   -0.004286190752638336
-0.0058564441408468304   -0.12595481572170134   -0.0044362511018101
-0.0036326818002233156   -0.10890412776389997   -0.004360259119459376
0.0019271862335478666   -0.1256338110973506   -0.004159976123462102
-0.0058564441408468304   -0.12595481572170134   -0.0044362511018101
0.00530508133782132   -0.10858569034748902   -0.004480925439288562
-0.0036326818002233156   -0.10890412776389997   -0.004360259119459376
-0.005625155093829059   -0.1259948469526456   -0.004286190752638336
0.005497048288305879   -0.10857483352183853   -0.0042818423777340785
-0.003499642749129229   -0.10899324348661683   -0.004262389080270005
-0.005625155093829059   -0.1259948469526456   -0.004286190752638336
0.0019271862335478666   -0.1256338110973506   -0.004159976123462102
0.005497048288305879   -0.10857483352183853   -0.0042818423777340785
0.002150485087112515   -0.12569525771267567   -0.0039051407213837592
-0.003499642749129229   -0.10899324348661683   -0.004262389080270005
0.005624532795280517   -0.10860301445349743   -0.004101904152671211
0.002150485087112515   -0.12569525771267567   -0.0039051407213837592
0.005497048288305879   -0.10857483352183853   -0.0042818423777340785
-0.003499642749129229   -0.10899324348661683   -0.004262389080270005
0.002150485087112515   -0.12569525771267567   -0.0039051407213837592
-0.00541624551045778   -0.12610857019170468   -0.004156216381812084
-0.005625155093829059   -0.1259948469526456   -0.004286190752638336
-0.003499642749129229   -0.10899324348661683   -0.004262389080270005
0.002150485087112515   -0.12569525771267567   -0.0039051407213837592
-0.005625155093829059   -0.1259948469526456   -0.004286190752638336
0.005497048288305879   -0.10857483352183853   -0.0042818423777340785
0.005117766158308379   -0.10864444432925376   -0.004702058877252704
0.0013319968031836227   -0.12572001330520413   -0.00473598418775196
0.014751636691792256   -0.10827571624643528   -0.004915879994094071
0.00530508133782132   -0.10858569034748902   -0.004480925439288562
0.0013319968031836227   -0.12572001330520413   -0.00473598418775196
0.009254555785727906   -0.1252100208996797   -0.005009803792544049
0.014751636691792256   -0.10827571624643528   -0.004915879994094071
0.009987355428689396   -0.12505819364461146   -0.004547751003396539
0.00530508133782132   -0.10858569034748902   -0.004480925439288562
0.015249878228238685   -0.10815434314520664   -0.004594268847460337
0.009987355428689396   -0.12505819364461146   -0.004547751003396539
0.014751636691792256   -0.10827571624643528   -0.004915879994094071
0.00530508133782132   -0.10858569034748902   -0.004480925439288562
0.009987355428689396   -0.12505819364461146   -0.004547751003396539
0.0016218745931776148   -0.12564098143618382   -0.004434029617143261
0.0013319968031836227   -0.12572001330520413   -0.00473598418775196
0.00530508133782132   -0.10858569034748902   -0.004480925439288562
0.009987355428689396   -0.12505819364461146   -0.004547751003396539
0.0013319968031836227   -0.12572001330520413   -0.00473598418775196
0.014751636691792256   -0.10827571624643528   -0.004915879994094071
0.00530508133782132   -0.10858569034748902   -0.004480925439288562
0.0016218745931776148   -0.12564098143618382   -0.004434029617143261
0.015249878228238685   -0.10815434314520664   -0.004594268847460337
0.005497048288305879   -0.10857483352183853   -0.0042818423777340785
0.0016218745931776148   -0.12564098143618382   -0.004434029617143261
0.009987355428689396   -0.12505819364461146   -0.004547751003396539
0.015249878228238685   -0.10815434314520664   -0.004594268847460337
0.010549107435161204   -0.1250319092228831   -0.004120292378834129
0.005497048288305879   -0.10857483352183853   -0.0042818423777340785
0.015618594023005333   -0.1081210665392369   -0.004301966259232797
0.010549107435161204   -0.1250319092228831   -0.004120292378834129
0.015249878228238685   -0.10815434314520664   -0.004594268847460337
0.005497048288305879   -0.10857483352183853   -0.0042818423777340785
0.010549107435161204   -0.1250319092228831   -0.004120292378834129
0.0019271862335478666   -0.1256338110973506   -0.004159976123462102
0.0016218745931776148   -0.12564098143618382   -0.004434029617143261
0.005497048288305879   -0.10857483352183853   -0.0042818423777340785
0.010549107435161204   -0.1250319092228831   -0.004120292378834129
0.0016218745931776148   -0.12564098143618382   -0.004434029617143261
0.015249878228238685   -0.10815434314520664   -0.004594268847460337
0.005497048288305879   -0.10857483352183853   -0.0042818423777340785
0.0019271862335478666   -0.1256338110973506   -0.004159976123462102
0.015618594023005333   -0.1081210665392369   -0.004301966259232797
0.005624532795280517   -0.10860301445349743   -0.004101904152671211
0.0019271862335478666   -0.1256338110973506   -0.004159976123462102
0.010549107435161204   -0.1250319092228831   -0.004120292378834129
0.015618594023005333   -0.1081210665392369   -0.004301966259232797
0.011130497993695787   -0.12507671174109294   -0.0037309312857364356
0.005624532795280517   -0.10860301445349743   -0.004101904152671211
0.01599198666494779   -0.10812066105960425   -0.004040296387193112
0.011130497993695787   -0.12507671174109294   -0.0037309312857364356
0.015618594023005333   -0.1081210665392369   -0.004301966259232797
0.005624532795280517   -0.10860301445349743   -0.004101904152671211
0.011130497993695787   -0.12507671174109294   -0.0037309312857364356
0.002150485087112515   -0.12569525771267567   -0.0039051407213837592
0.0019271862335478666   -0.1256338110973506   -0.004159976123462102
0.005624532795280517   -0.10860301445349743   -0.004101904152671211
0.011130497993695787   -0.12507671174109294   -0.0037309312857364356
0.0019271862335478666   -0.1256338110973506   -0.004159976123462102
0.015618594023005333   -0.1081210665392369   -0.004301966259232797
-0.028998742058496806   -0.12543040984963988   -0.004596553856728986
-0.024274677038287503   -0.13862975602741406   -0.004169448289057583
-0.02052272488672125   -0.1258259716797955   -0.0045676955834794255
-0.028557676810517945   -0.12551544074068408   -0.004857894287839764
-0.024274677038287503   -0.13862975602741406   -0.004169448289057583
-0.018244060927875505   -0.13921630550967837   -0.004345548605217571
-0.02052272488672125   -0.1258259716797955   -0.0045676955834794255
-0.017937911469308288   -0.13918581882819406   -0.004489389805582487
-0.028557676810517945   -0.12551544074068408   -0.004857894287839764
-0.020310715152608263   -0.12588323109679794   -0.004661132909031736
-0.017937911469308288   -0.13918581882819406   -0.004489389805582487
-0.02052272488672125   -0.1258259716797955   -0.0045676955834794255
-0.028557676810517945   -0.12551544074068408   -0.004857894287839764
-0.017937911469308288   -0.13918581882819406   -0.004489389805582487
-0.023615881596131087   -0.13861306623391412   -0.004557330715358079
-0.024274677038287503   -0.13862975602741406   -0.004169448289057583
-0.028557676810517945   -0.12551544074068408   -0.004857894287839764
-0.017937911469308288   -0.13918581882819406   -0.004489389805582487
-0.024274677038287503   -0.13862975602741406   -0.004169448289057583
-0.02052272488672125   -0.1258259716797955   -0.0045676955834794255
-0.028557676810517945   -0.12551544074068408   -0.004857894287839764
-0.023615881596131087   -0.13861306623391412   -0.004557330715358079
-0.020310715152608263   -0.12588323109679794   -0.004661132909031736
-0.028117466557585666   -0.12567615107184854   -0.005153870880032836
-0.023615881596131087   -0.13861306623391412   -0.004557330715358079
-0.017937911469308288   -0.13918581882819406   -0.004489389805582487
-0.020310715152608263   -0.12588323109679794   -0.004661132909031736
-0.017578017432146164   -0.13926976076628594   -0.004654996249999772
-0.028117466557585666   -0.12567615107184854   -0.005153870880032836
-0.02004444741253786   -0.1260201812126274   -0.004775839559991624
-0.017578017432146164   -0.13926976076628594   -0.004654996249999772
-0.020310715152608263   -0.12588323109679794   -0.004661132909031736
-0.028117466557585666   -0.12567615107184854   -0.005153870880032836
-0.017578017432146164   -0.13926976076628594   -0.004654996249999772
-0.023008420752695522   -0.13871685922449212   -0.004975852587176178
-0.023615881596131087   -0.13861306623391412   -0.004557330715358079
-0.028117466557585666   -0.12567615107184854   -0.005153870880032836
-0.017578017432146164   -0.13926976076628594   -0.004654996249999772
-0.023615881596131087   -0.13861306623391412   -0.004557330715358079
-0.020310715152608263   -0.12588323109679794   -0.004661132909031736
-0.028117466557585666   -0.12567615107184854   -0.005153870880032836
-0.023008420752695522   -0.13871685922449212   -0.004975852587176178
-0.02004444741253786   -0.1260201812126274   -0.004775839559991624
-0.027553510067145383   -0.1259758255250676   -0.005483824291315736
-0.023008420752695522   -0.13871685922449212   -0.004975852587176178
-0.017578017432146164   -0.13926976076628594   -0.004654996249999772
-0.02004444741253786   -0.1260201812126274   -0.004775839559991624
-0.017251512693937873   -0.1394700157227465   -0.004840971964488597
-0.027553510067145383   -0.1259758255250676   -0.005483824291315736
-0.019781675412569092   -0.12624459600293733   -0.004911616634002903
-0.017251512693937873   -0.1394700157227465   -0.004840971964488597
-0.02004444741253786   -0.1260201812126274   -0.004775839559991624
-0.027553510067145383   -0.1259758255250676   -0.005483824291315736
-0.017251512693937873   -0.1394700157227465   -0.004840971964488597
-0.022267654253916462   -0.13899466342407507   -0.005423187555425165
-0.023008420752695522   -0.13871685922449212   -0.004975852587176178
-0.027553510067145383   -0.1259758255250676   -0.005483824291315736
-0.017251512693937873   -0.1394700157227465   -0.004840971964488597
-0.023008420752695522   -0.13871685922449212   -0.004975852587176178
-0.02004444741253786   -0.1260201812126274   -0.004775839559991624
-0.02052272488672125   -0.1258259716797955   -0.0045676955834794255
-0.018244060927875505   -0.13921630550967837   -0.004345548605217571
-0.01318682939530431   -0.12601177192387683   -0.004556088619199061
-0.020310715152608263   -0.12588323109679794   -0.004661132909031736
-0.018244060927875505   -0.13921630550967837   -0.004345548605217571
-0.013320968082885219   -0.13959778903101724   -0.004483319502243392
-0.01318682939530431   -0.12601177192387683   -0.004556088619199061
-0.013006637094492618   -0.13954923081240017   -0.004439287173007773
-0.020310715152608263   -0.12588323109679794   -0.004661132909031736
-0.01296921464978992   -0.12603062826048939   -0.004514401783039107
-0.013006637094492618   -0.13954923081240017   -0.004439287173007773
-0.01318682939530431   -0.12601177192387683   -0.004556088619199061
-0.020310715152608263   -0.12588323109679794   -0.004661132909031736
-0.013006637094492618   -0.13954923081240017   -0.004439287173007773
-0.017937911469308288   -0.13918581882819406   -0.004489389805582487
-0.018244060927875505   -0.13921630550967837   -0.004345548605217571
-0.020310715152608263   -0.12588323109679794   -0.004661132909031736
-0.013006637094492618   -0.13954923081240017   -0.004439287173007773
-0.018244060927875505   -0.13921630550967837   -0.004345548605217571
-0.01318682939530431   -0.12601177192387683   -0.004556088619199061
-0.020310715152608263   -0.12588323109679794   -0.004661132909031736
-0.017937911469308288   -0.13918581882819406   -0.004489389805582487
-0.01296921464978992   -0.12603062826048939   -0.004514401783039107
-0.02004444741253786   -0.1260201812126274   -0.004775839559991624
-0.017937911469308288   -0.13918581882819406   -0.004489389805582487
-0.013006637094492618   -0.13954923081240017   -0.004439287173007773
-0.01296921464978992   -0.12603062826048939   -0.004514401783039107
-0.012696835017382804   -0.13959938684328171   -0.004416382012889216
-0.02004444741253786   -0.1260201812126274   -0.004775839559991624
-0.01274464756196808   -0.1261206200047349   -0.004493355087323835
-0.012696835017382804   -0.13959938684328171   -0.004416382012889216
-0.01296921464978992   -0.12603062826048939   -0.004514401783039107
-0.02004444741253786   -0.1260201812126274   -0.004775839559991624
-0.012696835017382804   -0.13959938684328171   -0.004416382012889216
-0.017578017432146164   -0.13926976076628594   -0.004654996249999772
-0.017937911469308288   -0.13918581882819406   -0.004489389805582487
-0.02004444741253786   -0.1260201812126274   -0.004775839559991624
-0.012696835017382804   -0.13959938684328171   -0.004416382012889216
-0.017937911469308288   -0.13918581882819406   -0.004489389805582487
-0.01296921464978992   -0.12603062826048939   -0.004514401783039107
-0.02004444741253786   -0.1260201812126274   -0.004775839559991624
-0.017578017432146164   -0.13926976076628594   -0.004654996249999772
-0.01274464756196808   -0.1261206200047349   -0.004493355087323835
-0.019781675412569092   -0.12624459600293733   -0.004911616634002903
-0.017578017432146164   -0.13926976076628594   -0.004654996249999772
-0.012696835017382804   -0.13959938684328171   -0.004416382012889216
-0.01274464756196808   -0.1261206200047349   -0.004493355087323835
-0.012411895272465912   -0.1397515830313743   -0.00441904891307355
-0.019781675412569092   -0.12624459600293733   -0.004911616634002903
-0.012520467762131442   -0.1262859869504687   -0.004492668501764761
-0.012411895272465912   -0.1397515830313743   -0.00441904891307355
-0.01274464756196808   -0.1261206200047349   -0.004493355087323835
-0.019781675412569092   -0.12624459600293733   -0.004911616634002903
-0.012411895272465912   -0.1397515830313743   -0.00441904891307355
-0.017251512693937873   -0.1394700157227465   -0.004840971964488597
-0.017578017432146164   -0.13926976076628594   -0.004654996249999772
-0.019781675412569092   -0.12624459600293733   -0.004911616634002903
-0.012411895272465912   -0.1397515830313743   -0.00441904891307355
-0.017578017432146164   -0.13926976076628594   -0.004654996249999772
-0.01274464756196808   -0.1261206200047349   -0.004493355087323835
-0.01318682939530431   -0.12601177192387683   -0.004556088619199061
-0.013320968082885219   -0.13959778903101724   -0.004483319502243392
-0.006094818276005054   -0.12597905148231903   -0.0046083106683222986
-0.01296921464978992   -0.12603062826048939   -0.004514401783039107
-0.013320968082885219   -0.13959778903101724   -0.004483319502243392
-0.008606105866896634   -0.1398002460336092   -0.0046456781997189145
-0.006094818276005054   -0.12597905148231903   -0.0046083106683222986
-0.008251721202088743   -0.13973045511556398   -0.00442454787976782
-0.01296921464978992   -0.12603062826048939   -0.004514401783039107
-0.0058564441408468304   -0.12595481572170134   -0.0044362511018101
-0.008251721202088743   -0.13973045511556398   -0.00442454787976782
-0.006094818276005054   -0.12597905148231903   -0.0046083106683222986
-0.01296921464978992   -0.12603062826048939   -0.004514401783039107
-0.008251721202088743   -0.13973045511556398   -0.00442454787976782
-0.013006637094492618   -0.13954923081240017   -0.004439287173007773
-0.013320968082885219   -0.13959778903101724   -0.004483319502243392
-0.01296921464978992   -0.12603062826048939   -0.004514401783039107
-0.008251721202088743   -0.13973045511556398   -0.00442454787976782
-0.013320968082885219   -0.13959778903101724   -0.004483319502243392
-0.006094818276005054   -0.12597905148231903   -0.0046083106683222986
-0.01296921464978992   -0.12603062826048939   -0.004514401783039107
-0.013006637094492618   -0.13954923081240017   -0.004439287173007773
-0.0058564441408468304   -0.12595481572170134   -0.0044362511018101
-0.01274464756196808   -0.1261206200047349   -0.004493355087323835
-0.013006637094492618   -0.13954923081240017   -0.004439287173007773
-0.008251721202088743   -0.13973045511556398   -0.00442454787976782
-0.0058564441408468304   -0.12595481572170134   -0.0044362511018101
-0.00791399469041545   -0.13974735429324997   -0.004222044578339154
-0.01274464756196808   -0.1261206200047349   -0.004493355087323835
-0.005625155093829059   -0.1259948469526456   -0.004286190752638336
-0.00791399469041545   -0.13974735429324997   -0.004222044578339154
-0.0058564441408468304   -0.12595481572170134   -0.0044362511018101
-0.01274464756196808   -0.1261206200047349   -0.004493355087323835
-0.00791399469041545   -0.13974735429324997   -0.004222044578339154
-0.012696835017382804   -0.13959938684328171   -0.004416382012889216
-0.013006637094492618   -0.13954923081240017   -0.004439287173007773
-0.01274464756196808   -0.1261206200047349   -0.004493355087323835
-0.00791399469041545   -0.13974735429324997   -0.004222044578339154
-0.013006637094492618   -0.13954923081240017   -0.004439287173007773
-0.0058564441408468304   -0.12595481572170134   -0.0044362511018101
-0.01274464756196808   -0.1261206200047349   -0.004493355087323835
-0.012696835017382804   -0.13959938684328171   -0.004416382012889216
-0.005625155093829059   -0.1259948469526456   -0.004286190752638336
-0.012520467762131442   -0.1262859869504687   -0.004492668501764761
-0.012696835017382804   -0.13959938684328171   -0.004416382012889216
-0.00791399469041545   -0.13974735429324997   -0.004222044578339154
-0.005625155093829059   -0.1259948469526456   -0.004286190752638336
-0.0076332905512296705   -0.1398680419158763   -0.004049917747532123
-0.012520467762131442   -0.1262859869504687   -0.004492668501764761
-0.00541624551045778   -0.12610857019170468   -0.004156216381812084
-0.0076332905512296705   -0.1398680419158763   -0.004049917747532123
-0.005625155093829059   -0.1259948469526456   -0.004286190752638336
-0.012520467762131442   -0.1262859869504687   -0.004492668501764761
-0.0076332905512296705   -0.1398680419158763   -0.004049917747532123
-0.012411895272465912   -0.1397515830313743   -0.00441904891307355
-0.012696835017382804   -0.13959938684328171   -0.004416382012889216
-0.012520467762131442   -0.1262859869504687   -0.004492668501764761
-0.0076332905512296705   -0.1398680419158763   -0.004049917747532123
-0.012696835017382804   -0.13959938684328171   -0.004416382012889216
-0.005625155093829059   -0.1259948469526456   -0.004286190752638336
-0.006094818276005054   -0.12597905148231903   -0.0046083106683222986
-0.008606105866896634   -0.1398002460336092   -0.0046456781997189145
0.0013319968031836227   -0.12572001330520413   -0.00473598418775196
-0.0058564441408468304   -0.12595481572170134   -0.0044362511018101
-0.008606105866896634   -0.1398002460336092   -0.0046456781997189145
-0.003589112230619288   -0.13975345152041116   -0.004836547692604083
0.0013319968031836227   -0.12572001330520413   -0.00473598418775196
-0.0031341182610343217   -0.1396441131051812   -0.00444610409922286
-0.0058564441408468304   -0.12595481572170134   -0.0044362511018101
0.0016218745931776148   -0.12564098143618382   -0.004434029617143261
-0.0031341182610343217   -0.1396441131051812   -0.00444610409922286
0.0013319968031836227   -0.12572001330520413   -0.00473598418775196
-0.0058564441408468304   -0.12595481572170134   -0.0044362511018101
-0.0031341182610343217   -0.1396441131051812   -0.00444610409922286
-0.008251721202088743   -0.13973045511556398   -0.00442454787976782
-0.008606105866896634   -0.1398002460336092   -0.0046456781997189145
-0.0058564441408468304   -0.12595481572170134   -0.0044362511018101
-0.0031341182610343217   -0.1396441131051812   -0.00444610409922286
-0.008606105866896634   -0.1398002460336092   -0.0046456781997189145
0.0013319968031836227   -0.12572001330520413   -0.00473598418775196
-0.0058564441408468304   -0.12595481572170134   -0.0044362511018101
-0.008251721202088743   -0.13973045511556398   -0.00442454787976782
0.0016218745931776148   -0.12564098143618382   -0.004434029617143261
-0.005625155093829059   -0.1259948469526456   -0.004286190752638336
-0.008251721202088743   -0.13973045511556398   -0.00442454787976782
-0.0031341182610343217   -0.1396441131051812   -0.00444610409922286
0.0016218745931776148   -0.12564098143618382   -0.004434029617143261
-0.002669349375613034   -0.1396245763814658   -0.004075615895566281
-0.005625155093829059   -0.1259948469526456   -0.004286190752638336
0.0019271862335478666   -0.1256338110973506   -0.004159976123462102
-0.002669349375613034   -0.1396245763814658   -0.004075615895566281
0.0016218745931776148   -0.12564098143618382   -0.004434029617143261
-0.005625155093829059   -0.1259948469526456   -0.004286190752638336
-0.002669349375613034   -0.1396245763814658   -0.004075615895566281
-0.00791399469041545   -0.13974735429324997   -0.004222044578339154
-0.008251721202088743   -0.13973045511556398   -0.00442454787976782
-0.005625155093829059   -0.1259948469526456   -0.004286190752638336
-0.002669349375613034   -0.1396245763814658   -0.004075615895566281
-0.008251721202088743   -0.13973045511556398   -0.00442454787976782
0.0016218745931776148   -0.12564098143618382   -0.004434029617143261
-0.005625155093829059   -0.1259948469526456   -0.004286190752638336
-0.00791399469041545   -0.13974735429324997   -0.004222044578339154
0.0019271862335478666   -0.1256338110973506   -0.004159976123462102
-0.00541624551045778   -0.12610857019170468   -0.004156216381812084
-0.00791399469041545   -0.13974735429324997   -0.004222044578339154
-0.002669349375613034   -0.1396245763814658   -0.004075615895566281
0.0019271862335478666   -0.1256338110973506   -0.004159976123462102
-0.002324859022578961   -0.13971437893378028   -0.003739342897340694
-0.00541624551045778   -0.12610857019170468   -0.004156216381812084
0.002150485087112515   -0.12569525771267567   -0.0039051407213837592
-0.002324859022578961   -0.13971437893378028   -0.003739342897340694
0.0019271862335478666   -0.1256338110973506   -0.004159976123462102
-0.00541624551045778   -0.12610857019170468   -0.004156216381812084
-0.002324859022578961   -0.13971437893378028   -0.003739342897340694
-0.0076332905512296705   -0.1398680419158763   -0.004049917747532123
-0.00791399469041545   -0.13974735429324997   -0.004222044578339154
-0.00541624551045778   -0.12610857019170468   -0.004156216381812084
-0.002324859022578961   -0.13971437893378028   -0.003739342897340694
-0.00791399469041545   -0.13974735429324997   -0.004222044578339154
0.0019271862335478666   -0.1256338110973506   -0.004159976123462102
0.0013319968031836227   -0.12572001330520413   -0.00473598418775196
-0.003589112230619288   -0.13975345152041116   -0.004836547692604083
0.009254555785727906   -0.1252100208996797   -0.005009803792544049
0.0016218745931776148   -0.12564098143618382   -0.004434029617143261
-0.003589112230619288   -0.13975345152041116   -0.004836547692604083
0.001817069814821632   -0.13927286911307066   -0.005229013462197612
0.009254555785727906   -0.1252100208996797   -0.005009803792544049
0.00287432974421282   -0.13903451873718017   -0.004590107242672944
0.0016218745931776148   -0.12564098143618382   -0.004434029617143261
0.009987355428689396   -0.12505819364461146   -0.004547751003396539
0.00287432974421282   -0.13903451873718017   -0.004590107242672944
0.009254555785727906   -0.1252100208996797   -0.005009803792544049
0.0016218745931776148   -0.12564098143618382   -0.004434029617143261
0.00287432974421282   -0.13903451873718017   -0.004590107242672944
-0.0031341182610343217   -0.1396441131051812   -0.00444610409922286
-0.003589112230619288   -0.13975345152041116   -0.004836547692604083
0.0016218745931776148   -0.12564098143618382   -0.004434029617143261
0.00287432974421282   -0.13903451873718017   -0.004590107242672944
-0.003589112230619288   -0.13975345152041116   -0.004836547692604083
0.009254555785727906   -0.1252100208996797   -0.005009803792544049
0.0016218745931776148   -0.12564098143618382   -0.004434029617143261
-0.0031341182610343217   -0.1396441131051812   -0.00444610409922286
0.009987355428689396   -0.12505819364461146   -0.004547751003396539
0.0019271862335478666   -0.1256338110973506   -0.004159976123462102
-0.0031341182610343217   -0.1396441131051812   -0.00444610409922286
0.00287432974421282   -0.13903451873718017   -0.004590107242672944
0.009987355428689396   -0.12505819364461146   -0.004547751003396539
0.003705379219701211   -0.1389860427954741   -0.0039904797870375505
0.0019271862335478666   -0.1256338110973506   -0.004159976123462102
0.010549107435161204   -0.1250319092228831   -0.004120292378834129
0.003705379219701211   -0.1389860427954741   -0.0039904797870375505
0.009987355428689396   -0.12505819364461146   -0.004547751003396539
0.0019271862335478666   -0.1256338110973506   -0.004159976123462102
0.003705379219701211   -0.1389860427954741   -0.0039904797870375505
-0.002669349375613034   -0.1396245763814658   -0.004075615895566281
-0.0031341182610343217   -0.1396441131051812   -0.00444610409922286
0.0019271862335478666   -0.1256338110973506   -0.004159976123462102
0.003705379219701211   -0.1389860427954741   -0.0039904797870375505
-0.0031341182610343217   -0.1396441131051812   -0.00444610409922286
0.009987355428689396   -0.12505819364461146   -0.004547751003396539
0.0019271862335478666   -0.1256338110973506   -0.004159976123462102
-0.002669349375613034   -0.1396245763814658   -0.004075615895566281
0.010549107435161204   -0.1250319092228831   -0.004120292378834129
0.002150485087112515   -0.12569525771267567   -0.0039051407213837592
-0.002669349375613034   -0.1396245763814658   -0.004075615895566281
0.003705379219701211   -0.1389860427954741   -0.0039904797870375505
0.010549107435161204   -0.1250319092228831   -0.004120292378834129
0.004568212321619339   -0.13902578133566953   -0.0034431743006984026
0.002150485087112515   -0.12569525771267567   -0.0039051407213837592
0.011130497993695787   -0.12507671174109294   -0.0037309312857364356
0.004568212321619339   -0.13902578133566953   -0.0034431743006984026
0.010549107435161204   -0.1250319092228831   -0.004120292378834129
0.002150485087112515   -0.12569525771267567   -0.0039051407213837592
0.004568212321619339   -0.13902578133566953   -0.0034431743006984026
-0.002324859022578961   -0.13971437893378028   -0.003739342897340694
-0.002669349375613034   -0.1396245763814658   -0.004075615895566281
0.002150485087112515   -0.12569525771267567   -0.0039051407213837592
0.004568212321619339   -0.13902578133566953   -0.0034431743006984026
-0.002669349375613034   -0.1396245763814658   -0.004075615895566281
0.010549107435161204   -0.1250319092228831   -0.004120292378834129
-0.024274677038287503   -0.13862975602741406   -0.004169448289057583
-0.017772847538040776   -0.14646998748258683   -0.003668205468335567
-0.018244060927875505   -0.13921630550967837   -0.004345548605217571
-0.023615881596131087   -0.13861306623391412   -0.004557330715358079
-0.017772847538040776   -0.14646998748258683   -0.003668205468335567
-0.014973619768727476   -0.1472124303646326   -0.0041152461973895165
-0.018244060927875505   -0.13921630550967837   -0.004345548605217571
-0.014586820970105469   -0.14706508514034508   -0.004268070801426172
-0.023615881596131087   -0.13861306623391412   -0.004557330715358079
-0.017937911469308288   -0.13918581882819406   -0.004489389805582487
-0.014586820970105469   -0.14706508514034508   -0.004268070801426172
-0.018244060927875505   -0.13921630550967837   -0.004345548605217571
-0.023615881596131087   -0.13861306623391412   -0.004557330715358079
-0.014586820970105469   -0.14706508514034508   -0.004268070801426172
-0.016951071056983902   -0.1463040738046474   -0.004133716648946026
-0.017772847538040776   -0.14646998748258683   -0.003668205468335567
-0.023615881596131087   -0.13861306623391412   -0.004557330715358079
-0.014586820970105469   -0.14706508514034508   -0.004268070801426172
-0.017772847538040776   -0.14646998748258683   -0.003668205468335567
-0.018244060927875505   -0.13921630550967837   -0.004345548605217571
-0.023615881596131087   -0.13861306623391412   -0.004557330715358079
-0.016951071056983902   -0.1463040738046474   -0.004133716648946026
-0.017937911469308288   -0.13918581882819406   -0.004489389805582487
-0.023008420752695522   -0.13871685922449212   -0.004975852587176178
-0.016951071056983902   -0.1463040738046474   -0.004133716648946026
-0.014586820970105469   -0.14706508514034508   -0.004268070801426172
-0.017937911469308288   -0.13918581882819406   -0.004489389805582487
-0.01415874090983046   -0.1470715152931899   -0.004422429454593448
-0.023008420752695522   -0.13871685922449212   -0.004975852587176178
-0.017578017432146164   -0.13926976076628594   -0.004654996249999772
-0.01415874090983046   -0.1470715152931899   -0.004422429454593448
-0.017937911469308288   -0.13918581882819406   -0.004489389805582487
-0.023008420752695522   -0.13871685922449212   -0.004975852587176178
-0.01415874090983046   -0.1470715152931899   -0.004422429454593448
-0.01624196317690402   -0.14631731130769318   -0.004597359936498658
-0.016951071056983902   -0.1463040738046474   -0.004133716648946026
-0.023008420752695522   -0.13871685922449212   -0.004975852587176178
-0.01415874090983046   -0.1470715152931899   -0.004422429454593448
-0.016951071056983902   -0.1463040738046474   -0.004133716648946026
-0.017937911469308288   -0.13918581882819406   -0.004489389805582487
-0.023008420752695522   -0.13871685922449212   -0.004975852587176178
-0.01624196317690402   -0.14631731130769318   -0.004597359936498658
-0.017578017432146164   -0.13926976076628594   -0.004654996249999772
-0.022267654253916462   -0.13899466342407507   -0.005423187555425165
-0.01624196317690402   -0.14631731130769318   -0.004597359936498658
-0.01415874090983046   -0.1470715152931899   -0.004422429454593448
-0.017578017432146164   -0.13926976076628594   -0.004654996249999772
-0.01376088827569432   -0.1472323951367418   -0.004578970454821439
-0.022267654253916462   -0.13899466342407507   -0.005423187555425165
-0.017251512693937873   -0.1394700157227465   -0.004840971964488597
-0.01376088827569432   -0.1472323951367418   -0.004578970454821439
-0.017578017432146164   -0.13926976076628594   -0.004654996249999772
-0.022267654253916462   -0.13899466342407507   -0.005423187555425165
-0.01376088827569432   -0.1472323951367418   -0.004578970454821439
-0.015401118236206284   -0.14651989544298133   -0.005071013786776897
-0.01624196317690402   -0.14631731130769318   -0.004597359936498658
-0.022267654253916462   -0.13899466342407507   -0.005423187555425165
-0.01376088827569432   -0.1472323951367418   -0.004578970454821439
-0.01624196317690402   -0.14631731130769318   -0.004597359936498658
-0.017578017432146164   -0.13926976076628594   -0.004654996249999772
-0.018244060927875505   -0.13921630550967837   -0.004345548605217571
-0.014973619768727476   -0.1472124303646326   -0.0041152461973895165
-0.013320968082885219   -0.13959778903101724   -0.004483319502243392
-0.017937911469308288   -0.13918581882819406   -0.004489389805582487
-0.014973619768727476   -0.1472124303646326   -0.0041152461973895165
-0.01292692050953977   -0.14796061249786394   -0.004510555159800944
-0.013320968082885219   -0.13959778903101724   -0.004483319502243392
-0.012518521870698728   -0.1478095935618899   -0.004402598138364561
-0.017937911469308288   -0.13918581882819406   -0.004489389805582487
-0.013006637094492618   -0.13954923081240017   -0.004439287173007773
-0.012518521870698728   -0.1478095935618899   -0.004402598138364561
-0.013320968082885219   -0.13959778903101724   -0.004483319502243392
-0.017937911469308288   -0.13918581882819406   -0.004489389805582487
-0.012518521870698728   -0.1478095935618899   -0.004402598138364561
-0.014586820970105469   -0.14706508514034508   -0.004268070801426172
-0.014973619768727476   -0.1472124303646326   -0.0041152461973895165
-0.017937911469308288   -0.13918581882819406   -0.004489389805582487
-0.012518521870698728   -0.1478095935618899   -0.004402598138364561
-0.014973619768727476   -0.1472124303646326   -0.0041152461973895165
-0.013320968082885219   -0.13959778903101724   -0.004483319502243392
-0.017937911469308288   -0.13918581882819406   -0.004489389805582487
-0.014586820970105469   -0.14706508514034508   -0.004268070801426172
-0.013006637094492618   -0.13954923081240017   -0.004439287173007773
-0.017578017432146164   -0.13926976076628594   -0.004654996249999772
-0.014586820970105469   -0.14706508514034508   -0.004268070801426172
-0.012518521870698728   -0.1478095935618899   -0.004402598138364561
-0.013006637094492618   -0.13954923081240017   -0.004439287173007773
-0.012123799281556878   -0.14780625169174152   -0.004293277544224626
-0.017578017432146164   -0.13926976076628594   -0.004654996249999772
-0.012696835017382804   -0.13959938684328171   -0.004416382012889216
-0.012123799281556878   -0.14780625169174152   -0.004293277544224626
-0.013006637094492618   -0.13954923081240017   -0.004439287173007773
-0.017578017432146164   -0.13926976076628594   -0.004654996249999772
-0.012123799281556878   -0.14780625169174152   -0.004293277544224626
-0.01415874090983046   -0.1470715152931899   -0.004422429454593448
-0.014586820970105469   -0.14706508514034508   -0.004268070801426172
-0.017578017432146164   -0.13926976076628594   -0.004654996249999772
-0.012123799281556878   -0.14780625169174152   -0.004293277544224626
-0.014586820970105469   -0.14706508514034508   -0.004268070801426172
-0.013006637094492618   -0.13954923081240017   -0.004439287173007773
-0.017578017432146164   -0.13926976076628594   -0.004654996249999772
-0.01415874090983046   -0.1470715152931899   -0.004422429454593448
-0.012696835017382804   -0.13959938684328171   -0.004416382012889216
-0.017251512693937873   -0.1394700157227465   -0.004840971964488597
-0.01415874090983046   -0.1470715152931899   -0.004422429454593448
-0.012123799281556878   -0.14780625169174152   -0.004293277544224626
-0.012696835017382804   -0.13959938684328171   -0.004416382012889216
-0.01171217793419081   -0.14794746492836375   -0.004188222777987274
-0.017251512693937873   -0.1394700157227465   -0.004840971964488597
-0.012411895272465912   -0.1397515830313743   -0.00441904891307355
-0.01171217793419081   -0.14794746492836375   -0.004188222777987274
-0.012696835017382804   -0.13959938684328171   -0.004416382012889216
-0.017251512693937873   -0.1394700157227465   -0.004840971964488597
-0.01171217793419081   -0.14794746492836375   -0.004188222777987274
-0.01376088827569432   -0.1472323951367418   -0.004578970454821439
-0.01415874090983046   -0.1470715152931899   -0.004422429454593448
-0.017251512693937873   -0.1394700157227465   -0.004840971964488597
-0.01171217793419081   -0.14794746492836375   -0.004188222777987274
-0.01415874090983046   -0.1470715152931899   -0.004422429454593448
-0.012696835017382804   -0.13959938684328171   -0.004416382012889216
-0.013320968082885219   -0.13959778903101724   -0.004483319502243392
-0.01292692050953977   -0.14796061249786394   -0.004510555159800944
-0.008606105866896634   -0.1398002460336092   -0.0046456781997189145
-0.013006637094492618   -0.13954923081240017   -0.004439287173007773
-0.01292692050953977   -0.14796061249786394   -0.004510555159800944
-0.011058960888435094   -0.14886673442572268   -0.004945439120505617
-0.008606105866896634   -0.1398002460336092   -0.0046456781997189145
-0.010558113118817497   -0.1487360114233501   -0.00456200682331521
-0.013006637094492618   -0.13954923081240017   -0.004439287173007773
-0.008251721202088743   -0.13973045511556398   -0.00442454787976782
-0.010558113118817497   -0.1487360114233501   -0.00456200682331521
-0.008606105866896634   -0.1398002460336092   -0.0046456781997189145
-0.013006637094492618   -0.13954923081240017   -0.004439287173007773
-0.010558113118817497   -0.1487360114233501   -0.00456200682331521
-0.012518521870698728   -0.1478095935618899   -0.004402598138364561
-0.01292692050953977   -0.14796061249786394   -0.004510555159800944
-0.013006637094492618   -0.13954923081240017   -0.004439287173007773
-0.010558113118817497   -0.1487360114233501   -0.00456200682331521
-0.01292692050953977   -0.14796061249786394   -0.004510555159800944
-0.008606105866896634   -0.1398002460336092   -0.0046456781997189145
-0.013006637094492618   -0.13954923081240017   -0.004439287173007773
-0.012518521870698728   -0.1478095935618899   -0.004402598138364561
-0.008251721202088743   -0.13973045511556398   -0.00442454787976782
-0.012696835017382804   -0.13959938684328171   -0.004416382012889216
-0.012518521870698728   -0.1478095935618899   -0.004402598138364561
-0.010558113118817497   -0.1487360114233501   -0.00456200682331521
-0.008251721202088743   -0.13973045511556398   -0.00442454787976782
-0.010094250916947918   -0.14872864537464175   -0.004180000344305321
-0.012696835017382804   -0.13959938684328171   -0.004416382012889216
-0.00791399469041545   -0.13974735429324997   -0.004222044578339154
-0.010094250916947918   -0.14872864537464175   -0.004180000344305321
-0.008251721202088743   -0.13973045511556398   -0.00442454787976782
-0.012696835017382804   -0.13959938684328171   -0.004416382012889216
-0.010094250916947918   -0.14872864537464175   -0.004180000344305321
-0.012123799281556878   -0.14780625169174152   -0.004293277544224626
-0.012518521870698728   -0.1478095935618899   -0.004402598138364561
-0.012696835017382804   -0.13959938684328171   -0.004416382012889216
-0.010094250916947918   -0.14872864537464175   -0.004180000344305321
-0.012518521870698728   -0.1478095935618899   -0.004402598138364561
-0.008251721202088743   -0.13973045511556398   -0.00442454787976782
-0.012696835017382804   -0.13959938684328171   -0.004416382012889216
-0.012123799281556878   -0.14780625169174152   -0.004293277544224626
-0.00791399469041545   -0.13974735429324997   -0.004222044578339154
-0.012411895272465912   -0.1397515830313743   -0.00441904891307355
-0.012123799281556878   -0.14780625169174152   -0.004293277544224626
-0.010094250916947918   -0.14872864537464175   -0.004180000344305321
-0.00791399469041545   -0.13974735429324997   -0.004222044578339154
-0.009595963289151292   -0.14883787744902796   -0.0037969216982871546
-0.012411895272465912   -0.1397515830313743   -0.00441904891307355
-0.0076332905512296705   -0.1398680419158763   -0.004049917747532123
-0.009595963289151292   -0.14883787744902796   -0.0037969216982871546
-0.00791399469041545   -0.13974735429324997   -0.004222044578339154
-0.012411895272465912   -0.1397515830313743   -0.00441904891307355
-0.009595963289151292   -0.14883787744902796   -0.0037969216982871546
-0.01171217793419081   -0.14794746492836375   -0.004188222777987274
-0.012123799281556878   -0.14780625169174152   -0.004293277544224626
-0.012411895272465912   -0.1397515830313743   -0.00441904891307355
-0.009595963289151292   -0.14883787744902796   -0.0037969216982871546
-0.012123799281556878   -0.14780625169174152   -0.004293277544224626
-0.00791399469041545   -0.13974735429324997   -0.004222044578339154
-0.008606105866896634   -0.1398002460336092   -0.0046456781997189145
-0.011058960888435094   -0.14886673442572268   -0.004945439120505617
-0.003589112230619288   -0.13975345152041116   -0.004836547692604083
-0.008251721202088743   -0.13973045511556398   -0.00442454787976782
-0.011058960888435094   -0.14886673442572268   -0.004945439120505617
-0.00922056848410292   -0.15000000000000002   -0.005277831038212759
-0.003589112230619288   -0.13975345152041116   -0.004836547692604083
-0.008591114867562366   -0.15000000000000002   -0.004696809373378416
-0.008251721202088743   -0.13973045511556398   -0.00442454787976782
-0.0031341182610343217   -0.1396441131051812   -0.00444610409922286
-0.008591114867562366   -0.15000000000000002   -0.004696809373378416
-0.003589112230619288   -0.13975345152041116   -0.004836547692604083
-0.008251721202088743   -0.13973045511556398   -0.00442454787976782
-0.008591114867562366   -0.15000000000000002   -0.004696809373378416
-0.010558113118817497   -0.1487360114233501   -0.00456200682331521
-0.011058960888435094   -0.14886673442572268   -0.004945439120505617
-0.008251721202088743   -0.13973045511556398   -0.00442454787976782
-0.008591114867562366   -0.15000000000000002   -0.004696809373378416
-0.011058960888435094   -0.14886673442572268   -0.004945439120505617
-0.003589112230619288   -0.13975345152041116   -0.004836547692604083
-0.008251721202088743   -0.13973045511556398   -0.00442454787976782
-0.010558113118817497   -0.1487360114233501   -0.00456200682331521
-0.0031341182610343217   -0.1396441131051812   -0.00444610409922286
-0.00791399469041545   -0.13974735429324997   -0.004222044578339154
-0.010558113118817497   -0.1487360114233501   -0.00456200682331521
-0.008591114867562366   -0.15000000000000002   -0.004696809373378416
-0.0031341182610343217   -0.1396441131051812   -0.00444610409922286
-0.007959059855208365   -0.15000000000000002   -0.004108883995785546
-0.00791399469041545   -0.13974735429324997   -0.004222044578339154
-0.002669349375613034   -0.1396245763814658   -0.004075615895566281
-0.007959059855208365   -0.15000000000000002   -0.004108883995785546
-0.0031341182610343217   -0.1396441131051812   -0.00444610409922286
-0.00791399469041545   -0.13974735429324997   -0.004222044578339154
-0.007959059855208365   -0.15000000000000002   -0.004108883995785546
-0.010094250916947918   -0.14872864537464175   -0.004180000344305321
-0.010558113118817497   -0.1487360114233501   -0.00456200682331521
-0.00791399469041545   -0.13974735429324997   -0.004222044578339154
-0.007959059855208365   -0.15000000000000002   -0.004108883995785546
-0.010558113118817497   -0.1487360114233501   -0.00456200682331521
-0.0031341182610343217   -0.1396441131051812   -0.00444610409922286
-0.00791399469041545   -0.13974735429324997   -0.004222044578339154
-0.010094250916947918   -0.14872864537464175   -0.004180000344305321
-0.002669349375613034   -0.1396245763814658   -0.004075615895566281
-0.0076332905512296705   -0.1398680419158763   -0.004049917747532123
-0.010094250916947918   -0.14872864537464175   -0.004180000344305321
-0.007959059855208365   -0.15000000000000002   -0.004108883995785546
-0.002669349375613034   -0.1396245763814658   -0.004075615895566281
-0.007340721383083345   -0.15000000000000002   -0.003528697631580627
-0.0076332905512296705   -0.1398680419158763   -0.004049917747532123
-0.002324859022578961   -0.13971437893378028   -0.003739342897340694
-0.007340721383083345   -0.15000000000000002   -0.003528697631580627
-0.002669349375613034   -0.1396245763814658   -0.004075615895566281
-0.0076332905512296705   -0.1398680419158763   -0.004049917747532123
-0.007340721383083345   -0.15000000000000002   -0.003528697631580627
-0.009595963289151292   -0.14883787744902796   -0.0037969216982871546
-0.010094250916947918   -0.14872864537464175   -0.004180000344305321
-0.0076332905512296705   -0.1398680419158763   -0.004049917747532123
-0.007340721383083345   -0.15000000000000002   -0.003528697631580627
-0.010094250916947918   -0.14872864537464175   -0.004180000344305321
-0.002669349375613034   -0.1396245763814658   -0.004075615895566281
-0.003589112230619288   -0.13975345152041116   -0.004836547692604083
-0.00922056848410292   -0.15000000000000002   -0.005277831038212759
0.001817069814821632   -0.13927286911307066   -0.005229013462197612
-0.0031341182610343217   -0.1396441131051812   -0.00444610409922286
-0.00922056848410292   -0.15000000000000002   -0.005277831038212759
-0.007891298099302484   -0.15000000000000002   -0.005680403004303751
0.001817069814821632   -0.13927286911307066   -0.005229013462197612
-0.006578364235177627   -0.15000000000000002   -0.004840550625797377
-0.0031341182610343217   -0.1396441131051812   -0.00444610409922286
0.00287432974421282   -0.13903451873718017   -0.004590107242672944
-0.006578364235177627   -0.15000000000000002   -0.004840550625797377
0.001817069814821632   -0.13927286911307066   -0.005229013462197612
-0.0031341182610343217   -0.1396441131051812   -0.00444610409922286
-0.006578364235177627   -0.15000000000000002   -0.004840550625797377
-0.008591114867562366   -0.15000000000000002   -0.004696809373378416
-0.00922056848410292   -0.15000000000000002   -0.005277831038212759
-0.0031341182610343217   -0.1396441131051812   -0.00444610409922286
-0.006578364235177627   -0.15000000000000002   -0.004840550625797377
-0.00922056848410292   -0.15000000000000002   -0.005277831038212759
0.001817069814821632   -0.13927286911307066   -0.005229013462197612
-0.0031341182610343217   -0.1396441131051812   -0.00444610409922286
-0.008591114867562366   -0.15000000000000002   -0.004696809373378416
0.00287432974421282   -0.13903451873718017   -0.004590107242672944
-0.002669349375613034   -0.1396245763814658   -0.004075615895566281
-0.008591114867562366   -0.15000000000000002   -0.004696809373378416
-0.006578364235177627   -0.15000000000000002   -0.004840550625797377
0.00287432974421282   -0.13903451873718017   -0.004590107242672944
-0.005531286811253883   -0.15000000000000002   -0.004037086672193028
-0.002669349375613034   -0.1396245763814658   -0.004075615895566281
0.003705379219701211   -0.1389860427954741   -0.0039904797870375505
-0.005531286811253883   -0.15000000000000002   -0.004037086672193028
0.00287432974421282   -0.13903451873718017   -0.004590107242672944
-0.002669349375613034   -0.1396245763814658   -0.004075615895566281
-0.005531286811253883   -0.15000000000000002   -0.004037086672193028
-0.007959059855208365   -0.15000000000000002   -0.004108883995785546
-0.008591114867562366   -0.15000000000000002   -0.004696809373378416
-0.002669349375613034   -0.1396245763814658   -0.004075615895566281
-0.005531286811253883   -0.15000000000000002   -0.004037086672193028
-0.008591114867562366   -0.15000000000000002   -0.004696809373378416
0.00287432974421282   -0.13903451873718017   -0.004590107242672944
-0.002669349375613034   -0.1396245763814658   -0.004075615895566281
-0.007959059855208365   -0.15000000000000002   -0.004108883995785546
0.003705379219701211   -0.1389860427954741   -0.0039904797870375505
-0.002324859022578961   -0.13971437893378028   -0.003739342897340694
-0.007959059855208365   -0.15000000000000002   -0.004108883995785546
-0.005531286811253883   -0.15000000000000002   -0.004037086672193028
0.003705379219701211   -0.1389860427954741   -0.0039904797870375505
-0.004237698834006115   -0.15000000000000002   -0.00320303586596792
-0.002324859022578961   -0.13971437893378028   -0.003739342897340694
0.004568212321619339   -0.13902578133566953   -0.0034431743006984026
-0.004237698834006115   -0.15000000000000002   -0.00320303586596792
0.003705379219701211   -0.1389860427954741   -0.0039904797870375505
-0.002324859022578961   -0.13971437893378028   -0.003739342897340694
-0.004237698834006115   -0.15000000000000002   -0.00320303586596792
-0.007340721383083345   -0.15000000000000002   -0.003528697631580627
-0.007959059855208365   -0.15000000000000002   -0.004108883995785546
-0.002324859022578961   -0.13971437893378028   -0.003739342897340694
-0.004237698834006115   -0.15000000000000002   -0.00320303586596792
-0.007959059855208365   -0.15000000000000002   -0.004108883995785546
0.003705379219701211   -0.1389860427954741   -0.0039904797870375505
-0.017772847538040776   -0.14646998748258683   -0.003668205468335567
-0.010579432598153908   -0.1468374369565875   -0.0031390565675346953
-0.014973619768727476   -0.1472124303646326   -0.0041152461973895165
-0.016951071056983902   -0.1463040738046474   -0.004133716648946026
-0.010579432598153908   -0.1468374369565875   -0.0031390565675346953
-0.011238772013305297   -0.14740832133451612   -0.0037145709833837194
-0.014973619768727476   -0.1472124303646326   -0.0041152461973895165
-0.010946475240399337   -0.14720724761617127   -0.003923518399746326
-0.016951071056983902   -0.1463040738046474   -0.004133716648946026
-0.014586820970105469   -0.14706508514034508   -0.004268070801426172
-0.010946475240399337   -0.14720724761617127   -0.003923518399746326
-0.014973619768727476   -0.1472124303646326   -0.0041152461973895165
-0.016951071056983902   -0.1463040738046474   -0.004133716648946026
-0.010946475240399337   -0.14720724761617127   -0.003923518399746326
-0.009835343449150623   -0.14657935189775864   -0.0036280642498185936
-0.010579432598153908   -0.1468374369565875   -0.0031390565675346953
-0.016951071056983902   -0.1463040738046474   -0.004133716648946026
-0.010946475240399337   -0.14720724761617127   -0.003923518399746326
-0.010579432598153908   -0.1468374369565875   -0.0031390565675346953
-0.014973619768727476   -0.1472124303646326   -0.0041152461973895165
-0.016951071056983902   -0.1463040738046474   -0.004133716648946026
-0.009835343449150623   -0.14657935189775864   -0.0036280642498185936
-0.014586820970105469   -0.14706508514034508   -0.004268070801426172
-0.01624196317690402   -0.14631731130769318   -0.004597359936498658
-0.009835343449150623   -0.14657935189775864   -0.0036280642498185936
-0.010946475240399337   -0.14720724761617127   -0.003923518399746326
-0.014586820970105469   -0.14706508514034508   -0.004268070801426172
-0.010603833377976863   -0.14713215546075248   -0.004116152515715165
-0.01624196317690402   -0.14631731130769318   -0.004597359936498658
-0.01415874090983046   -0.1470715152931899   -0.004422429454593448
-0.010603833377976863   -0.14713215546075248   -0.004116152515715165
-0.014586820970105469   -0.14706508514034508   -0.004268070801426172
-0.01624196317690402   -0.14631731130769318   -0.004597359936498658
-0.010603833377976863   -0.14713215546075248   -0.004116152515715165
-0.00921588866597063   -0.14649892216098231   -0.004096820267370269
-0.009835343449150623   -0.14657935189775864   -0.0036280642498185936
-0.01624196317690402   -0.14631731130769318   -0.004597359936498658
-0.010603833377976863   -0.14713215546075248   -0.004116152515715165
-0.009835343449150623   -0.14657935189775864   -0.0036280642498185936
-0.014586820970105469   -0.14706508514034508   -0.004268070801426172
-0.01624196317690402   -0.14631731130769318   -0.004597359936498658
-0.00921588866597063   -0.14649892216098231   -0.004096820267370269
-0.01415874090983046   -0.1470715152931899   -0.004422429454593448
-0.015401118236206284   -0.14651989544298133   -0.005071013786776897
-0.00921588866597063   -0.14649892216098231   -0.004096820267370269
-0.010603833377976863   -0.14713215546075248   -0.004116152515715165
-0.01415874090983046   -0.1470715152931899   -0.004422429454593448
-0.01031019030686733   -0.1471840909724951   -0.004291450750290199
-0.015401118236206284   -0.14651989544298133   -0.005071013786776897
-0.01376088827569432   -0.1472323951367418   -0.004578970454821439
-0.01031019030686733   -0.1471840909724951   -0.004291450750290199
-0.01415874090983046   -0.1470715152931899   -0.004422429454593448
-0.015401118236206284   -0.14651989544298133   -0.005071013786776897
-0.01031019030686733   -0.1471840909724951   -0.004291450750290199
-0.008515496427471946   -0.1465637591553898   -0.00454321086325018
-0.00921588866597063   -0.14649892216098231   -0.004096820267370269
-0.015401118236206284   -0.14651989544298133   -0.005071013786776897
-0.01031019030686733   -0.1471840909724951   -0.004291450750290199
-0.00921588866597063   -0.14649892216098231   -0.004096820267370269
-0.01415874090983046   -0.1470715152931899   -0.004422429454593448
-0.014973619768727476   -0.1472124303646326   -0.0041152461973895165
-0.011238772013305297   -0.14740832133451612   -0.0037145709833837194
-0.01292692050953977   -0.14796061249786394   -0.004510555159800944
-0.014586820970105469   -0.14706508514034508   -0.004268070801426172
-0.011238772013305297   -0.14740832133451612   -0.0037145709833837194
-0.012123873213175936   -0.14776271743377745   -0.004174943205410657
-0.01292692050953977   -0.14796061249786394   -0.004510555159800944
-0.011865048927239165   -0.14758323233639611   -0.004180620780049555
-0.014586820970105469   -0.14706508514034508   -0.004268070801426172
-0.012518521870698728   -0.1478095935618899   -0.004402598138364561
-0.011865048927239165   -0.14758323233639611   -0.004180620780049555
-0.01292692050953977   -0.14796061249786394   -0.004510555159800944
-0.014586820970105469   -0.14706508514034508   -0.004268070801426172
-0.011865048927239165   -0.14758323233639611   -0.004180620780049555
-0.010946475240399337   -0.14720724761617127   -0.003923518399746326
-0.011238772013305297   -0.14740832133451612   -0.0037145709833837194
-0.014586820970105469   -0.14706508514034508   -0.004268070801426172
-0.011865048927239165   -0.14758323233639611   -0.004180620780049555
-0.011238772013305297   -0.14740832133451612   -0.0037145709833837194
-0.01292692050953977   -0.14796061249786394   -0.004510555159800944
-0.014586820970105469   -0.14706508514034508   -0.004268070801426172
-0.010946475240399337   -0.14720724761617127   -0.003923518399746326
-0.012518521870698728   -0.1478095935618899   -0.004402598138364561
-0.01415874090983046   -0.1470715152931899   -0.004422429454593448
-0.010946475240399337   -0.14720724761617127   -0.003923518399746326
-0.011865048927239165   -0.14758323233639611   -0.004180620780049555
-0.012518521870698728   -0.1478095935618899   -0.004402598138364561
-0.011576906993658959   -0.14751786095472746   -0.004165146638973985
-0.01415874090983046   -0.1470715152931899   -0.004422429454593448
-0.012123799281556878   -0.14780625169174152   -0.004293277544224626
-0.011576906993658959   -0.14751786095472746   -0.004165146638973985
-0.012518521870698728   -0.1478095935618899   -0.004402598138364561
-0.01415874090983046   -0.1470715152931899   -0.004422429454593448
-0.011576906993658959   -0.14751786095472746   -0.004165146638973985
-0.010603833377976863   -0.14713215546075248   -0.004116152515715165
-0.010946475240399337   -0.14720724761617127   -0.003923518399746326
-0.01415874090983046   -0.1470715152931899   -0.004422429454593448
-0.011576906993658959   -0.14751786095472746   -0.004165146638973985
-0.010946475240399337   -0.14720724761617127   -0.003923518399746326
-0.012518521870698728   -0.1478095935618899   -0.004402598138364561
-0.01415874090983046   -0.1470715152931899   -0.004422429454593448
-0.010603833377976863   -0.14713215546075248   -0.004116152515715165
-0.012123799281556878   -0.14780625169174152   -0.004293277544224626
-0.01376088827569432   -0.1472323951367418   -0.004578970454821439
-0.010603833377976863   -0.14713215546075248   -0.004116152515715165
-0.011576906993658959   -0.14751786095472746   -0.004165146638973985
-0.012123799281556878   -0.14780625169174152   -0.004293277544224626
-0.011283880329668957   -0.14756131479716428   -0.004133078300501026
-0.01376088827569432   -0.1472323951367418   -0.004578970454821439
-0.01171217793419081   -0.14794746492836375   -0.004188222777987274
-0.011283880329668957   -0.14756131479716428   -0.004133078300501026
-0.012123799281556878   -0.14780625169174152   -0.004293277544224626
-0.01376088827569432   -0.1472323951367418   -0.004578970454821439
-0.011283880329668957   -0.14756131479716428   -0.004133078300501026
-0.01031019030686733   -0.1471840909724951   -0.004291450750290199
-0.010603833377976863   -0.14713215546075248   -0.004116152515715165
-0.01376088827569432   -0.1472323951367418   -0.004578970454821439
-0.011283880329668957   -0.14756131479716428   -0.004133078300501026
-0.010603833377976863   -0.14713215546075248   -0.004116152515715165
-0.012123799281556878   -0.14780625169174152   -0.004293277544224626
-0.01292692050953977   -0.14796061249786394   -0.004510555159800944
-0.012123873213175936   -0.14776271743377745   -0.004174943205410657
-0.011058960888435094   -0.14886673442572268   -0.004945439120505617
-0.012518521870698728   -0.1478095935618899   -0.004402598138364561
-0.012123873213175936   -0.14776271743377745   -0.004174943205410657
-0.013071740351163211   -0.1479139110193447   -0.004627822165862196
-0.011058960888435094   -0.14886673442572268   -0.004945439120505617
-0.012803634849769364   -0.14774295343143196   -0.004438062644976787
-0.012518521870698728   -0.1478095935618899   -0.004402598138364561
-0.010558113118817497   -0.1487360114233501   -0.00456200682331521
-0.012803634849769364   -0.14774295343143196   -0.004438062644976787
-0.011058960888435094   -0.14886673442572268   -0.004945439120505617
-0.012518521870698728   -0.1478095935618899   -0.004402598138364561
-0.012803634849769364   -0.14774295343143196   -0.004438062644976787
-0.011865048927239165   -0.14758323233639611   -0.004180620780049555
-0.012123873213175936   -0.14776271743377745   -0.004174943205410657
-0.012518521870698728   -0.1478095935618899   -0.004402598138364561
-0.012803634849769364   -0.14774295343143196   -0.004438062644976787
-0.012123873213175936   -0.14776271743377745   -0.004174943205410657
-0.011058960888435094   -0.14886673442572268   -0.004945439120505617
-0.012518521870698728   -0.1478095935618899   -0.004402598138364561
-0.011865048927239165   -0.14758323233639611   -0.004180620780049555
-0.010558113118817497   -0.1487360114233501   -0.00456200682331521
-0.012123799281556878   -0.14780625169174152   -0.004293277544224626
-0.011865048927239165   -0.14758323233639611   -0.004180620780049555
-0.012803634849769364   -0.14774295343143196   -0.004438062644976787
-0.010558113118817497   -0.1487360114233501   -0.00456200682331521
-0.01248188990490545   -0.14768799399928026   -0.004222547727331131
-0.012123799281556878   -0.14780625169174152   -0.004293277544224626
-0.010094250916947918   -0.14872864537464175   -0.004180000344305321
-0.01248188990490545   -0.14768799399928026   -0.004222547727331131
-0.010558113118817497   -0.1487360114233501   -0.00456200682331521
-0.012123799281556878   -0.14780625169174152   -0.004293277544224626
-0.01248188990490545   -0.14768799399928026   -0.004222547727331131
-0.011576906993658959   -0.14751786095472746   -0.004165146638973985
-0.011865048927239165   -0.14758323233639611   -0.004180620780049555
-0.012123799281556878   -0.14780625169174152   -0.004293277544224626
-0.01248188990490545   -0.14768799399928026   -0.004222547727331131
-0.011865048927239165   -0.14758323233639611   -0.004180620780049555
-0.010558113118817497   -0.1487360114233501   -0.00456200682331521
-0.012123799281556878   -0.14780625169174152   -0.004293277544224626
-0.011576906993658959   -0.14751786095472746   -0.004165146638973985
-0.010094250916947918   -0.14872864537464175   -0.004180000344305321
-0.01171217793419081   -0.14794746492836375   -0.004188222777987274
-0.011576906993658959   -0.14751786095472746   -0.004165146638973985
-0.01248188990490545   -0.14768799399928026   -0.004222547727331131
-0.010094250916947918   -0.14872864537464175   -0.004180000344305321
-0.012150914058134692   -0.14773061834718207   -0.003992901966014264
-0.01171217793419081   -0.14794746492836375   -0.004188222777987274
-0.009595963289151292   -0.14883787744902796   -0.0037969216982871546
-0.012150914058134692   -0.14773061834718207   -0.003992901966014264
-0.010094250916947918   -0.14872864537464175   -0.004180000344305321
-0.01171217793419081   -0.14794746492836375   -0.004188222777987274
-0.012150914058134692   -0.14773061834718207   -0.003992901966014264
-0.011283880329668957   -0.14756131479716428   -0.004133078300501026
-0.011576906993658959   -0.14751786095472746   -0.004165146638973985
-0.01171217793419081   -0.14794746492836375   -0.004188222777987274
-0.012150914058134692   -0.14773061834718207   -0.003992901966014264
-0.011576906993658959   -0.14751786095472746   -0.004165146638973985
-0.010094250916947918   -0.14872864537464175   -0.004180000344305321
-0.011058960888435094   -0.14886673442572268   -0.004945439120505617
-0.013071740351163211   -0.1479139110193447   -0.004627822165862196
-0.00922056848410292   -0.15000000000000002   -0.005277831038212759
-0.010558113118817497   -0.1487360114233501   -0.00456200682331521
-0.013071740351163211   -0.1479139110193447   -0.004627822165862196
-0.014443870098747147   -0.14775752014192553   -0.005057488816623287
-0.00922056848410292   -0.15000000000000002   -0.005277831038212759
-0.014093593094475429   -0.14759646307161686   -0.004681798284132165
-0.010558113118817497   -0.1487360114233501   -0.00456200682331521
-0.008591114867562366   -0.15000000000000002   -0.004696809373378416
-0.014093593094475429   -0.14759646307161686   -0.004681798284132165
-0.00922056848410292   -0.15000000000000002   -0.005277831038212759
-0.010558113118817497   -0.1487360114233501   -0.00456200682331521
-0.014093593094475429   -0.14759646307161686   -0.004681798284132165
-0.012803634849769364   -0.14774295343143196   -0.004438062644976787
-0.013071740351163211   -0.1479139110193447   -0.004627822165862196
-0.010558113118817497   -0.1487360114233501   -0.00456200682331521
-0.014093593094475429   -0.14759646307161686   -0.004681798284132165
-0.013071740351163211   -0.1479139110193447   -0.004627822165862196
-0.00922056848410292   -0.15000000000000002   -0.005277831038212759
-0.010558113118817497   -0.1487360114233501   -0.00456200682331521
-0.012803634849769364   -0.14774295343143196   -0.004438062644976787
-0.008591114867562366   -0.15000000000000002   -0.004696809373378416
-0.010094250916947918   -0.14872864537464175   -0.004180000344305321
-0.012803634849769364   -0.14774295343143196   -0.004438062644976787
-0.014093593094475429   -0.14759646307161686   -0.004681798284132165
-0.008591114867562366   -0.15000000000000002   -0.004696809373378416
-0.013631800057385514   -0.1475593629321211   -0.00427748646500609
-0.010094250916947918   -0.14872864537464175   -0.004180000344305321
-0.007959059855208365   -0.15000000000000002   -0.004108883995785546
-0.013631800057385514   -0.1475593629321211   -0.00427748646500609
-0.008591114867562366   -0.15000000000000002   -0.004696809373378416
-0.010094250916947918   -0.14872864537464175   -0.004180000344305321
-0.013631800057385514   -0.1475593629321211   -0.00427748646500609
-0.01248188990490545   -0.14768799399928026   -0.004222547727331131
-0.012803634849769364   -0.14774295343143196   -0.004438062644976787
-0.010094250916947918   -0.14872864537464175   -0.004180000344305321
-0.013631800057385514   -0.1475593629321211   -0.00427748646500609
-0.012803634849769364   -0.14774295343143196   -0.004438062644976787
-0.008591114867562366   -0.15000000000000002   -0.004696809373378416
-0.010094250916947918   -0.14872864537464175   -0.004180000344305321
-0.01248188990490545   -0.14768799399928026   -0.004222547727331131
-0.007959059855208365   -0.15000000000000002   -0.004108883995785546
-0.009595963289151292   -0.14883787744902796   -0.0037969216982871546
-0.01248188990490545   -0.14768799399928026   -0.004222547727331131
-0.013631800057385514   -0.1475593629321211   -0.00427748646500609
-0.007959059855208365   -0.15000000000000002   -0.004108883995785546
-0.01319679488183768   -0.1476221571953854   -0.0038574327267772634
-0.009595963289151292   -0.14883787744902796   -0.0037969216982871546
-0.007340721383083345   -0.15000000000000002   -0.003528697631580627
-0.01319679488183768   -0.1476221571953854   -0.0038574327267772634
-0.007959059855208365   -0.15000000000000002   -0.004108883995785546
-0.009595963289151292   -0.14883787744902796   -0.0037969216982871546
-0.01319679488183768   -0.1476221571953854   -0.0038574327267772634
-0.012150914058134692   -0.14773061834718207   -0.003992901966014264
-0.01248188990490545   -0.14768799399928026   -0.004222547727331131
-0.009595963289151292   -0.14883787744902796   -0.0037969216982871546
-0.01319679488183768   -0.1476221571953854   -0.0038574327267772634
-0.01248188990490545   -0.14768799399928026   -0.004222547727331131
-0.007959059855208365   -0.15000000000000002   -0.004108883995785546
-0.00922056848410292   -0.15000000000000002   -0.005277831038212759
-0.014443870098747147   -0.14775752014192553   -0.005057488816623287
-0.007891298099302484   -0.15000000000000002   -0.005680403004303751
-0.008591114867562366   -0.15000000000000002   -0.004696809373378416
-0.014443870098747147   -0.14775752014192553   -0.005057488816623287
-0.017102711231717246   -0.14703366981437252   -0.0055119128514534025
-0.007891298099302484   -0.15000000000000002   -0.005680403004303751
-0.016175747743018293   -0.14689851413016886   -0.004895457243493946
-0.008591114867562366   -0.15000000000000002   -0.004696809373378416
-0.006578364235177627   -0.15000000000000002   -0.004840550625797377
-0.016175747743018293   -0.14689851413016886   -0.004895457243493946
-0.007891298099302484   -0.15000000000000002   -0.005680403004303751
-0.008591114867562366   -0.15000000000000002   -0.004696809373378416
-0.016175747743018293   -0.14689851413016886   -0.004895457243493946
-0.014093593094475429   -0.14759646307161686   -0.004681798284132165
-0.014443870098747147   -0.14775752014192553   -0.005057488816623287
-0.008591114867562366   -0.15000000000000002   -0.004696809373378416
-0.016175747743018293   -0.14689851413016886   -0.004895457243493946
-0.014443870098747147   -0.14775752014192553   -0.005057488816623287
-0.007891298099302484   -0.15000000000000002   -0.005680403004303751
-0.008591114867562366   -0.15000000000000002   -0.004696809373378416
-0.014093593094475429   -0.14759646307161686   -0.004681798284132165
-0.006578364235177627   -0.15000000000000002   -0.004840550625797377
-0.007959059855208365   -0.15000000000000002   -0.004108883995785546
-0.014093593094475429   -0.14759646307161686   -0.004681798284132165
-0.016175747743018293   -0.14689851413016886   -0.004895457243493946
-0.006578364235177627   -0.15000000000000002   -0.004840550625797377
-0.015323174929753165   -0.14687956623197596   -0.0042370609292983735
-0.007959059855208365   -0.15000000000000002   -0.004108883995785546
-0.005531286811253883   -0.15000000000000002   -0.004037086672193028
-0.015323174929753165   -0.14687956623197596   -0.0042370609292983735
-0.006578364235177627   -0.15000000000000002   -0.004840550625797377
-0.007959059855208365   -0.15000000000000002   -0.004108883995785546
-0.015323174929753165   -0.14687956623197596   -0.0042370609292983735
-0.013631800057385514   -0.1475593629321211   -0.00427748646500609
-0.014093593094475429   -0.14759646307161686   -0.004681798284132165
-0.007959059855208365   -0.15000000000000002   -0.004108883995785546
-0.015323174929753165   -0.14687956623197596   -0.0042370609292983735
-0.014093593094475429   -0.14759646307161686   -0.004681798284132165
-0.006578364235177627   -0.15000000000000002   -0.004840550625797377
-0.007959059855208365   -0.15000000000000002   -0.004108883995785546
-0.013631800057385514   -0.1475593629321211   -0.00427748646500609
-0.005531286811253883   -0.15000000000000002   -0.004037086672193028
-0.007340721383083345   -0.15000000000000002   -0.003528697631580627
-0.013631800057385514   -0.1475593629321211   -0.00427748646500609
-0.015323174929753165   -0.14687956623197596   -0.0042370609292983735
-0.005531286811253883   -0.15000000000000002   -0.004037086672193028
-0.01424663020195306   -0.14705710435208097   -0.003548134812597619
-0.007340721383083345   -0.15000000000000002   -0.003528697631580627
-0.004237698834006115   -0.15000000000000002   -0.00320303586596792
-0.01424663020195306   -0.14705710435208097   -0.003548134812597619
-0.005531286811253883   -0.15000000000000002   -0.004037086672193028
-0.007340721383083345   -0.15000000000000002   -0.003528697631580627
-0.01424663020195306   -0.14705710435208097   -0.003548134812597619
-0.01319679488183768   -0.1476221571953854   -0.0038574327267772634
-0.013631800057385514   -0.1475593629321211   -0.00427748646500609
-0.007340721383083345   -0.15000000000000002   -0.003528697631580627
-0.01424663020195306   -0.14705710435208097   -0.003548134812597619
-0.013631800057385514   -0.1475593629321211   -0.00427748646500609
-0.005531286811253883   -0.15000000000000002   -0.004037086672193028
-0.010579432598153908   -0.1468374369565875   -0.0031390565675346953
-0.004261357923787349   -0.1412451562553097   -0.002713991078782754
-0.011238772013305297   -0.14740832133451612   -0.0037145709833837194
-0.009835343449150623   -0.14657935189775864   -0.0036280642498185936
-0.004261357923787349   -0.1412451562553097   -0.002713991078782754
-0.00804148956770662   -0.14167471163358136   -0.0033249998534100557
-0.011238772013305297   -0.14740832133451612   -0.0037145709833837194
-0.007834089060706269   -0.14143147856134206   -0.00351103983769495
-0.009835343449150623   -0.14657935189775864   -0.0036280642498185936
-0.010946475240399337   -0.14720724761617127   -0.003923518399746326
-0.007834089060706269   -0.14143147856134206   -0.00351103983769495
-0.011238772013305297   -0.14740832133451612   -0.0037145709833837194
-0.009835343449150623   -0.14657935189775864   -0.0036280642498185936
-0.007834089060706269   -0.14143147856134206   -0.00351103983769495
-0.003669067089803468   -0.14094435763727337   -0.0031359263887056088
-0.004261357923787349   -0.1412451562553097   -0.002713991078782754
-0.009835343449150623   -0.14657935189775864   -0.0036280642498185936
-0.007834089060706269   -0.14143147856134206   -0.00351103983769495
-0.004261357923787349   -0.1412451562553097   -0.002713991078782754
-0.011238772013305297   -0.14740832133451612   -0.0037145709833837194
-0.009835343449150623   -0.14657935189775864   -0.0036280642498185936
-0.003669067089803468   -0.14094435763727337   -0.0031359263887056088
-0.010946475240399337   -0.14720724761617127   -0.003923518399746326
-0.00921588866597063   -0.14649892216098231   -0.004096820267370269
-0.003669067089803468   -0.14094435763727337   -0.0031359263887056088
-0.007834089060706269   -0.14143147856134206   -0.00351103983769495
-0.010946475240399337   -0.14720724761617127   -0.003923518399746326
-0.007600851347398273   -0.14129578435431608   -0.0036801700509290357
-0.00921588866597063   -0.14649892216098231   -0.004096820267370269
-0.010603833377976863   -0.14713215546075248   -0.004116152515715165
-0.007600851347398273   -0.14129578435431608   -0.0036801700509290357
-0.010946475240399337   -0.14720724761617127   -0.003923518399746326
-0.00921588866597063   -0.14649892216098231   -0.004096820267370269
-0.007600851347398273   -0.14129578435431608   -0.0036801700509290357
-0.0032030295367172536   -0.14080004143635583   -0.0035327886530595654
-0.003669067089803468   -0.14094435763727337   -0.0031359263887056088
-0.00921588866597063   -0.14649892216098231   -0.004096820267370269
-0.007600851347398273   -0.14129578435431608   -0.0036801700509290357
-0.003669067089803468   -0.14094435763727337   -0.0031359263887056088
-0.010946475240399337   -0.14720724761617127   -0.003923518399746326
-0.00921588866597063   -0.14649892216098231   -0.004096820267370269
-0.0032030295367172536   -0.14080004143635583   -0.0035327886530595654
-0.010603833377976863   -0.14713215546075248   -0.004116152515715165
-0.008515496427471946   -0.1465637591553898   -0.00454321086325018
-0.0032030295367172536   -0.14080004143635583   -0.0035327886530595654
-0.007600851347398273   -0.14129578435431608   -0.0036801700509290357
-0.010603833377976863   -0.14713215546075248   -0.004116152515715165
-0.007421953201567579   -0.14126384999149294   -0.0038329220378444427
-0.008515496427471946   -0.1465637591553898   -0.00454321086325018
-0.01031019030686733   -0.1471840909724951   -0.004291450750290199
-0.007421953201567579   -0.14126384999149294   -0.0038329220378444427
-0.010603833377976863   -0.14713215546075248   -0.004116152515715165
-0.008515496427471946   -0.1465637591553898   -0.00454321086325018
-0.007421953201567579   -0.14126384999149294   -0.0038329220378444427
-0.0026946500791805526   -0.14077095197298778   -0.0039035069495574498
-0.0032030295367172536   -0.14080004143635583   -0.0035327886530595654
-0.008515496427471946   -0.1465637591553898   -0.00454321086325018
-0.007421953201567579   -0.14126384999149294   -0.0038329220378444427
-0.0032030295367172536   -0.14080004143635583   -0.0035327886530595654
-0.010603833377976863   -0.14713215546075248   -0.004116152515715165
-0.011238772013305297   -0.14740832133451612   -0.0037145709833837194
-0.00804148956770662   -0.14167471163358136   -0.0033249998534100557
-0.012123873213175936   -0.14776271743377745   -0.004174943205410657
-0.010946475240399337   -0.14720724761617127   -0.003923518399746326
-0.00804148956770662   -0.14167471163358136   -0.0033249998534100557
-0.011768835930474904   -0.1418266282024385   -0.0038237854885537796
-0.012123873213175936   -0.14776271743377745   -0.004174943205410657
-0.011594293537342076   -0.14161439229594502   -0.003834259463607659
-0.010946475240399337   -0.14720724761617127   -0.003923518399746326
-0.011865048927239165   -0.14758323233639611   -0.004180620780049555
-0.011594293537342076   -0.14161439229594502   -0.003834259463607659
-0.012123873213175936   -0.14776271743377745   -0.004174943205410657
-0.010946475240399337   -0.14720724761617127   -0.003923518399746326
-0.011594293537342076   -0.14161439229594502   -0.003834259463607659
-0.007834089060706269   -0.14143147856134206   -0.00351103983769495
-0.00804148956770662   -0.14167471163358136   -0.0033249998534100557
-0.010946475240399337   -0.14720724761617127   -0.003923518399746326
-0.011594293537342076   -0.14161439229594502   -0.003834259463607659
-0.00804148956770662   -0.14167471163358136   -0.0033249998534100557
-0.012123873213175936   -0.14776271743377745   -0.004174943205410657
-0.010946475240399337   -0.14720724761617127   -0.003923518399746326
-0.007834089060706269   -0.14143147856134206   -0.00351103983769495
-0.011865048927239165   -0.14758323233639611   -0.004180620780049555
-0.010603833377976863   -0.14713215546075248   -0.004116152515715165
-0.007834089060706269   -0.14143147856134206   -0.00351103983769495
-0.011594293537342076   -0.14161439229594502   -0.003834259463607659
-0.011865048927239165   -0.14758323233639611   -0.004180620780049555
-0.011413796918738629   -0.14149911074233745   -0.0038290767871435156
-0.010603833377976863   -0.14713215546075248   -0.004116152515715165
-0.011576906993658959   -0.14751786095472746   -0.004165146638973985
-0.011413796918738629   -0.14149911074233745   -0.0038290767871435156
-0.011865048927239165   -0.14758323233639611   -0.004180620780049555
-0.010603833377976863   -0.14713215546075248   -0.004116152515715165
-0.011413796918738629   -0.14149911074233745   -0.0038290767871435156
-0.007600851347398273   -0.14129578435431608   -0.0036801700509290357
-0.007834089060706269   -0.14143147856134206   -0.00351103983769495
-0.010603833377976863   -0.14713215546075248   -0.004116152515715165
-0.011413796918738629   -0.14149911074233745   -0.0038290767871435156
-0.007834089060706269   -0.14143147856134206   -0.00351103983769495
-0.011865048927239165   -0.14758323233639611   -0.004180620780049555
-0.010603833377976863   -0.14713215546075248   -0.004116152515715165
-0.007600851347398273   -0.14129578435431608   -0.0036801700509290357
-0.011576906993658959   -0.14751786095472746   -0.004165146638973985
-0.01031019030686733   -0.1471840909724951   -0.004291450750290199
-0.007600851347398273   -0.14129578435431608   -0.0036801700509290357
-0.011413796918738629   -0.14149911074233745   -0.0038290767871435156
-0.011576906993658959   -0.14751786095472746   -0.004165146638973985
-0.011239691076122176   -0.14147604745194944   -0.003808073443992656
-0.01031019030686733   -0.1471840909724951   -0.004291450750290199
-0.011283880329668957   -0.14756131479716428   -0.004133078300501026
-0.011239691076122176   -0.14147604745194944   -0.003808073443992656
-0.011576906993658959   -0.14751786095472746   -0.004165146638973985
-0.01031019030686733   -0.1471840909724951   -0.004291450750290199
-0.011239691076122176   -0.14147604745194944   -0.003808073443992656
-0.007421953201567579   -0.14126384999149294   -0.0038329220378444427
-0.007600851347398273   -0.14129578435431608   -0.0036801700509290357
-0.01031019030686733   -0.1471840909724951   -0.004291450750290199
-0.011239691076122176   -0.14147604745194944   -0.003808073443992656
-0.007600851347398273   -0.14129578435431608   -0.0036801700509290357
-0.011576906993658959   -0.14751786095472746   -0.004165146638973985
-0.012123873213175936   -0.14776271743377745   -0.004174943205410657
-0.011768835930474904   -0.1418266282024385   -0.0038237854885537796
-0.013071740351163211   -0.1479139110193447   -0.004627822165862196
-0.011865048927239165   -0.14758323233639611   -0.004180620780049555
-0.011768835930474904   -0.1418266282024385   -0.0038237854885537796
-0.015469782903507458   -0.14169237169071977   -0.0042904968708466435
-0.013071740351163211   -0.1479139110193447   -0.004627822165862196
-0.015296617807696521   -0.14150397136986428   -0.004132664981689327
-0.011865048927239165   -0.14758323233639611   -0.004180620780049555
-0.012803634849769364   -0.14774295343143196   -0.004438062644976787
-0.015296617807696521   -0.14150397136986428   -0.004132664981689327
-0.013071740351163211   -0.1479139110193447   -0.004627822165862196
-0.011865048927239165   -0.14758323233639611   -0.004180620780049555
-0.015296617807696521   -0.14150397136986428   -0.004132664981689327
-0.011594293537342076   -0.14161439229594502   -0.003834259463607659
-0.011768835930474904   -0.1418266282024385   -0.0038237854885537796
-0.011865048927239165   -0.14758323233639611   -0.004180620780049555
-0.015296617807696521   -0.14150397136986428   -0.004132664981689327
-0.011768835930474904   -0.1418266282024385   -0.0038237854885537796
-0.013071740351163211   -0.1479139110193447   -0.004627822165862196
-0.011865048927239165   -0.14758323233639611   -0.004180620780049555
-0.011594293537342076   -0.14161439229594502   -0.003834259463607659
-0.012803634849769364   -0.14774295343143196   -0.004438062644976787
-0.011576906993658959   -0.14751786095472746   -0.004165146638973985
-0.011594293537342076   -0.14161439229594502   -0.003834259463607659
-0.015296617807696521   -0.14150397136986428   -0.004132664981689327
-0.012803634849769364   -0.14774295343143196   -0.004438062644976787
-0.015102281651146953   -0.1414108789216425   -0.003959400463261418
-0.011576906993658959   -0.14751786095472746   -0.004165146638973985
-0.01248188990490545   -0.14768799399928026   -0.004222547727331131
-0.015102281651146953   -0.1414108789216425   -0.003959400463261418
-0.012803634849769364   -0.14774295343143196   -0.004438062644976787
-0.011576906993658959   -0.14751786095472746   -0.004165146638973985
-0.015102281651146953   -0.1414108789216425   -0.003959400463261418
-0.011413796918738629   -0.14149911074233745   -0.0038290767871435156
-0.011594293537342076   -0.14161439229594502   -0.003834259463607659
-0.011576906993658959   -0.14751786095472746   -0.004165146638973985
-0.015102281651146953   -0.1414108789216425   -0.003959400463261418
-0.011594293537342076   -0.14161439229594502   -0.003834259463607659
-0.012803634849769364   -0.14774295343143196   -0.004438062644976787
-0.011576906993658959   -0.14751786095472746   -0.004165146638973985
-0.011413796918738629   -0.14149911074233745   -0.0038290767871435156
-0.01248188990490545   -0.14768799399928026   -0.004222547727331131
-0.011283880329668957   -0.14756131479716428   -0.004133078300501026
-0.011413796918738629   -0.14149911074233745   -0.0038290767871435156
-0.015102281651146953   -0.1414108789216425   -0.003959400463261418
-0.01248188990490545   -0.14768799399928026   -0.004222547727331131
-0.014907053894511605   -0.14140382583975378   -0.0037688216407658886
-0.011283880329668957   -0.14756131479716428   -0.004133078300501026
-0.012150914058134692   -0.14773061834718207   -0.003992901966014264
-0.014907053894511605   -0.14140382583975378   -0.0037688216407658886
-0.01248188990490545   -0.14768799399928026   -0.004222547727331131
-0.011283880329668957   -0.14756131479716428   -0.004133078300501026
-0.014907053894511605   -0.14140382583975378   -0.0037688216407658886
-0.011239691076122176   -0.14147604745194944   -0.003808073443992656
-0.011413796918738629   -0.14149911074233745   -0.0038290767871435156
-0.011283880329668957   -0.14756131479716428   -0.004133078300501026
-0.014907053894511605   -0.14140382583975378   -0.0037688216407658886
-0.011413796918738629   -0.14149911074233745   -0.0038290767871435156
-0.01248188990490545   -0.14768799399928026   -0.004222547727331131
-0.013071740351163211   -0.1479139110193447   -0.004627822165862196
-0.015469782903507458   -0.14169237169071977   -0.0042904968708466435
-0.014443870098747147   -0.14775752014192553   -0.005057488816623287
-0.012803634849769364   -0.14774295343143196   -0.004438062644976787
-0.015469782903507458   -0.14169237169071977   -0.0042904968708466435
-0.019537564699019832   -0.14125401860939846   -0.00471884816718089
-0.014443870098747147   -0.14775752014192553   -0.005057488816623287
-0.019325830059831663   -0.14108957548666676   -0.0043965518284601
-0.012803634849769364   -0.14774295343143196   -0.004438062644976787
-0.014093593094475429   -0.14759646307161686   -0.004681798284132165
-0.019325830059831663   -0.14108957548666676   -0.0043965518284601
-0.014443870098747147   -0.14775752014192553   -0.005057488816623287
-0.012803634849769364   -0.14774295343143196   -0.004438062644976787
-0.019325830059831663   -0.14108957548666676   -0.0043965518284601
-0.015296617807696521   -0.14150397136986428   -0.004132664981689327
-0.015469782903507458   -0.14169237169071977   -0.0042904968708466435
-0.012803634849769364   -0.14774295343143196   -0.004438062644976787
-0.019325830059831663   -0.14108957548666676   -0.0043965518284601
-0.015469782903507458   -0.14169237169071977   -0.0042904968708466435
-0.014443870098747147   -0.14775752014192553   -0.005057488816623287
-0.012803634849769364   -0.14774295343143196   -0.004438062644976787
-0.015296617807696521   -0.14150397136986428   -0.004132664981689327
-0.014093593094475429   -0.14759646307161686   -0.004681798284132165
-0.01248188990490545   -0.14768799399928026   -0.004222547727331131
-0.015296617807696521   -0.14150397136986428   -0.004132664981689327
-0.019325830059831663   -0.14108957548666676   -0.0043965518284601
-0.014093593094475429   -0.14759646307161686   -0.004681798284132165
-0.019033729300919764   -0.1410185831167933   -0.0040599311156377955
-0.01248188990490545   -0.14768799399928026   -0.004222547727331131
-0.013631800057385514   -0.1475593629321211   -0.00427748646500609
-0.019033729300919764   -0.1410185831167933   -0.0040599311156377955
-0.014093593094475429   -0.14759646307161686   -0.004681798284132165
-0.01248188990490545   -0.14768799399928026   -0.004222547727331131
-0.019033729300919764   -0.1410185831167933   -0.0040599311156377955
-0.015102281651146953   -0.1414108789216425   -0.003959400463261418
-0.015296617807696521   -0.14150397136986428   -0.004132664981689327
-0.01248188990490545   -0.14768799399928026   -0.004222547727331131
-0.019033729300919764   -0.1410185831167933   -0.0040599311156377955
-0.015296617807696521   -0.14150397136986428   -0.004132664981689327
-0.014093593094475429   -0.14759646307161686   -0.004681798284132165
-0.01248188990490545   -0.14768799399928026   -0.004222547727331131
-0.015102281651146953   -0.1414108789216425   -0.003959400463261418
-0.013631800057385514   -0.1475593629321211   -0.00427748646500609
-0.012150914058134692   -0.14773061834718207   -0.003992901966014264
-0.015102281651146953   -0.1414108789216425   -0.003959400463261418
-0.019033729300919764   -0.1410185831167933   -0.0040599311156377955
-0.013631800057385514   -0.1475593629321211   -0.00427748646500609
-0.018778376224159697   -0.14104117465398963   -0.0036995418422942584
-0.012150914058134692   -0.14773061834718207   -0.003992901966014264
-0.01319679488183768   -0.1476221571953854   -0.0038574327267772634
-0.018778376224159697   -0.14104117465398963   -0.0036995418422942584
-0.013631800057385514   -0.1475593629321211   -0.00427748646500609
-0.012150914058134692   -0.14773061834718207   -0.003992901966014264
-0.018778376224159697   -0.14104117465398963   -0.0036995418422942584
-0.014907053894511605   -0.14140382583975378   -0.0037688216407658886
-0.015102281651146953   -0.1414108789216425   -0.003959400463261418
-0.012150914058134692   -0.14773061834718207   -0.003992901966014264
-0.018778376224159697   -0.14104117465398963   -0.0036995418422942584
-0.015102281651146953   -0.1414108789216425   -0.003959400463261418
-0.013631800057385514   -0.1475593629321211   -0.00427748646500609
-0.014443870098747147   -0.14775752014192553   -0.005057488816623287
-0.019537564699019832   -0.14125401860939846   -0.00471884816718089
-0.017102711231717246   -0.14703366981437252   -0.0055119128514534025
-0.014093593094475429   -0.14759646307161686   -0.004681798284132165
-0.019537564699019832   -0.14125401860939846   -0.00471884816718089
-0.024776248158483342   -0.14054111704682112   -0.005128926830090351
-0.017102711231717246   -0.14703366981437252   -0.0055119128514534025
-0.02409782985818853   -0.14036328472686943   -0.004620188916084825
-0.014093593094475429   -0.14759646307161686   -0.004681798284132165
-0.016175747743018293   -0.14689851413016886   -0.004895457243493946
-0.02409782985818853   -0.14036328472686943   -0.004620188916084825
-0.017102711231717246   -0.14703366981437252   -0.0055119128514534025
-0.014093593094475429   -0.14759646307161686   -0.004681798284132165
-0.02409782985818853   -0.14036328472686943   -0.004620188916084825
-0.019325830059831663   -0.14108957548666676   -0.0043965518284601
-0.019537564699019832   -0.14125401860939846   -0.00471884816718089
-0.014093593094475429   -0.14759646307161686   -0.004681798284132165
-0.02409782985818853   -0.14036328472686943   -0.004620188916084825
-0.019537564699019832   -0.14125401860939846   -0.00471884816718089
-0.017102711231717246   -0.14703366981437252   -0.0055119128514534025
-0.014093593094475429   -0.14759646307161686   -0.004681798284132165
-0.019325830059831663   -0.14108957548666676   -0.0043965518284601
-0.016175747743018293   -0.14689851413016886   -0.004895457243493946
-0.013631800057385514   -0.1475593629321211   -0.00427748646500609
-0.019325830059831663   -0.14108957548666676   -0.0043965518284601
-0.02409782985818853   -0.14036328472686943   -0.004620188916084825
-0.016175747743018293   -0.14689851413016886   -0.004895457243493946
-0.02348900379676997   -0.14029761880060596   -0.004081465837166969
-0.013631800057385514   -0.1475593629321211   -0.00427748646500609
-0.015323174929753165   -0.14687956623197596   -0.0042370609292983735
-0.02348900379676997   -0.14029761880060596   -0.004081465837166969
-0.016175747743018293   -0.14689851413016886   -0.004895457243493946
-0.013631800057385514   -0.1475593629321211   -0.00427748646500609
-0.02348900379676997   -0.14029761880060596   -0.004081465837166969
-0.019033729300919764   -0.1410185831167933   -0.0040599311156377955
-0.019325830059831663   -0.14108957548666676   -0.0043965518284601
-0.013631800057385514   -0.1475593629321211   -0.00427748646500609
-0.02348900379676997   -0.14029761880060596   -0.004081465837166969
-0.019325830059831663   -0.14108957548666676   -0.0043965518284601
-0.016175747743018293   -0.14689851413016886   -0.004895457243493946
-0.013631800057385514   -0.1475593629321211   -0.00427748646500609
-0.019033729300919764   -0.1410185831167933   -0.0040599311156377955
-0.015323174929753165   -0.14687956623197596   -0.0042370609292983735
-0.01319679488183768   -0.1476221571953854   -0.0038574327267772634
-0.019033729300919764   -0.1410185831167933   -0.0040599311156377955
-0.02348900379676997   -0.14029761880060596   -0.004081465837166969
-0.015323174929753165   -0.14687956623197596   -0.0042370609292983735
-0.022699842186847563   -0.1403777641604643   -0.0035179050196515443
-0.01319679488183768   -0.1476221571953854   -0.0038574327267772634
-0.01424663020195306   -0.14705710435208097   -0.003548134812597619
-0.022699842186847563   -0.1403777641604643   -0.0035179050196515443
-0.015323174929753165   -0.14687956623197596   -0.0042370609292983735
-0.01319679488183768   -0.1476221571953854   -0.0038574327267772634
-0.022699842186847563   -0.1403777641604643   -0.0035179050196515443
-0.018778376224159697   -0.14104117465398963   -0.0036995418422942584
-0.019033729300919764   -0.1410185831167933   -0.0040599311156377955
-0.01319679488183768   -0.1476221571953854   -0.0038574327267772634
-0.022699842186847563   -0.1403777641604643   -0.0035179050196515443
-0.019033729300919764   -0.1410185831167933   -0.0040599311156377955
-0.015323174929753165   -0.14687956623197596   -0.0042370609292983735
-0.004261357923787349   -0.1412451562553097   -0.002713991078782754
0.0008529160184011003   -0.13099041083548904   -0.002246434346809028
-0.00804148956770662   -0.14167471163358136   -0.0033249998534100557
-0.003669067089803468   -0.14094435763727337   -0.0031359263887056088
0.0008529160184011003   -0.13099041083548904   -0.002246434346809028
-0.005507925029320553   -0.13130456571233143   -0.0028460301185369154
-0.00804148956770662   -0.14167471163358136   -0.0033249998534100557
-0.005398289592952371   -0.1310497193232484   -0.002993306004169886
-0.003669067089803468   -0.14094435763727337   -0.0031359263887056088
-0.007834089060706269   -0.14143147856134206   -0.00351103983769495
-0.005398289592952371   -0.1310497193232484   -0.002993306004169886
-0.00804148956770662   -0.14167471163358136   -0.0033249998534100557
-0.003669067089803468   -0.14094435763727337   -0.0031359263887056088
-0.005398289592952371   -0.1310497193232484   -0.002993306004169886
0.0012653330389309893   -0.13068496834078666   -0.002581632293876852
0.0008529160184011003   -0.13099041083548904   -0.002246434346809028
-0.003669067089803468   -0.14094435763727337   -0.0031359263887056088
-0.005398289592952371   -0.1310497193232484   -0.002993306004169886
0.0008529160184011003   -0.13099041083548904   -0.002246434346809028
-0.00804148956770662   -0.14167471163358136   -0.0033249998534100557
-0.003669067089803468   -0.14094435763727337   -0.0031359263887056088
0.0012653330389309893   -0.13068496834078666   -0.002581632293876852
-0.007834089060706269   -0.14143147856134206   -0.00351103983769495
-0.0032030295367172536   -0.14080004143635583   -0.0035327886530595654
0.0012653330389309893   -0.13068496834078666   -0.002581632293876852
-0.005398289592952371   -0.1310497193232484   -0.002993306004169886
-0.007834089060706269   -0.14143147856134206   -0.00351103983769495
-0.005273642777662631   -0.1308823690176748   -0.0031232818787202943
-0.0032030295367172536   -0.14080004143635583   -0.0035327886530595654
-0.007600851347398273   -0.14129578435431608   -0.0036801700509290357
-0.005273642777662631   -0.1308823690176748   -0.0031232818787202943
-0.007834089060706269   -0.14143147856134206   -0.00351103983769495
-0.0032030295367172536   -0.14080004143635583   -0.0035327886530595654
-0.005273642777662631   -0.1308823690176748   -0.0031232818787202943
0.0015685825996167174   -0.13050740836266222   -0.002892617053439679
0.0012653330389309893   -0.13068496834078666   -0.002581632293876852
-0.0032030295367172536   -0.14080004143635583   -0.0035327886530595654
-0.005273642777662631   -0.1308823690176748   -0.0031232818787202943
0.0012653330389309893   -0.13068496834078666   -0.002581632293876852
-0.007834089060706269   -0.14143147856134206   -0.00351103983769495
-0.0032030295367172536   -0.14080004143635583   -0.0035327886530595654
0.0015685825996167174   -0.13050740836266222   -0.002892617053439679
-0.007600851347398273   -0.14129578435431608   -0.0036801700509290357
-0.0026946500791805526   -0.14077095197298778   -0.0039035069495574498
0.0015685825996167174   -0.13050740836266222   -0.002892617053439679
-0.005273642777662631   -0.1308823690176748   -0.0031232818787202943
-0.007600851347398273   -0.14129578435431608   -0.0036801700509290357
-0.005199145579500608   -0.13079759429176313   -0.003237664468065713
-0.0026946500791805526   -0.14077095197298778   -0.0039035069495574498
-0.007421953201567579   -0.14126384999149294   -0.0038329220378444427
-0.005199145579500608   -0.13079759429176313   -0.003237664468065713
-0.007600851347398273   -0.14129578435431608   -0.0036801700509290357
-0.0026946500791805526   -0.14077095197298778   -0.0039035069495574498
-0.005199145579500608   -0.13079759429176313   -0.003237664468065713
0.0018926791877039138   -0.13041827671277975   -0.003179261291197907
0.0015685825996167174   -0.13050740836266222   -0.002892617053439679
-0.0026946500791805526   -0.14077095197298778   -0.0039035069495574498
-0.005199145579500608   -0.13079759429176313   -0.003237664468065713
0.0015685825996167174   -0.13050740836266222   -0.002892617053439679
-0.007600851347398273   -0.14129578435431608   -0.0036801700509290357
-0.00804148956770662   -0.14167471163358136   -0.0033249998534100557
-0.005507925029320553   -0.13130456571233143   -0.0028460301185369154
-0.011768835930474904   -0.1418266282024385   -0.0038237854885537796
-0.007834089060706269   -0.14143147856134206   -0.00351103983769495
-0.005507925029320553   -0.13130456571233143   -0.0028460301185369154
-0.011657581437141067   -0.13136456297790527   -0.0033406780748927206
-0.011768835930474904   -0.1418266282024385   -0.0038237854885537796
-0.011576843396631802   -0.13114565143205273   -0.0033446353636688853
-0.007834089060706269   -0.14143147856134206   -0.00351103983769495
-0.011594293537342076   -0.14161439229594502   -0.003834259463607659
-0.011576843396631802   -0.13114565143205273   -0.0033446353636688853
-0.011768835930474904   -0.1418266282024385   -0.0038237854885537796
-0.007834089060706269   -0.14143147856134206   -0.00351103983769495
-0.011576843396631802   -0.13114565143205273   -0.0033446353636688853
-0.005398289592952371   -0.1310497193232484   -0.002993306004169886
-0.005507925029320553   -0.13130456571233143   -0.0028460301185369154
-0.007834089060706269   -0.14143147856134206   -0.00351103983769495
-0.011576843396631802   -0.13114565143205273   -0.0033446353636688853
-0.005507925029320553   -0.13130456571233143   -0.0028460301185369154
-0.011768835930474904   -0.1418266282024385   -0.0038237854885537796
-0.007834089060706269   -0.14143147856134206   -0.00351103983769495
-0.005398289592952371   -0.1310497193232484   -0.002993306004169886
-0.011594293537342076   -0.14161439229594502   -0.003834259463607659
-0.007600851347398273   -0.14129578435431608   -0.0036801700509290357
-0.005398289592952371   -0.1310497193232484   -0.002993306004169886
-0.011576843396631802   -0.13114565143205273   -0.0033446353636688853
-0.011594293537342076   -0.14161439229594502   -0.003834259463607659
-0.01149384693022128   -0.1310050679790998   -0.003332026093571433
-0.007600851347398273   -0.14129578435431608   -0.0036801700509290357
-0.011413796918738629   -0.14149911074233745   -0.0038290767871435156
-0.01149384693022128   -0.1310050679790998   -0.003332026093571433
-0.011594293537342076   -0.14161439229594502   -0.003834259463607659
-0.007600851347398273   -0.14129578435431608   -0.0036801700509290357
-0.01149384693022128   -0.1310050679790998   -0.003332026093571433
-0.005273642777662631   -0.1308823690176748   -0.0031232818787202943
-0.005398289592952371   -0.1310497193232484   -0.002993306004169886
-0.007600851347398273   -0.14129578435431608   -0.0036801700509290357
-0.01149384693022128   -0.1310050679790998   -0.003332026093571433
-0.005398289592952371   -0.1310497193232484   -0.002993306004169886
-0.011594293537342076   -0.14161439229594502   -0.003834259463607659
-0.007600851347398273   -0.14129578435431608   -0.0036801700509290357
-0.005273642777662631   -0.1308823690176748   -0.0031232818787202943
-0.011413796918738629   -0.14149911074233745   -0.0038290767871435156
-0.007421953201567579   -0.14126384999149294   -0.0038329220378444427
-0.005273642777662631   -0.1308823690176748   -0.0031232818787202943
-0.01149384693022128   -0.1310050679790998   -0.003332026093571433
-0.011413796918738629   -0.14149911074233745   -0.0038290767871435156
-0.011421244241923603   -0.13094149580214987   -0.0033039400616759695
-0.007421953201567579   -0.14126384999149294   -0.0038329220378444427
-0.011239691076122176   -0.14147604745194944   -0.003808073443992656
-0.011421244241923603   -0.13094149580214987   -0.0033039400616759695
-0.011413796918738629   -0.14149911074233745   -0.0038290767871435156
-0.007421953201567579   -0.14126384999149294   -0.0038329220378444427
-0.011421244241923603   -0.13094149580214987   -0.0033039400616759695
-0.005199145579500608   -0.13079759429176313   -0.003237664468065713
-0.005273642777662631   -0.1308823690176748   -0.0031232818787202943
-0.007421953201567579   -0.14126384999149294   -0.0038329220378444427
-0.011421244241923603   -0.13094149580214987   -0.0033039400616759695
-0.005273642777662631   -0.1308823690176748   -0.0031232818787202943
-0.011413796918738629   -0.14149911074233745   -0.0038290767871435156
-0.011768835930474904   -0.1418266282024385   -0.0038237854885537796
-0.011657581437141067   -0.13136456297790527   -0.0033406780748927206
-0.015469782903507458   -0.14169237169071977   -0.0042904968708466435
-0.011594293537342076   -0.14161439229594502   -0.003834259463607659
-0.011657581437141067   -0.13136456297790527   -0.0033406780748927206
-0.01770975956851242   -0.13116910133316861   -0.003787242112449089
-0.015469782903507458   -0.14169237169071977   -0.0042904968708466435
-0.01763457779573213   -0.1309801758658585   -0.003651347509470078
-0.011594293537342076   -0.14161439229594502   -0.003834259463607659
-0.015296617807696521   -0.14150397136986428   -0.004132664981689327
-0.01763457779573213   -0.1309801758658585   -0.003651347509470078
-0.015469782903507458   -0.14169237169071977   -0.0042904968708466435
-0.011594293537342076   -0.14161439229594502   -0.003834259463607659
-0.01763457779573213   -0.1309801758658585   -0.003651347509470078
-0.011576843396631802   -0.13114565143205273   -0.0033446353636688853
-0.011657581437141067   -0.13136456297790527   -0.0033406780748927206
-0.011594293537342076   -0.14161439229594502   -0.003834259463607659
-0.01763457779573213   -0.1309801758658585   -0.003651347509470078
-0.011657581437141067   -0.13136456297790527   -0.0033406780748927206
-0.015469782903507458   -0.14169237169071977   -0.0042904968708466435
-0.011594293537342076   -0.14161439229594502   -0.003834259463607659
-0.011576843396631802   -0.13114565143205273   -0.0033446353636688853
-0.015296617807696521   -0.14150397136986428   -0.004132664981689327
-0.011413796918738629   -0.14149911074233745   -0.0038290767871435156
-0.011576843396631802   -0.13114565143205273   -0.0033446353636688853
-0.01763457779573213   -0.1309801758658585   -0.003651347509470078
-0.015296617807696521   -0.14150397136986428   -0.004132664981689327
-0.017543746278342164   -0.13086871266107147   -0.0034992384095445866
-0.011413796918738629   -0.14149911074233745   -0.0038290767871435156
-0.015102281651146953   -0.1414108789216425   -0.003959400463261418
-0.017543746278342164   -0.13086871266107147   -0.0034992384095445866
-0.015296617807696521   -0.14150397136986428   -0.004132664981689327
-0.011413796918738629   -0.14149911074233745   -0.0038290767871435156
-0.017543746278342164   -0.13086871266107147   -0.0034992384095445866
-0.01149384693022128   -0.1310050679790998   -0.003332026093571433
-0.011576843396631802   -0.13114565143205273   -0.0033446353636688853
-0.011413796918738629   -0.14149911074233745   -0.0038290767871435156
-0.017543746278342164   -0.13086871266107147   -0.0034992384095445866
-0.011576843396631802   -0.13114565143205273   -0.0033446353636688853
-0.015296617807696521   -0.14150397136986428   -0.004132664981689327
-0.011413796918738629   -0.14149911074233745   -0.0038290767871435156
-0.01149384693022128   -0.1310050679790998   -0.003332026093571433
-0.015102281651146953   -0.1414108789216425   -0.003959400463261418
-0.011239691076122176   -0.14147604745194944   -0.003808073443992656
-0.01149384693022128   -0.1310050679790998   -0.003332026093571433
-0.017543746278342164   -0.13086871266107147   -0.0034992384095445866
-0.015102281651146953   -0.1414108789216425   -0.003959400463261418
-0.017455347590691696   -0.1308310662503067   -0.0033314159327283324
-0.011239691076122176   -0.14147604745194944   -0.003808073443992656
-0.014907053894511605   -0.14140382583975378   -0.0037688216407658886
-0.017455347590691696   -0.1308310662503067   -0.0033314159327283324
-0.015102281651146953   -0.1414108789216425   -0.003959400463261418
-0.011239691076122176   -0.14147604745194944   -0.003808073443992656
-0.017455347590691696   -0.1308310662503067   -0.0033314159327283324
-0.011421244241923603   -0.13094149580214987   -0.0033039400616759695
-0.01149384693022128   -0.1310050679790998   -0.003332026093571433
-0.011239691076122176   -0.14147604745194944   -0.003808073443992656
-0.017455347590691696   -0.1308310662503067   -0.0033314159327283324
-0.01149384693022128   -0.1310050679790998   -0.003332026093571433
-0.015102281651146953   -0.1414108789216425   -0.003959400463261418
-0.015469782903507458   -0.14169237169071977   -0.0042904968708466435
-0.01770975956851242   -0.13116910133316861   -0.003787242112449089
-0.019537564699019832   -0.14125401860939846   -0.00471884816718089
-0.015296617807696521   -0.14150397136986428   -0.004132664981689327
-0.01770975956851242   -0.13116910133316861   -0.003787242112449089
-0.024053291830368473   -0.13072522016342528   -0.004183861077927043
-0.019537564699019832   -0.14125401860939846   -0.00471884816718089
-0.02395532744538898   -0.13056500429606802   -0.003907978163095074
-0.015296617807696521   -0.14150397136986428   -0.004132664981689327
-0.019325830059831663   -0.14108957548666676   -0.0043965518284601
-0.02395532744538898   -0.13056500429606802   -0.003907978163095074
-0.019537564699019832   -0.14125401860939846   -0.00471884816718089
-0.015296617807696521   -0.14150397136986428   -0.004132664981689327
-0.02395532744538898   -0.13056500429606802   -0.003907978163095074
-0.01763457779573213   -0.1309801758658585   -0.003651347509470078
-0.01770975956851242   -0.13116910133316861   -0.003787242112449089
-0.015296617807696521   -0.14150397136986428   -0.004132664981689327
-0.02395532744538898   -0.13056500429606802   -0.003907978163095074
-0.01770975956851242   -0.13116910133316861   -0.003787242112449089
-0.019537564699019832   -0.14125401860939846   -0.00471884816718089
-0.015296617807696521   -0.14150397136986428   -0.004132664981689327
-0.01763457779573213   -0.1309801758658585   -0.003651347509470078
-0.019325830059831663   -0.14108957548666676   -0.0043965518284601
-0.015102281651146953   -0.1414108789216425   -0.003959400463261418
-0.01763457779573213   -0.1309801758658585   -0.003651347509470078
-0.02395532744538898   -0.13056500429606802   -0.003907978163095074
-0.019325830059831663   -0.14108957548666676   -0.0043965518284601
-0.023789388857634635   -0.130479943455029   -0.0036183607820713154
-0.015102281651146953   -0.1414108789216425   -0.003959400463261418
-0.019033729300919764   -0.1410185831167933   -0.0040599311156377955
-0.023789388857634635   -0.130479943455029   -0.0036183607820713154
-0.019325830059831663   -0.14108957548666676   -0.0043965518284601
-0.015102281651146953   -0.1414108789216425   -0.003959400463261418
-0.023789388857634635   -0.130479943455029   -0.0036183607820713154
-0.017543746278342164   -0.13086871266107147   -0.0034992384095445866
-0.01763457779573213   -0.1309801758658585   -0.003651347509470078
-0.015102281651146953   -0.1414108789216425   -0.003959400463261418
-0.023789388857634635   -0.130479943455029   -0.0036183607820713154
-0.01763457779573213   -0.1309801758658585   -0.003651347509470078
-0.019325830059831663   -0.14108957548666676   -0.0043965518284601
-0.015102281651146953   -0.1414108789216425   -0.003959400463261418
-0.017543746278342164   -0.13086871266107147   -0.0034992384095445866
-0.019033729300919764   -0.1410185831167933   -0.0040599311156377955
-0.014907053894511605   -0.14140382583975378   -0.0037688216407658886
-0.017543746278342164   -0.13086871266107147   -0.0034992384095445866
-0.023789388857634635   -0.130479943455029   -0.0036183607820713154
-0.019033729300919764   -0.1410185831167933   -0.0040599311156377955
-0.023654314912178714   -0.13047448179192003   -0.003310750832372483
-0.014907053894511605   -0.14140382583975378   -0.0037688216407658886
-0.018778376224159697   -0.14104117465398963   -0.0036995418422942584
-0.023654314912178714   -0.13047448179192003   -0.003310750832372483
-0.019033729300919764   -0.1410185831167933   -0.0040599311156377955
-0.014907053894511605   -0.14140382583975378   -0.0037688216407658886
-0.023654314912178714   -0.13047448179192003   -0.003310750832372483
-0.017455347590691696   -0.1308310662503067   -0.0033314159327283324
-0.017543746278342164   -0.13086871266107147   -0.0034992384095445866
-0.014907053894511605   -0.14140382583975378   -0.0037688216407658886
-0.023654314912178714   -0.13047448179192003   -0.003310750832372483
-0.017543746278342164   -0.13086871266107147   -0.0034992384095445866
-0.019033729300919764   -0.1410185831167933   -0.0040599311156377955
-0.019537564699019832   -0.14125401860939846   -0.00471884816718089
-0.024053291830368473   -0.13072522016342528   -0.004183861077927043
-0.024776248158483342   -0.14054111704682112   -0.005128926830090351
-0.019325830059831663   -0.14108957548666676   -0.0043965518284601
-0.024053291830368473   -0.13072522016342528   -0.004183861077927043
-0.03145186819739581   -0.13008688242588584   -0.004552909991379732
-0.024776248158483342   -0.14054111704682112   -0.005128926830090351
-0.030952582337707396   -0.12992013680158973   -0.004121259038595824
-0.019325830059831663   -0.14108957548666676   -0.0043965518284601
-0.02409782985818853   -0.14036328472686943   -0.004620188916084825
-0.030952582337707396   -0.12992013680158973   -0.004121259038595824
-0.024776248158483342   -0.14054111704682112   -0.005128926830090351
-0.019325830059831663   -0.14108957548666676   -0.0043965518284601
-0.030952582337707396   -0.12992013680158973   -0.004121259038595824
-0.02395532744538898   -0.13056500429606802   -0.003907978163095074
-0.024053291830368473   -0.13072522016342528   -0.004183861077927043
-0.019325830059831663   -0.14108957548666676   -0.0043965518284601
-0.030952582337707396   -0.12992013680158973   -0.004121259038595824
-0.024053291830368473   -0.13072522016342528   -0.004183861077927043
-0.024776248158483342   -0.14054111704682112   -0.005128926830090351
-0.019325830059831663   -0.14108957548666676   -0.0043965518284601
-0.02395532744538898   -0.13056500429606802   -0.003907978163095074
-0.02409782985818853   -0.14036328472686943   -0.004620188916084825
-0.019033729300919764   -0.1410185831167933   -0.0040599311156377955
-0.02395532744538898   -0.13056500429606802   -0.003907978163095074
-0.030952582337707396   -0.12992013680158973   -0.004121259038595824
-0.02409782985818853   -0.14036328472686943   -0.004620188916084825
-0.030518772196060293   -0.1298422410249929   -0.003666997060128256
-0.019033729300919764   -0.1410185831167933   -0.0040599311156377955
-0.02348900379676997   -0.14029761880060596   -0.004081465837166969
-0.030518772196060293   -0.1298422410249929   -0.003666997060128256
-0.02409782985818853   -0.14036328472686943   -0.004620188916084825
-0.019033729300919764   -0.1410185831167933   -0.0040599311156377955
-0.030518772196060293   -0.1298422410249929   -0.003666997060128256
-0.023789388857634635   -0.130479943455029   -0.0036183607820713154
-0.02395532744538898   -0.13056500429606802   -0.003907978163095074
-0.019033729300919764   -0.1410185831167933   -0.0040599311156377955
-0.030518772196060293   -0.1298422410249929   -0.003666997060128256
-0.02395532744538898   -0.13056500429606802   -0.003907978163095074
-0.02409782985818853   -0.14036328472686943   -0.004620188916084825
-0.019033729300919764   -0.1410185831167933   -0.0040599311156377955
-0.023789388857634635   -0.130479943455029   -0.0036183607820713154
-0.02348900379676997   -0.14029761880060596   -0.004081465837166969
-0.018778376224159697   -0.14104117465398963   -0.0036995418422942584
-0.023789388857634635   -0.130479943455029   -0.0036183607820713154
-0.030518772196060293   -0.1298422410249929   -0.003666997060128256
-0.02348900379676997   -0.14029761880060596   -0.004081465837166969
-0.029934111069047174   -0.12988612289706758   -0.003193025236907556
-0.018778376224159697   -0.14104117465398963   -0.0036995418422942584
-0.022699842186847563   -0.1403777641604643   -0.0035179050196515443
-0.029934111069047174   -0.12988612289706758   -0.003193025236907556
-0.02348900379676997   -0.14029761880060596   -0.004081465837166969
-0.018778376224159697   -0.14104117465398963   -0.0036995418422942584
-0.029934111069047174   -0.12988612289706758   -0.003193025236907556
-0.023654314912178714   -0.13047448179192003   -0.003310750832372483
-0.023789388857634635   -0.130479943455029   -0.0036183607820713154
-0.018778376224159697   -0.14104117465398963   -0.0036995418422942584
-0.029934111069047174   -0.12988612289706758   -0.003193025236907556
-0.023789388857634635   -0.130479943455029   -0.0036183607820713154
-0.02348900379676997   -0.14029761880060596   -0.004081465837166969
0.0008529160184011003   -0.13099041083548904   -0.002246434346809028
0.004725773796170727   -0.11709418887916552   -0.0017123801717308324
-0.005507925029320553   -0.13130456571233143   -0.0028460301185369154
0.0012653330389309893   -0.13068496834078666   -0.002581632293876852
0.004725773796170727   -0.11709418887916552   -0.0017123801717308324
-0.0036838158928037957   -0.11730109501407357   -0.0022845727704529886
-0.005507925029320553   -0.13130456571233143   -0.0028460301185369154
-0.00366141568950789   -0.11704762611989228   -0.002386336509492104
0.0012653330389309893   -0.13068496834078666   -0.002581632293876852
-0.005398289592952371   -0.1310497193232484   -0.002993306004169886
-0.00366141568950789   -0.11704762611989228   -0.002386336509492104
-0.005507925029320553   -0.13130456571233143   -0.0028460301185369154
0.0012653330389309893   -0.13068496834078666   -0.002581632293876852
-0.00366141568950789   -0.11704762611989228   -0.002386336509492104
0.004969477036668861   -0.11679623534988812   -0.0019595649856390287
0.004725773796170727   -0.11709418887916552   -0.0017123801717308324
0.0012653330389309893   -0.13068496834078666   -0.002581632293876852
-0.00366141568950789   -0.11704762611989228   -0.002386336509492104
0.004725773796170727   -0.11709418887916552   -0.0017123801717308324
-0.005507925029320553   -0.13130456571233143   -0.0028460301185369154
0.0012653330389309893   -0.13068496834078666   -0.002581632293876852
0.004969477036668861   -0.11679623534988812   -0.0019595649856390287
-0.005398289592952371   -0.1310497193232484   -0.002993306004169886
0.0015685825996167174   -0.13050740836266222   -0.002892617053439679
0.004969477036668861   -0.11679623534988812   -0.0019595649856390287
-0.00366141568950789   -0.11704762611989228   -0.002386336509492104
-0.005398289592952371   -0.1310497193232484   -0.002993306004169886
-0.0036329879127065968   -0.11686301206932748   -0.0024723266721038335
0.0015685825996167174   -0.13050740836266222   -0.002892617053439679
-0.005273642777662631   -0.1308823690176748   -0.0031232818787202943
-0.0036329879127065968   -0.11686301206932748   -0.0024723266721038335
-0.005398289592952371   -0.1310497193232484   -0.002993306004169886
0.0015685825996167174   -0.13050740836266222   -0.002892617053439679
-0.0036329879127065968   -0.11686301206932748   -0.0024723266721038335
0.005124952366582296   -0.1165996979848395   -0.002184467687690934
0.004969477036668861   -0.11679623534988812   -0.0019595649856390287
0.0015685825996167174   -0.13050740836266222   -0.002892617053439679
-0.0036329879127065968   -0.11686301206932748   -0.0024723266721038335
0.004969477036668861   -0.11679623534988812   -0.0019595649856390287
-0.005398289592952371   -0.1310497193232484   -0.002993306004169886
0.0015685825996167174   -0.13050740836266222   -0.002892617053439679
0.005124952366582296   -0.1165996979848395   -0.002184467687690934
-0.005273642777662631   -0.1308823690176748   -0.0031232818787202943
0.0018926791877039138   -0.13041827671277975   -0.003179261291197907
0.005124952366582296   -0.1165996979848395   -0.002184467687690934
-0.0036329879127065968   -0.11686301206932748   -0.0024723266721038335
-0.005273642777662631   -0.1308823690176748   -0.0031232818787202943
-0.0036472980369185756   -0.11674139368254077   -0.0025436952459493177
0.0018926791877039138   -0.13041827671277975   -0.003179261291197907
-0.005199145579500608   -0.13079759429176313   -0.003237664468065713
-0.0036472980369185756   -0.11674139368254077   -0.0025436952459493177
-0.005273642777662631   -0.1308823690176748   -0.0031232818787202943
0.0018926791877039138   -0.13041827671277975   -0.003179261291197907
-0.0036472980369185756   -0.11674139368254077   -0.0025436952459493177
0.005284066557670853   -0.11646675429524256   -0.0023875477506589606
0.005124952366582296   -0.1165996979848395   -0.002184467687690934
0.0018926791877039138   -0.13041827671277975   -0.003179261291197907
-0.0036472980369185756   -0.11674139368254077   -0.0025436952459493177
0.005124952366582296   -0.1165996979848395   -0.002184467687690934
-0.005273642777662631   -0.1308823690176748   -0.0031232818787202943
-0.005507925029320553   -0.13130456571233143   -0.0028460301185369154
-0.0036838158928037957   -0.11730109501407357   -0.0022845727704529886
-0.011657581437141067   -0.13136456297790527   -0.0033406780748927206
-0.005398289592952371   -0.1310497193232484   -0.002993306004169886
-0.0036838158928037957   -0.11730109501407357   -0.0022845727704529886
-0.011773141838875812   -0.11730177974255136   -0.002757250699901849
-0.011657581437141067   -0.13136456297790527   -0.0033406780748927206
-0.011774379382348476   -0.11708707396188307   -0.0027476672472006814
-0.005398289592952371   -0.1310497193232484   -0.002993306004169886
-0.011576843396631802   -0.13114565143205273   -0.0033446353636688853
-0.011774379382348476   -0.11708707396188307   -0.0027476672472006814
-0.011657581437141067   -0.13136456297790527   -0.0033406780748927206
-0.005398289592952371   -0.1310497193232484   -0.002993306004169886
-0.011774379382348476   -0.11708707396188307   -0.0027476672472006814
-0.00366141568950789   -0.11704762611989228   -0.002386336509492104
-0.0036838158928037957   -0.11730109501407357   -0.0022845727704529886
-0.005398289592952371   -0.1310497193232484   -0.002993306004169886
-0.011774379382348476   -0.11708707396188307   -0.0027476672472006814
-0.0036838158928037957   -0.11730109501407357   -0.0022845727704529886
-0.011657581437141067   -0.13136456297790527   -0.0033406780748927206
-0.005398289592952371   -0.1310497193232484   -0.002993306004169886
-0.00366141568950789   -0.11704762611989228   -0.002386336509492104
-0.011576843396631802   -0.13114565143205273   -0.0033446353636688853
-0.005273642777662631   -0.1308823690176748   -0.0031232818787202943
-0.00366141568950789   -0.11704762611989228   -0.002386336509492104
-0.011774379382348476   -0.11708707396188307   -0.0027476672472006814
-0.011576843396631802   -0.13114565143205273   -0.0033446353636688853
-0.011775087199439503   -0.11693308196116368   -0.002722381055977704
-0.005273642777662631   -0.1308823690176748   -0.0031232818787202943
-0.01149384693022128   -0.1310050679790998   -0.003332026093571433
-0.011775087199439503   -0.11693308196116368   -0.002722381055977704
-0.011576843396631802   -0.13114565143205273   -0.0033446353636688853
-0.005273642777662631   -0.1308823690176748   -0.0031232818787202943
-0.011775087199439503   -0.11693308196116368   -0.002722381055977704
-0.0036329879127065968   -0.11686301206932748   -0.0024723266721038335
-0.00366141568950789   -0.11704762611989228   -0.002386336509492104
-0.005273642777662631   -0.1308823690176748   -0.0031232818787202943
-0.011775087199439503   -0.11693308196116368   -0.002722381055977704
-0.00366141568950789   -0.11704762611989228   -0.002386336509492104
-0.011576843396631802   -0.13114565143205273   -0.0033446353636688853
-0.005273642777662631   -0.1308823690176748   -0.0031232818787202943
-0.0036329879127065968   -0.11686301206932748   -0.0024723266721038335
-0.01149384693022128   -0.1310050679790998   -0.003332026093571433
-0.005199145579500608   -0.13079759429176313   -0.003237664468065713
-0.0036329879127065968   -0.11686301206932748   -0.0024723266721038335
-0.011775087199439503   -0.11693308196116368   -0.002722381055977704
-0.01149384693022128   -0.1310050679790998   -0.003332026093571433
-0.01178663345874628   -0.11683990707432271   -0.0026821944439934455
-0.005199145579500608   -0.13079759429176313   -0.003237664468065713
-0.011421244241923603   -0.13094149580214987   -0.0033039400616759695
-0.01178663345874628   -0.11683990707432271   -0.0026821944439934455
-0.01149384693022128   -0.1310050679790998   -0.003332026093571433
-0.005199145579500608   -0.13079759429176313   -0.003237664468065713
-0.01178663345874628   -0.11683990707432271   -0.0026821944439934455
-0.0036472980369185756   -0.11674139368254077   -0.0025436952459493177
-0.0036329879127065968   -0.11686301206932748   -0.0024723266721038335
-0.005199145579500608   -0.13079759429176313   -0.003237664468065713
-0.01178663345874628   -0.11683990707432271   -0.0026821944439934455
-0.0036329879127065968   -0.11686301206932748   -0.0024723266721038335
-0.01149384693022128   -0.1310050679790998   -0.003332026093571433
-0.011657581437141067   -0.13136456297790527   -0.0033406780748927206
-0.011773141838875812   -0.11730177974255136   -0.002757250699901849
-0.01770975956851242   -0.13116910133316861   -0.003787242112449089
-0.011576843396631802   -0.13114565143205273   -0.0033446353636688853
-0.011773141838875812   -0.11730177974255136   -0.002757250699901849
-0.019724309782203298   -0.11710074138431603   -0.0031715467145138365
-0.01770975956851242   -0.13116910133316861   -0.003787242112449089
-0.019731507039440457   -0.11692017132223739   -0.0030519492567224558
-0.011576843396631802   -0.13114565143205273   -0.0033446353636688853
-0.01763457779573213   -0.1309801758658585   -0.003651347509470078
-0.019731507039440457   -0.11692017132223739   -0.0030519492567224558
-0.01770975956851242   -0.13116910133316861   -0.003787242112449089
-0.011576843396631802   -0.13114565143205273   -0.0033446353636688853
-0.019731507039440457   -0.11692017132223739   -0.0030519492567224558
-0.011774379382348476   -0.11708707396188307   -0.0027476672472006814
-0.011773141838875812   -0.11730177974255136   -0.002757250699901849
-0.011576843396631802   -0.13114565143205273   -0.0033446353636688853
-0.019731507039440457   -0.11692017132223739   -0.0030519492567224558
-0.011773141838875812   -0.11730177974255136   -0.002757250699901849
-0.01770975956851242   -0.13116910133316861   -0.003787242112449089
-0.011576843396631802   -0.13114565143205273   -0.0033446353636688853
-0.011774379382348476   -0.11708707396188307   -0.0027476672472006814
-0.01763457779573213   -0.1309801758658585   -0.003651347509470078
-0.01149384693022128   -0.1310050679790998   -0.003332026093571433
-0.011774379382348476   -0.11708707396188307   -0.0027476672472006814
-0.019731507039440457   -0.11692017132223739   -0.0030519492567224558
-0.01763457779573213   -0.1309801758658585   -0.003651347509470078
-0.01972513229485708   -0.11679977677828368   -0.002916947336040329
-0.01149384693022128   -0.1310050679790998   -0.003332026093571433
-0.017543746278342164   -0.13086871266107147   -0.0034992384095445866
-0.01972513229485708   -0.11679977677828368   -0.002916947336040329
-0.01763457779573213   -0.1309801758658585   -0.003651347509470078
-0.01149384693022128   -0.1310050679790998   -0.003332026093571433
-0.01972513229485708   -0.11679977677828368   -0.002916947336040329
-0.011775087199439503   -0.11693308196116368   -0.002722381055977704
-0.011774379382348476   -0.11708707396188307   -0.0027476672472006814
-0.01149384693022128   -0.1310050679790998   -0.003332026093571433
-0.01972513229485708   -0.11679977677828368   -0.002916947336040329
-0.011774379382348476   -0.11708707396188307   -0.0027476672472006814
-0.01763457779573213   -0.1309801758658585   -0.003651347509470078
-0.01149384693022128   -0.1310050679790998   -0.003332026093571433
-0.011775087199439503   -0.11693308196116368   -0.002722381055977704
-0.017543746278342164   -0.13086871266107147   -0.0034992384095445866
-0.011421244241923603   -0.13094149580214987   -0.0033039400616759695
-0.011775087199439503   -0.11693308196116368   -0.002722381055977704
-0.01972513229485708   -0.11679977677828368   -0.002916947336040329
-0.017543746278342164   -0.13086871266107147   -0.0034992384095445866
-0.019721175584084184   -0.11673848888361475   -0.00276699331419269
-0.011421244241923603   -0.13094149580214987   -0.0033039400616759695
-0.017455347590691696   -0.1308310662503067   -0.0033314159327283324
-0.019721175584084184   -0.11673848888361475   -0.00276699331419269
-0.017543746278342164   -0.13086871266107147   -0.0034992384095445866
-0.011421244241923603   -0.13094149580214987   -0.0033039400616759695
-0.019721175584084184   -0.11673848888361475   -0.00276699331419269
-0.01178663345874628   -0.11683990707432271   -0.0026821944439934455
-0.011775087199439503   -0.11693308196116368   -0.002722381055977704
-0.011421244241923603   -0.13094149580214987   -0.0033039400616759695
-0.019721175584084184   -0.11673848888361475   -0.00276699331419269
-0.011775087199439503   -0.11693308196116368   -0.002722381055977704
-0.017543746278342164   -0.13086871266107147   -0.0034992384095445866
-0.01770975956851242   -0.13116910133316861   -0.003787242112449089
-0.019724309782203298   -0.11710074138431603   -0.0031715467145138365
-0.024053291830368473   -0.13072522016342528   -0.004183861077927043
-0.01763457779573213   -0.1309801758658585   -0.003651347509470078
-0.019724309782203298   -0.11710074138431603   -0.0031715467145138365
-0.02792381547648414   -0.11670568583265302   -0.003528123833104294
-0.024053291830368473   -0.13072522016342528   -0.004183861077927043
-0.02791446054554709   -0.1165578730760591   -0.003297228209026537
-0.01763457779573213   -0.1309801758658585   -0.003651347509470078
-0.02395532744538898   -0.13056500429606802   -0.003907978163095074
-0.02791446054554709   -0.1165578730760591   -0.003297228209026537
-0.024053291830368473   -0.13072522016342528   -0.004183861077927043
-0.01763457779573213   -0.1309801758658585   -0.003651347509470078
-0.02791446054554709   -0.1165578730760591   -0.003297228209026537
-0.019731507039440457   -0.11692017132223739   -0.0030519492567224558
-0.019724309782203298   -0.11710074138431603   -0.0031715467145138365
-0.01763457779573213   -0.1309801758658585   -0.003651347509470078
-0.02791446054554709   -0.1165578730760591   -0.003297228209026537
-0.019724309782203298   -0.11710074138431603   -0.0031715467145138365
-0.024053291830368473   -0.13072522016342528   -0.004183861077927043
-0.01763457779573213   -0.1309801758658585   -0.003651347509470078
-0.019731507039440457   -0.11692017132223739   -0.0030519492567224558
-0.02395532744538898   -0.13056500429606802   -0.003907978163095074
-0.017543746278342164   -0.13086871266107147   -0.0034992384095445866
-0.019731507039440457   -0.11692017132223739   -0.0030519492567224558
-0.02791446054554709   -0.1165578730760591   -0.003297228209026537
-0.02395532744538898   -0.13056500429606802   -0.003907978163095074
-0.02784611926111108   -0.11646793860690544   -0.0030532458747166845
-0.017543746278342164   -0.13086871266107147   -0.0034992384095445866
-0.023789388857634635   -0.130479943455029   -0.0036183607820713154
-0.02784611926111108   -0.11646793860690544   -0.0030532458747166845
-0.02395532744538898   -0.13056500429606802   -0.003907978163095074
-0.017543746278342164   -0.13086871266107147   -0.0034992384095445866
-0.02784611926111108   -0.11646793860690544   -0.0030532458747166845
-0.01972513229485708   -0.11679977677828368   -0.002916947336040329
-0.019731507039440457   -0.11692017132223739   -0.0030519492567224558
-0.017543746278342164   -0.13086871266107147   -0.0034992384095445866
-0.02784611926111108   -0.11646793860690544   -0.0030532458747166845
-0.019731507039440457   -0.11692017132223739   -0.0030519492567224558
-0.02395532744538898   -0.13056500429606802   -0.003907978163095074
-0.017543746278342164   -0.13086871266107147   -0.0034992384095445866
-0.01972513229485708   -0.11679977677828368   -0.002916947336040329
-0.023789388857634635   -0.130479943455029   -0.0036183607820713154
-0.017455347590691696   -0.1308310662503067   -0.0033314159327283324
-0.01972513229485708   -0.11679977677828368   -0.002916947336040329
-0.02784611926111108   -0.11646793860690544   -0.0030532458747166845
-0.023789388857634635   -0.130479943455029   -0.0036183607820713154
-0.027800345713838128   -0.11644206508355567   -0.0027931169120663313
-0.017455347590691696   -0.1308310662503067   -0.0033314159327283324
-0.023654314912178714   -0.13047448179192003   -0.003310750832372483
-0.027800345713838128   -0.11644206508355567   -0.0027931169120663313
-0.023789388857634635   -0.130479943455029   -0.0036183607820713154
-0.017455347590691696   -0.1308310662503067   -0.0033314159327283324
-0.027800345713838128   -0.11644206508355567   -0.0027931169120663313
-0.019721175584084184   -0.11673848888361475   -0.00276699331419269
-0.01972513229485708   -0.11679977677828368   -0.002916947336040329
-0.017455347590691696   -0.1308310662503067   -0.0033314159327283324
-0.027800345713838128   -0.11644206508355567   -0.0027931169120663313
-0.01972513229485708   -0.11679977677828368   -0.002916947336040329
-0.023789388857634635   -0.130479943455029   -0.0036183607820713154
-0.024053291830368473   -0.13072522016342528   -0.004183861077927043
-0.02792381547648414   -0.11670568583265302   -0.003528123833104294
-0.03145186819739581   -0.13008688242588584   -0.004552909991379732
-0.02395532744538898   -0.13056500429606802   -0.003907978163095074
-0.02792381547648414   -0.11670568583265302   -0.003528123833104294
-0.037082345433048905   -0.11616204940663977   -0.003849234583339914
-0.03145186819739581   -0.13008688242588584   -0.004552909991379732
-0.03674218332118555   -0.1160171949582442   -0.0034962669988542316
-0.02395532744538898   -0.13056500429606802   -0.003907978163095074
-0.030952582337707396   -0.12992013680158973   -0.004121259038595824
-0.03674218332118555   -0.1160171949582442   -0.0034962669988542316
-0.03145186819739581   -0.13008688242588584   -0.004552909991379732
-0.02395532744538898   -0.13056500429606802   -0.003907978163095074
-0.03674218332118555   -0.1160171949582442   -0.0034962669988542316
-0.02791446054554709   -0.1165578730760591   -0.003297228209026537
-0.02792381547648414   -0.11670568583265302   -0.003528123833104294
-0.02395532744538898   -0.13056500429606802   -0.003907978163095074
-0.03674218332118555   -0.1160171949582442   -0.0034962669988542316
-0.02792381547648414   -0.11670568583265302   -0.003528123833104294
-0.03145186819739581   -0.13008688242588584   -0.004552909991379732
-0.02395532744538898   -0.13056500429606802   -0.003907978163095074
-0.02791446054554709   -0.1165578730760591   -0.003297228209026537
-0.030952582337707396   -0.12992013680158973   -0.004121259038595824
-0.023789388857634635   -0.130479943455029   -0.0036183607820713154
-0.02791446054554709   -0.1165578730760591   -0.003297228209026537
-0.03674218332118555   -0.1160171949582442   -0.0034962669988542316
-0.030952582337707396   -0.12992013680158973   -0.004121259038595824
-0.036450960041890426   -0.11593835829433   -0.0031213321726875094
-0.023789388857634635   -0.130479943455029   -0.0036183607820713154
-0.030518772196060293   -0.1298422410249929   -0.003666997060128256
-0.036450960041890426   -0.11593835829433   -0.0031213321726875094
-0.030952582337707396   -0.12992013680158973   -0.004121259038595824
-0.023789388857634635   -0.130479943455029   -0.0036183607820713154
-0.036450960041890426   -0.11593835829433   -0.0031213321726875094
-0.02784611926111108   -0.11646793860690544   -0.0030532458747166845
-0.02791446054554709   -0.1165578730760591   -0.003297228209026537
-0.023789388857634635   -0.130479943455029   -0.0036183607820713154
-0.036450960041890426   -0.11593835829433   -0.0031213321726875094
-0.02791446054554709   -0.1165578730760591   -0.003297228209026537
-0.030952582337707396   -0.12992013680158973   -0.004121259038595824
-0.023789388857634635   -0.130479943455029   -0.0036183607820713154
-0.02784611926111108   -0.11646793860690544   -0.0030532458747166845
-0.030518772196060293   -0.1298422410249929   -0.003666997060128256
-0.023654314912178714   -0.13047448179192003   -0.003310750832372483
-0.02784611926111108   -0.11646793860690544   -0.0030532458747166845
-0.036450960041890426   -0.11593835829433   -0.0031213321726875094
-0.030518772196060293   -0.1298422410249929   -0.003666997060128256
-0.03603024859487394   -0.11596124745307815   -0.002727427503434565
-0.023654314912178714   -0.13047448179192003   -0.003310750832372483
-0.029934111069047174   -0.12988612289706758   -0.003193025236907556
-0.03603024859487394   -0.11596124745307815   -0.002727427503434565
-0.030518772196060293   -0.1298422410249929   -0.003666997060128256
-0.023654314912178714   -0.13047448179192003   -0.003310750832372483
-0.03603024859487394   -0.11596124745307815   -0.002727427503434565
-0.027800345713838128   -0.11644206508355567   -0.0027931169120663313
-0.02784611926111108   -0.11646793860690544   -0.0030532458747166845
-0.023654314912178714   -0.13047448179192003   -0.003310750832372483
-0.03603024859487394   -0.11596124745307815   -0.002727427503434565
-0.02784611926111108   -0.11646793860690544   -0.0030532458747166845
-0.030518772196060293   -0.1298422410249929   -0.003666997060128256
0.004725773796170727   -0.11709418887916552   -0.0017123801717308324
0.0073849060554655715   -0.10040222994471372   -0.001140219270216141
-0.0036838158928037957   -0.11730109501407357   -0.0022845727704529886
0.004969477036668861   -0.11679623534988812   -0.0019595649856390287
0.0073849060554655715   -0.10040222994471372   -0.001140219270216141
-0.002581012817953136   -0.10050315047440878   -0.0016786272226855213
-0.0036838158928037957   -0.11730109501407357   -0.0022845727704529886
-0.0026286571783793104   -0.10025580203075408   -0.0017330973752673377
0.004969477036668861   -0.11679623534988812   -0.0019595649856390287
-0.00366141568950789   -0.11704762611989228   -0.002386336509492104
-0.0026286571783793104   -0.10025580203075408   -0.0017330973752673377
-0.0036838158928037957   -0.11730109501407357   -0.0022845727704529886
0.004969477036668861   -0.11679623534988812   -0.0019595649856390287
-0.0026286571783793104   -0.10025580203075408   -0.0017330973752673377
0.007479663805431825   -0.1001151817801653   -0.0013014356516657345
0.0073849060554655715   -0.10040222994471372   -0.001140219270216141
0.004969477036668861   -0.11679623534988812   -0.0019595649856390287
-0.0026286571783793104   -0.10025580203075408   -0.0017330973752673377
0.0073849060554655715   -0.10040222994471372   -0.001140219270216141
-0.0036838158928037957   -0.11730109501407357   -0.0022845727704529886
0.004969477036668861   -0.11679623534988812   -0.0019595649856390287
0.007479663805431825   -0.1001151817801653   -0.0013014356516657345
-0.00366141568950789   -0.11704762611989228   -0.002386336509492104
0.005124952366582296   -0.1165996979848395   -0.002184467687690934
0.007479663805431825   -0.1001151817801653   -0.0013014356516657345
-0.0026286571783793104   -0.10025580203075408   -0.0017330973752673377
-0.00366141568950789   -0.11704762611989228   -0.002386336509492104
-0.0026788228477517013   -0.10005932880205556   -0.0017735242043983453
0.005124952366582296   -0.1165996979848395   -0.002184467687690934
-0.0036329879127065968   -0.11686301206932748   -0.0024723266721038335
-0.0026788228477517013   -0.10005932880205556   -0.0017735242043983453
-0.00366141568950789   -0.11704762611989228   -0.002386336509492104
0.005124952366582296   -0.1165996979848395   -0.002184467687690934
-0.0026788228477517013   -0.10005932880205556   -0.0017735242043983453
0.007507358395055379   -0.0999049928161066   -0.0014419432265748303
0.007479663805431825   -0.1001151817801653   -0.0013014356516657345
0.005124952366582296   -0.1165996979848395   -0.002184467687690934
-0.0026788228477517013   -0.10005932880205556   -0.0017735242043983453
0.007479663805431825   -0.1001151817801653   -0.0013014356516657345
-0.00366141568950789   -0.11704762611989228   -0.002386336509492104
0.005124952366582296   -0.1165996979848395   -0.002184467687690934
0.007507358395055379   -0.0999049928161066   -0.0014419432265748303
-0.0036329879127065968   -0.11686301206932748   -0.0024723266721038335
0.005284066557670853   -0.11646675429524256   -0.0023875477506589606
0.007507358395055379   -0.0999049928161066   -0.0014419432265748303
-0.0026788228477517013   -0.10005932880205556   -0.0017735242043983453
-0.0036329879127065968   -0.11686301206932748   -0.0024723266721038335
-0.0027635513747838736   -0.09990761948984425   -0.0018003846697071365
0.005284066557670853   -0.11646675429524256   -0.0023875477506589606
-0.0036472980369185756   -0.11674139368254077   -0.0025436952459493177
-0.0027635513747838736   -0.09990761948984425   -0.0018003846697071365
-0.0036329879127065968   -0.11686301206932748   -0.0024723266721038335
0.005284066557670853   -0.11646675429524256   -0.0023875477506589606
-0.0027635513747838736   -0.09990761948984425   -0.0018003846697071365
0.007521676167288299   -0.09973499444068835   -0.001562717238602279
0.007507358395055379   -0.0999049928161066   -0.0014419432265748303
0.005284066557670853   -0.11646675429524256   -0.0023875477506589606
-0.0027635513747838736   -0.09990761948984425   -0.0018003846697071365
0.007507358395055379   -0.0999049928161066   -0.0014419432265748303
-0.0036329879127065968   -0.11686301206932748   -0.0024723266721038335
-0.0036838158928037957   -0.11730109501407357   -0.0022845727704529886
-0.002581012817953136   -0.10050315047440878   -0.0016786272226855213
-0.011773141838875812   -0.11730177974255136   -0.002757250699901849
-0.00366141568950789   -0.11704762611989228   -0.002386336509492104
-0.002581012817953136   -0.10050315047440878   -0.0016786272226855213
-0.012131492115364297   -0.10045016358678238   -0.0021229136490942247
-0.011773141838875812   -0.11730177974255136   -0.002757250699901849
-0.012197057289844436   -0.10024309261214799   -0.002097132818558492
-0.00366141568950789   -0.11704762611989228   -0.002386336509492104
-0.011774379382348476   -0.11708707396188307   -0.0027476672472006814
-0.012197057289844436   -0.10024309261214799   -0.002097132818558492
-0.011773141838875812   -0.11730177974255136   -0.002757250699901849
-0.00366141568950789   -0.11704762611989228   -0.002386336509492104
-0.012197057289844436   -0.10024309261214799   -0.002097132818558492
-0.0026286571783793104   -0.10025580203075408   -0.0017330973752673377
-0.002581012817953136   -0.10050315047440878   -0.0016786272226855213
-0.00366141568950789   -0.11704762611989228   -0.002386336509492104
-0.012197057289844436   -0.10024309261214799   -0.002097132818558492
-0.002581012817953136   -0.10050315047440878   -0.0016786272226855213
-0.011773141838875812   -0.11730177974255136   -0.002757250699901849
-0.00366141568950789   -0.11704762611989228   -0.002386336509492104
-0.0026286571783793104   -0.10025580203075408   -0.0017330973752673377
-0.011774379382348476   -0.11708707396188307   -0.0027476672472006814
-0.0036329879127065968   -0.11686301206932748   -0.0024723266721038335
-0.0026286571783793104   -0.10025580203075408   -0.0017330973752673377
-0.012197057289844436   -0.10024309261214799   -0.002097132818558492
-0.011774379382348476   -0.11708707396188307   -0.0027476672472006814
-0.012263518043089375   -0.10007964174721268   -0.0020569038279488858
-0.0036329879127065968   -0.11686301206932748   -0.0024723266721038335
-0.011775087199439503   -0.11693308196116368   -0.002722381055977704
-0.012263518043089375   -0.10007964174721268   -0.0020569038279488858
-0.011774379382348476   -0.11708707396188307   -0.0027476672472006814
-0.0036329879127065968   -0.11686301206932748   -0.0024723266721038335
-0.012263518043089375   -0.10007964174721268   -0.0020569038279488858
-0.0026788228477517013   -0.10005932880205556   -0.0017735242043983453
-0.0026286571783793104   -0.10025580203075408   -0.0017330973752673377
-0.0036329879127065968   -0.11686301206932748   -0.0024723266721038335
-0.012263518043089375   -0.10007964174721268   -0.0020569038279488858
-0.0026286571783793104   -0.10025580203075408   -0.0017330973752673377
-0.011774379382348476   -0.11708707396188307   -0.0027476672472006814
-0.0036329879127065968   -0.11686301206932748   -0.0024723266721038335
-0.0026788228477517013   -0.10005932880205556   -0.0017735242043983453
-0.011775087199439503   -0.11693308196116368   -0.002722381055977704
-0.0036472980369185756   -0.11674139368254077   -0.0025436952459493177
-0.0026788228477517013   -0.10005932880205556   -0.0017735242043983453
-0.012263518043089375   -0.10007964174721268   -0.0020569038279488858
-0.011775087199439503   -0.11693308196116368   -0.002722381055977704
-0.01234025158153211   -0.09996055646745959   -0.0020029117419780016
-0.0036472980369185756   -0.11674139368254077   -0.0025436952459493177
-0.01178663345874628   -0.11683990707432271   -0.0026821944439934455
-0.01234025158153211   -0.09996055646745959   -0.0020029117419780016
-0.011775087199439503   -0.11693308196116368   -0.002722381055977704
-0.0036472980369185756   -0.11674139368254077   -0.0025436952459493177
-0.01234025158153211   -0.09996055646745959   -0.0020029117419780016
-0.0027635513747838736   -0.09990761948984425   -0.0018003846697071365
-0.0026788228477517013   -0.10005932880205556   -0.0017735242043983453
-0.0036472980369185756   -0.11674139368254077   -0.0025436952459493177
-0.01234025158153211   -0.09996055646745959   -0.0020029117419780016
-0.0026788228477517013   -0.10005932880205556   -0.0017735242043983453
-0.011775087199439503   -0.11693308196116368   -0.002722381055977704
-0.011773141838875812   -0.11730177974255136   -0.002757250699901849
-0.012131492115364297   -0.10045016358678238   -0.0021229136490942247
-0.019724309782203298   -0.11710074138431603   -0.0031715467145138365
-0.011774379382348476   -0.11708707396188307   -0.0027476672472006814
-0.012131492115364297   -0.10045016358678238   -0.0021229136490942247
-0.021520014486087594   -0.1002525447534224   -0.0025034964370620116
-0.019724309782203298   -0.11710074138431603   -0.0031715467145138365
-0.021590638197081305   -0.10008214574825959   -0.0023978296421569884
-0.011774379382348476   -0.11708707396188307   -0.0027476672472006814
-0.019731507039440457   -0.11692017132223739   -0.0030519492567224558
-0.021590638197081305   -0.10008214574825959   -0.0023978296421569884
-0.019724309782203298   -0.11710074138431603   -0.0031715467145138365
-0.011774379382348476   -0.11708707396188307   -0.0027476672472006814
-0.021590638197081305   -0.10008214574825959   -0.0023978296421569884
-0.012197057289844436   -0.10024309261214799   -0.002097132818558492
-0.012131492115364297   -0.10045016358678238   -0.0021229136490942247
-0.011774379382348476   -0.11708707396188307   -0.0027476672472006814
-0.021590638197081305   -0.10008214574825959   -0.0023978296421569884
-0.012131492115364297   -0.10045016358678238   -0.0021229136490942247
-0.019724309782203298   -0.11710074138431603   -0.0031715467145138365
-0.011774379382348476   -0.11708707396188307   -0.0027476672472006814
-0.012197057289844436   -0.10024309261214799   -0.002097132818558492
-0.019731507039440457   -0.11692017132223739   -0.0030519492567224558
-0.011775087199439503   -0.11693308196116368   -0.002722381055977704
-0.012197057289844436   -0.10024309261214799   -0.002097132818558492
-0.021590638197081305   -0.10008214574825959   -0.0023978296421569884
-0.019731507039440457   -0.11692017132223739   -0.0030519492567224558
-0.0216492309418741   -0.09995494846886943   -0.002277964709658736
-0.011775087199439503   -0.11693308196116368   -0.002722381055977704
-0.01972513229485708   -0.11679977677828368   -0.002916947336040329
-0.0216492309418741   -0.09995494846886943   -0.002277964709658736
-0.019731507039440457   -0.11692017132223739   -0.0030519492567224558
-0.011775087199439503   -0.11693308196116368   -0.002722381055977704
-0.0216492309418741   -0.09995494846886943   -0.002277964709658736
-0.012263518043089375   -0.10007964174721268   -0.0020569038279488858
-0.012197057289844436   -0.10024309261214799   -0.002097132818558492
-0.011775087199439503   -0.11693308196116368   -0.002722381055977704
-0.0216492309418741   -0.09995494846886943   -0.002277964709658736
-0.012197057289844436   -0.10024309261214799   -0.002097132818558492
-0.019731507039440457   -0.11692017132223739   -0.0030519492567224558
-0.011775087199439503   -0.11693308196116368   -0.002722381055977704
-0.012263518043089375   -0.10007964174721268   -0.0020569038279488858
-0.01972513229485708   -0.11679977677828368   -0.002916947336040329
-0.01178663345874628   -0.11683990707432271   -0.0026821944439934455
-0.012263518043089375   -0.10007964174721268   -0.0020569038279488858
-0.0216492309418741   -0.09995494846886943   -0.002277964709658736
-0.01972513229485708   -0.11679977677828368   -0.002916947336040329
-0.021709500963030624   -0.09987077605764724   -0.002144323319060204
-0.01178663345874628   -0.11683990707432271   -0.0026821944439934455
-0.019721175584084184   -0.11673848888361475   -0.00276699331419269
-0.021709500963030624   -0.09987077605764724   -0.002144323319060204
-0.01972513229485708   -0.11679977677828368   -0.002916947336040329
-0.01178663345874628   -0.11683990707432271   -0.0026821944439934455
-0.021709500963030624   -0.09987077605764724   -0.002144323319060204
-0.01234025158153211   -0.09996055646745959   -0.0020029117419780016
-0.012263518043089375   -0.10007964174721268   -0.0020569038279488858
-0.01178663345874628   -0.11683990707432271   -0.0026821944439934455
-0.021709500963030624   -0.09987077605764724   -0.002144323319060204
-0.012263518043089375   -0.10007964174721268   -0.0020569038279488858
-0.01972513229485708   -0.11679977677828368   -0.002916947336040329
-0.019724309782203298   -0.11710074138431603   -0.0031715467145138365
-0.021520014486087594   -0.1002525447534224   -0.0025034964370620116
-0.02792381547648414   -0.11670568583265302   -0.003528123833104294
-0.019731507039440457   -0.11692017132223739   -0.0030519492567224558
-0.021520014486087594   -0.1002525447534224   -0.0025034964370620116
-0.031131906290656493   -0.09991427814350602   -0.00282172841606524
-0.02792381547648414   -0.11670568583265302   -0.003528123833104294
-0.031190541610168043   -0.09977975488420127   -0.002635099248542307
-0.019731507039440457   -0.11692017132223739   -0.0030519492567224558
-0.02791446054554709   -0.1165578730760591   -0.003297228209026537
-0.031190541610168043   -0.09977975488420127   -0.002635099248542307
-0.02792381547648414   -0.11670568583265302   -0.003528123833104294
-0.019731507039440457   -0.11692017132223739   -0.0030519492567224558
-0.031190541610168043   -0.09977975488420127   -0.002635099248542307
-0.021590638197081305   -0.10008214574825959   -0.0023978296421569884
-0.021520014486087594   -0.1002525447534224   -0.0025034964370620116
-0.019731507039440457   -0.11692017132223739   -0.0030519492567224558
-0.031190541610168043   -0.09977975488420127   -0.002635099248542307
-0.021520014486087594   -0.1002525447534224   -0.0025034964370620116
-0.02792381547648414   -0.11670568583265302   -0.003528123833104294
-0.019731507039440457   -0.11692017132223739   -0.0030519492567224558
-0.021590638197081305   -0.10008214574825959   -0.0023978296421569884
-0.02791446054554709   -0.1165578730760591   -0.003297228209026537
-0.01972513229485708   -0.11679977677828368   -0.002916947336040329
-0.021590638197081305   -0.10008214574825959   -0.0023978296421569884
-0.031190541610168043   -0.09977975488420127   -0.002635099248542307
-0.02791446054554709   -0.1165578730760591   -0.003297228209026537
-0.031198760996357707   -0.09968569848685042   -0.0024362385078414974
-0.01972513229485708   -0.11679977677828368   -0.002916947336040329
-0.02784611926111108   -0.11646793860690544   -0.0030532458747166845
-0.031198760996357707   -0.09968569848685042   -0.0024362385078414974
-0.02791446054554709   -0.1165578730760591   -0.003297228209026537
-0.01972513229485708   -0.11679977677828368   -0.002916947336040329
-0.031198760996357707   -0.09968569848685042   -0.0024362385078414974
-0.0216492309418741   -0.09995494846886943   -0.002277964709658736
-0.021590638197081305   -0.10008214574825959   -0.0023978296421569884
-0.01972513229485708   -0.11679977677828368   -0.002916947336040329
-0.031198760996357707   -0.09968569848685042   -0.0024362385078414974
-0.021590638197081305   -0.10008214574825959   -0.0023978296421569884
-0.02791446054554709   -0.1165578730760591   -0.003297228209026537
-0.01972513229485708   -0.11679977677828368   -0.002916947336040329
-0.0216492309418741   -0.09995494846886943   -0.002277964709658736
-0.02784611926111108   -0.11646793860690544   -0.0030532458747166845
-0.019721175584084184   -0.11673848888361475   -0.00276699331419269
-0.0216492309418741   -0.09995494846886943   -0.002277964709658736
-0.031198760996357707   -0.09968569848685042   -0.0024362385078414974
-0.02784611926111108   -0.11646793860690544   -0.0030532458747166845
-0.031221124757130306   -0.09963851919675303   -0.002222561628556933
-0.019721175584084184   -0.11673848888361475   -0.00276699331419269
-0.027800345713838128   -0.11644206508355567   -0.0027931169120663313
-0.031221124757130306   -0.09963851919675303   -0.002222561628556933
-0.02784611926111108   -0.11646793860690544   -0.0030532458747166845
-0.019721175584084184   -0.11673848888361475   -0.00276699331419269
-0.031221124757130306   -0.09963851919675303   -0.002222561628556933
-0.021709500963030624   -0.09987077605764724   -0.002144323319060204
-0.0216492309418741   -0.09995494846886943   -0.002277964709658736
-0.019721175584084184   -0.11673848888361475   -0.00276699331419269
-0.031221124757130306   -0.09963851919675303   -0.002222561628556933
-0.0216492309418741   -0.09995494846886943   -0.002277964709658736
-0.02784611926111108   -0.11646793860690544   -0.0030532458747166845
-0.02792381547648414   -0.11670568583265302   -0.003528123833104294
-0.031131906290656493   -0.09991427814350602   -0.00282172841606524
-0.037082345433048905   -0.11616204940663977   -0.003849234583339914
-0.02791446054554709   -0.1165578730760591   -0.003297228209026537
-0.031131906290656493   -0.09991427814350602   -0.00282172841606524
-0.041612312210760845   -0.09947137857105524   -0.003093529373284847
-0.037082345433048905   -0.11616204940663977   -0.003849234583339914
-0.04141413041443192   -0.09934850613769905   -0.0028215468574233093
-0.02791446054554709   -0.1165578730760591   -0.003297228209026537
-0.03674218332118555   -0.1160171949582442   -0.0034962669988542316
-0.04141413041443192   -0.09934850613769905   -0.0028215468574233093
-0.037082345433048905   -0.11616204940663977   -0.003849234583339914
-0.02791446054554709   -0.1165578730760591   -0.003297228209026537
-0.04141413041443192   -0.09934850613769905   -0.0028215468574233093
-0.031190541610168043   -0.09977975488420127   -0.002635099248542307
-0.031131906290656493   -0.09991427814350602   -0.00282172841606524
-0.02791446054554709   -0.1165578730760591   -0.003297228209026537
-0.04141413041443192   -0.09934850613769905   -0.0028215468574233093
-0.031131906290656493   -0.09991427814350602   -0.00282172841606524
-0.037082345433048905   -0.11616204940663977   -0.003849234583339914
-0.02791446054554709   -0.1165578730760591   -0.003297228209026537
-0.031190541610168043   -0.09977975488420127   -0.002635099248542307
-0.03674218332118555   -0.1160171949582442   -0.0034962669988542316
-0.02784611926111108   -0.11646793860690544   -0.0030532458747166845
-0.031190541610168043   -0.09977975488420127   -0.002635099248542307
-0.04141413041443192   -0.09934850613769905   -0.0028215468574233093
-0.03674218332118555   -0.1160171949582442   -0.0034962669988542316
-0.04124690090718052   -0.0992684869864392   -0.0025282257799575927
-0.02784611926111108   -0.11646793860690544   -0.0030532458747166845
-0.036450960041890426   -0.11593835829433   -0.0031213321726875094
-0.04124690090718052   -0.0992684869864392   -0.0025282257799575927
-0.03674218332118555   -0.1160171949582442   -0.0034962669988542316
-0.02784611926111108   -0.11646793860690544   -0.0030532458747166845
-0.04124690090718052   -0.0992684869864392   -0.0025282257799575927
-0.031198760996357707   -0.09968569848685042   -0.0024362385078414974
-0.031190541610168043   -0.09977975488420127   -0.002635099248542307
-0.02784611926111108   -0.11646793860690544   -0.0030532458747166845
-0.04124690090718052   -0.0992684869864392   -0.0025282257799575927
-0.031190541610168043   -0.09977975488420127   -0.002635099248542307
-0.03674218332118555   -0.1160171949582442   -0.0034962669988542316
-0.02784611926111108   -0.11646793860690544   -0.0030532458747166845
-0.031198760996357707   -0.09968569848685042   -0.0024362385078414974
-0.036450960041890426   -0.11593835829433   -0.0031213321726875094
-0.027800345713838128   -0.11644206508355567   -0.0027931169120663313
-0.031198760996357707   -0.09968569848685042   -0.0024362385078414974
-0.04124690090718052   -0.0992684869864392   -0.0025282257799575927
-0.036450960041890426   -0.11593835829433   -0.0031213321726875094
-0.04097012529048342   -0.09926825428549396   -0.0022162210166591302
-0.027800345713838128   -0.11644206508355567   -0.0027931169120663313
-0.03603024859487394   -0.11596124745307815   -0.002727427503434565
-0.04097012529048342   -0.09926825428549396   -0.0022162210166591302
-0.036450960041890426   -0.11593835829433   -0.0031213321726875094
-0.027800345713838128   -0.11644206508355567   -0.0027931169120663313
-0.04097012529048342   -0.09926825428549396   -0.0022162210166591302
-0.031221124757130306   -0.09963851919675303   -0.002222561628556933
-0.031198760996357707   -0.09968569848685042   -0.0024362385078414974
-0.027800345713838128   -0.11644206508355567   -0.0027931169120663313
-0.04097012529048342   -0.09926825428549396   -0.0022162210166591302
-0.031198760996357707   -0.09968569848685042   -0.0024362385078414974
-0.036450960041890426   -0.11593835829433   -0.0031213321726875094
0.0073849060554655715   -0.10040222994471372   -0.001140219270216141
0.008851558697671144   -0.08169257689773524   -0.0005793361976143894
-0.002581012817953136   -0.10050315047440878   -0.0016786272226855213
0.007479663805431825   -0.1001151817801653   -0.0013014356516657345
0.008851558697671144   -0.08169257689773524   -0.0005793361976143894
-0.0022014272770786657   -0.08168887273722154   -0.0010789174391320796
-0.002581012817953136   -0.10050315047440878   -0.0016786272226855213
-0.002301301840761005   -0.08144948983420996   -0.0010856255555628483
0.007479663805431825   -0.1001151817801653   -0.0013014356516657345
-0.0026286571783793104   -0.10025580203075408   -0.0017330973752673377
-0.002301301840761005   -0.08144948983420996   -0.0010856255555628483
-0.002581012817953136   -0.10050315047440878   -0.0016786272226855213
0.007479663805431825   -0.1001151817801653   -0.0013014356516657345
-0.002301301840761005   -0.08144948983420996   -0.0010856255555628483
0.008817329559875355   -0.08141767869723694   -0.0006557790140003386
0.008851558697671144   -0.08169257689773524   -0.0005793361976143894
0.007479663805431825   -0.1001151817801653   -0.0013014356516657345
-0.002301301840761005   -0.08144948983420996   -0.0010856255555628483
0.008851558697671144   -0.08169257689773524   -0.0005793361976143894
-0.002581012817953136   -0.10050315047440878   -0.0016786272226855213
0.007479663805431825   -0.1001151817801653   -0.0013014356516657345
0.008817329559875355   -0.08141767869723694   -0.0006557790140003386
-0.0026286571783793104   -0.10025580203075408   -0.0017330973752673377
0.007507358395055379   -0.0999049928161066   -0.0014419432265748303
0.008817329559875355   -0.08141767869723694   -0.0006557790140003386
-0.002301301840761005   -0.08144948983420996   -0.0010856255555628483
-0.0026286571783793104   -0.10025580203075408   -0.0017330973752673377
-0.0024122616348612414   -0.08124274237943165   -0.0010799190319607267
0.007507358395055379   -0.0999049928161066   -0.0014419432265748303
-0.0026788228477517013   -0.10005932880205556   -0.0017735242043983453
-0.0024122616348612414   -0.08124274237943165   -0.0010799190319607267
-0.0026286571783793104   -0.10025580203075408   -0.0017330973752673377
0.007507358395055379   -0.0999049928161066   -0.0014419432265748303
-0.0024122616348612414   -0.08124274237943165   -0.0010799190319607267
0.008735900164374866   -0.08119554798793838   -0.0007123236279932045
0.008817329559875355   -0.08141767869723694   -0.0006557790140003386
0.007507358395055379   -0.0999049928161066   -0.0014419432265748303
-0.0024122616348612414   -0.08124274237943165   -0.0010799190319607267
0.008817329559875355   -0.08141767869723694   -0.0006557790140003386
-0.0026286571783793104   -0.10025580203075408   -0.0017330973752673377
0.007507358395055379   -0.0999049928161066   -0.0014419432265748303
0.008735900164374866   -0.08119554798793838   -0.0007123236279932045
-0.0026788228477517013   -0.10005932880205556   -0.0017735242043983453
0.007521676167288299   -0.09973499444068835   -0.001562717238602279
0.008735900164374866   -0.08119554798793838   -0.0007123236279932045
-0.0024122616348612414   -0.08124274237943165   -0.0010799190319607267
-0.0026788228477517013   -0.10005932880205556   -0.0017735242043983453
-0.0025496234657680318   -0.08106333196331564   -0.0010613084481264244
0.007521676167288299   -0.09973499444068835   -0.001562717238602279
-0.0027635513747838736   -0.09990761948984425   -0.0018003846697071365
-0.0025496234657680318   -0.08106333196331564   -0.0010613084481264244
-0.0026788228477517013   -0.10005932880205556   -0.0017735242043983453
0.007521676167288299   -0.09973499444068835   -0.001562717238602279
-0.0025496234657680318   -0.08106333196331564   -0.0010613084481264244
0.008622559780962975   -0.08099038002807547   -0.0007503592520454439
0.008735900164374866   -0.08119554798793838   -0.0007123236279932045
0.007521676167288299   -0.09973499444068835   -0.001562717238602279
-0.0025496234657680318   -0.08106333196331564   -0.0010613084481264244
0.008735900164374866   -0.08119554798793838   -0.0007123236279932045
-0.0026788228477517013   -0.10005932880205556   -0.0017735242043983453
-0.002581012817953136   -0.10050315047440878   -0.0016786272226855213
-0.0022014272770786657   -0.08168887273722154   -0.0010789174391320796
-0.012131492115364297   -0.10045016358678238   -0.0021229136490942247
-0.0026286571783793104   -0.10025580203075408   -0.0017330973752673377
-0.0022014272770786657   -0.08168887273722154   -0.0010789174391320796
-0.012742932982750596   -0.08158865623610215   -0.0014922846417193363
-0.012131492115364297   -0.10045016358678238   -0.0021229136490942247
-0.012854339185831398   -0.08138949963548876   -0.0014490069647914326
-0.0026286571783793104   -0.10025580203075408   -0.0017330973752673377
-0.012197057289844436   -0.10024309261214799   -0.002097132818558492
-0.012854339185831398   -0.08138949963548876   -0.0014490069647914326
-0.012131492115364297   -0.10045016358678238   -0.0021229136490942247
-0.0026286571783793104   -0.10025580203075408   -0.0017330973752673377
-0.012854339185831398   -0.08138949963548876   -0.0014490069647914326
-0.002301301840761005   -0.08144948983420996   -0.0010856255555628483
-0.0022014272770786657   -0.08168887273722154   -0.0010789174391320796
-0.0026286571783793104   -0.10025580203075408   -0.0017330973752673377
-0.012854339185831398   -0.08138949963548876   -0.0014490069647914326
-0.0022014272770786657   -0.08168887273722154   -0.0010789174391320796
-0.012131492115364297   -0.10045016358678238   -0.0021229136490942247
-0.0026286571783793104   -0.10025580203075408   -0.0017330973752673377
-0.002301301840761005   -0.08144948983420996   -0.0010856255555628483
-0.012197057289844436   -0.10024309261214799   -0.002097132818558492
-0.0026788228477517013   -0.10005932880205556   -0.0017735242043983453
-0.002301301840761005   -0.08144948983420996   -0.0010856255555628483
-0.012854339185831398   -0.08138949963548876   -0.0014490069647914326
-0.012197057289844436   -0.10024309261214799   -0.002097132818558492
-0.012967961964706632   -0.08121691319076305   -0.0013928072946040513
-0.0026788228477517013   -0.10005932880205556   -0.0017735242043983453
-0.012263518043089375   -0.10007964174721268   -0.0020569038279488858
-0.012967961964706632   -0.08121691319076305   -0.0013928072946040513
-0.012197057289844436   -0.10024309261214799   -0.002097132818558492
-0.0026788228477517013   -0.10005932880205556   -0.0017735242043983453
-0.012967961964706632   -0.08121691319076305   -0.0013928072946040513
-0.0024122616348612414   -0.08124274237943165   -0.0010799190319607267
-0.002301301840761005   -0.08144948983420996   -0.0010856255555628483
-0.0026788228477517013   -0.10005932880205556   -0.0017735242043983453
-0.012967961964706632   -0.08121691319076305   -0.0013928072946040513
-0.002301301840761005   -0.08144948983420996   -0.0010856255555628483
-0.012197057289844436   -0.10024309261214799   -0.002097132818558492
-0.0026788228477517013   -0.10005932880205556   -0.0017735242043983453
-0.0024122616348612414   -0.08124274237943165   -0.0010799190319607267
-0.012263518043089375   -0.10007964174721268   -0.0020569038279488858
-0.0027635513747838736   -0.09990761948984425   -0.0018003846697071365
-0.0024122616348612414   -0.08124274237943165   -0.0010799190319607267
-0.012967961964706632   -0.08121691319076305   -0.0013928072946040513
-0.012263518043089375   -0.10007964174721268   -0.0020569038279488858
-0.01309113378996713   -0.08107249743994374   -0.0013242802915209167
-0.0027635513747838736   -0.09990761948984425   -0.0018003846697071365
-0.01234025158153211   -0.09996055646745959   -0.0020029117419780016
-0.01309113378996713   -0.08107249743994374   -0.0013242802915209167
-0.012263518043089375   -0.10007964174721268   -0.0020569038279488858
-0.0027635513747838736   -0.09990761948984425   -0.0018003846697071365
-0.01309113378996713   -0.08107249743994374   -0.0013242802915209167
-0.0025496234657680318   -0.08106333196331564   -0.0010613084481264244
-0.0024122616348612414   -0.08124274237943165   -0.0010799190319607267
-0.0027635513747838736   -0.09990761948984425   -0.0018003846697071365
-0.01309113378996713   -0.08107249743994374   -0.0013242802915209167
-0.0024122616348612414   -0.08124274237943165   -0.0010799190319607267
-0.012263518043089375   -0.10007964174721268   -0.0020569038279488858
-0.012131492115364297   -0.10045016358678238   -0.0021229136490942247
-0.012742932982750596   -0.08158865623610215   -0.0014922846417193363
-0.021520014486087594   -0.1002525447534224   -0.0025034964370620116
-0.012197057289844436   -0.10024309261214799   -0.002097132818558492
-0.012742932982750596   -0.08158865623610215   -0.0014922846417193363
-0.02310614308725062   -0.08140258698349026   -0.0018416071206311438
-0.021520014486087594   -0.1002525447534224   -0.0025034964370620116
-0.0232207131909763   -0.08124058698878468   -0.0017484003392081698
-0.012197057289844436   -0.10024309261214799   -0.002097132818558492
-0.021590638197081305   -0.10008214574825959   -0.0023978296421569884
-0.0232207131909763   -0.08124058698878468   -0.0017484003392081698
-0.021520014486087594   -0.1002525447534224   -0.0025034964370620116
-0.012197057289844436   -0.10024309261214799   -0.002097132818558492
-0.0232207131909763   -0.08124058698878468   -0.0017484003392081698
-0.012854339185831398   -0.08138949963548876   -0.0014490069647914326
-0.012742932982750596   -0.08158865623610215   -0.0014922846417193363
-0.012197057289844436   -0.10024309261214799   -0.002097132818558492
-0.0232207131909763   -0.08124058698878468   -0.0017484003392081698
-0.012742932982750596   -0.08158865623610215   -0.0014922846417193363
-0.021520014486087594   -0.1002525447534224   -0.0025034964370620116
-0.012197057289844436   -0.10024309261214799   -0.002097132818558492
-0.012854339185831398   -0.08138949963548876   -0.0014490069647914326
-0.021590638197081305   -0.10008214574825959   -0.0023978296421569884
-0.012263518043089375   -0.10007964174721268   -0.0020569038279488858
-0.012854339185831398   -0.08138949963548876   -0.0014490069647914326
-0.0232207131909763   -0.08124058698878468   -0.0017484003392081698
-0.021590638197081305   -0.10008214574825959   -0.0023978296421569884
-0.023324707756843602   -0.08110496898266929   -0.0016425691281306248
-0.012263518043089375   -0.10007964174721268   -0.0020569038279488858
-0.0216492309418741   -0.09995494846886943   -0.002277964709658736
-0.023324707756843602   -0.08110496898266929   -0.0016425691281306248
-0.021590638197081305   -0.10008214574825959   -0.0023978296421569884
-0.012263518043089375   -0.10007964174721268   -0.0020569038279488858
-0.023324707756843602   -0.08110496898266929   -0.0016425691281306248
-0.012967961964706632   -0.08121691319076305   -0.0013928072946040513
-0.012854339185831398   -0.08138949963548876   -0.0014490069647914326
-0.012263518043089375   -0.10007964174721268   -0.0020569038279488858
-0.023324707756843602   -0.08110496898266929   -0.0016425691281306248
-0.012854339185831398   -0.08138949963548876   -0.0014490069647914326
-0.021590638197081305   -0.10008214574825959   -0.0023978296421569884
-0.012263518043089375   -0.10007964174721268   -0.0020569038279488858
-0.012967961964706632   -0.08121691319076305   -0.0013928072946040513
-0.0216492309418741   -0.09995494846886943   -0.002277964709658736
-0.01234025158153211   -0.09996055646745959   -0.0020029117419780016
-0.012967961964706632   -0.08121691319076305   -0.0013928072946040513
-0.023324707756843602   -0.08110496898266929   -0.0016425691281306248
-0.0216492309418741   -0.09995494846886943   -0.002277964709658736
-0.023429680417620283   -0.08099597017634282   -0.0015245991467850543
-0.01234025158153211   -0.09996055646745959   -0.0020029117419780016
-0.021709500963030624   -0.09987077605764724   -0.002144323319060204
-0.023429680417620283   -0.08099597017634282   -0.0015245991467850543
-0.0216492309418741   -0.09995494846886943   -0.002277964709658736
-0.01234025158153211   -0.09996055646745959   -0.0020029117419780016
-0.023429680417620283   -0.08099597017634282   -0.0015245991467850543
-0.01309113378996713   -0.08107249743994374   -0.0013242802915209167
-0.012967961964706632   -0.08121691319076305   -0.0013928072946040513
-0.01234025158153211   -0.09996055646745959   -0.0020029117419780016
-0.023429680417620283   -0.08099597017634282   -0.0015245991467850543
-0.012967961964706632   -0.08121691319076305   -0.0013928072946040513
-0.0216492309418741   -0.09995494846886943   -0.002277964709658736
-0.021520014486087594   -0.1002525447534224   -0.0025034964370620116
-0.02310614308725062   -0.08140258698349026   -0.0018416071206311438
-0.031131906290656493   -0.09991427814350602   -0.00282172841606524
-0.021590638197081305   -0.10008214574825959   -0.0023978296421569884
-0.02310614308725062   -0.08140258698349026   -0.0018416071206311438
-0.033674345385917376   -0.08112668806512012   -0.0021276002786370604
-0.031131906290656493   -0.09991427814350602   -0.00282172841606524
-0.03378083942548389   -0.08100219297546474   -0.001984088751025863
-0.021590638197081305   -0.10008214574825959   -0.0023978296421569884
-0.031190541610168043   -0.09977975488420127   -0.002635099248542307
-0.03378083942548389   -0.08100219297546474   -0.001984088751025863
-0.031131906290656493   -0.09991427814350602   -0.00282172841606524
-0.021590638197081305   -0.10008214574825959   -0.0023978296421569884
-0.03378083942548389   -0.08100219297546474   -0.001984088751025863
-0.0232207131909763   -0.08124058698878468   -0.0017484003392081698
-0.02310614308725062   -0.08140258698349026   -0.0018416071206311438
-0.021590638197081305   -0.10008214574825959   -0.0023978296421569884
-0.03378083942548389   -0.08100219297546474   -0.001984088751025863
-0.02310614308725062   -0.08140258698349026   -0.0018416071206311438
-0.031131906290656493   -0.09991427814350602   -0.00282172841606524
-0.021590638197081305   -0.10008214574825959   -0.0023978296421569884
-0.0232207131909763   -0.08124058698878468   -0.0017484003392081698
-0.031190541610168043   -0.09977975488420127   -0.002635099248542307
-0.0216492309418741   -0.09995494846886943   -0.002277964709658736
-0.0232207131909763   -0.08124058698878468   -0.0017484003392081698
-0.03378083942548389   -0.08100219297546474   -0.001984088751025863
-0.031190541610168043   -0.09977975488420127   -0.002635099248542307
-0.033845787403106224   -0.08090062489671193   -0.0018296659261827187
-0.0216492309418741   -0.09995494846886943   -0.002277964709658736
-0.031198760996357707   -0.09968569848685042   -0.0024362385078414974
-0.033845787403106224   -0.08090062489671193   -0.0018296659261827187
-0.031190541610168043   -0.09977975488420127   -0.002635099248542307
-0.0216492309418741   -0.09995494846886943   -0.002277964709658736
-0.033845787403106224   -0.08090062489671193   -0.0018296659261827187
-0.023324707756843602   -0.08110496898266929   -0.0016425691281306248
-0.0232207131909763   -0.08124058698878468   -0.0017484003392081698
-0.0216492309418741   -0.09995494846886943   -0.002277964709658736
-0.033845787403106224   -0.08090062489671193   -0.0018296659261827187
-0.0232207131909763   -0.08124058698878468   -0.0017484003392081698
-0.031190541610168043   -0.09977975488420127   -0.002635099248542307
-0.0216492309418741   -0.09995494846886943   -0.002277964709658736
-0.023324707756843602   -0.08110496898266929   -0.0016425691281306248
-0.031198760996357707   -0.09968569848685042   -0.0024362385078414974
-0.021709500963030624   -0.09987077605764724   -0.002144323319060204
-0.023324707756843602   -0.08110496898266929   -0.0016425691281306248
-0.033845787403106224   -0.08090062489671193   -0.0018296659261827187
-0.031198760996357707   -0.09968569848685042   -0.0024362385078414974
-0.03391689490687103   -0.08082796285442949   -0.0016620711395853949
-0.021709500963030624   -0.09987077605764724   -0.002144323319060204
-0.031221124757130306   -0.09963851919675303   -0.002222561628556933
-0.03391689490687103   -0.08082796285442949   -0.0016620711395853949
-0.031198760996357707   -0.09968569848685042   -0.0024362385078414974
-0.021709500963030624   -0.09987077605764724   -0.002144323319060204
-0.03391689490687103   -0.08082796285442949   -0.0016620711395853949
-0.023429680417620283   -0.08099597017634282   -0.0015245991467850543
-0.023324707756843602   -0.08110496898266929   -0.0016425691281306248
-0.021709500963030624   -0.09987077605764724   -0.002144323319060204
-0.03391689490687103   -0.08082796285442949   -0.0016620711395853949
-0.023324707756843602   -0.08110496898266929   -0.0016425691281306248
-0.031198760996357707   -0.09968569848685042   -0.0024362385078414974
-0.031131906290656493   -0.09991427814350602   -0.00282172841606524
-0.033674345385917376   -0.08112668806512012   -0.0021276002786370604
-0.041612312210760845   -0.09947137857105524   -0.003093529373284847
-0.031190541610168043   -0.09977975488420127   -0.002635099248542307
-0.033674345385917376   -0.08112668806512012   -0.0021276002786370604
-0.04501461236960061   -0.08078804214483667   -0.0023553811980659713
-0.041612312210760845   -0.09947137857105524   -0.003093529373284847
-0.04493900806440141   -0.08068285364415005   -0.0021646643089504717
-0.031190541610168043   -0.09977975488420127   -0.002635099248542307
-0.04141413041443192   -0.09934850613769905   -0.0028215468574233093
-0.04493900806440141   -0.08068285364415005   -0.0021646643089504717
-0.041612312210760845   -0.09947137857105524   -0.003093529373284847
-0.031190541610168043   -0.09977975488420127   -0.002635099248542307
-0.04493900806440141   -0.08068285364415005   -0.0021646643089504717
-0.03378083942548389   -0.08100219297546474   -0.001984088751025863
-0.033674345385917376   -0.08112668806512012   -0.0021276002786370604
-0.031190541610168043   -0.09977975488420127   -0.002635099248542307
-0.04493900806440141   -0.08068285364415005   -0.0021646643089504717
-0.033674345385917376   -0.08112668806512012   -0.0021276002786370604
-0.041612312210760845   -0.09947137857105524   -0.003093529373284847
-0.031190541610168043   -0.09977975488420127   -0.002635099248542307
-0.03378083942548389   -0.08100219297546474   -0.001984088751025863
-0.04141413041443192   -0.09934850613769905   -0.0028215468574233093
-0.031198760996357707   -0.09968569848685042   -0.0024362385078414974
-0.03378083942548389   -0.08100219297546474   -0.001984088751025863
-0.04493900806440141   -0.08068285364415005   -0.0021646643089504717
-0.04141413041443192   -0.09934850613769905   -0.0028215468574233093
-0.044877429959648496   -0.08059731709027254   -0.0019539274436032052
-0.031198760996357707   -0.09968569848685042   -0.0024362385078414974
-0.04124690090718052   -0.0992684869864392   -0.0025282257799575927
-0.044877429959648496   -0.08059731709027254   -0.0019539274436032052
-0.04141413041443192   -0.09934850613769905   -0.0028215468574233093
-0.031198760996357707   -0.09968569848685042   -0.0024362385078414974
-0.044877429959648496   -0.08059731709027254   -0.0019539274436032052
-0.033845787403106224   -0.08090062489671193   -0.0018296659261827187
-0.03378083942548389   -0.08100219297546474   -0.001984088751025863
-0.031198760996357707   -0.09968569848685042   -0.0024362385078414974
-0.044877429959648496   -0.08059731709027254   -0.0019539274436032052
-0.03378083942548389   -0.08100219297546474   -0.001984088751025863
-0.04141413041443192   -0.09934850613769905   -0.0028215468574233093
-0.031198760996357707   -0.09968569848685042   -0.0024362385078414974
-0.033845787403106224   -0.08090062489671193   -0.0018296659261827187
-0.04124690090718052   -0.0992684869864392   -0.0025282257799575927
-0.031221124757130306   -0.09963851919675303   -0.002222561628556933
-0.033845787403106224   -0.08090062489671193   -0.0018296659261827187
-0.044877429959648496   -0.08059731709027254   -0.0019539274436032052
-0.04124690090718052   -0.0992684869864392   -0.0025282257799575927
-0.04472722864665852   -0.0805680970566014   -0.0017254570713601278
-0.031221124757130306   -0.09963851919675303   -0.002222561628556933
-0.04097012529048342   -0.09926825428549396   -0.0022162210166591302
-0.04472722864665852   -0.0805680970566014   -0.0017254570713601278
-0.04124690090718052   -0.0992684869864392   -0.0025282257799575927
-0.031221124757130306   -0.09963851919675303   -0.002222561628556933
-0.04472722864665852   -0.0805680970566014   -0.0017254570713601278
-0.03391689490687103   -0.08082796285442949   -0.0016620711395853949
-0.033845787403106224   -0.08090062489671193   -0.0018296659261827187
-0.031221124757130306   -0.09963851919675303   -0.002222561628556933
-0.04472722864665852   -0.0805680970566014   -0.0017254570713601278
-0.033845787403106224   -0.08090062489671193   -0.0018296659261827187
-0.04124690090718052   -0.0992684869864392   -0.0025282257799575927
0.008851558697671144   -0.08169257689773524   -0.0005793361976143894
0.009129418075737236   -0.061709555880747446   -8.782269684703464e-05
-0.0022014272770786657   -0.08168887273722154   -0.0010789174391320796
0.008817329559875355   -0.08141767869723694   -0.0006557790140003386
0.009129418075737236   -0.061709555880747446   -8.782269684703464e-05
-0.00254080584642664   -0.06160564250587583   -0.0005375987340288264
-0.0022014272770786657   -0.08168887273722154   -0.0010789174391320796
-0.002677425642120935   -0.06137633111681557   -0.0004966984604765373
0.008817329559875355   -0.08141767869723694   -0.0006557790140003386
-0.002301301840761005   -0.08144948983420996   -0.0010856255555628483
-0.002677425642120935   -0.06137633111681557   -0.0004966984604765373
-0.0022014272770786657   -0.08168887273722154   -0.0010789174391320796
0.008817329559875355   -0.08141767869723694   -0.0006557790140003386
-0.002677425642120935   -0.06137633111681557   -0.0004966984604765373
0.008983157021879493   -0.06144712328733233   -7.82249340409261e-05
0.009129418075737236   -0.061709555880747446   -8.782269684703464e-05
0.008817329559875355   -0.08141767869723694   -0.0006557790140003386
-0.002677425642120935   -0.06137633111681557   -0.0004966984604765373
0.009129418075737236   -0.061709555880747446   -8.782269684703464e-05
-0.0022014272770786657   -0.08168887273722154   -0.0010789174391320796
0.008817329559875355   -0.08141767869723694   -0.0006557790140003386
0.008983157021879493   -0.06144712328733233   -7.82249340409261e-05
-0.002301301840761005   -0.08144948983420996   -0.0010856255555628483
0.008735900164374866   -0.08119554798793838   -0.0007123236279932045
0.008983157021879493   -0.06144712328733233   -7.82249340409261e-05
-0.002677425642120935   -0.06137633111681557   -0.0004966984604765373
-0.002301301840761005   -0.08144948983420996   -0.0010856255555628483
-0.002833736302762888   -0.06115939214733542   -0.00044457521700587123
0.008735900164374866   -0.08119554798793838   -0.0007123236279932045
-0.0024122616348612414   -0.08124274237943165   -0.0010799190319607267
-0.002833736302762888   -0.06115939214733542   -0.00044457521700587123
-0.002301301840761005   -0.08144948983420996   -0.0010856255555628483
0.008735900164374866   -0.08119554798793838   -0.0007123236279932045
-0.002833736302762888   -0.06115939214733542   -0.00044457521700587123
0.008804620332751043   -0.06121185163947973   -4.5672407747808187e-05
0.008983157021879493   -0.06144712328733233   -7.82249340409261e-05
0.008735900164374866   -0.08119554798793838   -0.0007123236279932045
-0.002833736302762888   -0.06115939214733542   -0.00044457521700587123
0.008983157021879493   -0.06144712328733233   -7.82249340409261e-05
-0.002301301840761005   -0.08144948983420996   -0.0010856255555628483
0.008735900164374866   -0.08119554798793838   -0.0007123236279932045
0.008804620332751043   -0.06121185163947973   -4.5672407747808187e-05
-0.0024122616348612414   -0.08124274237943165   -0.0010799190319607267
0.008622559780962975   -0.08099038002807547   -0.0007503592520454439
0.008804620332751043   -0.06121185163947973   -4.5672407747808187e-05
-0.002833736302762888   -0.06115939214733542   -0.00044457521700587123
-0.0024122616348612414   -0.08124274237943165   -0.0010799190319607267
-0.003008930811052206   -0.06095188269945016   -0.00037841116187039365
0.008622559780962975   -0.08099038002807547   -0.0007503592520454439
-0.0025496234657680318   -0.08106333196331564   -0.0010613084481264244
-0.003008930811052206   -0.06095188269945016   -0.00037841116187039365
-0.0024122616348612414   -0.08124274237943165   -0.0010799190319607267
0.008622559780962975   -0.08099038002807547   -0.0007503592520454439
-0.003008930811052206   -0.06095188269945016   -0.00037841116187039365
0.008569537510819285   -0.06096536189044208   8.788972036709588e-06
0.008804620332751043   -0.06121185163947973   -4.5672407747808187e-05
0.008622559780962975   -0.08099038002807547   -0.0007503592520454439
-0.003008930811052206   -0.06095188269945016   -0.00037841116187039365
0.008804620332751043   -0.06121185163947973   -4.5672407747808187e-05
-0.0024122616348612414   -0.08124274237943165   -0.0010799190319607267
-0.0022014272770786657   -0.08168887273722154   -0.0010789174391320796
-0.00254080584642664   -0.06160564250587583   -0.0005375987340288264
-0.012742932982750596   -0.08158865623610215   -0.0014922846417193363
-0.002301301840761005   -0.08144948983420996   -0.0010856255555628483
-0.00254080584642664   -0.06160564250587583   -0.0005375987340288264
-0.013599279630676437   -0.06148584687587008   -0.0009193223236307357
-0.012742932982750596   -0.08158865623610215   -0.0014922846417193363
-0.01373831078622069   -0.061293577701686   -0.0008575076165456169
-0.002301301840761005   -0.08144948983420996   -0.0010856255555628483
-0.012854339185831398   -0.08138949963548876   -0.0014490069647914326
-0.01373831078622069   -0.061293577701686   -0.0008575076165456169
-0.012742932982750596   -0.08158865623610215   -0.0014922846417193363
-0.002301301840761005   -0.08144948983420996   -0.0010856255555628483
-0.01373831078622069   -0.061293577701686   -0.0008575076165456169
-0.002677425642120935   -0.06137633111681557   -0.0004966984604765373
-0.00254080584642664   -0.06160564250587583   -0.0005375987340288264
-0.002301301840761005   -0.08144948983420996   -0.0010856255555628483
-0.01373831078622069   -0.061293577701686   -0.0008575076165456169
-0.00254080584642664   -0.06160564250587583   -0.0005375987340288264
-0.012742932982750596   -0.08158865623610215   -0.0014922846417193363
-0.002301301840761005   -0.08144948983420996   -0.0010856255555628483
-0.002677425642120935   -0.06137633111681557   -0.0004966984604765373
-0.012854339185831398   -0.08138949963548876   -0.0014490069647914326
-0.0024122616348612414   -0.08124274237943165   -0.0010799190319607267
-0.002677425642120935   -0.06137633111681557   -0.0004966984604765373
-0.01373831078622069   -0.061293577701686   -0.0008575076165456169
-0.012854339185831398   -0.08138949963548876   -0.0014490069647914326
-0.013880414711381225   -0.061110923591740966   -0.000785016537796749
-0.0024122616348612414   -0.08124274237943165   -0.0010799190319607267
-0.012967961964706632   -0.08121691319076305   -0.0013928072946040513
-0.013880414711381225   -0.061110923591740966   -0.000785016537796749
-0.012854339185831398   -0.08138949963548876   -0.0014490069647914326
-0.0024122616348612414   -0.08124274237943165   -0.0010799190319607267
-0.013880414711381225   -0.061110923591740966   -0.000785016537796749
-0.002833736302762888   -0.06115939214733542   -0.00044457521700587123
-0.002677425642120935   -0.06137633111681557   -0.0004966984604765373
-0.0024122616348612414   -0.08124274237943165   -0.0010799190319607267
-0.013880414711381225   -0.061110923591740966   -0.000785016537796749
-0.002677425642120935   -0.06137633111681557   -0.0004966984604765373
-0.012854339185831398   -0.08138949963548876   -0.0014490069647914326
-0.0024122616348612414   -0.08124274237943165   -0.0010799190319607267
-0.002833736302762888   -0.06115939214733542   -0.00044457521700587123
-0.012967961964706632   -0.08121691319076305   -0.0013928072946040513
-0.0025496234657680318   -0.08106333196331564   -0.0010613084481264244
-0.002833736302762888   -0.06115939214733542   -0.00044457521700587123
-0.013880414711381225   -0.061110923591740966   -0.000785016537796749
-0.012967961964706632   -0.08121691319076305   -0.0013928072946040513
-0.01403149218489235   -0.06094065490758632   -0.0007017190663861523
-0.0025496234657680318   -0.08106333196331564   -0.0010613084481264244
-0.01309113378996713   -0.08107249743994374   -0.0013242802915209167
-0.01403149218489235   -0.06094065490758632   -0.0007017190663861523
-0.012967961964706632   -0.08121691319076305   -0.0013928072946040513
-0.0025496234657680318   -0.08106333196331564   -0.0010613084481264244
-0.01403149218489235   -0.06094065490758632   -0.0007017190663861523
-0.003008930811052206   -0.06095188269945016   -0.00037841116187039365
-0.002833736302762888   -0.06115939214733542   -0.00044457521700587123
-0.0025496234657680318   -0.08106333196331564   -0.0010613084481264244
-0.01403149218489235   -0.06094065490758632   -0.0007017190663861523
-0.002833736302762888   -0.06115939214733542   -0.00044457521700587123
-0.012967961964706632   -0.08121691319076305   -0.0013928072946040513
-0.012742932982750596   -0.08158865623610215   -0.0014922846417193363
-0.013599279630676437   -0.06148584687587008   -0.0009193223236307357
-0.02310614308725062   -0.08140258698349026   -0.0018416071206311438
-0.012854339185831398   -0.08138949963548876   -0.0014490069647914326
-0.013599279630676437   -0.06148584687587008   -0.0009193223236307357
-0.024478537621414713   -0.06134279273870127   -0.0012441414911303118
-0.02310614308725062   -0.08140258698349026   -0.0018416071206311438
-0.024616430790948746   -0.06118492298834255   -0.0011613750878590482
-0.012854339185831398   -0.08138949963548876   -0.0014490069647914326
-0.0232207131909763   -0.08124058698878468   -0.0017484003392081698
-0.024616430790948746   -0.06118492298834255   -0.0011613750878590482
-0.02310614308725062   -0.08140258698349026   -0.0018416071206311438
-0.012854339185831398   -0.08138949963548876   -0.0014490069647914326
-0.024616430790948746   -0.06118492298834255   -0.0011613750878590482
-0.01373831078622069   -0.061293577701686   -0.0008575076165456169
-0.013599279630676437   -0.06148584687587008   -0.0009193223236307357
-0.012854339185831398   -0.08138949963548876   -0.0014490069647914326
-0.024616430790948746   -0.06118492298834255   -0.0011613750878590482
-0.013599279630676437   -0.06148584687587008   -0.0009193223236307357
-0.02310614308725062   -0.08140258698349026   -0.0018416071206311438
-0.012854339185831398   -0.08138949963548876   -0.0014490069647914326
-0.01373831078622069   -0.061293577701686   -0.0008575076165456169
-0.0232207131909763   -0.08124058698878468   -0.0017484003392081698
-0.012967961964706632   -0.08121691319076305   -0.0013928072946040513
-0.01373831078622069   -0.061293577701686   -0.0008575076165456169
-0.024616430790948746   -0.06118492298834255   -0.0011613750878590482
-0.0232207131909763   -0.08124058698878468   -0.0017484003392081698
-0.024745439756067127   -0.06103723820824404   -0.0010682982462290698
-0.012967961964706632   -0.08121691319076305   -0.0013928072946040513
-0.023324707756843602   -0.08110496898266929   -0.0016425691281306248
-0.024745439756067127   -0.06103723820824404   -0.0010682982462290698
-0.0232207131909763   -0.08124058698878468   -0.0017484003392081698
-0.012967961964706632   -0.08121691319076305   -0.0013928072946040513
-0.024745439756067127   -0.06103723820824404   -0.0010682982462290698
-0.013880414711381225   -0.061110923591740966   -0.000785016537796749
-0.01373831078622069   -0.061293577701686   -0.0008575076165456169
-0.012967961964706632   -0.08121691319076305   -0.0013928072946040513
-0.024745439756067127   -0.06103723820824404   -0.0010682982462290698
-0.01373831078622069   -0.061293577701686   -0.0008575076165456169
-0.0232207131909763   -0.08124058698878468   -0.0017484003392081698
-0.012967961964706632   -0.08121691319076305   -0.0013928072946040513
-0.013880414711381225   -0.061110923591740966   -0.000785016537796749
-0.023324707756843602   -0.08110496898266929   -0.0016425691281306248
-0.01309113378996713   -0.08107249743994374   -0.0013242802915209167
-0.013880414711381225   -0.061110923591740966   -0.000785016537796749
-0.024745439756067127   -0.06103723820824404   -0.0010682982462290698
-0.023324707756843602   -0.08110496898266929   -0.0016425691281306248
-0.024874908948458608   -0.06090015659729534   -0.0009654260141862705
-0.01309113378996713   -0.08107249743994374   -0.0013242802915209167
-0.023429680417620283   -0.08099597017634282   -0.0015245991467850543
-0.024874908948458608   -0.06090015659729534   -0.0009654260141862705
-0.023324707756843602   -0.08110496898266929   -0.0016425691281306248
-0.01309113378996713   -0.08107249743994374   -0.0013242802915209167
-0.024874908948458608   -0.06090015659729534   -0.0009654260141862705
-0.01403149218489235   -0.06094065490758632   -0.0007017190663861523
-0.013880414711381225   -0.061110923591740966   -0.000785016537796749
-0.01309113378996713   -0.08107249743994374   -0.0013242802915209167
-0.024874908948458608   -0.06090015659729534   -0.0009654260141862705
-0.013880414711381225   -0.061110923591740966   -0.000785016537796749
-0.023324707756843602   -0.08110496898266929   -0.0016425691281306248
-0.02310614308725062   -0.08140258698349026   -0.0018416071206311438
-0.024478537621414713   -0.06134279273870127   -0.0012441414911303118
-0.033674345385917376   -0.08112668806512012   -0.0021276002786370604
-0.0232207131909763   -0.08124058698878468   -0.0017484003392081698
-0.024478537621414713   -0.06134279273870127   -0.0012441414911303118
-0.035553889887428275   -0.06114978941738418   -0.0015092902684411518
-0.033674345385917376   -0.08112668806512012   -0.0021276002786370604
-0.03568599123839224   -0.061028119584815514   -0.0014058184120818266
-0.0232207131909763   -0.08124058698878468   -0.0017484003392081698
-0.03378083942548389   -0.08100219297546474   -0.001984088751025863
-0.03568599123839224   -0.061028119584815514   -0.0014058184120818266
-0.033674345385917376   -0.08112668806512012   -0.0021276002786370604
-0.0232207131909763   -0.08124058698878468   -0.0017484003392081698
-0.03568599123839224   -0.061028119584815514   -0.0014058184120818266
-0.024616430790948746   -0.06118492298834255   -0.0011613750878590482
-0.024478537621414713   -0.06134279273870127   -0.0012441414911303118
-0.0232207131909763   -0.08124058698878468   -0.0017484003392081698
-0.03568599123839224   -0.061028119584815514   -0.0014058184120818266
-0.024478537621414713   -0.06134279273870127   -0.0012441414911303118
-0.033674345385917376   -0.08112668806512012   -0.0021276002786370604
-0.0232207131909763   -0.08124058698878468   -0.0017484003392081698
-0.024616430790948746   -0.06118492298834255   -0.0011613750878590482
-0.03378083942548389   -0.08100219297546474   -0.001984088751025863
-0.023324707756843602   -0.08110496898266929   -0.0016425691281306248
-0.024616430790948746   -0.06118492298834255   -0.0011613750878590482
-0.03568599123839224   -0.061028119584815514   -0.0014058184120818266
-0.03378083942548389   -0.08100219297546474   -0.001984088751025863
-0.03578644369711786   -0.06091260212710598   -0.0012937581830415662
-0.023324707756843602   -0.08110496898266929   -0.0016425691281306248
-0.033845787403106224   -0.08090062489671193   -0.0018296659261827187
-0.03578644369711786   -0.06091260212710598   -0.0012937581830415662
-0.03378083942548389   -0.08100219297546474   -0.001984088751025863
-0.023324707756843602   -0.08110496898266929   -0.0016425691281306248
-0.03578644369711786   -0.06091260212710598   -0.0012937581830415662
-0.024745439756067127   -0.06103723820824404   -0.0010682982462290698
-0.024616430790948746   -0.06118492298834255   -0.0011613750878590482
-0.023324707756843602   -0.08110496898266929   -0.0016425691281306248
-0.03578644369711786   -0.06091260212710598   -0.0012937581830415662
-0.024616430790948746   -0.06118492298834255   -0.0011613750878590482
-0.03378083942548389   -0.08100219297546474   -0.001984088751025863
-0.023324707756843602   -0.08110496898266929   -0.0016425691281306248
-0.024745439756067127   -0.06103723820824404   -0.0010682982462290698
-0.033845787403106224   -0.08090062489671193   -0.0018296659261827187
-0.023429680417620283   -0.08099597017634282   -0.0015245991467850543
-0.024745439756067127   -0.06103723820824404   -0.0010682982462290698
-0.03578644369711786   -0.06091260212710598   -0.0012937581830415662
-0.033845787403106224   -0.08090062489671193   -0.0018296659261827187
-0.03588604120947435   -0.06080824962207767   -0.0011708508695986715
-0.023429680417620283   -0.08099597017634282   -0.0015245991467850543
-0.03391689490687103   -0.08082796285442949   -0.0016620711395853949
-0.03588604120947435   -0.06080824962207767   -0.0011708508695986715
-0.033845787403106224   -0.08090062489671193   -0.0018296659261827187
-0.023429680417620283   -0.08099597017634282   -0.0015245991467850543
-0.03588604120947435   -0.06080824962207767   -0.0011708508695986715
-0.024874908948458608   -0.06090015659729534   -0.0009654260141862705
-0.024745439756067127   -0.06103723820824404   -0.0010682982462290698
-0.023429680417620283   -0.08099597017634282   -0.0015245991467850543
-0.03588604120947435   -0.06080824962207767   -0.0011708508695986715
-0.024745439756067127   -0.06103723820824404   -0.0010682982462290698
-0.033845787403106224   -0.08090062489671193   -0.0018296659261827187
-0.033674345385917376   -0.08112668806512012   -0.0021276002786370604
-0.035553889887428275   -0.06114978941738418   -0.0015092902684411518
-0.04501461236960061   -0.08078804214483667   -0.0023553811980659713
-0.03378083942548389   -0.08100219297546474   -0.001984088751025863
-0.035553889887428275   -0.06114978941738418   -0.0015092902684411518
-0.047289244105885704   -0.06092244200384524   -0.0017068930902388352
-0.04501461236960061   -0.08078804214483667   -0.0023553811980659713
-0.04731119998209868   -0.06082487087848717   -0.001593136571413289
-0.03378083942548389   -0.08100219297546474   -0.001984088751025863
-0.04493900806440141   -0.08068285364415005   -0.0021646643089504717
-0.04731119998209868   -0.06082487087848717   -0.001593136571413289
-0.04501461236960061   -0.08078804214483667   -0.0023553811980659713
-0.03378083942548389   -0.08100219297546474   -0.001984088751025863
-0.04731119998209868   -0.06082487087848717   -0.001593136571413289
-0.03568599123839224   -0.061028119584815514   -0.0014058184120818266
-0.035553889887428275   -0.06114978941738418   -0.0015092902684411518
-0.03378083942548389   -0.08100219297546474   -0.001984088751025863
-0.04731119998209868   -0.06082487087848717   -0.001593136571413289
-0.035553889887428275   -0.06114978941738418   -0.0015092902684411518
-0.04501461236960061   -0.08078804214483667   -0.0023553811980659713
-0.03378083942548389   -0.08100219297546474   -0.001984088751025863
-0.03568599123839224   -0.061028119584815514   -0.0014058184120818266
-0.04493900806440141   -0.08068285364415005   -0.0021646643089504717
-0.033845787403106224   -0.08090062489671193   -0.0018296659261827187
-0.03568599123839224   -0.061028119584815514   -0.0014058184120818266
-0.04731119998209868   -0.06082487087848717   -0.001593136571413289
-0.04493900806440141   -0.08068285364415005   -0.0021646643089504717
-0.04733346942716713   -0.06072586747743455   -0.0014620646494322397
-0.033845787403106224   -0.08090062489671193   -0.0018296659261827187
-0.044877429959648496   -0.08059731709027254   -0.0019539274436032052
-0.04733346942716713   -0.06072586747743455   -0.0014620646494322397
-0.04493900806440141   -0.08068285364415005   -0.0021646643089504717
-0.033845787403106224   -0.08090062489671193   -0.0018296659261827187
-0.04733346942716713   -0.06072586747743455   -0.0014620646494322397
-0.03578644369711786   -0.06091260212710598   -0.0012937581830415662
-0.03568599123839224   -0.061028119584815514   -0.0014058184120818266
-0.033845787403106224   -0.08090062489671193   -0.0018296659261827187
-0.04733346942716713   -0.06072586747743455   -0.0014620646494322397
-0.03568599123839224   -0.061028119584815514   -0.0014058184120818266
-0.04493900806440141   -0.08068285364415005   -0.0021646643089504717
-0.033845787403106224   -0.08090062489671193   -0.0018296659261827187
-0.03578644369711786   -0.06091260212710598   -0.0012937581830415662
-0.044877429959648496   -0.08059731709027254   -0.0019539274436032052
-0.03391689490687103   -0.08082796285442949   -0.0016620711395853949
-0.03578644369711786   -0.06091260212710598   -0.0012937581830415662
-0.04733346942716713   -0.06072586747743455   -0.0014620646494322397
-0.044877429959648496   -0.08059731709027254   -0.0019539274436032052
-0.04729022855094784   -0.0606592572428442   -0.0013157448755770082
-0.03391689490687103   -0.08082796285442949   -0.0016620711395853949
-0.04472722864665852   -0.0805680970566014   -0.0017254570713601278
-0.04729022855094784   -0.0606592572428442   -0.0013157448755770082
-0.044877429959648496   -0.08059731709027254   -0.0019539274436032052
-0.03391689490687103   -0.08082796285442949   -0.0016620711395853949
-0.04729022855094784   -0.0606592572428442   -0.0013157448755770082
-0.03588604120947435   -0.06080824962207767   -0.0011708508695986715
-0.03578644369711786   -0.06091260212710598   -0.0012937581830415662
-0.03391689490687103   -0.08082796285442949   -0.0016620711395853949
-0.04729022855094784   -0.0606592572428442   -0.0013157448755770082
-0.03578644369711786   -0.06091260212710598   -0.0012937581830415662
-0.044877429959648496   -0.08059731709027254   -0.0019539274436032052
0.009129418075737236   -0.061709555880747446   -8.782269684703464e-05
0.008169791745271942   -0.041150613592085   0.00025123465628504896
-0.00254080584642664   -0.06160564250587583   -0.0005375987340288264
0.008983157021879493   -0.06144712328733233   -7.82249340409261e-05
0.008169791745271942   -0.041150613592085   0.00025123465628504896
-0.0035778298285130987   -0.04095570003040761   -0.00010744552027596746
-0.00254080584642664   -0.06160564250587583   -0.0005375987340288264
-0.003740495737403485   -0.04074778046535126   -2.2893023168969238e-05
0.008983157021879493   -0.06144712328733233   -7.82249340409261e-05
-0.002677425642120935   -0.06137633111681557   -0.0004966984604765373
-0.003740495737403485   -0.04074778046535126   -2.2893023168969238e-05
-0.00254080584642664   -0.06160564250587583   -0.0005375987340288264
0.008983157021879493   -0.06144712328733233   -7.82249340409261e-05
-0.003740495737403485   -0.04074778046535126   -2.2893023168969238e-05
0.00791268985412876   -0.04090033039519357   0.0003572359339630373
0.008169791745271942   -0.041150613592085   0.00025123465628504896
0.008983157021879493   -0.06144712328733233   -7.82249340409261e-05
-0.003740495737403485   -0.04074778046535126   -2.2893023168969238e-05
0.008169791745271942   -0.041150613592085   0.00025123465628504896
-0.00254080584642664   -0.06160564250587583   -0.0005375987340288264
0.008983157021879493   -0.06144712328733233   -7.82249340409261e-05
0.00791268985412876   -0.04090033039519357   0.0003572359339630373
-0.002677425642120935   -0.06137633111681557   -0.0004966984604765373
0.008804620332751043   -0.06121185163947973   -4.5672407747808187e-05
0.00791268985412876   -0.04090033039519357   0.0003572359339630373
-0.003740495737403485   -0.04074778046535126   -2.2893023168969238e-05
-0.002677425642120935   -0.06137633111681557   -0.0004966984604765373
-0.003930635656423658   -0.0405281455127448   7.658295091064621e-05
0.008804620332751043   -0.06121185163947973   -4.5672407747808187e-05
-0.002833736302762888   -0.06115939214733542   -0.00044457521700587123
-0.003930635656423658   -0.0405281455127448   7.658295091064621e-05
-0.002677425642120935   -0.06137633111681557   -0.0004966984604765373
0.008804620332751043   -0.06121185163947973   -4.5672407747808187e-05
-0.003930635656423658   -0.0405281455127448   7.658295091064621e-05
0.007626494321335573   -0.04065130291386914   0.0005087977030848858
0.00791268985412876   -0.04090033039519357   0.0003572359339630373
0.008804620332751043   -0.06121185163947973   -4.5672407747808187e-05
-0.003930635656423658   -0.0405281455127448   7.658295091064621e-05
0.00791268985412876   -0.04090033039519357   0.0003572359339630373
-0.002677425642120935   -0.06137633111681557   -0.0004966984604765373
0.008804620332751043   -0.06121185163947973   -4.5672407747808187e-05
0.007626494321335573   -0.04065130291386914   0.0005087977030848858
-0.002833736302762888   -0.06115939214733542   -0.00044457521700587123
0.008569537510819285   -0.06096536189044208   8.788972036709588e-06
0.007626494321335573   -0.04065130291386914   0.0005087977030848858
-0.003930635656423658   -0.0405281455127448   7.658295091064621e-05
-0.002833736302762888   -0.06115939214733542   -0.00044457521700587123
-0.004127134823910962   -0.040294764805769163   0.00019075911330096579
0.008569537510819285   -0.06096536189044208   8.788972036709588e-06
-0.003008930811052206   -0.06095188269945016   -0.00037841116187039365
-0.004127134823910962   -0.040294764805769163   0.00019075911330096579
-0.002833736302762888   -0.06115939214733542   -0.00044457521700587123
0.008569537510819285   -0.06096536189044208   8.788972036709588e-06
-0.004127134823910962   -0.040294764805769163   0.00019075911330096579
0.007276875574652931   -0.04034556960772427   0.0006754513196442776
0.007626494321335573   -0.04065130291386914   0.0005087977030848858
0.008569537510819285   -0.06096536189044208   8.788972036709588e-06
-0.004127134823910962   -0.040294764805769163   0.00019075911330096579
0.007626494321335573   -0.04065130291386914   0.0005087977030848858
-0.002833736302762888   -0.06115939214733542   -0.00044457521700587123
-0.00254080584642664   -0.06160564250587583   -0.0005375987340288264
-0.0035778298285130987   -0.04095570003040761   -0.00010744552027596746
-0.013599279630676437   -0.06148584687587008   -0.0009193223236307357
-0.002677425642120935   -0.06137633111681557   -0.0004966984604765373
-0.0035778298285130987   -0.04095570003040761   -0.00010744552027596746
-0.014642851161183365   -0.04090531760793867   -0.00045371856950141584
-0.013599279630676437   -0.06148584687587008   -0.0009193223236307357
-0.01478959811628943   -0.04072342915783264   -0.0003754200783623045
-0.002677425642120935   -0.06137633111681557   -0.0004966984604765373
-0.01373831078622069   -0.061293577701686   -0.0008575076165456169
-0.01478959811628943   -0.04072342915783264   -0.0003754200783623045
-0.013599279630676437   -0.06148584687587008   -0.0009193223236307357
-0.002677425642120935   -0.06137633111681557   -0.0004966984604765373
-0.01478959811628943   -0.04072342915783264   -0.0003754200783623045
-0.003740495737403485   -0.04074778046535126   -2.2893023168969238e-05
-0.0035778298285130987   -0.04095570003040761   -0.00010744552027596746
-0.002677425642120935   -0.06137633111681557   -0.0004966984604765373
-0.01478959811628943   -0.04072342915783264   -0.0003754200783623045
-0.0035778298285130987   -0.04095570003040761   -0.00010744552027596746
-0.013599279630676437   -0.06148584687587008   -0.0009193223236307357
-0.002677425642120935   -0.06137633111681557   -0.0004966984604765373
-0.003740495737403485   -0.04074778046535126   -2.2893023168969238e-05
-0.01373831078622069   -0.061293577701686   -0.0008575076165456169
-0.002833736302762888   -0.06115939214733542   -0.00044457521700587123
-0.003740495737403485   -0.04074778046535126   -2.2893023168969238e-05
-0.01478959811628943   -0.04072342915783264   -0.0003754200783623045
-0.01373831078622069   -0.061293577701686   -0.0008575076165456169
-0.014941327652109072   -0.040534155512662456   -0.00028942488268362084
-0.002833736302762888   -0.06115939214733542   -0.00044457521700587123
-0.013880414711381225   -0.061110923591740966   -0.000785016537796749
-0.014941327652109072   -0.040534155512662456   -0.00028942488268362084
-0.01373831078622069   -0.061293577701686   -0.0008575076165456169
-0.002833736302762888   -0.06115939214733542   -0.00044457521700587123
-0.014941327652109072   -0.040534155512662456   -0.00028942488268362084
-0.003930635656423658   -0.0405281455127448   7.658295091064621e-05
-0.003740495737403485   -0.04074778046535126   -2.2893023168969238e-05
-0.002833736302762888   -0.06115939214733542   -0.00044457521700587123
-0.014941327652109072   -0.040534155512662456   -0.00028942488268362084
-0.003740495737403485   -0.04074778046535126   -2.2893023168969238e-05
-0.01373831078622069   -0.061293577701686   -0.0008575076165456169
-0.002833736302762888   -0.06115939214733542   -0.00044457521700587123
-0.003930635656423658   -0.0405281455127448   7.658295091064621e-05
-0.013880414711381225   -0.061110923591740966   -0.000785016537796749
-0.003008930811052206   -0.06095188269945016   -0.00037841116187039365
-0.003930635656423658   -0.0405281455127448   7.658295091064621e-05
-0.014941327652109072   -0.040534155512662456   -0.00028942488268362084
-0.013880414711381225   -0.061110923591740966   -0.000785016537796749
-0.015099217073962723   -0.04034078063491403   -0.0001941784323853423
-0.003008930811052206   -0.06095188269945016   -0.00037841116187039365
-0.01403149218489235   -0.06094065490758632   -0.0007017190663861523
-0.015099217073962723   -0.04034078063491403   -0.0001941784323853423
-0.013880414711381225   -0.061110923591740966   -0.000785016537796749
-0.003008930811052206   -0.06095188269945016   -0.00037841116187039365
-0.015099217073962723   -0.04034078063491403   -0.0001941784323853423
-0.004127134823910962   -0.040294764805769163   0.00019075911330096579
-0.003930635656423658   -0.0405281455127448   7.658295091064621e-05
-0.003008930811052206   -0.06095188269945016   -0.00037841116187039365
-0.015099217073962723   -0.04034078063491403   -0.0001941784323853423
-0.003930635656423658   -0.0405281455127448   7.658295091064621e-05
-0.013880414711381225   -0.061110923591740966   -0.000785016537796749
-0.013599279630676437   -0.06148584687587008   -0.0009193223236307357
-0.014642851161183365   -0.04090531760793867   -0.00045371856950141584
-0.024478537621414713   -0.06134279273870127   -0.0012441414911303118
-0.01373831078622069   -0.061293577701686   -0.0008575076165456169
-0.014642851161183365   -0.04090531760793867   -0.00045371856950141584
-0.025596250277419668   -0.04089139831909587   -0.0007670539893196983
-0.024478537621414713   -0.06134279273870127   -0.0012441414911303118
-0.025736397357830877   -0.04073160771273812   -0.0006926765196042419
-0.01373831078622069   -0.061293577701686   -0.0008575076165456169
-0.024616430790948746   -0.06118492298834255   -0.0011613750878590482
-0.025736397357830877   -0.04073160771273812   -0.0006926765196042419
-0.024478537621414713   -0.06134279273870127   -0.0012441414911303118
-0.01373831078622069   -0.061293577701686   -0.0008575076165456169
-0.025736397357830877   -0.04073160771273812   -0.0006926765196042419
-0.01478959811628943   -0.04072342915783264   -0.0003754200783623045
-0.014642851161183365   -0.04090531760793867   -0.00045371856950141584
-0.01373831078622069   -0.061293577701686   -0.0008575076165456169
-0.025736397357830877   -0.04073160771273812   -0.0006926765196042419
-0.014642851161183365   -0.04090531760793867   -0.00045371856950141584
-0.024478537621414713   -0.06134279273870127   -0.0012441414911303118
-0.01373831078622069   -0.061293577701686   -0.0008575076165456169
-0.01478959811628943   -0.04072342915783264   -0.0003754200783623045
-0.024616430790948746   -0.06118492298834255   -0.0011613750878590482
-0.013880414711381225   -0.061110923591740966   -0.000785016537796749
-0.01478959811628943   -0.04072342915783264   -0.0003754200783623045
-0.025736397357830877   -0.04073160771273812   -0.0006926765196042419
-0.024616430790948746   -0.06118492298834255   -0.0011613750878590482
-0.025869893900573083   -0.04056880379411468   -0.0006115809544728298
-0.013880414711381225   -0.061110923591740966   -0.000785016537796749
-0.024745439756067127   -0.06103723820824404   -0.0010682982462290698
-0.025869893900573083   -0.04056880379411468   -0.0006115809544728298
-0.024616430790948746   -0.06118492298834255   -0.0011613750878590482
-0.013880414711381225   -0.061110923591740966   -0.000785016537796749
-0.025869893900573083   -0.04056880379411468   -0.0006115809544728298
-0.014941327652109072   -0.040534155512662456   -0.00028942488268362084
-0.01478959811628943   -0.04072342915783264   -0.0003754200783623045
-0.013880414711381225   -0.061110923591740966   -0.000785016537796749
-0.025869893900573083   -0.04056880379411468   -0.0006115809544728298
-0.01478959811628943   -0.04072342915783264   -0.0003754200783623045
-0.024616430790948746   -0.06118492298834255   -0.0011613750878590482
-0.013880414711381225   -0.061110923591740966   -0.000785016537796749
-0.014941327652109072   -0.040534155512662456   -0.00028942488268362084
-0.024745439756067127   -0.06103723820824404   -0.0010682982462290698
-0.01403149218489235   -0.06094065490758632   -0.0007017190663861523
-0.014941327652109072   -0.040534155512662456   -0.00028942488268362084
-0.025869893900573083   -0.04056880379411468   -0.0006115809544728298
-0.024745439756067127   -0.06103723820824404   -0.0010682982462290698
-0.026002039525463323   -0.04040207713599001   -0.000524159478820691
-0.01403149218489235   -0.06094065490758632   -0.0007017190663861523
-0.024874908948458608   -0.06090015659729534   -0.0009654260141862705
-0.026002039525463323   -0.04040207713599001   -0.000524159478820691
-0.024745439756067127   -0.06103723820824404   -0.0010682982462290698
-0.01403149218489235   -0.06094065490758632   -0.0007017190663861523
-0.026002039525463323   -0.04040207713599001   -0.000524159478820691
-0.015099217073962723   -0.04034078063491403   -0.0001941784323853423
-0.014941327652109072   -0.040534155512662456   -0.00028942488268362084
-0.01403149218489235   -0.06094065490758632   -0.0007017190663861523
-0.026002039525463323   -0.04040207713599001   -0.000524159478820691
-0.014941327652109072   -0.040534155512662456   -0.00028942488268362084
-0.024745439756067127   -0.06103723820824404   -0.0010682982462290698
-0.024478537621414713   -0.06134279273870127   -0.0012441414911303118
-0.025596250277419668   -0.04089139831909587   -0.0007670539893196983
-0.035553889887428275   -0.06114978941738418   -0.0015092902684411518
-0.024616430790948746   -0.06118492298834255   -0.0011613750878590482
-0.025596250277419668   -0.04089139831909587   -0.0007670539893196983
-0.03678141216564667   -0.040828207419110335   -0.0010309233397574208
-0.035553889887428275   -0.06114978941738418   -0.0015092902684411518
-0.036915022550443675   -0.04069749287988276   -0.0009608019912732337
-0.024616430790948746   -0.06118492298834255   -0.0011613750878590482
-0.03568599123839224   -0.061028119584815514   -0.0014058184120818266
-0.036915022550443675   -0.04069749287988276   -0.0009608019912732337
-0.035553889887428275   -0.06114978941738418   -0.0015092902684411518
-0.024616430790948746   -0.06118492298834255   -0.0011613750878590482
-0.036915022550443675   -0.04069749287988276   -0.0009608019912732337
-0.025736397357830877   -0.04073160771273812   -0.0006926765196042419
-0.025596250277419668   -0.04089139831909587   -0.0007670539893196983
-0.024616430790948746   -0.06118492298834255   -0.0011613750878590482
-0.036915022550443675   -0.04069749287988276   -0.0009608019912732337
-0.025596250277419668   -0.04089139831909587   -0.0007670539893196983
-0.035553889887428275   -0.06114978941738418   -0.0015092902684411518
-0.024616430790948746   -0.06118492298834255   -0.0011613750878590482
-0.025736397357830877   -0.04073160771273812   -0.0006926765196042419
-0.03568599123839224   -0.061028119584815514   -0.0014058184120818266
-0.024745439756067127   -0.06103723820824404   -0.0010682982462290698
-0.025736397357830877   -0.04073160771273812   -0.0006926765196042419
-0.036915022550443675   -0.04069749287988276   -0.0009608019912732337
-0.03568599123839224   -0.061028119584815514   -0.0014058184120818266
-0.037028390618680476   -0.04055956497630081   -0.0008859455184520243
-0.024745439756067127   -0.06103723820824404   -0.0010682982462290698
-0.03578644369711786   -0.06091260212710598   -0.0012937581830415662
-0.037028390618680476   -0.04055956497630081   -0.0008859455184520243
-0.03568599123839224   -0.061028119584815514   -0.0014058184120818266
-0.024745439756067127   -0.06103723820824404   -0.0010682982462290698
-0.037028390618680476   -0.04055956497630081   -0.0008859455184520243
-0.025869893900573083   -0.04056880379411468   -0.0006115809544728298
-0.025736397357830877   -0.04073160771273812   -0.0006926765196042419
-0.024745439756067127   -0.06103723820824404   -0.0010682982462290698
-0.037028390618680476   -0.04055956497630081   -0.0008859455184520243
-0.025736397357830877   -0.04073160771273812   -0.0006926765196042419
-0.03568599123839224   -0.061028119584815514   -0.0014058184120818266
-0.024745439756067127   -0.06103723820824404   -0.0010682982462290698
-0.025869893900573083   -0.04056880379411468   -0.0006115809544728298
-0.03578644369711786   -0.06091260212710598   -0.0012937581830415662
-0.024874908948458608   -0.06090015659729534   -0.0009654260141862705
-0.025869893900573083   -0.04056880379411468   -0.0006115809544728298
-0.037028390618680476   -0.04055956497630081   -0.0008859455184520243
-0.03578644369711786   -0.06091260212710598   -0.0012937581830415662
-0.03713554924385524   -0.0404179009994696   -0.000804257647179628
-0.024874908948458608   -0.06090015659729534   -0.0009654260141862705
-0.03588604120947435   -0.06080824962207767   -0.0011708508695986715
-0.03713554924385524   -0.0404179009994696   -0.000804257647179628
-0.03578644369711786   -0.06091260212710598   -0.0012937581830415662
-0.024874908948458608   -0.06090015659729534   -0.0009654260141862705
-0.03713554924385524   -0.0404179009994696   -0.000804257647179628
-0.026002039525463323   -0.04040207713599001   -0.000524159478820691
-0.025869893900573083   -0.04056880379411468   -0.0006115809544728298
-0.024874908948458608   -0.06090015659729534   -0.0009654260141862705
-0.03713554924385524   -0.0404179009994696   -0.000804257647179628
-0.025869893900573083   -0.04056880379411468   -0.0006115809544728298
-0.03578644369711786   -0.06091260212710598   -0.0012937581830415662
-0.035553889887428275   -0.06114978941738418   -0.0015092902684411518
-0.03678141216564667   -0.040828207419110335   -0.0010309233397574208
-0.047289244105885704   -0.06092244200384524   -0.0017068930902388352
-0.03568599123839224   -0.061028119584815514   -0.0014058184120818266
-0.03678141216564667   -0.040828207419110335   -0.0010309233397574208
-0.04849444263650663   -0.04072456283270316   -0.0012272412887614744
-0.047289244105885704   -0.06092244200384524   -0.0017068930902388352
-0.048578337072670785   -0.040614361359583386   -0.0011751588160877674
-0.03568599123839224   -0.061028119584815514   -0.0014058184120818266
-0.04731119998209868   -0.06082487087848717   -0.001593136571413289
-0.048578337072670785   -0.040614361359583386   -0.0011751588160877674
-0.047289244105885704   -0.06092244200384524   -0.0017068930902388352
-0.03568599123839224   -0.061028119584815514   -0.0014058184120818266
-0.048578337072670785   -0.040614361359583386   -0.0011751588160877674
-0.036915022550443675   -0.04069749287988276   -0.0009608019912732337
-0.03678141216564667   -0.040828207419110335   -0.0010309233397574208
-0.03568599123839224   -0.061028119584815514   -0.0014058184120818266
-0.048578337072670785   -0.040614361359583386   -0.0011751588160877674
-0.03678141216564667   -0.040828207419110335   -0.0010309233397574208
-0.047289244105885704   -0.06092244200384524   -0.0017068930902388352
-0.03568599123839224   -0.061028119584815514   -0.0014058184120818266
-0.036915022550443675   -0.04069749287988276   -0.0009608019912732337
-0.04731119998209868   -0.06082487087848717   -0.001593136571413289
-0.03578644369711786   -0.06091260212710598   -0.0012937581830415662
-0.036915022550443675   -0.04069749287988276   -0.0009608019912732337
-0.048578337072670785   -0.040614361359583386   -0.0011751588160877674
-0.04731119998209868   -0.06082487087848717   -0.001593136571413289
-0.0486550482988247   -0.04048986256543133   -0.0011113877006302193
-0.03578644369711786   -0.06091260212710598   -0.0012937581830415662
-0.04733346942716713   -0.06072586747743455   -0.0014620646494322397
-0.0486550482988247   -0.04048986256543133   -0.0011113877006302193
-0.04731119998209868   -0.06082487087848717   -0.001593136571413289
-0.03578644369711786   -0.06091260212710598   -0.0012937581830415662
-0.0486550482988247   -0.04048986256543133   -0.0011113877006302193
-0.037028390618680476   -0.04055956497630081   -0.0008859455184520243
-0.036915022550443675   -0.04069749287988276   -0.0009608019912732337
-0.03578644369711786   -0.06091260212710598   -0.0012937581830415662
-0.0486550482988247   -0.04048986256543133   -0.0011113877006302193
-0.036915022550443675   -0.04069749287988276   -0.0009608019912732337
-0.04731119998209868   -0.06082487087848717   -0.001593136571413289
-0.03578644369711786   -0.06091260212710598   -0.0012937581830415662
-0.037028390618680476   -0.04055956497630081   -0.0008859455184520243
-0.04733346942716713   -0.06072586747743455   -0.0014620646494322397
-0.03588604120947435   -0.06080824962207767   -0.0011708508695986715
-0.037028390618680476   -0.04055956497630081   -0.0008859455184520243
-0.0486550482988247   -0.04048986256543133   -0.0011113877006302193
-0.04733346942716713   -0.06072586747743455   -0.0014620646494322397
-0.04869318513483757   -0.040375021548441845   -0.0010388903855439822
-0.03588604120947435   -0.06080824962207767   -0.0011708508695986715
-0.04729022855094784   -0.0606592572428442   -0.0013157448755770082
-0.04869318513483757   -0.040375021548441845   -0.0010388903855439822
-0.04733346942716713   -0.06072586747743455   -0.0014620646494322397
-0.03588604120947435   -0.06080824962207767   -0.0011708508695986715
-0.04869318513483757   -0.040375021548441845   -0.0010388903855439822
-0.03713554924385524   -0.0404179009994696   -0.000804257647179628
-0.037028390618680476   -0.04055956497630081   -0.0008859455184520243
-0.03588604120947435   -0.06080824962207767   -0.0011708508695986715
-0.04869318513483757   -0.040375021548441845   -0.0010388903855439822
-0.037028390618680476   -0.04055956497630081   -0.0008859455184520243
-0.04733346942716713   -0.06072586747743455   -0.0014620646494322397
0.008169791745271942   -0.041150613592085   0.00025123465628504896
0.005715346355285099   -0.020648558216596377   0.00026889930244890795
-0.0035778298285130987   -0.04095570003040761   -0.00010744552027596746
0.00791268985412876   -0.04090033039519357   0.0003572359339630373
0.005715346355285099   -0.020648558216596377   0.00026889930244890795
-0.005228784026610996   -0.020378216790068297   0.00013247030029325357
-0.0035778298285130987   -0.04095570003040761   -0.00010744552027596746
-0.005390234886902258   -0.02027193045677159   0.00024939623047403307
0.00791268985412876   -0.04090033039519357   0.0003572359339630373
-0.003740495737403485   -0.04074778046535126   -2.2893023168969238e-05
-0.005390234886902258   -0.02027193045677159   0.00024939623047403307
-0.0035778298285130987   -0.04095570003040761   -0.00010744552027596746
0.00791268985412876   -0.04090033039519357   0.0003572359339630373
-0.005390234886902258   -0.02027193045677159   0.00024939623047403307
0.005212528217571364   -0.020383295087345155   0.0005588761720358657
0.005715346355285099   -0.020648558216596377   0.00026889930244890795
0.00791268985412876   -0.04090033039519357   0.0003572359339630373
-0.005390234886902258   -0.02027193045677159   0.00024939623047403307
0.005715346355285099   -0.020648558216596377   0.00026889930244890795
-0.0035778298285130987   -0.04095570003040761   -0.00010744552027596746
0.00791268985412876   -0.04090033039519357   0.0003572359339630373
0.005212528217571364   -0.020383295087345155   0.0005588761720358657
-0.003740495737403485   -0.04074778046535126   -2.2893023168969238e-05
0.007626494321335573   -0.04065130291386914   0.0005087977030848858
0.005212528217571364   -0.020383295087345155   0.0005588761720358657
-0.005390234886902258   -0.02027193045677159   0.00024939623047403307
-0.003740495737403485   -0.04074778046535126   -2.2893023168969238e-05
-0.005601798096559756   -0.020084753889357192   0.00039119799963454325
0.007626494321335573   -0.04065130291386914   0.0005087977030848858
-0.003930635656423658   -0.0405281455127448   7.658295091064621e-05
-0.005601798096559756   -0.020084753889357192   0.00039119799963454325
-0.003740495737403485   -0.04074778046535126   -2.2893023168969238e-05
0.007626494321335573   -0.04065130291386914   0.0005087977030848858
-0.005601798096559756   -0.020084753889357192   0.00039119799963454325
0.004917810014835867   -0.020165322720376935   0.0007756230520592523
0.005212528217571364   -0.020383295087345155   0.0005588761720358657
0.007626494321335573   -0.04065130291386914   0.0005087977030848858
-0.005601798096559756   -0.020084753889357192   0.00039119799963454325
0.005212528217571364   -0.020383295087345155   0.0005588761720358657
-0.003740495737403485   -0.04074778046535126   -2.2893023168969238e-05
0.007626494321335573   -0.04065130291386914   0.0005087977030848858
0.004917810014835867   -0.020165322720376935   0.0007756230520592523
-0.003930635656423658   -0.0405281455127448   7.658295091064621e-05
0.007276875574652931   -0.04034556960772427   0.0006754513196442776
0.004917810014835867   -0.020165322720376935   0.0007756230520592523
-0.005601798096559756   -0.020084753889357192   0.00039119799963454325
-0.003930635656423658   -0.0405281455127448   7.658295091064621e-05
-0.005779392720874405   -0.019883118042339828   0.000516062142131594
0.007276875574652931   -0.04034556960772427   0.0006754513196442776
-0.004127134823910962   -0.040294764805769163   0.00019075911330096579
-0.005779392720874405   -0.019883118042339828   0.000516062142131594
-0.003930635656423658   -0.0405281455127448   7.658295091064621e-05
0.007276875574652931   -0.04034556960772427   0.0006754513196442776
-0.005779392720874405   -0.019883118042339828   0.000516062142131594
0.004540567206047865   -0.019833111479681316   0.0010236434483835008
0.004917810014835867   -0.020165322720376935   0.0007756230520592523
0.007276875574652931   -0.04034556960772427   0.0006754513196442776
-0.005779392720874405   -0.019883118042339828   0.000516062142131594
0.004917810014835867   -0.020165322720376935   0.0007756230520592523
-0.003930635656423658   -0.0405281455127448   7.658295091064621e-05
-0.0035778298285130987   -0.04095570003040761   -0.00010744552027596746
-0.005228784026610996   -0.020378216790068297   0.00013247030029325357
-0.014642851161183365   -0.04090531760793867   -0.00045371856950141584
-0.003740495737403485   -0.04074778046535126   -2.2893023168969238e-05
-0.005228784026610996   -0.020378216790068297   0.00013247030029325357
-0.015652938768517075   -0.020677549662582687   -0.00014444621362671634
-0.014642851161183365   -0.04090531760793867   -0.00045371856950141584
-0.015801046390313742   -0.020516502930195843   -6.184817678703988e-05
-0.003740495737403485   -0.04074778046535126   -2.2893023168969238e-05
-0.01478959811628943   -0.04072342915783264   -0.0003754200783623045
-0.015801046390313742   -0.020516502930195843   -6.184817678703988e-05
-0.014642851161183365   -0.04090531760793867   -0.00045371856950141584
-0.003740495737403485   -0.04074778046535126   -2.2893023168969238e-05
-0.015801046390313742   -0.020516502930195843   -6.184817678703988e-05
-0.005390234886902258   -0.02027193045677159   0.00024939623047403307
-0.005228784026610996   -0.020378216790068297   0.00013247030029325357
-0.003740495737403485   -0.04074778046535126   -2.2893023168969238e-05
-0.015801046390313742   -0.020516502930195843   -6.184817678703988e-05
-0.005228784026610996   -0.020378216790068297   0.00013247030029325357
-0.014642851161183365   -0.04090531760793867   -0.00045371856950141584
-0.003740495737403485   -0.04074778046535126   -2.2893023168969238e-05
-0.005390234886902258   -0.02027193045677159   0.00024939623047403307
-0.01478959811628943   -0.04072342915783264   -0.0003754200783623045
-0.003930635656423658   -0.0405281455127448   7.658295091064621e-05
-0.005390234886902258   -0.02027193045677159   0.00024939623047403307
-0.015801046390313742   -0.020516502930195843   -6.184817678703988e-05
-0.01478959811628943   -0.04072342915783264   -0.0003754200783623045
-0.01595577421867196   -0.02033505000157546   2.541552353685933e-05
-0.003930635656423658   -0.0405281455127448   7.658295091064621e-05
-0.014941327652109072   -0.040534155512662456   -0.00028942488268362084
-0.01595577421867196   -0.02033505000157546   2.541552353685933e-05
-0.01478959811628943   -0.04072342915783264   -0.0003754200783623045
-0.003930635656423658   -0.0405281455127448   7.658295091064621e-05
-0.01595577421867196   -0.02033505000157546   2.541552353685933e-05
-0.005601798096559756   -0.020084753889357192   0.00039119799963454325
-0.005390234886902258   -0.02027193045677159   0.00024939623047403307
-0.003930635656423658   -0.0405281455127448   7.658295091064621e-05
-0.01595577421867196   -0.02033505000157546   2.541552353685933e-05
-0.005390234886902258   -0.02027193045677159   0.00024939623047403307
-0.01478959811628943   -0.04072342915783264   -0.0003754200783623045
-0.003930635656423658   -0.0405281455127448   7.658295091064621e-05
-0.005601798096559756   -0.020084753889357192   0.00039119799963454325
-0.014941327652109072   -0.040534155512662456   -0.00028942488268362084
-0.004127134823910962   -0.040294764805769163   0.00019075911330096579
-0.005601798096559756   -0.020084753889357192   0.00039119799963454325
-0.01595577421867196   -0.02033505000157546   2.541552353685933e-05
-0.014941327652109072   -0.040534155512662456   -0.00028942488268362084
-0.01610259210807942   -0.02013618222556748   0.00012156385647016562
-0.004127134823910962   -0.040294764805769163   0.00019075911330096579
-0.015099217073962723   -0.04034078063491403   -0.0001941784323853423
-0.01610259210807942   -0.02013618222556748   0.00012156385647016562
-0.014941327652109072   -0.040534155512662456   -0.00028942488268362084
-0.004127134823910962   -0.040294764805769163   0.00019075911330096579
-0.01610259210807942   -0.02013618222556748   0.00012156385647016562
-0.005779392720874405   -0.019883118042339828   0.000516062142131594
-0.005601798096559756   -0.020084753889357192   0.00039119799963454325
-0.004127134823910962   -0.040294764805769163   0.00019075911330096579
-0.01610259210807942   -0.02013618222556748   0.00012156385647016562
-0.005601798096559756   -0.020084753889357192   0.00039119799963454325
-0.014941327652109072   -0.040534155512662456   -0.00028942488268362084
-0.014642851161183365   -0.04090531760793867   -0.00045371856950141584
-0.015652938768517075   -0.020677549662582687   -0.00014444621362671634
-0.025596250277419668   -0.04089139831909587   -0.0007670539893196983
-0.01478959811628943   -0.04072342915783264   -0.0003754200783623045
-0.015652938768517075   -0.020677549662582687   -0.00014444621362671634
-0.026336167904424973   -0.02091132904815619   -0.00045039326147251096
-0.025596250277419668   -0.04089139831909587   -0.0007670539893196983
-0.026468946638533383   -0.02074609911763379   -0.00038657784027666393
-0.01478959811628943   -0.04072342915783264   -0.0003754200783623045
-0.025736397357830877   -0.04073160771273812   -0.0006926765196042419
-0.026468946638533383   -0.02074609911763379   -0.00038657784027666393
-0.025596250277419668   -0.04089139831909587   -0.0007670539893196983
-0.01478959811628943   -0.04072342915783264   -0.0003754200783623045
-0.026468946638533383   -0.02074609911763379   -0.00038657784027666393
-0.015801046390313742   -0.020516502930195843   -6.184817678703988e-05
-0.015652938768517075   -0.020677549662582687   -0.00014444621362671634
-0.01478959811628943   -0.04072342915783264   -0.0003754200783623045
-0.026468946638533383   -0.02074609911763379   -0.00038657784027666393
-0.015652938768517075   -0.020677549662582687   -0.00014444621362671634
-0.025596250277419668   -0.04089139831909587   -0.0007670539893196983
-0.01478959811628943   -0.04072342915783264   -0.0003754200783623045
-0.015801046390313742   -0.020516502930195843   -6.184817678703988e-05
-0.025736397357830877   -0.04073160771273812   -0.0006926765196042419
-0.014941327652109072   -0.040534155512662456   -0.00028942488268362084
-0.015801046390313742   -0.020516502930195843   -6.184817678703988e-05
-0.026468946638533383   -0.02074609911763379   -0.00038657784027666393
-0.025736397357830877   -0.04073160771273812   -0.0006926765196042419
-0.026595867536489206   -0.02057175889806976   -0.00032307937378222255
-0.014941327652109072   -0.040534155512662456   -0.00028942488268362084
-0.025869893900573083   -0.04056880379411468   -0.0006115809544728298
-0.026595867536489206   -0.02057175889806976   -0.00032307937378222255
-0.025736397357830877   -0.04073160771273812   -0.0006926765196042419
-0.014941327652109072   -0.040534155512662456   -0.00028942488268362084
-0.026595867536489206   -0.02057175889806976   -0.00032307937378222255
-0.01595577421867196   -0.02033505000157546   2.541552353685933e-05
-0.015801046390313742   -0.020516502930195843   -6.184817678703988e-05
-0.014941327652109072   -0.040534155512662456   -0.00028942488268362084
-0.026595867536489206   -0.02057175889806976   -0.00032307937378222255
-0.015801046390313742   -0.020516502930195843   -6.184817678703988e-05
-0.025736397357830877   -0.04073160771273812   -0.0006926765196042419
-0.014941327652109072   -0.040534155512662456   -0.00028942488268362084
-0.01595577421867196   -0.02033505000157546   2.541552353685933e-05
-0.025869893900573083   -0.04056880379411468   -0.0006115809544728298
-0.015099217073962723   -0.04034078063491403   -0.0001941784323853423
-0.01595577421867196   -0.02033505000157546   2.541552353685933e-05
-0.026595867536489206   -0.02057175889806976   -0.00032307937378222255
-0.025869893900573083   -0.04056880379411468   -0.0006115809544728298
-0.026712715310395117   -0.0203831343026141   -0.00025406475037954645
-0.015099217073962723   -0.04034078063491403   -0.0001941784323853423
-0.026002039525463323   -0.04040207713599001   -0.000524159478820691
-0.026712715310395117   -0.0203831343026141   -0.00025406475037954645
-0.025869893900573083   -0.04056880379411468   -0.0006115809544728298
-0.015099217073962723   -0.04034078063491403   -0.0001941784323853423
-0.026712715310395117   -0.0203831343026141   -0.00025406475037954645
-0.01610259210807942   -0.02013618222556748   0.00012156385647016562
-0.01595577421867196   -0.02033505000157546   2.541552353685933e-05
-0.015099217073962723   -0.04034078063491403   -0.0001941784323853423
-0.026712715310395117   -0.0203831343026141   -0.00025406475037954645
-0.01595577421867196   -0.02033505000157546   2.541552353685933e-05
-0.025869893900573083   -0.04056880379411468   -0.0006115809544728298
-0.025596250277419668   -0.04089139831909587   -0.0007670539893196983
-0.026336167904424973   -0.02091132904815619   -0.00045039326147251096
-0.03678141216564667   -0.040828207419110335   -0.0010309233397574208
-0.025736397357830877   -0.04073160771273812   -0.0006926765196042419
-0.026336167904424973   -0.02091132904815619   -0.00045039326147251096
-0.037394552520312214   -0.021007062942558052   -0.0007330698483352418
-0.03678141216564667   -0.040828207419110335   -0.0010309233397574208
-0.037514121489296545   -0.02085834607634368   -0.000686711119462131
-0.025736397357830877   -0.04073160771273812   -0.0006926765196042419
-0.036915022550443675   -0.04069749287988276   -0.0009608019912732337
-0.037514121489296545   -0.02085834607634368   -0.000686711119462131
-0.03678141216564667   -0.040828207419110335   -0.0010309233397574208
-0.025736397357830877   -0.04073160771273812   -0.0006926765196042419
-0.037514121489296545   -0.02085834607634368   -0.000686711119462131
-0.026468946638533383   -0.02074609911763379   -0.00038657784027666393
-0.026336167904424973   -0.02091132904815619   -0.00045039326147251096
-0.025736397357830877   -0.04073160771273812   -0.0006926765196042419
-0.037514121489296545   -0.02085834607634368   -0.000686711119462131
-0.026336167904424973   -0.02091132904815619   -0.00045039326147251096
-0.03678141216564667   -0.040828207419110335   -0.0010309233397574208
-0.025736397357830877   -0.04073160771273812   -0.0006926765196042419
-0.026468946638533383   -0.02074609911763379   -0.00038657784027666393
-0.036915022550443675   -0.04069749287988276   -0.0009608019912732337
-0.025869893900573083   -0.04056880379411468   -0.0006115809544728298
-0.026468946638533383   -0.02074609911763379   -0.00038657784027666393
-0.037514121489296545   -0.02085834607634368   -0.000686711119462131
-0.036915022550443675   -0.04069749287988276   -0.0009608019912732337
-0.0376206594866576   -0.020696605881505358   -0.0006417757407730617
-0.025869893900573083   -0.04056880379411468   -0.0006115809544728298
-0.037028390618680476   -0.04055956497630081   -0.0008859455184520243
-0.0376206594866576   -0.020696605881505358   -0.0006417757407730617
-0.036915022550443675   -0.04069749287988276   -0.0009608019912732337
-0.025869893900573083   -0.04056880379411468   -0.0006115809544728298
-0.0376206594866576   -0.020696605881505358   -0.0006417757407730617
-0.026595867536489206   -0.02057175889806976   -0.00032307937378222255
-0.026468946638533383   -0.02074609911763379   -0.00038657784027666393
-0.025869893900573083   -0.04056880379411468   -0.0006115809544728298
-0.0376206594866576   -0.020696605881505358   -0.0006417757407730617
-0.026468946638533383   -0.02074609911763379   -0.00038657784027666393
-0.036915022550443675   -0.04069749287988276   -0.0009608019912732337
-0.025869893900573083   -0.04056880379411468   -0.0006115809544728298
-0.026595867536489206   -0.02057175889806976   -0.00032307937378222255
-0.037028390618680476   -0.04055956497630081   -0.0008859455184520243
-0.026002039525463323   -0.04040207713599001   -0.000524159478820691
-0.026595867536489206   -0.02057175889806976   -0.00032307937378222255
-0.0376206594866576   -0.020696605881505358   -0.0006417757407730617
-0.037028390618680476   -0.04055956497630081   -0.0008859455184520243
-0.03771708946238096   -0.020524551894674073   -0.0005956250207403285
-0.026002039525463323   -0.04040207713599001   -0.000524159478820691
-0.03713554924385524   -0.0404179009994696   -0.000804257647179628
-0.03771708946238096   -0.020524551894674073   -0.0005956250207403285
-0.037028390618680476   -0.04055956497630081   -0.0008859455184520243
-0.026002039525463323   -0.04040207713599001   -0.000524159478820691
-0.03771708946238096   -0.020524551894674073   -0.0005956250207403285
-0.026712715310395117   -0.0203831343026141   -0.00025406475037954645
-0.026595867536489206   -0.02057175889806976   -0.00032307937378222255
-0.026002039525463323   -0.04040207713599001   -0.000524159478820691
-0.03771708946238096   -0.020524551894674073   -0.0005956250207403285
-0.026595867536489206   -0.02057175889806976   -0.00032307937378222255
-0.037028390618680476   -0.04055956497630081   -0.0008859455184520243
-0.03678141216564667   -0.040828207419110335   -0.0010309233397574208
-0.037394552520312214   -0.021007062942558052   -0.0007330698483352418
-0.04849444263650663   -0.04072456283270316   -0.0012272412887614744
-0.036915022550443675   -0.04069749287988276   -0.0009608019912732337
-0.037394552520312214   -0.021007062942558052   -0.0007330698483352418
-0.04884322255666124   -0.021018091527519305   -0.0009685341519335155
-0.04849444263650663   -0.04072456283270316   -0.0012272412887614744
-0.048946242882968054   -0.020873590436804354   -0.0009489450773968919
-0.036915022550443675   -0.04069749287988276   -0.0009608019912732337
-0.048578337072670785   -0.040614361359583386   -0.0011751588160877674
-0.048946242882968054   -0.020873590436804354   -0.0009489450773968919
-0.04849444263650663   -0.04072456283270316   -0.0012272412887614744
-0.036915022550443675   -0.04069749287988276   -0.0009608019912732337
-0.048946242882968054   -0.020873590436804354   -0.0009489450773968919
-0.037514121489296545   -0.02085834607634368   -0.000686711119462131
-0.037394552520312214   -0.021007062942558052   -0.0007330698483352418
-0.036915022550443675   -0.04069749287988276   -0.0009608019912732337
-0.048946242882968054   -0.020873590436804354   -0.0009489450773968919
-0.037394552520312214   -0.021007062942558052   -0.0007330698483352418
-0.04849444263650663   -0.04072456283270316   -0.0012272412887614744
-0.036915022550443675   -0.04069749287988276   -0.0009608019912732337
-0.037514121489296545   -0.02085834607634368   -0.000686711119462131
-0.048578337072670785   -0.040614361359583386   -0.0011751588160877674
-0.037028390618680476   -0.04055956497630081   -0.0008859455184520243
-0.037514121489296545   -0.02085834607634368   -0.000686711119462131
-0.048946242882968054   -0.020873590436804354   -0.0009489450773968919
-0.048578337072670785   -0.040614361359583386   -0.0011751588160877674
-0.04903853971286643   -0.020717601215617637   -0.0009260927498468593
-0.037028390618680476   -0.04055956497630081   -0.0008859455184520243
-0.0486550482988247   -0.04048986256543133   -0.0011113877006302193
-0.04903853971286643   -0.020717601215617637   -0.0009260927498468593
-0.048578337072670785   -0.040614361359583386   -0.0011751588160877674
-0.037028390618680476   -0.04055956497630081   -0.0008859455184520243
-0.04903853971286643   -0.020717601215617637   -0.0009260927498468593
-0.0376206594866576   -0.020696605881505358   -0.0006417757407730617
-0.037514121489296545   -0.02085834607634368   -0.000686711119462131
-0.037028390618680476   -0.04055956497630081   -0.0008859455184520243
-0.04903853971286643   -0.020717601215617637   -0.0009260927498468593
-0.037514121489296545   -0.02085834607634368   -0.000686711119462131
-0.048578337072670785   -0.040614361359583386   -0.0011751588160877674
-0.037028390618680476   -0.04055956497630081   -0.0008859455184520243
-0.0376206594866576   -0.020696605881505358   -0.0006417757407730617
-0.0486550482988247   -0.04048986256543133   -0.0011113877006302193
-0.03713554924385524   -0.0404179009994696   -0.000804257647179628
-0.0376206594866576   -0.020696605881505358   -0.0006417757407730617
-0.04903853971286643   -0.020717601215617637   -0.0009260927498468593
-0.0486550482988247   -0.04048986256543133   -0.0011113877006302193
-0.049116523355975855   -0.02055237694757589   -0.0009050388428736375
-0.03713554924385524   -0.0404179009994696   -0.000804257647179628
-0.04869318513483757   -0.040375021548441845   -0.0010388903855439822
-0.049116523355975855   -0.02055237694757589   -0.0009050388428736375
-0.0486550482988247   -0.04048986256543133   -0.0011113877006302193
-0.03713554924385524   -0.0404179009994696   -0.000804257647179628
-0.049116523355975855   -0.02055237694757589   -0.0009050388428736375
-0.03771708946238096   -0.020524551894674073   -0.0005956250207403285
-0.0376206594866576   -0.020696605881505358   -0.0006417757407730617
-0.03713554924385524   -0.0404179009994696   -0.000804257647179628
-0.049116523355975855   -0.02055237694757589   -0.0009050388428736375
-0.0376206594866576   -0.020696605881505358   -0.0006417757407730617
-0.0486550482988247   -0.04048986256543133   -0.0011113877006302193
0.005715346355285099   -0.020648558216596377   0.00026889930244890795
0.0   0.0   0.0
-0.005228784026610996   -0.020378216790068297   0.00013247030029325357
0.005212528217571364   -0.020383295087345155   0.0005588761720358657
0.0   0.0   0.0
-0.006577105734595444   -0.0016456424490902458   -6.061918686109133e-05
-0.005228784026610996   -0.020378216790068297   0.00013247030029325357
-0.006969601390258968   -0.0012745356522469663   0.00016371065140260172
0.005212528217571364   -0.020383295087345155   0.0005588761720358657
-0.005390234886902258   -0.02027193045677159   0.00024939623047403307
-0.006969601390258968   -0.0012745356522469663   0.00016371065140260172
-0.005228784026610996   -0.020378216790068297   0.00013247030029325357
0.005212528217571364   -0.020383295087345155   0.0005588761720358657
-0.006969601390258968   -0.0012745356522469663   0.00016371065140260172
0.0   0.0   0.0
0.0   0.0   0.0
0.005212528217571364   -0.020383295087345155   0.0005588761720358657
-0.006969601390258968   -0.0012745356522469663   0.00016371065140260172
0.0   0.0   0.0
-0.005228784026610996   -0.020378216790068297   0.00013247030029325357
0.005212528217571364   -0.020383295087345155   0.0005588761720358657
0.0   0.0   0.0
-0.005390234886902258   -0.02027193045677159   0.00024939623047403307
0.004917810014835867   -0.020165322720376935   0.0007756230520592523
0.0   0.0   0.0
-0.006969601390258968   -0.0012745356522469663   0.00016371065140260172
-0.005390234886902258   -0.02027193045677159   0.00024939623047403307
-0.00721526824529432   -0.001095110393666973   0.00029247208282550367
0.004917810014835867   -0.020165322720376935   0.0007756230520592523
-0.005601798096559756   -0.020084753889357192   0.00039119799963454325
-0.00721526824529432   -0.001095110393666973   0.00029247208282550367
-0.005390234886902258   -0.02027193045677159   0.00024939623047403307
0.004917810014835867   -0.020165322720376935   0.0007756230520592523
-0.00721526824529432   -0.001095110393666973   0.00029247208282550367
0.0   0.0   0.0
0.0   0.0   0.0
0.004917810014835867   -0.020165322720376935   0.0007756230520592523
-0.00721526824529432   -0.001095110393666973   0.00029247208282550367
0.0   0.0   0.0
-0.005390234886902258   -0.02027193045677159   0.00024939623047403307
0.004917810014835867   -0.020165322720376935   0.0007756230520592523
0.0   0.0   0.0
-0.005601798096559756   -0.020084753889357192   0.00039119799963454325
0.004540567206047865   -0.019833111479681316   0.0010236434483835008
0.0   0.0   0.0
-0.00721526824529432   -0.001095110393666973   0.00029247208282550367
-0.005601798096559756   -0.020084753889357192   0.00039119799963454325
-0.007543486565895717   -0.0008572231343011395   0.00044012811764842185
0.004540567206047865   -0.019833111479681316   0.0010236434483835008
-0.005779392720874405   -0.019883118042339828   0.000516062142131594
-0.007543486565895717   -0.0008572231343011395   0.00044012811764842185
-0.005601798096559756   -0.020084753889357192   0.00039119799963454325
0.004540567206047865   -0.019833111479681316   0.0010236434483835008
-0.007543486565895717   -0.0008572231343011395   0.00044012811764842185
0.0   0.0   0.0
0.0   0.0   0.0
0.004540567206047865   -0.019833111479681316   0.0010236434483835008
-0.007543486565895717   -0.0008572231343011395   0.00044012811764842185
0.0   0.0   0.0
-0.005601798096559756   -0.020084753889357192   0.00039119799963454325
-0.005228784026610996   -0.020378216790068297   0.00013247030029325357
-0.006577105734595444   -0.0016456424490902458   -6.061918686109133e-05
-0.015652938768517075   -0.020677549662582687   -0.00014444621362671634
-0.005390234886902258   -0.02027193045677159   0.00024939623047403307
-0.006577105734595444   -0.0016456424490902458   -6.061918686109133e-05
-0.016123991280576466   -0.0021474872402890447   -6.480594419308988e-05
-0.015652938768517075   -0.020677549662582687   -0.00014444621362671634
-0.016325367995674134   -0.0019433645626510173   -8.337781842489772e-06
-0.005390234886902258   -0.02027193045677159   0.00024939623047403307
-0.015801046390313742   -0.020516502930195843   -6.184817678703988e-05
-0.016325367995674134   -0.0019433645626510173   -8.337781842489772e-06
-0.015652938768517075   -0.020677549662582687   -0.00014444621362671634
-0.005390234886902258   -0.02027193045677159   0.00024939623047403307
-0.016325367995674134   -0.0019433645626510173   -8.337781842489772e-06
-0.006969601390258968   -0.0012745356522469663   0.00016371065140260172
-0.006577105734595444   -0.0016456424490902458   -6.061918686109133e-05
-0.005390234886902258   -0.02027193045677159   0.00024939623047403307
-0.016325367995674134   -0.0019433645626510173   -8.337781842489772e-06
-0.006577105734595444   -0.0016456424490902458   -6.061918686109133e-05
-0.015652938768517075   -0.020677549662582687   -0.00014444621362671634
-0.005390234886902258   -0.02027193045677159   0.00024939623047403307
-0.006969601390258968   -0.0012745356522469663   0.00016371065140260172
-0.015801046390313742   -0.020516502930195843   -6.184817678703988e-05
-0.005601798096559756   -0.020084753889357192   0.00039119799963454325
-0.006969601390258968   -0.0012745356522469663   0.00016371065140260172
-0.016325367995674134   -0.0019433645626510173   -8.337781842489772e-06
-0.015801046390313742   -0.020516502930195843   -6.184817678703988e-05
-0.016525588854931727   -0.0017048799609598487   9.35981743278385e-05
-0.005601798096559756   -0.020084753889357192   0.00039119799963454325
-0.01595577421867196   -0.02033505000157546   2.541552353685933e-05
-0.016525588854931727   -0.0017048799609598487   9.35981743278385e-05
-0.015801046390313742   -0.020516502930195843   -6.184817678703988e-05
-0.005601798096559756   -0.020084753889357192   0.00039119799963454325
-0.016525588854931727   -0.0017048799609598487   9.35981743278385e-05
-0.00721526824529432   -0.001095110393666973   0.00029247208282550367
-0.006969601390258968   -0.0012745356522469663   0.00016371065140260172
-0.005601798096559756   -0.020084753889357192   0.00039119799963454325
-0.016525588854931727   -0.0017048799609598487   9.35981743278385e-05
-0.006969601390258968   -0.0012745356522469663   0.00016371065140260172
-0.015801046390313742   -0.020516502930195843   -6.184817678703988e-05
-0.005601798096559756   -0.020084753889357192   0.00039119799963454325
-0.00721526824529432   -0.001095110393666973   0.00029247208282550367
-0.01595577421867196   -0.02033505000157546   2.541552353685933e-05
-0.005779392720874405   -0.019883118042339828   0.000516062142131594
-0.00721526824529432   -0.001095110393666973   0.00029247208282550367
-0.016525588854931727   -0.0017048799609598487   9.35981743278385e-05
-0.01595577421867196   -0.02033505000157546   2.541552353685933e-05
-0.016746092381560884   -0.001429946136788938   0.00019071005910837113
-0.005779392720874405   -0.019883118042339828   0.000516062142131594
-0.01610259210807942   -0.02013618222556748   0.00012156385647016562
-0.016746092381560884   -0.001429946136788938   0.00019071005910837113
-0.01595577421867196   -0.02033505000157546   2.541552353685933e-05
-0.005779392720874405   -0.019883118042339828   0.000516062142131594
-0.016746092381560884   -0.001429946136788938   0.00019071005910837113
-0.007543486565895717   -0.0008572231343011395   0.00044012811764842185
-0.00721526824529432   -0.001095110393666973   0.00029247208282550367
-0.005779392720874405   -0.019883118042339828   0.000516062142131594
-0.016746092381560884   -0.001429946136788938   0.00019071005910837113
-0.00721526824529432   -0.001095110393666973   0.00029247208282550367
-0.01595577421867196   -0.02033505000157546   2.541552353685933e-05
-0.015652938768517075   -0.020677549662582687   -0.00014444621362671634
-0.016123991280576466   -0.0021474872402890447   -6.480594419308988e-05
-0.026336167904424973   -0.02091132904815619   -0.00045039326147251096
-0.015801046390313742   -0.020516502930195843   -6.184817678703988e-05
-0.016123991280576466   -0.0021474872402890447   -6.480594419308988e-05
-0.026598128379697335   -0.0022829992941856233   -0.00026133423959980853
-0.026336167904424973   -0.02091132904815619   -0.00045039326147251096
-0.026719764232130797   -0.0021222858901265664   -0.0002462328193455504
-0.015801046390313742   -0.020516502930195843   -6.184817678703988e-05
-0.026468946638533383   -0.02074609911763379   -0.00038657784027666393
-0.026719764232130797   -0.0021222858901265664   -0.0002462328193455504
-0.026336167904424973   -0.02091132904815619   -0.00045039326147251096
-0.015801046390313742   -0.020516502930195843   -6.184817678703988e-05
-0.026719764232130797   -0.0021222858901265664   -0.0002462328193455504
-0.016325367995674134   -0.0019433645626510173   -8.337781842489772e-06
-0.016123991280576466   -0.0021474872402890447   -6.480594419308988e-05
-0.015801046390313742   -0.020516502930195843   -6.184817678703988e-05
-0.026719764232130797   -0.0021222858901265664   -0.0002462328193455504
-0.016123991280576466   -0.0021474872402890447   -6.480594419308988e-05
-0.026336167904424973   -0.02091132904815619   -0.00045039326147251096
-0.015801046390313742   -0.020516502930195843   -6.184817678703988e-05
-0.016325367995674134   -0.0019433645626510173   -8.337781842489772e-06
-0.026468946638533383   -0.02074609911763379   -0.00038657784027666393
-0.01595577421867196   -0.02033505000157546   2.541552353685933e-05
-0.016325367995674134   -0.0019433645626510173   -8.337781842489772e-06
-0.026719764232130797   -0.0021222858901265664   -0.0002462328193455504
-0.026468946638533383   -0.02074609911763379   -0.00038657784027666393
-0.026846143997275657   -0.0019365215115017774   -0.00021942062460767898
-0.01595577421867196   -0.02033505000157546   2.541552353685933e-05
-0.026595867536489206   -0.02057175889806976   -0.00032307937378222255
-0.026846143997275657   -0.0019365215115017774   -0.00021942062460767898
-0.026468946638533383   -0.02074609911763379   -0.00038657784027666393
-0.01595577421867196   -0.02033505000157546   2.541552353685933e-05
-0.026846143997275657   -0.0019365215115017774   -0.00021942062460767898
-0.016525588854931727   -0.0017048799609598487   9.35981743278385e-05
-0.016325367995674134   -0.0019433645626510173   -8.337781842489772e-06
-0.01595577421867196   -0.02033505000157546   2.541552353685933e-05
-0.026846143997275657   -0.0019365215115017774   -0.00021942062460767898
-0.016325367995674134   -0.0019433645626510173   -8.337781842489772e-06
-0.026468946638533383   -0.02074609911763379   -0.00038657784027666393
-0.01595577421867196   -0.02033505000157546   2.541552353685933e-05
-0.016525588854931727   -0.0017048799609598487   9.35981743278385e-05
-0.026595867536489206   -0.02057175889806976   -0.00032307937378222255
-0.01610259210807942   -0.02013618222556748   0.00012156385647016562
-0.016525588854931727   -0.0017048799609598487   9.35981743278385e-05
-0.026846143997275657   -0.0019365215115017774   -0.00021942062460767898
-0.026595867536489206   -0.02057175889806976   -0.00032307937378222255
-0.026965056473161064   -0.0017117785334427478   -0.00018394824691657995
-0.01610259210807942   -0.02013618222556748   0.00012156385647016562
-0.026712715310395117   -0.0203831343026141   -0.00025406475037954645
-0.026965056473161064   -0.0017117785334427478   -0.00018394824691657995
-0.026595867536489206   -0.02057175889806976   -0.00032307937378222255
-0.01610259210807942   -0.02013618222556748   0.00012156385647016562
-0.026965056473161064   -0.0017117785334427478   -0.00018394824691657995
-0.016746092381560884   -0.001429946136788938   0.00019071005910837113
-0.016525588854931727   -0.0017048799609598487   9.35981743278385e-05
-0.01610259210807942   -0.02013618222556748   0.00012156385647016562
-0.026965056473161064   -0.0017117785334427478   -0.00018394824691657995
-0.016525588854931727   -0.0017048799609598487   9.35981743278385e-05
-0.026595867536489206   -0.02057175889806976   -0.00032307937378222255
-0.026336167904424973   -0.02091132904815619   -0.00045039326147251096
-0.026598128379697335   -0.0022829992941856233   -0.00026133423959980853
-0.037394552520312214   -0.021007062942558052   -0.0007330698483352418
-0.026468946638533383   -0.02074609911763379   -0.00038657784027666393
-0.026598128379697335   -0.0022829992941856233   -0.00026133423959980853
-0.03758724361031598   -0.0022543208749767375   -0.0005400402527274038
-0.037394552520312214   -0.021007062942558052   -0.0007330698483352418
-0.037669256520662935   -0.002108751437564359   -0.0005336564183395425
-0.026468946638533383   -0.02074609911763379   -0.00038657784027666393
-0.037514121489296545   -0.02085834607634368   -0.000686711119462131
-0.037669256520662935   -0.002108751437564359   -0.0005336564183395425
-0.037394552520312214   -0.021007062942558052   -0.0007330698483352418
-0.026468946638533383   -0.02074609911763379   -0.00038657784027666393
-0.037669256520662935   -0.002108751437564359   -0.0005336564183395425
-0.026719764232130797   -0.0021222858901265664   -0.0002462328193455504
-0.026598128379697335   -0.0022829992941856233   -0.00026133423959980853
-0.026468946638533383   -0.02074609911763379   -0.00038657784027666393
-0.037669256520662935   -0.002108751437564359   -0.0005336564183395425
-0.026598128379697335   -0.0022829992941856233   -0.00026133423959980853
-0.037394552520312214   -0.021007062942558052   -0.0007330698483352418
-0.026468946638533383   -0.02074609911763379   -0.00038657784027666393
-0.026719764232130797   -0.0021222858901265664   -0.0002462328193455504
-0.037514121489296545   -0.02085834607634368   -0.000686711119462131
-0.026595867536489206   -0.02057175889806976   -0.00032307937378222255
-0.026719764232130797   -0.0021222858901265664   -0.0002462328193455504
-0.037669256520662935   -0.002108751437564359   -0.0005336564183395425
-0.037514121489296545   -0.02085834607634368   -0.000686711119462131
-0.0377548533363307   -0.0019474648145339903   -0.0005296713878278734
-0.026595867536489206   -0.02057175889806976   -0.00032307937378222255
-0.0376206594866576   -0.020696605881505358   -0.0006417757407730617
-0.0377548533363307   -0.0019474648145339903   -0.0005296713878278734
-0.037514121489296545   -0.02085834607634368   -0.000686711119462131
-0.026595867536489206   -0.02057175889806976   -0.00032307937378222255
-0.0377548533363307   -0.0019474648145339903   -0.0005296713878278734
-0.026846143997275657   -0.0019365215115017774   -0.00021942062460767898
-0.026719764232130797   -0.0021222858901265664   -0.0002462328193455504
-0.026595867536489206   -0.02057175889806976   -0.00032307937378222255
-0.0377548533363307   -0.0019474648145339903   -0.0005296713878278734
-0.026719764232130797   -0.0021222858901265664   -0.0002462328193455504
-0.037514121489296545   -0.02085834607634368   -0.000686711119462131
-0.026595867536489206   -0.02057175889806976   -0.00032307937378222255
-0.026846143997275657   -0.0019365215115017774   -0.00021942062460767898
-0.0376206594866576   -0.020696605881505358   -0.0006417757407730617
-0.026712715310395117   -0.0203831343026141   -0.00025406475037954645
-0.026846143997275657   -0.0019365215115017774   -0.00021942062460767898
-0.0377548533363307   -0.0019474648145339903   -0.0005296713878278734
-0.0376206594866576   -0.020696605881505358   -0.0006417757407730617
-0.037819113976261066   -0.001773585388646138   -0.0005284926229000577
-0.026712715310395117   -0.0203831343026141   -0.00025406475037954645
-0.03771708946238096   -0.020524551894674073   -0.0005956250207403285
-0.037819113976261066   -0.001773585388646138   -0.0005284926229000577
-0.0376206594866576   -0.020696605881505358   -0.0006417757407730617
-0.026712715310395117   -0.0203831343026141   -0.00025406475037954645
-0.037819113976261066   -0.001773585388646138   -0.0005284926229000577
-0.026965056473161064   -0.0017117785334427478   -0.00018394824691657995
-0.026846143997275657   -0.0019365215115017774   -0.00021942062460767898
-0.026712715310395117   -0.0203831343026141   -0.00025406475037954645
-0.037819113976261066   -0.001773585388646138   -0.0005284926229000577
-0.026846143997275657   -0.0019365215115017774   -0.00021942062460767898
-0.0376206594866576   -0.020696605881505358   -0.0006417757407730617
-0.037394552520312214   -0.021007062942558052   -0.0007330698483352418
-0.03758724361031598   -0.0022543208749767375   -0.0005400402527274038
-0.04884322255666124   -0.021018091527519305   -0.0009685341519335155
-0.037514121489296545   -0.02085834607634368   -0.000686711119462131
-0.03758724361031598   -0.0022543208749767375   -0.0005400402527274038
-0.04887711974822304   -0.0022372968972407398   -0.0008140455156148439
-0.04884322255666124   -0.021018091527519305   -0.0009685341519335155
-0.0489431892814983   -0.0020791139035762547   -0.0008141656378964009
-0.037514121489296545   -0.02085834607634368   -0.000686711119462131
-0.048946242882968054   -0.020873590436804354   -0.0009489450773968919
-0.0489431892814983   -0.0020791139035762547   -0.0008141656378964009
-0.04884322255666124   -0.021018091527519305   -0.0009685341519335155
-0.037514121489296545   -0.02085834607634368   -0.000686711119462131
-0.0489431892814983   -0.0020791139035762547   -0.0008141656378964009
-0.037669256520662935   -0.002108751437564359   -0.0005336564183395425
-0.03758724361031598   -0.0022543208749767375   -0.0005400402527274038
-0.037514121489296545   -0.02085834607634368   -0.000686711119462131
-0.0489431892814983   -0.0020791139035762547   -0.0008141656378964009
-0.03758724361031598   -0.0022543208749767375   -0.0005400402527274038
-0.04884322255666124   -0.021018091527519305   -0.0009685341519335155
-0.037514121489296545   -0.02085834607634368   -0.000686711119462131
-0.037669256520662935   -0.002108751437564359   -0.0005336564183395425
-0.048946242882968054   -0.020873590436804354   -0.0009489450773968919
-0.0376206594866576   -0.020696605881505358   -0.0006417757407730617
-0.037669256520662935   -0.002108751437564359   -0.0005336564183395425
-0.0489431892814983   -0.0020791139035762547   -0.0008141656378964009
-0.048946242882968054   -0.020873590436804354   -0.0009489450773968919
-0.04901578216301892   -0.0019215872639528416   -0.0008266022727936052
-0.0376206594866576   -0.020696605881505358   -0.0006417757407730617
-0.04903853971286643   -0.020717601215617637   -0.0009260927498468593
-0.04901578216301892   -0.0019215872639528416   -0.0008266022727936052
-0.048946242882968054   -0.020873590436804354   -0.0009489450773968919
-0.0376206594866576   -0.020696605881505358   -0.0006417757407730617
-0.04901578216301892   -0.0019215872639528416   -0.0008266022727936052
-0.0377548533363307   -0.0019474648145339903   -0.0005296713878278734
-0.037669256520662935   -0.002108751437564359   -0.0005336564183395425
-0.0376206594866576   -0.020696605881505358   -0.0006417757407730617
-0.04901578216301892   -0.0019215872639528416   -0.0008266022727936052
-0.037669256520662935   -0.002108751437564359   -0.0005336564183395425
-0.048946242882968054   -0.020873590436804354   -0.0009489450773968919
-0.0376206594866576   -0.020696605881505358   -0.0006417757407730617
-0.0377548533363307   -0.0019474648145339903   -0.0005296713878278734
-0.04903853971286643   -0.020717601215617637   -0.0009260927498468593
-0.03771708946238096   -0.020524551894674073   -0.0005956250207403285
-0.0377548533363307   -0.0019474648145339903   -0.0005296713878278734
-0.04901578216301892   -0.0019215872639528416   -0.0008266022727936052
-0.04903853971286643   -0.020717601215617637   -0.0009260927498468593
-0.04906901706469925   -0.001750435021103716   -0.0008399431934935148
-0.03771708946238096   -0.020524551894674073   -0.0005956250207403285
-0.049116523355975855   -0.02055237694757589   -0.0009050388428736375
-0.04906901706469925   -0.001750435021103716   -0.0008399431934935148
-0.04903853971286643   -0.020717601215617637   -0.0009260927498468593
-0.03771708946238096   -0.020524551894674073   -0.0005956250207403285
-0.04906901706469925   -0.001750435021103716   -0.0008399431934935148
-0.037819113976261066   -0.001773585388646138   -0.0005284926229000577
-0.0377548533363307   -0.0019474648145339903   -0.0005296713878278734
-0.03771708946238096   -0.020524551894674073   -0.0005956250207403285
-0.04906901706469925   -0.001750435021103716   -0.0008399431934935148
-0.0377548533363307   -0.0019474648145339903   -0.0005296713878278734
-0.04903853971286643   -0.020717601215617637   -0.0009260927498468593
              </DataArray>   
          </PointData>  
       </Piece>  
   </UnstructuredGrid> 
</VTKFile> 
