<?xml version="1.0"?> 
<VTKFile type="UnstructuredGrid"> 
   <UnstructuredGrid> 
      <Piece NumberOfPoints="6000"  NumberOfCells="1500">  
          <Points>  
             <DataArray type="Float64" NumberOfComponents="3" format="ascii">   
-500.0   0.0   0.0
-450.0   0.0   0.0
-500.0   30.0   0.0
-500.0   0.0   16.666666666666668
-450.0   0.0   0.0
-450.0   30.0   0.0
-500.0   30.0   0.0
-450.0   30.0   16.666666666666668
-500.0   0.0   16.666666666666668
-500.0   30.0   16.666666666666668
-450.0   30.0   16.666666666666668
-500.0   30.0   0.0
-500.0   0.0   16.666666666666668
-450.0   30.0   16.666666666666668
-450.0   0.0   16.666666666666668
-450.0   0.0   0.0
-500.0   0.0   16.666666666666668
-450.0   30.0   16.666666666666668
-450.0   0.0   0.0
-500.0   30.0   0.0
-500.0   0.0   16.666666666666668
-450.0   0.0   16.666666666666668
-500.0   30.0   16.666666666666668
-500.0   0.0   33.333333333333336
-450.0   0.0   16.666666666666668
-450.0   30.0   16.666666666666668
-500.0   30.0   16.666666666666668
-450.0   30.0   33.333333333333336
-500.0   0.0   33.333333333333336
-500.0   30.0   33.333333333333336
-450.0   30.0   33.333333333333336
-500.0   30.0   16.666666666666668
-500.0   0.0   33.333333333333336
-450.0   30.0   33.333333333333336
-450.0   0.0   33.333333333333336
-450.0   0.0   16.666666666666668
-500.0   0.0   33.333333333333336
-450.0   30.0   33.333333333333336
-450.0   0.0   16.666666666666668
-500.0   30.0   16.666666666666668
-500.0   0.0   33.333333333333336
-450.0   0.0   33.333333333333336
-500.0   30.0   33.333333333333336
-500.0   0.0   50.0
-450.0   0.0   33.333333333333336
-450.0   30.0   33.333333333333336
-500.0   30.0   33.333333333333336
-450.0   30.0   50.0
-500.0   0.0   50.0
-500.0   30.0   50.0
-450.0   30.0   50.0
-500.0   30.0   33.333333333333336
-500.0   0.0   50.0
-450.0   30.0   50.0
-450.0   0.0   50.0
-450.0   0.0   33.333333333333336
-500.0   0.0   50.0
-450.0   30.0   50.0
-450.0   0.0   33.333333333333336
-500.0   30.0   33.333333333333336
-500.0   30.0   0.0
-450.0   30.0   0.0
-500.0   60.0   0.0
-500.0   30.0   16.666666666666668
-450.0   30.0   0.0
-450.0   60.0   0.0
-500.0   60.0   0.0
-450.0   60.0   16.666666666666668
-500.0   30.0   16.666666666666668
-500.0   60.0   16.666666666666668
-450.0   60.0   16.666666666666668
-500.0   60.0   0.0
-500.0   30.0   16.666666666666668
-450.0   60.0   16.666666666666668
-450.0   30.0   16.666666666666668
-450.0   30.0   0.0
-500.0   30.0   16.666666666666668
-450.0   60.0   16.666666666666668
-450.0   30.0   0.0
-500.0   60.0   0.0
-500.0   30.0   16.666666666666668
-450.0   30.0   16.666666666666668
-500.0   60.0   16.666666666666668
-500.0   30.0   33.333333333333336
-450.0   30.0   16.666666666666668
-450.0   60.0   16.666666666666668
-500.0   60.0   16.666666666666668
-450.0   60.0   33.333333333333336
-500.0   30.0   33.333333333333336
-500.0   60.0   33.333333333333336
-450.0   60.0   33.333333333333336
-500.0   60.0   16.666666666666668
-500.0   30.0   33.333333333333336
-450.0   60.0   33.333333333333336
-450.0   30.0   33.333333333333336
-450.0   30.0   16.666666666666668
-500.0   30.0   33.333333333333336
-450.0   60.0   33.333333333333336
-450.0   30.0   16.666666666666668
-500.0   60.0   16.666666666666668
-500.0   30.0   33.333333333333336
-450.0   30.0   33.333333333333336
-500.0   60.0   33.333333333333336
-500.0   30.0   50.0
-450.0   30.0   33.333333333333336
-450.0   60.0   33.333333333333336
-500.0   60.0   33.333333333333336
-450.0   60.0   50.0
-500.0   30.0   50.0
-500.0   60.0   50.0
-450.0   60.0   50.0
-500.0   60.0   33.333333333333336
-500.0   30.0   50.0
-450.0   60.0   50.0
-450.0   30.0   50.0
-450.0   30.0   33.333333333333336
-500.0   30.0   50.0
-450.0   60.0   50.0
-450.0   30.0   33.333333333333336
-500.0   60.0   33.333333333333336
-500.0   60.0   0.0
-450.0   60.0   0.0
-500.0   90.0   0.0
-500.0   60.0   16.666666666666668
-450.0   60.0   0.0
-450.0   90.0   0.0
-500.0   90.0   0.0
-450.0   90.0   16.666666666666668
-500.0   60.0   16.666666666666668
-500.0   90.0   16.666666666666668
-450.0   90.0   16.666666666666668
-500.0   90.0   0.0
-500.0   60.0   16.666666666666668
-450.0   90.0   16.666666666666668
-450.0   60.0   16.666666666666668
-450.0   60.0   0.0
-500.0   60.0   16.666666666666668
-450.0   90.0   16.666666666666668
-450.0   60.0   0.0
-500.0   90.0   0.0
-500.0   60.0   16.666666666666668
-450.0   60.0   16.666666666666668
-500.0   90.0   16.666666666666668
-500.0   60.0   33.333333333333336
-450.0   60.0   16.666666666666668
-450.0   90.0   16.666666666666668
-500.0   90.0   16.666666666666668
-450.0   90.0   33.333333333333336
-500.0   60.0   33.333333333333336
-500.0   90.0   33.333333333333336
-450.0   90.0   33.333333333333336
-500.0   90.0   16.666666666666668
-500.0   60.0   33.333333333333336
-450.0   90.0   33.333333333333336
-450.0   60.0   33.333333333333336
-450.0   60.0   16.666666666666668
-500.0   60.0   33.333333333333336
-450.0   90.0   33.333333333333336
-450.0   60.0   16.666666666666668
-500.0   90.0   16.666666666666668
-500.0   60.0   33.333333333333336
-450.0   60.0   33.333333333333336
-500.0   90.0   33.333333333333336
-500.0   60.0   50.0
-450.0   60.0   33.333333333333336
-450.0   90.0   33.333333333333336
-500.0   90.0   33.333333333333336
-450.0   90.0   50.0
-500.0   60.0   50.0
-500.0   90.0   50.0
-450.0   90.0   50.0
-500.0   90.0   33.333333333333336
-500.0   60.0   50.0
-450.0   90.0   50.0
-450.0   60.0   50.0
-450.0   60.0   33.333333333333336
-500.0   60.0   50.0
-450.0   90.0   50.0
-450.0   60.0   33.333333333333336
-500.0   90.0   33.333333333333336
-500.0   90.0   0.0
-450.0   90.0   0.0
-500.0   120.0   0.0
-500.0   90.0   16.666666666666668
-450.0   90.0   0.0
-450.0   120.0   0.0
-500.0   120.0   0.0
-450.0   120.0   16.666666666666668
-500.0   90.0   16.666666666666668
-500.0   120.0   16.666666666666668
-450.0   120.0   16.666666666666668
-500.0   120.0   0.0
-500.0   90.0   16.666666666666668
-450.0   120.0   16.666666666666668
-450.0   90.0   16.666666666666668
-450.0   90.0   0.0
-500.0   90.0   16.666666666666668
-450.0   120.0   16.666666666666668
-450.0   90.0   0.0
-500.0   120.0   0.0
-500.0   90.0   16.666666666666668
-450.0   90.0   16.666666666666668
-500.0   120.0   16.666666666666668
-500.0   90.0   33.333333333333336
-450.0   90.0   16.666666666666668
-450.0   120.0   16.666666666666668
-500.0   120.0   16.666666666666668
-450.0   120.0   33.333333333333336
-500.0   90.0   33.333333333333336
-500.0   120.0   33.333333333333336
-450.0   120.0   33.333333333333336
-500.0   120.0   16.666666666666668
-500.0   90.0   33.333333333333336
-450.0   120.0   33.333333333333336
-450.0   90.0   33.333333333333336
-450.0   90.0   16.666666666666668
-500.0   90.0   33.333333333333336
-450.0   120.0   33.333333333333336
-450.0   90.0   16.666666666666668
-500.0   120.0   16.666666666666668
-500.0   90.0   33.333333333333336
-450.0   90.0   33.333333333333336
-500.0   120.0   33.333333333333336
-500.0   90.0   50.0
-450.0   90.0   33.333333333333336
-450.0   120.0   33.333333333333336
-500.0   120.0   33.333333333333336
-450.0   120.0   50.0
-500.0   90.0   50.0
-500.0   120.0   50.0
-450.0   120.0   50.0
-500.0   120.0   33.333333333333336
-500.0   90.0   50.0
-450.0   120.0   50.0
-450.0   90.0   50.0
-450.0   90.0   33.333333333333336
-500.0   90.0   50.0
-450.0   120.0   50.0
-450.0   90.0   33.333333333333336
-500.0   120.0   33.333333333333336
-500.0   120.0   0.0
-450.0   120.0   0.0
-500.0   150.0   0.0
-500.0   120.0   16.666666666666668
-450.0   120.0   0.0
-450.0   150.0   0.0
-500.0   150.0   0.0
-450.0   150.0   16.666666666666668
-500.0   120.0   16.666666666666668
-500.0   150.0   16.666666666666668
-450.0   150.0   16.666666666666668
-500.0   150.0   0.0
-500.0   120.0   16.666666666666668
-450.0   150.0   16.666666666666668
-450.0   120.0   16.666666666666668
-450.0   120.0   0.0
-500.0   120.0   16.666666666666668
-450.0   150.0   16.666666666666668
-450.0   120.0   0.0
-500.0   150.0   0.0
-500.0   120.0   16.666666666666668
-450.0   120.0   16.666666666666668
-500.0   150.0   16.666666666666668
-500.0   120.0   33.333333333333336
-450.0   120.0   16.666666666666668
-450.0   150.0   16.666666666666668
-500.0   150.0   16.666666666666668
-450.0   150.0   33.333333333333336
-500.0   120.0   33.333333333333336
-500.0   150.0   33.333333333333336
-450.0   150.0   33.333333333333336
-500.0   150.0   16.666666666666668
-500.0   120.0   33.333333333333336
-450.0   150.0   33.333333333333336
-450.0   120.0   33.333333333333336
-450.0   120.0   16.666666666666668
-500.0   120.0   33.333333333333336
-450.0   150.0   33.333333333333336
-450.0   120.0   16.666666666666668
-500.0   150.0   16.666666666666668
-500.0   120.0   33.333333333333336
-450.0   120.0   33.333333333333336
-500.0   150.0   33.333333333333336
-500.0   120.0   50.0
-450.0   120.0   33.333333333333336
-450.0   150.0   33.333333333333336
-500.0   150.0   33.333333333333336
-450.0   150.0   50.0
-500.0   120.0   50.0
-500.0   150.0   50.0
-450.0   150.0   50.0
-500.0   150.0   33.333333333333336
-500.0   120.0   50.0
-450.0   150.0   50.0
-450.0   120.0   50.0
-450.0   120.0   33.333333333333336
-500.0   120.0   50.0
-450.0   150.0   50.0
-450.0   120.0   33.333333333333336
-500.0   150.0   33.333333333333336
-450.0   0.0   0.0
-400.0   0.0   0.0
-450.0   30.0   0.0
-450.0   0.0   16.666666666666668
-400.0   0.0   0.0
-400.0   30.0   0.0
-450.0   30.0   0.0
-400.0   30.0   16.666666666666668
-450.0   0.0   16.666666666666668
-450.0   30.0   16.666666666666668
-400.0   30.0   16.666666666666668
-450.0   30.0   0.0
-450.0   0.0   16.666666666666668
-400.0   30.0   16.666666666666668
-400.0   0.0   16.666666666666668
-400.0   0.0   0.0
-450.0   0.0   16.666666666666668
-400.0   30.0   16.666666666666668
-400.0   0.0   0.0
-450.0   30.0   0.0
-450.0   0.0   16.666666666666668
-400.0   0.0   16.666666666666668
-450.0   30.0   16.666666666666668
-450.0   0.0   33.333333333333336
-400.0   0.0   16.666666666666668
-400.0   30.0   16.666666666666668
-450.0   30.0   16.666666666666668
-400.0   30.0   33.333333333333336
-450.0   0.0   33.333333333333336
-450.0   30.0   33.333333333333336
-400.0   30.0   33.333333333333336
-450.0   30.0   16.666666666666668
-450.0   0.0   33.333333333333336
-400.0   30.0   33.333333333333336
-400.0   0.0   33.333333333333336
-400.0   0.0   16.666666666666668
-450.0   0.0   33.333333333333336
-400.0   30.0   33.333333333333336
-400.0   0.0   16.666666666666668
-450.0   30.0   16.666666666666668
-450.0   0.0   33.333333333333336
-400.0   0.0   33.333333333333336
-450.0   30.0   33.333333333333336
-450.0   0.0   50.0
-400.0   0.0   33.333333333333336
-400.0   30.0   33.333333333333336
-450.0   30.0   33.333333333333336
-400.0   30.0   50.0
-450.0   0.0   50.0
-450.0   30.0   50.0
-400.0   30.0   50.0
-450.0   30.0   33.333333333333336
-450.0   0.0   50.0
-400.0   30.0   50.0
-400.0   0.0   50.0
-400.0   0.0   33.333333333333336
-450.0   0.0   50.0
-400.0   30.0   50.0
-400.0   0.0   33.333333333333336
-450.0   30.0   33.333333333333336
-450.0   30.0   0.0
-400.0   30.0   0.0
-450.0   60.0   0.0
-450.0   30.0   16.666666666666668
-400.0   30.0   0.0
-400.0   60.0   0.0
-450.0   60.0   0.0
-400.0   60.0   16.666666666666668
-450.0   30.0   16.666666666666668
-450.0   60.0   16.666666666666668
-400.0   60.0   16.666666666666668
-450.0   60.0   0.0
-450.0   30.0   16.666666666666668
-400.0   60.0   16.666666666666668
-400.0   30.0   16.666666666666668
-400.0   30.0   0.0
-450.0   30.0   16.666666666666668
-400.0   60.0   16.666666666666668
-400.0   30.0   0.0
-450.0   60.0   0.0
-450.0   30.0   16.666666666666668
-400.0   30.0   16.666666666666668
-450.0   60.0   16.666666666666668
-450.0   30.0   33.333333333333336
-400.0   30.0   16.666666666666668
-400.0   60.0   16.666666666666668
-450.0   60.0   16.666666666666668
-400.0   60.0   33.333333333333336
-450.0   30.0   33.333333333333336
-450.0   60.0   33.333333333333336
-400.0   60.0   33.333333333333336
-450.0   60.0   16.666666666666668
-450.0   30.0   33.333333333333336
-400.0   60.0   33.333333333333336
-400.0   30.0   33.333333333333336
-400.0   30.0   16.666666666666668
-450.0   30.0   33.333333333333336
-400.0   60.0   33.333333333333336
-400.0   30.0   16.666666666666668
-450.0   60.0   16.666666666666668
-450.0   30.0   33.333333333333336
-400.0   30.0   33.333333333333336
-450.0   60.0   33.333333333333336
-450.0   30.0   50.0
-400.0   30.0   33.333333333333336
-400.0   60.0   33.333333333333336
-450.0   60.0   33.333333333333336
-400.0   60.0   50.0
-450.0   30.0   50.0
-450.0   60.0   50.0
-400.0   60.0   50.0
-450.0   60.0   33.333333333333336
-450.0   30.0   50.0
-400.0   60.0   50.0
-400.0   30.0   50.0
-400.0   30.0   33.333333333333336
-450.0   30.0   50.0
-400.0   60.0   50.0
-400.0   30.0   33.333333333333336
-450.0   60.0   33.333333333333336
-450.0   60.0   0.0
-400.0   60.0   0.0
-450.0   90.0   0.0
-450.0   60.0   16.666666666666668
-400.0   60.0   0.0
-400.0   90.0   0.0
-450.0   90.0   0.0
-400.0   90.0   16.666666666666668
-450.0   60.0   16.666666666666668
-450.0   90.0   16.666666666666668
-400.0   90.0   16.666666666666668
-450.0   90.0   0.0
-450.0   60.0   16.666666666666668
-400.0   90.0   16.666666666666668
-400.0   60.0   16.666666666666668
-400.0   60.0   0.0
-450.0   60.0   16.666666666666668
-400.0   90.0   16.666666666666668
-400.0   60.0   0.0
-450.0   90.0   0.0
-450.0   60.0   16.666666666666668
-400.0   60.0   16.666666666666668
-450.0   90.0   16.666666666666668
-450.0   60.0   33.333333333333336
-400.0   60.0   16.666666666666668
-400.0   90.0   16.666666666666668
-450.0   90.0   16.666666666666668
-400.0   90.0   33.333333333333336
-450.0   60.0   33.333333333333336
-450.0   90.0   33.333333333333336
-400.0   90.0   33.333333333333336
-450.0   90.0   16.666666666666668
-450.0   60.0   33.333333333333336
-400.0   90.0   33.333333333333336
-400.0   60.0   33.333333333333336
-400.0   60.0   16.666666666666668
-450.0   60.0   33.333333333333336
-400.0   90.0   33.333333333333336
-400.0   60.0   16.666666666666668
-450.0   90.0   16.666666666666668
-450.0   60.0   33.333333333333336
-400.0   60.0   33.333333333333336
-450.0   90.0   33.333333333333336
-450.0   60.0   50.0
-400.0   60.0   33.333333333333336
-400.0   90.0   33.333333333333336
-450.0   90.0   33.333333333333336
-400.0   90.0   50.0
-450.0   60.0   50.0
-450.0   90.0   50.0
-400.0   90.0   50.0
-450.0   90.0   33.333333333333336
-450.0   60.0   50.0
-400.0   90.0   50.0
-400.0   60.0   50.0
-400.0   60.0   33.333333333333336
-450.0   60.0   50.0
-400.0   90.0   50.0
-400.0   60.0   33.333333333333336
-450.0   90.0   33.333333333333336
-450.0   90.0   0.0
-400.0   90.0   0.0
-450.0   120.0   0.0
-450.0   90.0   16.666666666666668
-400.0   90.0   0.0
-400.0   120.0   0.0
-450.0   120.0   0.0
-400.0   120.0   16.666666666666668
-450.0   90.0   16.666666666666668
-450.0   120.0   16.666666666666668
-400.0   120.0   16.666666666666668
-450.0   120.0   0.0
-450.0   90.0   16.666666666666668
-400.0   120.0   16.666666666666668
-400.0   90.0   16.666666666666668
-400.0   90.0   0.0
-450.0   90.0   16.666666666666668
-400.0   120.0   16.666666666666668
-400.0   90.0   0.0
-450.0   120.0   0.0
-450.0   90.0   16.666666666666668
-400.0   90.0   16.666666666666668
-450.0   120.0   16.666666666666668
-450.0   90.0   33.333333333333336
-400.0   90.0   16.666666666666668
-400.0   120.0   16.666666666666668
-450.0   120.0   16.666666666666668
-400.0   120.0   33.333333333333336
-450.0   90.0   33.333333333333336
-450.0   120.0   33.333333333333336
-400.0   120.0   33.333333333333336
-450.0   120.0   16.666666666666668
-450.0   90.0   33.333333333333336
-400.0   120.0   33.333333333333336
-400.0   90.0   33.333333333333336
-400.0   90.0   16.666666666666668
-450.0   90.0   33.333333333333336
-400.0   120.0   33.333333333333336
-400.0   90.0   16.666666666666668
-450.0   120.0   16.666666666666668
-450.0   90.0   33.333333333333336
-400.0   90.0   33.333333333333336
-450.0   120.0   33.333333333333336
-450.0   90.0   50.0
-400.0   90.0   33.333333333333336
-400.0   120.0   33.333333333333336
-450.0   120.0   33.333333333333336
-400.0   120.0   50.0
-450.0   90.0   50.0
-450.0   120.0   50.0
-400.0   120.0   50.0
-450.0   120.0   33.333333333333336
-450.0   90.0   50.0
-400.0   120.0   50.0
-400.0   90.0   50.0
-400.0   90.0   33.333333333333336
-450.0   90.0   50.0
-400.0   120.0   50.0
-400.0   90.0   33.333333333333336
-450.0   120.0   33.333333333333336
-450.0   120.0   0.0
-400.0   120.0   0.0
-450.0   150.0   0.0
-450.0   120.0   16.666666666666668
-400.0   120.0   0.0
-400.0   150.0   0.0
-450.0   150.0   0.0
-400.0   150.0   16.666666666666668
-450.0   120.0   16.666666666666668
-450.0   150.0   16.666666666666668
-400.0   150.0   16.666666666666668
-450.0   150.0   0.0
-450.0   120.0   16.666666666666668
-400.0   150.0   16.666666666666668
-400.0   120.0   16.666666666666668
-400.0   120.0   0.0
-450.0   120.0   16.666666666666668
-400.0   150.0   16.666666666666668
-400.0   120.0   0.0
-450.0   150.0   0.0
-450.0   120.0   16.666666666666668
-400.0   120.0   16.666666666666668
-450.0   150.0   16.666666666666668
-450.0   120.0   33.333333333333336
-400.0   120.0   16.666666666666668
-400.0   150.0   16.666666666666668
-450.0   150.0   16.666666666666668
-400.0   150.0   33.333333333333336
-450.0   120.0   33.333333333333336
-450.0   150.0   33.333333333333336
-400.0   150.0   33.333333333333336
-450.0   150.0   16.666666666666668
-450.0   120.0   33.333333333333336
-400.0   150.0   33.333333333333336
-400.0   120.0   33.333333333333336
-400.0   120.0   16.666666666666668
-450.0   120.0   33.333333333333336
-400.0   150.0   33.333333333333336
-400.0   120.0   16.666666666666668
-450.0   150.0   16.666666666666668
-450.0   120.0   33.333333333333336
-400.0   120.0   33.333333333333336
-450.0   150.0   33.333333333333336
-450.0   120.0   50.0
-400.0   120.0   33.333333333333336
-400.0   150.0   33.333333333333336
-450.0   150.0   33.333333333333336
-400.0   150.0   50.0
-450.0   120.0   50.0
-450.0   150.0   50.0
-400.0   150.0   50.0
-450.0   150.0   33.333333333333336
-450.0   120.0   50.0
-400.0   150.0   50.0
-400.0   120.0   50.0
-400.0   120.0   33.333333333333336
-450.0   120.0   50.0
-400.0   150.0   50.0
-400.0   120.0   33.333333333333336
-450.0   150.0   33.333333333333336
-400.0   0.0   0.0
-350.0   0.0   0.0
-400.0   30.0   0.0
-400.0   0.0   16.666666666666668
-350.0   0.0   0.0
-350.0   30.0   0.0
-400.0   30.0   0.0
-350.0   30.0   16.666666666666668
-400.0   0.0   16.666666666666668
-400.0   30.0   16.666666666666668
-350.0   30.0   16.666666666666668
-400.0   30.0   0.0
-400.0   0.0   16.666666666666668
-350.0   30.0   16.666666666666668
-350.0   0.0   16.666666666666668
-350.0   0.0   0.0
-400.0   0.0   16.666666666666668
-350.0   30.0   16.666666666666668
-350.0   0.0   0.0
-400.0   30.0   0.0
-400.0   0.0   16.666666666666668
-350.0   0.0   16.666666666666668
-400.0   30.0   16.666666666666668
-400.0   0.0   33.333333333333336
-350.0   0.0   16.666666666666668
-350.0   30.0   16.666666666666668
-400.0   30.0   16.666666666666668
-350.0   30.0   33.333333333333336
-400.0   0.0   33.333333333333336
-400.0   30.0   33.333333333333336
-350.0   30.0   33.333333333333336
-400.0   30.0   16.666666666666668
-400.0   0.0   33.333333333333336
-350.0   30.0   33.333333333333336
-350.0   0.0   33.333333333333336
-350.0   0.0   16.666666666666668
-400.0   0.0   33.333333333333336
-350.0   30.0   33.333333333333336
-350.0   0.0   16.666666666666668
-400.0   30.0   16.666666666666668
-400.0   0.0   33.333333333333336
-350.0   0.0   33.333333333333336
-400.0   30.0   33.333333333333336
-400.0   0.0   50.0
-350.0   0.0   33.333333333333336
-350.0   30.0   33.333333333333336
-400.0   30.0   33.333333333333336
-350.0   30.0   50.0
-400.0   0.0   50.0
-400.0   30.0   50.0
-350.0   30.0   50.0
-400.0   30.0   33.333333333333336
-400.0   0.0   50.0
-350.0   30.0   50.0
-350.0   0.0   50.0
-350.0   0.0   33.333333333333336
-400.0   0.0   50.0
-350.0   30.0   50.0
-350.0   0.0   33.333333333333336
-400.0   30.0   33.333333333333336
-400.0   30.0   0.0
-350.0   30.0   0.0
-400.0   60.0   0.0
-400.0   30.0   16.666666666666668
-350.0   30.0   0.0
-350.0   60.0   0.0
-400.0   60.0   0.0
-350.0   60.0   16.666666666666668
-400.0   30.0   16.666666666666668
-400.0   60.0   16.666666666666668
-350.0   60.0   16.666666666666668
-400.0   60.0   0.0
-400.0   30.0   16.666666666666668
-350.0   60.0   16.666666666666668
-350.0   30.0   16.666666666666668
-350.0   30.0   0.0
-400.0   30.0   16.666666666666668
-350.0   60.0   16.666666666666668
-350.0   30.0   0.0
-400.0   60.0   0.0
-400.0   30.0   16.666666666666668
-350.0   30.0   16.666666666666668
-400.0   60.0   16.666666666666668
-400.0   30.0   33.333333333333336
-350.0   30.0   16.666666666666668
-350.0   60.0   16.666666666666668
-400.0   60.0   16.666666666666668
-350.0   60.0   33.333333333333336
-400.0   30.0   33.333333333333336
-400.0   60.0   33.333333333333336
-350.0   60.0   33.333333333333336
-400.0   60.0   16.666666666666668
-400.0   30.0   33.333333333333336
-350.0   60.0   33.333333333333336
-350.0   30.0   33.333333333333336
-350.0   30.0   16.666666666666668
-400.0   30.0   33.333333333333336
-350.0   60.0   33.333333333333336
-350.0   30.0   16.666666666666668
-400.0   60.0   16.666666666666668
-400.0   30.0   33.333333333333336
-350.0   30.0   33.333333333333336
-400.0   60.0   33.333333333333336
-400.0   30.0   50.0
-350.0   30.0   33.333333333333336
-350.0   60.0   33.333333333333336
-400.0   60.0   33.333333333333336
-350.0   60.0   50.0
-400.0   30.0   50.0
-400.0   60.0   50.0
-350.0   60.0   50.0
-400.0   60.0   33.333333333333336
-400.0   30.0   50.0
-350.0   60.0   50.0
-350.0   30.0   50.0
-350.0   30.0   33.333333333333336
-400.0   30.0   50.0
-350.0   60.0   50.0
-350.0   30.0   33.333333333333336
-400.0   60.0   33.333333333333336
-400.0   60.0   0.0
-350.0   60.0   0.0
-400.0   90.0   0.0
-400.0   60.0   16.666666666666668
-350.0   60.0   0.0
-350.0   90.0   0.0
-400.0   90.0   0.0
-350.0   90.0   16.666666666666668
-400.0   60.0   16.666666666666668
-400.0   90.0   16.666666666666668
-350.0   90.0   16.666666666666668
-400.0   90.0   0.0
-400.0   60.0   16.666666666666668
-350.0   90.0   16.666666666666668
-350.0   60.0   16.666666666666668
-350.0   60.0   0.0
-400.0   60.0   16.666666666666668
-350.0   90.0   16.666666666666668
-350.0   60.0   0.0
-400.0   90.0   0.0
-400.0   60.0   16.666666666666668
-350.0   60.0   16.666666666666668
-400.0   90.0   16.666666666666668
-400.0   60.0   33.333333333333336
-350.0   60.0   16.666666666666668
-350.0   90.0   16.666666666666668
-400.0   90.0   16.666666666666668
-350.0   90.0   33.333333333333336
-400.0   60.0   33.333333333333336
-400.0   90.0   33.333333333333336
-350.0   90.0   33.333333333333336
-400.0   90.0   16.666666666666668
-400.0   60.0   33.333333333333336
-350.0   90.0   33.333333333333336
-350.0   60.0   33.333333333333336
-350.0   60.0   16.666666666666668
-400.0   60.0   33.333333333333336
-350.0   90.0   33.333333333333336
-350.0   60.0   16.666666666666668
-400.0   90.0   16.666666666666668
-400.0   60.0   33.333333333333336
-350.0   60.0   33.333333333333336
-400.0   90.0   33.333333333333336
-400.0   60.0   50.0
-350.0   60.0   33.333333333333336
-350.0   90.0   33.333333333333336
-400.0   90.0   33.333333333333336
-350.0   90.0   50.0
-400.0   60.0   50.0
-400.0   90.0   50.0
-350.0   90.0   50.0
-400.0   90.0   33.333333333333336
-400.0   60.0   50.0
-350.0   90.0   50.0
-350.0   60.0   50.0
-350.0   60.0   33.333333333333336
-400.0   60.0   50.0
-350.0   90.0   50.0
-350.0   60.0   33.333333333333336
-400.0   90.0   33.333333333333336
-400.0   90.0   0.0
-350.0   90.0   0.0
-400.0   120.0   0.0
-400.0   90.0   16.666666666666668
-350.0   90.0   0.0
-350.0   120.0   0.0
-400.0   120.0   0.0
-350.0   120.0   16.666666666666668
-400.0   90.0   16.666666666666668
-400.0   120.0   16.666666666666668
-350.0   120.0   16.666666666666668
-400.0   120.0   0.0
-400.0   90.0   16.666666666666668
-350.0   120.0   16.666666666666668
-350.0   90.0   16.666666666666668
-350.0   90.0   0.0
-400.0   90.0   16.666666666666668
-350.0   120.0   16.666666666666668
-350.0   90.0   0.0
-400.0   120.0   0.0
-400.0   90.0   16.666666666666668
-350.0   90.0   16.666666666666668
-400.0   120.0   16.666666666666668
-400.0   90.0   33.333333333333336
-350.0   90.0   16.666666666666668
-350.0   120.0   16.666666666666668
-400.0   120.0   16.666666666666668
-350.0   120.0   33.333333333333336
-400.0   90.0   33.333333333333336
-400.0   120.0   33.333333333333336
-350.0   120.0   33.333333333333336
-400.0   120.0   16.666666666666668
-400.0   90.0   33.333333333333336
-350.0   120.0   33.333333333333336
-350.0   90.0   33.333333333333336
-350.0   90.0   16.666666666666668
-400.0   90.0   33.333333333333336
-350.0   120.0   33.333333333333336
-350.0   90.0   16.666666666666668
-400.0   120.0   16.666666666666668
-400.0   90.0   33.333333333333336
-350.0   90.0   33.333333333333336
-400.0   120.0   33.333333333333336
-400.0   90.0   50.0
-350.0   90.0   33.333333333333336
-350.0   120.0   33.333333333333336
-400.0   120.0   33.333333333333336
-350.0   120.0   50.0
-400.0   90.0   50.0
-400.0   120.0   50.0
-350.0   120.0   50.0
-400.0   120.0   33.333333333333336
-400.0   90.0   50.0
-350.0   120.0   50.0
-350.0   90.0   50.0
-350.0   90.0   33.333333333333336
-400.0   90.0   50.0
-350.0   120.0   50.0
-350.0   90.0   33.333333333333336
-400.0   120.0   33.333333333333336
-400.0   120.0   0.0
-350.0   120.0   0.0
-400.0   150.0   0.0
-400.0   120.0   16.666666666666668
-350.0   120.0   0.0
-350.0   150.0   0.0
-400.0   150.0   0.0
-350.0   150.0   16.666666666666668
-400.0   120.0   16.666666666666668
-400.0   150.0   16.666666666666668
-350.0   150.0   16.666666666666668
-400.0   150.0   0.0
-400.0   120.0   16.666666666666668
-350.0   150.0   16.666666666666668
-350.0   120.0   16.666666666666668
-350.0   120.0   0.0
-400.0   120.0   16.666666666666668
-350.0   150.0   16.666666666666668
-350.0   120.0   0.0
-400.0   150.0   0.0
-400.0   120.0   16.666666666666668
-350.0   120.0   16.666666666666668
-400.0   150.0   16.666666666666668
-400.0   120.0   33.333333333333336
-350.0   120.0   16.666666666666668
-350.0   150.0   16.666666666666668
-400.0   150.0   16.666666666666668
-350.0   150.0   33.333333333333336
-400.0   120.0   33.333333333333336
-400.0   150.0   33.333333333333336
-350.0   150.0   33.333333333333336
-400.0   150.0   16.666666666666668
-400.0   120.0   33.333333333333336
-350.0   150.0   33.333333333333336
-350.0   120.0   33.333333333333336
-350.0   120.0   16.666666666666668
-400.0   120.0   33.333333333333336
-350.0   150.0   33.333333333333336
-350.0   120.0   16.666666666666668
-400.0   150.0   16.666666666666668
-400.0   120.0   33.333333333333336
-350.0   120.0   33.333333333333336
-400.0   150.0   33.333333333333336
-400.0   120.0   50.0
-350.0   120.0   33.333333333333336
-350.0   150.0   33.333333333333336
-400.0   150.0   33.333333333333336
-350.0   150.0   50.0
-400.0   120.0   50.0
-400.0   150.0   50.0
-350.0   150.0   50.0
-400.0   150.0   33.333333333333336
-400.0   120.0   50.0
-350.0   150.0   50.0
-350.0   120.0   50.0
-350.0   120.0   33.333333333333336
-400.0   120.0   50.0
-350.0   150.0   50.0
-350.0   120.0   33.333333333333336
-400.0   150.0   33.333333333333336
-350.0   0.0   0.0
-300.0   0.0   0.0
-350.0   30.0   0.0
-350.0   0.0   16.666666666666668
-300.0   0.0   0.0
-300.0   30.0   0.0
-350.0   30.0   0.0
-300.0   30.0   16.666666666666668
-350.0   0.0   16.666666666666668
-350.0   30.0   16.666666666666668
-300.0   30.0   16.666666666666668
-350.0   30.0   0.0
-350.0   0.0   16.666666666666668
-300.0   30.0   16.666666666666668
-300.0   0.0   16.666666666666668
-300.0   0.0   0.0
-350.0   0.0   16.666666666666668
-300.0   30.0   16.666666666666668
-300.0   0.0   0.0
-350.0   30.0   0.0
-350.0   0.0   16.666666666666668
-300.0   0.0   16.666666666666668
-350.0   30.0   16.666666666666668
-350.0   0.0   33.333333333333336
-300.0   0.0   16.666666666666668
-300.0   30.0   16.666666666666668
-350.0   30.0   16.666666666666668
-300.0   30.0   33.333333333333336
-350.0   0.0   33.333333333333336
-350.0   30.0   33.333333333333336
-300.0   30.0   33.333333333333336
-350.0   30.0   16.666666666666668
-350.0   0.0   33.333333333333336
-300.0   30.0   33.333333333333336
-300.0   0.0   33.333333333333336
-300.0   0.0   16.666666666666668
-350.0   0.0   33.333333333333336
-300.0   30.0   33.333333333333336
-300.0   0.0   16.666666666666668
-350.0   30.0   16.666666666666668
-350.0   0.0   33.333333333333336
-300.0   0.0   33.333333333333336
-350.0   30.0   33.333333333333336
-350.0   0.0   50.0
-300.0   0.0   33.333333333333336
-300.0   30.0   33.333333333333336
-350.0   30.0   33.333333333333336
-300.0   30.0   50.0
-350.0   0.0   50.0
-350.0   30.0   50.0
-300.0   30.0   50.0
-350.0   30.0   33.333333333333336
-350.0   0.0   50.0
-300.0   30.0   50.0
-300.0   0.0   50.0
-300.0   0.0   33.333333333333336
-350.0   0.0   50.0
-300.0   30.0   50.0
-300.0   0.0   33.333333333333336
-350.0   30.0   33.333333333333336
-350.0   30.0   0.0
-300.0   30.0   0.0
-350.0   60.0   0.0
-350.0   30.0   16.666666666666668
-300.0   30.0   0.0
-300.0   60.0   0.0
-350.0   60.0   0.0
-300.0   60.0   16.666666666666668
-350.0   30.0   16.666666666666668
-350.0   60.0   16.666666666666668
-300.0   60.0   16.666666666666668
-350.0   60.0   0.0
-350.0   30.0   16.666666666666668
-300.0   60.0   16.666666666666668
-300.0   30.0   16.666666666666668
-300.0   30.0   0.0
-350.0   30.0   16.666666666666668
-300.0   60.0   16.666666666666668
-300.0   30.0   0.0
-350.0   60.0   0.0
-350.0   30.0   16.666666666666668
-300.0   30.0   16.666666666666668
-350.0   60.0   16.666666666666668
-350.0   30.0   33.333333333333336
-300.0   30.0   16.666666666666668
-300.0   60.0   16.666666666666668
-350.0   60.0   16.666666666666668
-300.0   60.0   33.333333333333336
-350.0   30.0   33.333333333333336
-350.0   60.0   33.333333333333336
-300.0   60.0   33.333333333333336
-350.0   60.0   16.666666666666668
-350.0   30.0   33.333333333333336
-300.0   60.0   33.333333333333336
-300.0   30.0   33.333333333333336
-300.0   30.0   16.666666666666668
-350.0   30.0   33.333333333333336
-300.0   60.0   33.333333333333336
-300.0   30.0   16.666666666666668
-350.0   60.0   16.666666666666668
-350.0   30.0   33.333333333333336
-300.0   30.0   33.333333333333336
-350.0   60.0   33.333333333333336
-350.0   30.0   50.0
-300.0   30.0   33.333333333333336
-300.0   60.0   33.333333333333336
-350.0   60.0   33.333333333333336
-300.0   60.0   50.0
-350.0   30.0   50.0
-350.0   60.0   50.0
-300.0   60.0   50.0
-350.0   60.0   33.333333333333336
-350.0   30.0   50.0
-300.0   60.0   50.0
-300.0   30.0   50.0
-300.0   30.0   33.333333333333336
-350.0   30.0   50.0
-300.0   60.0   50.0
-300.0   30.0   33.333333333333336
-350.0   60.0   33.333333333333336
-350.0   60.0   0.0
-300.0   60.0   0.0
-350.0   90.0   0.0
-350.0   60.0   16.666666666666668
-300.0   60.0   0.0
-300.0   90.0   0.0
-350.0   90.0   0.0
-300.0   90.0   16.666666666666668
-350.0   60.0   16.666666666666668
-350.0   90.0   16.666666666666668
-300.0   90.0   16.666666666666668
-350.0   90.0   0.0
-350.0   60.0   16.666666666666668
-300.0   90.0   16.666666666666668
-300.0   60.0   16.666666666666668
-300.0   60.0   0.0
-350.0   60.0   16.666666666666668
-300.0   90.0   16.666666666666668
-300.0   60.0   0.0
-350.0   90.0   0.0
-350.0   60.0   16.666666666666668
-300.0   60.0   16.666666666666668
-350.0   90.0   16.666666666666668
-350.0   60.0   33.333333333333336
-300.0   60.0   16.666666666666668
-300.0   90.0   16.666666666666668
-350.0   90.0   16.666666666666668
-300.0   90.0   33.333333333333336
-350.0   60.0   33.333333333333336
-350.0   90.0   33.333333333333336
-300.0   90.0   33.333333333333336
-350.0   90.0   16.666666666666668
-350.0   60.0   33.333333333333336
-300.0   90.0   33.333333333333336
-300.0   60.0   33.333333333333336
-300.0   60.0   16.666666666666668
-350.0   60.0   33.333333333333336
-300.0   90.0   33.333333333333336
-300.0   60.0   16.666666666666668
-350.0   90.0   16.666666666666668
-350.0   60.0   33.333333333333336
-300.0   60.0   33.333333333333336
-350.0   90.0   33.333333333333336
-350.0   60.0   50.0
-300.0   60.0   33.333333333333336
-300.0   90.0   33.333333333333336
-350.0   90.0   33.333333333333336
-300.0   90.0   50.0
-350.0   60.0   50.0
-350.0   90.0   50.0
-300.0   90.0   50.0
-350.0   90.0   33.333333333333336
-350.0   60.0   50.0
-300.0   90.0   50.0
-300.0   60.0   50.0
-300.0   60.0   33.333333333333336
-350.0   60.0   50.0
-300.0   90.0   50.0
-300.0   60.0   33.333333333333336
-350.0   90.0   33.333333333333336
-350.0   90.0   0.0
-300.0   90.0   0.0
-350.0   120.0   0.0
-350.0   90.0   16.666666666666668
-300.0   90.0   0.0
-300.0   120.0   0.0
-350.0   120.0   0.0
-300.0   120.0   16.666666666666668
-350.0   90.0   16.666666666666668
-350.0   120.0   16.666666666666668
-300.0   120.0   16.666666666666668
-350.0   120.0   0.0
-350.0   90.0   16.666666666666668
-300.0   120.0   16.666666666666668
-300.0   90.0   16.666666666666668
-300.0   90.0   0.0
-350.0   90.0   16.666666666666668
-300.0   120.0   16.666666666666668
-300.0   90.0   0.0
-350.0   120.0   0.0
-350.0   90.0   16.666666666666668
-300.0   90.0   16.666666666666668
-350.0   120.0   16.666666666666668
-350.0   90.0   33.333333333333336
-300.0   90.0   16.666666666666668
-300.0   120.0   16.666666666666668
-350.0   120.0   16.666666666666668
-300.0   120.0   33.333333333333336
-350.0   90.0   33.333333333333336
-350.0   120.0   33.333333333333336
-300.0   120.0   33.333333333333336
-350.0   120.0   16.666666666666668
-350.0   90.0   33.333333333333336
-300.0   120.0   33.333333333333336
-300.0   90.0   33.333333333333336
-300.0   90.0   16.666666666666668
-350.0   90.0   33.333333333333336
-300.0   120.0   33.333333333333336
-300.0   90.0   16.666666666666668
-350.0   120.0   16.666666666666668
-350.0   90.0   33.333333333333336
-300.0   90.0   33.333333333333336
-350.0   120.0   33.333333333333336
-350.0   90.0   50.0
-300.0   90.0   33.333333333333336
-300.0   120.0   33.333333333333336
-350.0   120.0   33.333333333333336
-300.0   120.0   50.0
-350.0   90.0   50.0
-350.0   120.0   50.0
-300.0   120.0   50.0
-350.0   120.0   33.333333333333336
-350.0   90.0   50.0
-300.0   120.0   50.0
-300.0   90.0   50.0
-300.0   90.0   33.333333333333336
-350.0   90.0   50.0
-300.0   120.0   50.0
-300.0   90.0   33.333333333333336
-350.0   120.0   33.333333333333336
-350.0   120.0   0.0
-300.0   120.0   0.0
-350.0   150.0   0.0
-350.0   120.0   16.666666666666668
-300.0   120.0   0.0
-300.0   150.0   0.0
-350.0   150.0   0.0
-300.0   150.0   16.666666666666668
-350.0   120.0   16.666666666666668
-350.0   150.0   16.666666666666668
-300.0   150.0   16.666666666666668
-350.0   150.0   0.0
-350.0   120.0   16.666666666666668
-300.0   150.0   16.666666666666668
-300.0   120.0   16.666666666666668
-300.0   120.0   0.0
-350.0   120.0   16.666666666666668
-300.0   150.0   16.666666666666668
-300.0   120.0   0.0
-350.0   150.0   0.0
-350.0   120.0   16.666666666666668
-300.0   120.0   16.666666666666668
-350.0   150.0   16.666666666666668
-350.0   120.0   33.333333333333336
-300.0   120.0   16.666666666666668
-300.0   150.0   16.666666666666668
-350.0   150.0   16.666666666666668
-300.0   150.0   33.333333333333336
-350.0   120.0   33.333333333333336
-350.0   150.0   33.333333333333336
-300.0   150.0   33.333333333333336
-350.0   150.0   16.666666666666668
-350.0   120.0   33.333333333333336
-300.0   150.0   33.333333333333336
-300.0   120.0   33.333333333333336
-300.0   120.0   16.666666666666668
-350.0   120.0   33.333333333333336
-300.0   150.0   33.333333333333336
-300.0   120.0   16.666666666666668
-350.0   150.0   16.666666666666668
-350.0   120.0   33.333333333333336
-300.0   120.0   33.333333333333336
-350.0   150.0   33.333333333333336
-350.0   120.0   50.0
-300.0   120.0   33.333333333333336
-300.0   150.0   33.333333333333336
-350.0   150.0   33.333333333333336
-300.0   150.0   50.0
-350.0   120.0   50.0
-350.0   150.0   50.0
-300.0   150.0   50.0
-350.0   150.0   33.333333333333336
-350.0   120.0   50.0
-300.0   150.0   50.0
-300.0   120.0   50.0
-300.0   120.0   33.333333333333336
-350.0   120.0   50.0
-300.0   150.0   50.0
-300.0   120.0   33.333333333333336
-350.0   150.0   33.333333333333336
-300.0   0.0   0.0
-250.0   0.0   0.0
-300.0   30.0   0.0
-300.0   0.0   16.666666666666668
-250.0   0.0   0.0
-250.0   30.0   0.0
-300.0   30.0   0.0
-250.0   30.0   16.666666666666668
-300.0   0.0   16.666666666666668
-300.0   30.0   16.666666666666668
-250.0   30.0   16.666666666666668
-300.0   30.0   0.0
-300.0   0.0   16.666666666666668
-250.0   30.0   16.666666666666668
-250.0   0.0   16.666666666666668
-250.0   0.0   0.0
-300.0   0.0   16.666666666666668
-250.0   30.0   16.666666666666668
-250.0   0.0   0.0
-300.0   30.0   0.0
-300.0   0.0   16.666666666666668
-250.0   0.0   16.666666666666668
-300.0   30.0   16.666666666666668
-300.0   0.0   33.333333333333336
-250.0   0.0   16.666666666666668
-250.0   30.0   16.666666666666668
-300.0   30.0   16.666666666666668
-250.0   30.0   33.333333333333336
-300.0   0.0   33.333333333333336
-300.0   30.0   33.333333333333336
-250.0   30.0   33.333333333333336
-300.0   30.0   16.666666666666668
-300.0   0.0   33.333333333333336
-250.0   30.0   33.333333333333336
-250.0   0.0   33.333333333333336
-250.0   0.0   16.666666666666668
-300.0   0.0   33.333333333333336
-250.0   30.0   33.333333333333336
-250.0   0.0   16.666666666666668
-300.0   30.0   16.666666666666668
-300.0   0.0   33.333333333333336
-250.0   0.0   33.333333333333336
-300.0   30.0   33.333333333333336
-300.0   0.0   50.0
-250.0   0.0   33.333333333333336
-250.0   30.0   33.333333333333336
-300.0   30.0   33.333333333333336
-250.0   30.0   50.0
-300.0   0.0   50.0
-300.0   30.0   50.0
-250.0   30.0   50.0
-300.0   30.0   33.333333333333336
-300.0   0.0   50.0
-250.0   30.0   50.0
-250.0   0.0   50.0
-250.0   0.0   33.333333333333336
-300.0   0.0   50.0
-250.0   30.0   50.0
-250.0   0.0   33.333333333333336
-300.0   30.0   33.333333333333336
-300.0   30.0   0.0
-250.0   30.0   0.0
-300.0   60.0   0.0
-300.0   30.0   16.666666666666668
-250.0   30.0   0.0
-250.0   60.0   0.0
-300.0   60.0   0.0
-250.0   60.0   16.666666666666668
-300.0   30.0   16.666666666666668
-300.0   60.0   16.666666666666668
-250.0   60.0   16.666666666666668
-300.0   60.0   0.0
-300.0   30.0   16.666666666666668
-250.0   60.0   16.666666666666668
-250.0   30.0   16.666666666666668
-250.0   30.0   0.0
-300.0   30.0   16.666666666666668
-250.0   60.0   16.666666666666668
-250.0   30.0   0.0
-300.0   60.0   0.0
-300.0   30.0   16.666666666666668
-250.0   30.0   16.666666666666668
-300.0   60.0   16.666666666666668
-300.0   30.0   33.333333333333336
-250.0   30.0   16.666666666666668
-250.0   60.0   16.666666666666668
-300.0   60.0   16.666666666666668
-250.0   60.0   33.333333333333336
-300.0   30.0   33.333333333333336
-300.0   60.0   33.333333333333336
-250.0   60.0   33.333333333333336
-300.0   60.0   16.666666666666668
-300.0   30.0   33.333333333333336
-250.0   60.0   33.333333333333336
-250.0   30.0   33.333333333333336
-250.0   30.0   16.666666666666668
-300.0   30.0   33.333333333333336
-250.0   60.0   33.333333333333336
-250.0   30.0   16.666666666666668
-300.0   60.0   16.666666666666668
-300.0   30.0   33.333333333333336
-250.0   30.0   33.333333333333336
-300.0   60.0   33.333333333333336
-300.0   30.0   50.0
-250.0   30.0   33.333333333333336
-250.0   60.0   33.333333333333336
-300.0   60.0   33.333333333333336
-250.0   60.0   50.0
-300.0   30.0   50.0
-300.0   60.0   50.0
-250.0   60.0   50.0
-300.0   60.0   33.333333333333336
-300.0   30.0   50.0
-250.0   60.0   50.0
-250.0   30.0   50.0
-250.0   30.0   33.333333333333336
-300.0   30.0   50.0
-250.0   60.0   50.0
-250.0   30.0   33.333333333333336
-300.0   60.0   33.333333333333336
-300.0   60.0   0.0
-250.0   60.0   0.0
-300.0   90.0   0.0
-300.0   60.0   16.666666666666668
-250.0   60.0   0.0
-250.0   90.0   0.0
-300.0   90.0   0.0
-250.0   90.0   16.666666666666668
-300.0   60.0   16.666666666666668
-300.0   90.0   16.666666666666668
-250.0   90.0   16.666666666666668
-300.0   90.0   0.0
-300.0   60.0   16.666666666666668
-250.0   90.0   16.666666666666668
-250.0   60.0   16.666666666666668
-250.0   60.0   0.0
-300.0   60.0   16.666666666666668
-250.0   90.0   16.666666666666668
-250.0   60.0   0.0
-300.0   90.0   0.0
-300.0   60.0   16.666666666666668
-250.0   60.0   16.666666666666668
-300.0   90.0   16.666666666666668
-300.0   60.0   33.333333333333336
-250.0   60.0   16.666666666666668
-250.0   90.0   16.666666666666668
-300.0   90.0   16.666666666666668
-250.0   90.0   33.333333333333336
-300.0   60.0   33.333333333333336
-300.0   90.0   33.333333333333336
-250.0   90.0   33.333333333333336
-300.0   90.0   16.666666666666668
-300.0   60.0   33.333333333333336
-250.0   90.0   33.333333333333336
-250.0   60.0   33.333333333333336
-250.0   60.0   16.666666666666668
-300.0   60.0   33.333333333333336
-250.0   90.0   33.333333333333336
-250.0   60.0   16.666666666666668
-300.0   90.0   16.666666666666668
-300.0   60.0   33.333333333333336
-250.0   60.0   33.333333333333336
-300.0   90.0   33.333333333333336
-300.0   60.0   50.0
-250.0   60.0   33.333333333333336
-250.0   90.0   33.333333333333336
-300.0   90.0   33.333333333333336
-250.0   90.0   50.0
-300.0   60.0   50.0
-300.0   90.0   50.0
-250.0   90.0   50.0
-300.0   90.0   33.333333333333336
-300.0   60.0   50.0
-250.0   90.0   50.0
-250.0   60.0   50.0
-250.0   60.0   33.333333333333336
-300.0   60.0   50.0
-250.0   90.0   50.0
-250.0   60.0   33.333333333333336
-300.0   90.0   33.333333333333336
-300.0   90.0   0.0
-250.0   90.0   0.0
-300.0   120.0   0.0
-300.0   90.0   16.666666666666668
-250.0   90.0   0.0
-250.0   120.0   0.0
-300.0   120.0   0.0
-250.0   120.0   16.666666666666668
-300.0   90.0   16.666666666666668
-300.0   120.0   16.666666666666668
-250.0   120.0   16.666666666666668
-300.0   120.0   0.0
-300.0   90.0   16.666666666666668
-250.0   120.0   16.666666666666668
-250.0   90.0   16.666666666666668
-250.0   90.0   0.0
-300.0   90.0   16.666666666666668
-250.0   120.0   16.666666666666668
-250.0   90.0   0.0
-300.0   120.0   0.0
-300.0   90.0   16.666666666666668
-250.0   90.0   16.666666666666668
-300.0   120.0   16.666666666666668
-300.0   90.0   33.333333333333336
-250.0   90.0   16.666666666666668
-250.0   120.0   16.666666666666668
-300.0   120.0   16.666666666666668
-250.0   120.0   33.333333333333336
-300.0   90.0   33.333333333333336
-300.0   120.0   33.333333333333336
-250.0   120.0   33.333333333333336
-300.0   120.0   16.666666666666668
-300.0   90.0   33.333333333333336
-250.0   120.0   33.333333333333336
-250.0   90.0   33.333333333333336
-250.0   90.0   16.666666666666668
-300.0   90.0   33.333333333333336
-250.0   120.0   33.333333333333336
-250.0   90.0   16.666666666666668
-300.0   120.0   16.666666666666668
-300.0   90.0   33.333333333333336
-250.0   90.0   33.333333333333336
-300.0   120.0   33.333333333333336
-300.0   90.0   50.0
-250.0   90.0   33.333333333333336
-250.0   120.0   33.333333333333336
-300.0   120.0   33.333333333333336
-250.0   120.0   50.0
-300.0   90.0   50.0
-300.0   120.0   50.0
-250.0   120.0   50.0
-300.0   120.0   33.333333333333336
-300.0   90.0   50.0
-250.0   120.0   50.0
-250.0   90.0   50.0
-250.0   90.0   33.333333333333336
-300.0   90.0   50.0
-250.0   120.0   50.0
-250.0   90.0   33.333333333333336
-300.0   120.0   33.333333333333336
-300.0   120.0   0.0
-250.0   120.0   0.0
-300.0   150.0   0.0
-300.0   120.0   16.666666666666668
-250.0   120.0   0.0
-250.0   150.0   0.0
-300.0   150.0   0.0
-250.0   150.0   16.666666666666668
-300.0   120.0   16.666666666666668
-300.0   150.0   16.666666666666668
-250.0   150.0   16.666666666666668
-300.0   150.0   0.0
-300.0   120.0   16.666666666666668
-250.0   150.0   16.666666666666668
-250.0   120.0   16.666666666666668
-250.0   120.0   0.0
-300.0   120.0   16.666666666666668
-250.0   150.0   16.666666666666668
-250.0   120.0   0.0
-300.0   150.0   0.0
-300.0   120.0   16.666666666666668
-250.0   120.0   16.666666666666668
-300.0   150.0   16.666666666666668
-300.0   120.0   33.333333333333336
-250.0   120.0   16.666666666666668
-250.0   150.0   16.666666666666668
-300.0   150.0   16.666666666666668
-250.0   150.0   33.333333333333336
-300.0   120.0   33.333333333333336
-300.0   150.0   33.333333333333336
-250.0   150.0   33.333333333333336
-300.0   150.0   16.666666666666668
-300.0   120.0   33.333333333333336
-250.0   150.0   33.333333333333336
-250.0   120.0   33.333333333333336
-250.0   120.0   16.666666666666668
-300.0   120.0   33.333333333333336
-250.0   150.0   33.333333333333336
-250.0   120.0   16.666666666666668
-300.0   150.0   16.666666666666668
-300.0   120.0   33.333333333333336
-250.0   120.0   33.333333333333336
-300.0   150.0   33.333333333333336
-300.0   120.0   50.0
-250.0   120.0   33.333333333333336
-250.0   150.0   33.333333333333336
-300.0   150.0   33.333333333333336
-250.0   150.0   50.0
-300.0   120.0   50.0
-300.0   150.0   50.0
-250.0   150.0   50.0
-300.0   150.0   33.333333333333336
-300.0   120.0   50.0
-250.0   150.0   50.0
-250.0   120.0   50.0
-250.0   120.0   33.333333333333336
-300.0   120.0   50.0
-250.0   150.0   50.0
-250.0   120.0   33.333333333333336
-300.0   150.0   33.333333333333336
-250.0   0.0   0.0
-200.0   0.0   0.0
-250.0   30.0   0.0
-250.0   0.0   16.666666666666668
-200.0   0.0   0.0
-200.0   30.0   0.0
-250.0   30.0   0.0
-200.0   30.0   16.666666666666668
-250.0   0.0   16.666666666666668
-250.0   30.0   16.666666666666668
-200.0   30.0   16.666666666666668
-250.0   30.0   0.0
-250.0   0.0   16.666666666666668
-200.0   30.0   16.666666666666668
-200.0   0.0   16.666666666666668
-200.0   0.0   0.0
-250.0   0.0   16.666666666666668
-200.0   30.0   16.666666666666668
-200.0   0.0   0.0
-250.0   30.0   0.0
-250.0   0.0   16.666666666666668
-200.0   0.0   16.666666666666668
-250.0   30.0   16.666666666666668
-250.0   0.0   33.333333333333336
-200.0   0.0   16.666666666666668
-200.0   30.0   16.666666666666668
-250.0   30.0   16.666666666666668
-200.0   30.0   33.333333333333336
-250.0   0.0   33.333333333333336
-250.0   30.0   33.333333333333336
-200.0   30.0   33.333333333333336
-250.0   30.0   16.666666666666668
-250.0   0.0   33.333333333333336
-200.0   30.0   33.333333333333336
-200.0   0.0   33.333333333333336
-200.0   0.0   16.666666666666668
-250.0   0.0   33.333333333333336
-200.0   30.0   33.333333333333336
-200.0   0.0   16.666666666666668
-250.0   30.0   16.666666666666668
-250.0   0.0   33.333333333333336
-200.0   0.0   33.333333333333336
-250.0   30.0   33.333333333333336
-250.0   0.0   50.0
-200.0   0.0   33.333333333333336
-200.0   30.0   33.333333333333336
-250.0   30.0   33.333333333333336
-200.0   30.0   50.0
-250.0   0.0   50.0
-250.0   30.0   50.0
-200.0   30.0   50.0
-250.0   30.0   33.333333333333336
-250.0   0.0   50.0
-200.0   30.0   50.0
-200.0   0.0   50.0
-200.0   0.0   33.333333333333336
-250.0   0.0   50.0
-200.0   30.0   50.0
-200.0   0.0   33.333333333333336
-250.0   30.0   33.333333333333336
-250.0   30.0   0.0
-200.0   30.0   0.0
-250.0   60.0   0.0
-250.0   30.0   16.666666666666668
-200.0   30.0   0.0
-200.0   60.0   0.0
-250.0   60.0   0.0
-200.0   60.0   16.666666666666668
-250.0   30.0   16.666666666666668
-250.0   60.0   16.666666666666668
-200.0   60.0   16.666666666666668
-250.0   60.0   0.0
-250.0   30.0   16.666666666666668
-200.0   60.0   16.666666666666668
-200.0   30.0   16.666666666666668
-200.0   30.0   0.0
-250.0   30.0   16.666666666666668
-200.0   60.0   16.666666666666668
-200.0   30.0   0.0
-250.0   60.0   0.0
-250.0   30.0   16.666666666666668
-200.0   30.0   16.666666666666668
-250.0   60.0   16.666666666666668
-250.0   30.0   33.333333333333336
-200.0   30.0   16.666666666666668
-200.0   60.0   16.666666666666668
-250.0   60.0   16.666666666666668
-200.0   60.0   33.333333333333336
-250.0   30.0   33.333333333333336
-250.0   60.0   33.333333333333336
-200.0   60.0   33.333333333333336
-250.0   60.0   16.666666666666668
-250.0   30.0   33.333333333333336
-200.0   60.0   33.333333333333336
-200.0   30.0   33.333333333333336
-200.0   30.0   16.666666666666668
-250.0   30.0   33.333333333333336
-200.0   60.0   33.333333333333336
-200.0   30.0   16.666666666666668
-250.0   60.0   16.666666666666668
-250.0   30.0   33.333333333333336
-200.0   30.0   33.333333333333336
-250.0   60.0   33.333333333333336
-250.0   30.0   50.0
-200.0   30.0   33.333333333333336
-200.0   60.0   33.333333333333336
-250.0   60.0   33.333333333333336
-200.0   60.0   50.0
-250.0   30.0   50.0
-250.0   60.0   50.0
-200.0   60.0   50.0
-250.0   60.0   33.333333333333336
-250.0   30.0   50.0
-200.0   60.0   50.0
-200.0   30.0   50.0
-200.0   30.0   33.333333333333336
-250.0   30.0   50.0
-200.0   60.0   50.0
-200.0   30.0   33.333333333333336
-250.0   60.0   33.333333333333336
-250.0   60.0   0.0
-200.0   60.0   0.0
-250.0   90.0   0.0
-250.0   60.0   16.666666666666668
-200.0   60.0   0.0
-200.0   90.0   0.0
-250.0   90.0   0.0
-200.0   90.0   16.666666666666668
-250.0   60.0   16.666666666666668
-250.0   90.0   16.666666666666668
-200.0   90.0   16.666666666666668
-250.0   90.0   0.0
-250.0   60.0   16.666666666666668
-200.0   90.0   16.666666666666668
-200.0   60.0   16.666666666666668
-200.0   60.0   0.0
-250.0   60.0   16.666666666666668
-200.0   90.0   16.666666666666668
-200.0   60.0   0.0
-250.0   90.0   0.0
-250.0   60.0   16.666666666666668
-200.0   60.0   16.666666666666668
-250.0   90.0   16.666666666666668
-250.0   60.0   33.333333333333336
-200.0   60.0   16.666666666666668
-200.0   90.0   16.666666666666668
-250.0   90.0   16.666666666666668
-200.0   90.0   33.333333333333336
-250.0   60.0   33.333333333333336
-250.0   90.0   33.333333333333336
-200.0   90.0   33.333333333333336
-250.0   90.0   16.666666666666668
-250.0   60.0   33.333333333333336
-200.0   90.0   33.333333333333336
-200.0   60.0   33.333333333333336
-200.0   60.0   16.666666666666668
-250.0   60.0   33.333333333333336
-200.0   90.0   33.333333333333336
-200.0   60.0   16.666666666666668
-250.0   90.0   16.666666666666668
-250.0   60.0   33.333333333333336
-200.0   60.0   33.333333333333336
-250.0   90.0   33.333333333333336
-250.0   60.0   50.0
-200.0   60.0   33.333333333333336
-200.0   90.0   33.333333333333336
-250.0   90.0   33.333333333333336
-200.0   90.0   50.0
-250.0   60.0   50.0
-250.0   90.0   50.0
-200.0   90.0   50.0
-250.0   90.0   33.333333333333336
-250.0   60.0   50.0
-200.0   90.0   50.0
-200.0   60.0   50.0
-200.0   60.0   33.333333333333336
-250.0   60.0   50.0
-200.0   90.0   50.0
-200.0   60.0   33.333333333333336
-250.0   90.0   33.333333333333336
-250.0   90.0   0.0
-200.0   90.0   0.0
-250.0   120.0   0.0
-250.0   90.0   16.666666666666668
-200.0   90.0   0.0
-200.0   120.0   0.0
-250.0   120.0   0.0
-200.0   120.0   16.666666666666668
-250.0   90.0   16.666666666666668
-250.0   120.0   16.666666666666668
-200.0   120.0   16.666666666666668
-250.0   120.0   0.0
-250.0   90.0   16.666666666666668
-200.0   120.0   16.666666666666668
-200.0   90.0   16.666666666666668
-200.0   90.0   0.0
-250.0   90.0   16.666666666666668
-200.0   120.0   16.666666666666668
-200.0   90.0   0.0
-250.0   120.0   0.0
-250.0   90.0   16.666666666666668
-200.0   90.0   16.666666666666668
-250.0   120.0   16.666666666666668
-250.0   90.0   33.333333333333336
-200.0   90.0   16.666666666666668
-200.0   120.0   16.666666666666668
-250.0   120.0   16.666666666666668
-200.0   120.0   33.333333333333336
-250.0   90.0   33.333333333333336
-250.0   120.0   33.333333333333336
-200.0   120.0   33.333333333333336
-250.0   120.0   16.666666666666668
-250.0   90.0   33.333333333333336
-200.0   120.0   33.333333333333336
-200.0   90.0   33.333333333333336
-200.0   90.0   16.666666666666668
-250.0   90.0   33.333333333333336
-200.0   120.0   33.333333333333336
-200.0   90.0   16.666666666666668
-250.0   120.0   16.666666666666668
-250.0   90.0   33.333333333333336
-200.0   90.0   33.333333333333336
-250.0   120.0   33.333333333333336
-250.0   90.0   50.0
-200.0   90.0   33.333333333333336
-200.0   120.0   33.333333333333336
-250.0   120.0   33.333333333333336
-200.0   120.0   50.0
-250.0   90.0   50.0
-250.0   120.0   50.0
-200.0   120.0   50.0
-250.0   120.0   33.333333333333336
-250.0   90.0   50.0
-200.0   120.0   50.0
-200.0   90.0   50.0
-200.0   90.0   33.333333333333336
-250.0   90.0   50.0
-200.0   120.0   50.0
-200.0   90.0   33.333333333333336
-250.0   120.0   33.333333333333336
-250.0   120.0   0.0
-200.0   120.0   0.0
-250.0   150.0   0.0
-250.0   120.0   16.666666666666668
-200.0   120.0   0.0
-200.0   150.0   0.0
-250.0   150.0   0.0
-200.0   150.0   16.666666666666668
-250.0   120.0   16.666666666666668
-250.0   150.0   16.666666666666668
-200.0   150.0   16.666666666666668
-250.0   150.0   0.0
-250.0   120.0   16.666666666666668
-200.0   150.0   16.666666666666668
-200.0   120.0   16.666666666666668
-200.0   120.0   0.0
-250.0   120.0   16.666666666666668
-200.0   150.0   16.666666666666668
-200.0   120.0   0.0
-250.0   150.0   0.0
-250.0   120.0   16.666666666666668
-200.0   120.0   16.666666666666668
-250.0   150.0   16.666666666666668
-250.0   120.0   33.333333333333336
-200.0   120.0   16.666666666666668
-200.0   150.0   16.666666666666668
-250.0   150.0   16.666666666666668
-200.0   150.0   33.333333333333336
-250.0   120.0   33.333333333333336
-250.0   150.0   33.333333333333336
-200.0   150.0   33.333333333333336
-250.0   150.0   16.666666666666668
-250.0   120.0   33.333333333333336
-200.0   150.0   33.333333333333336
-200.0   120.0   33.333333333333336
-200.0   120.0   16.666666666666668
-250.0   120.0   33.333333333333336
-200.0   150.0   33.333333333333336
-200.0   120.0   16.666666666666668
-250.0   150.0   16.666666666666668
-250.0   120.0   33.333333333333336
-200.0   120.0   33.333333333333336
-250.0   150.0   33.333333333333336
-250.0   120.0   50.0
-200.0   120.0   33.333333333333336
-200.0   150.0   33.333333333333336
-250.0   150.0   33.333333333333336
-200.0   150.0   50.0
-250.0   120.0   50.0
-250.0   150.0   50.0
-200.0   150.0   50.0
-250.0   150.0   33.333333333333336
-250.0   120.0   50.0
-200.0   150.0   50.0
-200.0   120.0   50.0
-200.0   120.0   33.333333333333336
-250.0   120.0   50.0
-200.0   150.0   50.0
-200.0   120.0   33.333333333333336
-250.0   150.0   33.333333333333336
-200.0   0.0   0.0
-150.0   0.0   0.0
-200.0   30.0   0.0
-200.0   0.0   16.666666666666668
-150.0   0.0   0.0
-150.0   30.0   0.0
-200.0   30.0   0.0
-150.0   30.0   16.666666666666668
-200.0   0.0   16.666666666666668
-200.0   30.0   16.666666666666668
-150.0   30.0   16.666666666666668
-200.0   30.0   0.0
-200.0   0.0   16.666666666666668
-150.0   30.0   16.666666666666668
-150.0   0.0   16.666666666666668
-150.0   0.0   0.0
-200.0   0.0   16.666666666666668
-150.0   30.0   16.666666666666668
-150.0   0.0   0.0
-200.0   30.0   0.0
-200.0   0.0   16.666666666666668
-150.0   0.0   16.666666666666668
-200.0   30.0   16.666666666666668
-200.0   0.0   33.333333333333336
-150.0   0.0   16.666666666666668
-150.0   30.0   16.666666666666668
-200.0   30.0   16.666666666666668
-150.0   30.0   33.333333333333336
-200.0   0.0   33.333333333333336
-200.0   30.0   33.333333333333336
-150.0   30.0   33.333333333333336
-200.0   30.0   16.666666666666668
-200.0   0.0   33.333333333333336
-150.0   30.0   33.333333333333336
-150.0   0.0   33.333333333333336
-150.0   0.0   16.666666666666668
-200.0   0.0   33.333333333333336
-150.0   30.0   33.333333333333336
-150.0   0.0   16.666666666666668
-200.0   30.0   16.666666666666668
-200.0   0.0   33.333333333333336
-150.0   0.0   33.333333333333336
-200.0   30.0   33.333333333333336
-200.0   0.0   50.0
-150.0   0.0   33.333333333333336
-150.0   30.0   33.333333333333336
-200.0   30.0   33.333333333333336
-150.0   30.0   50.0
-200.0   0.0   50.0
-200.0   30.0   50.0
-150.0   30.0   50.0
-200.0   30.0   33.333333333333336
-200.0   0.0   50.0
-150.0   30.0   50.0
-150.0   0.0   50.0
-150.0   0.0   33.333333333333336
-200.0   0.0   50.0
-150.0   30.0   50.0
-150.0   0.0   33.333333333333336
-200.0   30.0   33.333333333333336
-200.0   30.0   0.0
-150.0   30.0   0.0
-200.0   60.0   0.0
-200.0   30.0   16.666666666666668
-150.0   30.0   0.0
-150.0   60.0   0.0
-200.0   60.0   0.0
-150.0   60.0   16.666666666666668
-200.0   30.0   16.666666666666668
-200.0   60.0   16.666666666666668
-150.0   60.0   16.666666666666668
-200.0   60.0   0.0
-200.0   30.0   16.666666666666668
-150.0   60.0   16.666666666666668
-150.0   30.0   16.666666666666668
-150.0   30.0   0.0
-200.0   30.0   16.666666666666668
-150.0   60.0   16.666666666666668
-150.0   30.0   0.0
-200.0   60.0   0.0
-200.0   30.0   16.666666666666668
-150.0   30.0   16.666666666666668
-200.0   60.0   16.666666666666668
-200.0   30.0   33.333333333333336
-150.0   30.0   16.666666666666668
-150.0   60.0   16.666666666666668
-200.0   60.0   16.666666666666668
-150.0   60.0   33.333333333333336
-200.0   30.0   33.333333333333336
-200.0   60.0   33.333333333333336
-150.0   60.0   33.333333333333336
-200.0   60.0   16.666666666666668
-200.0   30.0   33.333333333333336
-150.0   60.0   33.333333333333336
-150.0   30.0   33.333333333333336
-150.0   30.0   16.666666666666668
-200.0   30.0   33.333333333333336
-150.0   60.0   33.333333333333336
-150.0   30.0   16.666666666666668
-200.0   60.0   16.666666666666668
-200.0   30.0   33.333333333333336
-150.0   30.0   33.333333333333336
-200.0   60.0   33.333333333333336
-200.0   30.0   50.0
-150.0   30.0   33.333333333333336
-150.0   60.0   33.333333333333336
-200.0   60.0   33.333333333333336
-150.0   60.0   50.0
-200.0   30.0   50.0
-200.0   60.0   50.0
-150.0   60.0   50.0
-200.0   60.0   33.333333333333336
-200.0   30.0   50.0
-150.0   60.0   50.0
-150.0   30.0   50.0
-150.0   30.0   33.333333333333336
-200.0   30.0   50.0
-150.0   60.0   50.0
-150.0   30.0   33.333333333333336
-200.0   60.0   33.333333333333336
-200.0   60.0   0.0
-150.0   60.0   0.0
-200.0   90.0   0.0
-200.0   60.0   16.666666666666668
-150.0   60.0   0.0
-150.0   90.0   0.0
-200.0   90.0   0.0
-150.0   90.0   16.666666666666668
-200.0   60.0   16.666666666666668
-200.0   90.0   16.666666666666668
-150.0   90.0   16.666666666666668
-200.0   90.0   0.0
-200.0   60.0   16.666666666666668
-150.0   90.0   16.666666666666668
-150.0   60.0   16.666666666666668
-150.0   60.0   0.0
-200.0   60.0   16.666666666666668
-150.0   90.0   16.666666666666668
-150.0   60.0   0.0
-200.0   90.0   0.0
-200.0   60.0   16.666666666666668
-150.0   60.0   16.666666666666668
-200.0   90.0   16.666666666666668
-200.0   60.0   33.333333333333336
-150.0   60.0   16.666666666666668
-150.0   90.0   16.666666666666668
-200.0   90.0   16.666666666666668
-150.0   90.0   33.333333333333336
-200.0   60.0   33.333333333333336
-200.0   90.0   33.333333333333336
-150.0   90.0   33.333333333333336
-200.0   90.0   16.666666666666668
-200.0   60.0   33.333333333333336
-150.0   90.0   33.333333333333336
-150.0   60.0   33.333333333333336
-150.0   60.0   16.666666666666668
-200.0   60.0   33.333333333333336
-150.0   90.0   33.333333333333336
-150.0   60.0   16.666666666666668
-200.0   90.0   16.666666666666668
-200.0   60.0   33.333333333333336
-150.0   60.0   33.333333333333336
-200.0   90.0   33.333333333333336
-200.0   60.0   50.0
-150.0   60.0   33.333333333333336
-150.0   90.0   33.333333333333336
-200.0   90.0   33.333333333333336
-150.0   90.0   50.0
-200.0   60.0   50.0
-200.0   90.0   50.0
-150.0   90.0   50.0
-200.0   90.0   33.333333333333336
-200.0   60.0   50.0
-150.0   90.0   50.0
-150.0   60.0   50.0
-150.0   60.0   33.333333333333336
-200.0   60.0   50.0
-150.0   90.0   50.0
-150.0   60.0   33.333333333333336
-200.0   90.0   33.333333333333336
-200.0   90.0   0.0
-150.0   90.0   0.0
-200.0   120.0   0.0
-200.0   90.0   16.666666666666668
-150.0   90.0   0.0
-150.0   120.0   0.0
-200.0   120.0   0.0
-150.0   120.0   16.666666666666668
-200.0   90.0   16.666666666666668
-200.0   120.0   16.666666666666668
-150.0   120.0   16.666666666666668
-200.0   120.0   0.0
-200.0   90.0   16.666666666666668
-150.0   120.0   16.666666666666668
-150.0   90.0   16.666666666666668
-150.0   90.0   0.0
-200.0   90.0   16.666666666666668
-150.0   120.0   16.666666666666668
-150.0   90.0   0.0
-200.0   120.0   0.0
-200.0   90.0   16.666666666666668
-150.0   90.0   16.666666666666668
-200.0   120.0   16.666666666666668
-200.0   90.0   33.333333333333336
-150.0   90.0   16.666666666666668
-150.0   120.0   16.666666666666668
-200.0   120.0   16.666666666666668
-150.0   120.0   33.333333333333336
-200.0   90.0   33.333333333333336
-200.0   120.0   33.333333333333336
-150.0   120.0   33.333333333333336
-200.0   120.0   16.666666666666668
-200.0   90.0   33.333333333333336
-150.0   120.0   33.333333333333336
-150.0   90.0   33.333333333333336
-150.0   90.0   16.666666666666668
-200.0   90.0   33.333333333333336
-150.0   120.0   33.333333333333336
-150.0   90.0   16.666666666666668
-200.0   120.0   16.666666666666668
-200.0   90.0   33.333333333333336
-150.0   90.0   33.333333333333336
-200.0   120.0   33.333333333333336
-200.0   90.0   50.0
-150.0   90.0   33.333333333333336
-150.0   120.0   33.333333333333336
-200.0   120.0   33.333333333333336
-150.0   120.0   50.0
-200.0   90.0   50.0
-200.0   120.0   50.0
-150.0   120.0   50.0
-200.0   120.0   33.333333333333336
-200.0   90.0   50.0
-150.0   120.0   50.0
-150.0   90.0   50.0
-150.0   90.0   33.333333333333336
-200.0   90.0   50.0
-150.0   120.0   50.0
-150.0   90.0   33.333333333333336
-200.0   120.0   33.333333333333336
-200.0   120.0   0.0
-150.0   120.0   0.0
-200.0   150.0   0.0
-200.0   120.0   16.666666666666668
-150.0   120.0   0.0
-150.0   150.0   0.0
-200.0   150.0   0.0
-150.0   150.0   16.666666666666668
-200.0   120.0   16.666666666666668
-200.0   150.0   16.666666666666668
-150.0   150.0   16.666666666666668
-200.0   150.0   0.0
-200.0   120.0   16.666666666666668
-150.0   150.0   16.666666666666668
-150.0   120.0   16.666666666666668
-150.0   120.0   0.0
-200.0   120.0   16.666666666666668
-150.0   150.0   16.666666666666668
-150.0   120.0   0.0
-200.0   150.0   0.0
-200.0   120.0   16.666666666666668
-150.0   120.0   16.666666666666668
-200.0   150.0   16.666666666666668
-200.0   120.0   33.333333333333336
-150.0   120.0   16.666666666666668
-150.0   150.0   16.666666666666668
-200.0   150.0   16.666666666666668
-150.0   150.0   33.333333333333336
-200.0   120.0   33.333333333333336
-200.0   150.0   33.333333333333336
-150.0   150.0   33.333333333333336
-200.0   150.0   16.666666666666668
-200.0   120.0   33.333333333333336
-150.0   150.0   33.333333333333336
-150.0   120.0   33.333333333333336
-150.0   120.0   16.666666666666668
-200.0   120.0   33.333333333333336
-150.0   150.0   33.333333333333336
-150.0   120.0   16.666666666666668
-200.0   150.0   16.666666666666668
-200.0   120.0   33.333333333333336
-150.0   120.0   33.333333333333336
-200.0   150.0   33.333333333333336
-200.0   120.0   50.0
-150.0   120.0   33.333333333333336
-150.0   150.0   33.333333333333336
-200.0   150.0   33.333333333333336
-150.0   150.0   50.0
-200.0   120.0   50.0
-200.0   150.0   50.0
-150.0   150.0   50.0
-200.0   150.0   33.333333333333336
-200.0   120.0   50.0
-150.0   150.0   50.0
-150.0   120.0   50.0
-150.0   120.0   33.333333333333336
-200.0   120.0   50.0
-150.0   150.0   50.0
-150.0   120.0   33.333333333333336
-200.0   150.0   33.333333333333336
-150.0   0.0   0.0
-100.0   0.0   0.0
-150.0   30.0   0.0
-150.0   0.0   16.666666666666668
-100.0   0.0   0.0
-100.0   30.0   0.0
-150.0   30.0   0.0
-100.0   30.0   16.666666666666668
-150.0   0.0   16.666666666666668
-150.0   30.0   16.666666666666668
-100.0   30.0   16.666666666666668
-150.0   30.0   0.0
-150.0   0.0   16.666666666666668
-100.0   30.0   16.666666666666668
-100.0   0.0   16.666666666666668
-100.0   0.0   0.0
-150.0   0.0   16.666666666666668
-100.0   30.0   16.666666666666668
-100.0   0.0   0.0
-150.0   30.0   0.0
-150.0   0.0   16.666666666666668
-100.0   0.0   16.666666666666668
-150.0   30.0   16.666666666666668
-150.0   0.0   33.333333333333336
-100.0   0.0   16.666666666666668
-100.0   30.0   16.666666666666668
-150.0   30.0   16.666666666666668
-100.0   30.0   33.333333333333336
-150.0   0.0   33.333333333333336
-150.0   30.0   33.333333333333336
-100.0   30.0   33.333333333333336
-150.0   30.0   16.666666666666668
-150.0   0.0   33.333333333333336
-100.0   30.0   33.333333333333336
-100.0   0.0   33.333333333333336
-100.0   0.0   16.666666666666668
-150.0   0.0   33.333333333333336
-100.0   30.0   33.333333333333336
-100.0   0.0   16.666666666666668
-150.0   30.0   16.666666666666668
-150.0   0.0   33.333333333333336
-100.0   0.0   33.333333333333336
-150.0   30.0   33.333333333333336
-150.0   0.0   50.0
-100.0   0.0   33.333333333333336
-100.0   30.0   33.333333333333336
-150.0   30.0   33.333333333333336
-100.0   30.0   50.0
-150.0   0.0   50.0
-150.0   30.0   50.0
-100.0   30.0   50.0
-150.0   30.0   33.333333333333336
-150.0   0.0   50.0
-100.0   30.0   50.0
-100.0   0.0   50.0
-100.0   0.0   33.333333333333336
-150.0   0.0   50.0
-100.0   30.0   50.0
-100.0   0.0   33.333333333333336
-150.0   30.0   33.333333333333336
-150.0   30.0   0.0
-100.0   30.0   0.0
-150.0   60.0   0.0
-150.0   30.0   16.666666666666668
-100.0   30.0   0.0
-100.0   60.0   0.0
-150.0   60.0   0.0
-100.0   60.0   16.666666666666668
-150.0   30.0   16.666666666666668
-150.0   60.0   16.666666666666668
-100.0   60.0   16.666666666666668
-150.0   60.0   0.0
-150.0   30.0   16.666666666666668
-100.0   60.0   16.666666666666668
-100.0   30.0   16.666666666666668
-100.0   30.0   0.0
-150.0   30.0   16.666666666666668
-100.0   60.0   16.666666666666668
-100.0   30.0   0.0
-150.0   60.0   0.0
-150.0   30.0   16.666666666666668
-100.0   30.0   16.666666666666668
-150.0   60.0   16.666666666666668
-150.0   30.0   33.333333333333336
-100.0   30.0   16.666666666666668
-100.0   60.0   16.666666666666668
-150.0   60.0   16.666666666666668
-100.0   60.0   33.333333333333336
-150.0   30.0   33.333333333333336
-150.0   60.0   33.333333333333336
-100.0   60.0   33.333333333333336
-150.0   60.0   16.666666666666668
-150.0   30.0   33.333333333333336
-100.0   60.0   33.333333333333336
-100.0   30.0   33.333333333333336
-100.0   30.0   16.666666666666668
-150.0   30.0   33.333333333333336
-100.0   60.0   33.333333333333336
-100.0   30.0   16.666666666666668
-150.0   60.0   16.666666666666668
-150.0   30.0   33.333333333333336
-100.0   30.0   33.333333333333336
-150.0   60.0   33.333333333333336
-150.0   30.0   50.0
-100.0   30.0   33.333333333333336
-100.0   60.0   33.333333333333336
-150.0   60.0   33.333333333333336
-100.0   60.0   50.0
-150.0   30.0   50.0
-150.0   60.0   50.0
-100.0   60.0   50.0
-150.0   60.0   33.333333333333336
-150.0   30.0   50.0
-100.0   60.0   50.0
-100.0   30.0   50.0
-100.0   30.0   33.333333333333336
-150.0   30.0   50.0
-100.0   60.0   50.0
-100.0   30.0   33.333333333333336
-150.0   60.0   33.333333333333336
-150.0   60.0   0.0
-100.0   60.0   0.0
-150.0   90.0   0.0
-150.0   60.0   16.666666666666668
-100.0   60.0   0.0
-100.0   90.0   0.0
-150.0   90.0   0.0
-100.0   90.0   16.666666666666668
-150.0   60.0   16.666666666666668
-150.0   90.0   16.666666666666668
-100.0   90.0   16.666666666666668
-150.0   90.0   0.0
-150.0   60.0   16.666666666666668
-100.0   90.0   16.666666666666668
-100.0   60.0   16.666666666666668
-100.0   60.0   0.0
-150.0   60.0   16.666666666666668
-100.0   90.0   16.666666666666668
-100.0   60.0   0.0
-150.0   90.0   0.0
-150.0   60.0   16.666666666666668
-100.0   60.0   16.666666666666668
-150.0   90.0   16.666666666666668
-150.0   60.0   33.333333333333336
-100.0   60.0   16.666666666666668
-100.0   90.0   16.666666666666668
-150.0   90.0   16.666666666666668
-100.0   90.0   33.333333333333336
-150.0   60.0   33.333333333333336
-150.0   90.0   33.333333333333336
-100.0   90.0   33.333333333333336
-150.0   90.0   16.666666666666668
-150.0   60.0   33.333333333333336
-100.0   90.0   33.333333333333336
-100.0   60.0   33.333333333333336
-100.0   60.0   16.666666666666668
-150.0   60.0   33.333333333333336
-100.0   90.0   33.333333333333336
-100.0   60.0   16.666666666666668
-150.0   90.0   16.666666666666668
-150.0   60.0   33.333333333333336
-100.0   60.0   33.333333333333336
-150.0   90.0   33.333333333333336
-150.0   60.0   50.0
-100.0   60.0   33.333333333333336
-100.0   90.0   33.333333333333336
-150.0   90.0   33.333333333333336
-100.0   90.0   50.0
-150.0   60.0   50.0
-150.0   90.0   50.0
-100.0   90.0   50.0
-150.0   90.0   33.333333333333336
-150.0   60.0   50.0
-100.0   90.0   50.0
-100.0   60.0   50.0
-100.0   60.0   33.333333333333336
-150.0   60.0   50.0
-100.0   90.0   50.0
-100.0   60.0   33.333333333333336
-150.0   90.0   33.333333333333336
-150.0   90.0   0.0
-100.0   90.0   0.0
-150.0   120.0   0.0
-150.0   90.0   16.666666666666668
-100.0   90.0   0.0
-100.0   120.0   0.0
-150.0   120.0   0.0
-100.0   120.0   16.666666666666668
-150.0   90.0   16.666666666666668
-150.0   120.0   16.666666666666668
-100.0   120.0   16.666666666666668
-150.0   120.0   0.0
-150.0   90.0   16.666666666666668
-100.0   120.0   16.666666666666668
-100.0   90.0   16.666666666666668
-100.0   90.0   0.0
-150.0   90.0   16.666666666666668
-100.0   120.0   16.666666666666668
-100.0   90.0   0.0
-150.0   120.0   0.0
-150.0   90.0   16.666666666666668
-100.0   90.0   16.666666666666668
-150.0   120.0   16.666666666666668
-150.0   90.0   33.333333333333336
-100.0   90.0   16.666666666666668
-100.0   120.0   16.666666666666668
-150.0   120.0   16.666666666666668
-100.0   120.0   33.333333333333336
-150.0   90.0   33.333333333333336
-150.0   120.0   33.333333333333336
-100.0   120.0   33.333333333333336
-150.0   120.0   16.666666666666668
-150.0   90.0   33.333333333333336
-100.0   120.0   33.333333333333336
-100.0   90.0   33.333333333333336
-100.0   90.0   16.666666666666668
-150.0   90.0   33.333333333333336
-100.0   120.0   33.333333333333336
-100.0   90.0   16.666666666666668
-150.0   120.0   16.666666666666668
-150.0   90.0   33.333333333333336
-100.0   90.0   33.333333333333336
-150.0   120.0   33.333333333333336
-150.0   90.0   50.0
-100.0   90.0   33.333333333333336
-100.0   120.0   33.333333333333336
-150.0   120.0   33.333333333333336
-100.0   120.0   50.0
-150.0   90.0   50.0
-150.0   120.0   50.0
-100.0   120.0   50.0
-150.0   120.0   33.333333333333336
-150.0   90.0   50.0
-100.0   120.0   50.0
-100.0   90.0   50.0
-100.0   90.0   33.333333333333336
-150.0   90.0   50.0
-100.0   120.0   50.0
-100.0   90.0   33.333333333333336
-150.0   120.0   33.333333333333336
-150.0   120.0   0.0
-100.0   120.0   0.0
-150.0   150.0   0.0
-150.0   120.0   16.666666666666668
-100.0   120.0   0.0
-100.0   150.0   0.0
-150.0   150.0   0.0
-100.0   150.0   16.666666666666668
-150.0   120.0   16.666666666666668
-150.0   150.0   16.666666666666668
-100.0   150.0   16.666666666666668
-150.0   150.0   0.0
-150.0   120.0   16.666666666666668
-100.0   150.0   16.666666666666668
-100.0   120.0   16.666666666666668
-100.0   120.0   0.0
-150.0   120.0   16.666666666666668
-100.0   150.0   16.666666666666668
-100.0   120.0   0.0
-150.0   150.0   0.0
-150.0   120.0   16.666666666666668
-100.0   120.0   16.666666666666668
-150.0   150.0   16.666666666666668
-150.0   120.0   33.333333333333336
-100.0   120.0   16.666666666666668
-100.0   150.0   16.666666666666668
-150.0   150.0   16.666666666666668
-100.0   150.0   33.333333333333336
-150.0   120.0   33.333333333333336
-150.0   150.0   33.333333333333336
-100.0   150.0   33.333333333333336
-150.0   150.0   16.666666666666668
-150.0   120.0   33.333333333333336
-100.0   150.0   33.333333333333336
-100.0   120.0   33.333333333333336
-100.0   120.0   16.666666666666668
-150.0   120.0   33.333333333333336
-100.0   150.0   33.333333333333336
-100.0   120.0   16.666666666666668
-150.0   150.0   16.666666666666668
-150.0   120.0   33.333333333333336
-100.0   120.0   33.333333333333336
-150.0   150.0   33.333333333333336
-150.0   120.0   50.0
-100.0   120.0   33.333333333333336
-100.0   150.0   33.333333333333336
-150.0   150.0   33.333333333333336
-100.0   150.0   50.0
-150.0   120.0   50.0
-150.0   150.0   50.0
-100.0   150.0   50.0
-150.0   150.0   33.333333333333336
-150.0   120.0   50.0
-100.0   150.0   50.0
-100.0   120.0   50.0
-100.0   120.0   33.333333333333336
-150.0   120.0   50.0
-100.0   150.0   50.0
-100.0   120.0   33.333333333333336
-150.0   150.0   33.333333333333336
-100.0   0.0   0.0
-50.0   0.0   0.0
-100.0   30.0   0.0
-100.0   0.0   16.666666666666668
-50.0   0.0   0.0
-50.0   30.0   0.0
-100.0   30.0   0.0
-50.0   30.0   16.666666666666668
-100.0   0.0   16.666666666666668
-100.0   30.0   16.666666666666668
-50.0   30.0   16.666666666666668
-100.0   30.0   0.0
-100.0   0.0   16.666666666666668
-50.0   30.0   16.666666666666668
-50.0   0.0   16.666666666666668
-50.0   0.0   0.0
-100.0   0.0   16.666666666666668
-50.0   30.0   16.666666666666668
-50.0   0.0   0.0
-100.0   30.0   0.0
-100.0   0.0   16.666666666666668
-50.0   0.0   16.666666666666668
-100.0   30.0   16.666666666666668
-100.0   0.0   33.333333333333336
-50.0   0.0   16.666666666666668
-50.0   30.0   16.666666666666668
-100.0   30.0   16.666666666666668
-50.0   30.0   33.333333333333336
-100.0   0.0   33.333333333333336
-100.0   30.0   33.333333333333336
-50.0   30.0   33.333333333333336
-100.0   30.0   16.666666666666668
-100.0   0.0   33.333333333333336
-50.0   30.0   33.333333333333336
-50.0   0.0   33.333333333333336
-50.0   0.0   16.666666666666668
-100.0   0.0   33.333333333333336
-50.0   30.0   33.333333333333336
-50.0   0.0   16.666666666666668
-100.0   30.0   16.666666666666668
-100.0   0.0   33.333333333333336
-50.0   0.0   33.333333333333336
-100.0   30.0   33.333333333333336
-100.0   0.0   50.0
-50.0   0.0   33.333333333333336
-50.0   30.0   33.333333333333336
-100.0   30.0   33.333333333333336
-50.0   30.0   50.0
-100.0   0.0   50.0
-100.0   30.0   50.0
-50.0   30.0   50.0
-100.0   30.0   33.333333333333336
-100.0   0.0   50.0
-50.0   30.0   50.0
-50.0   0.0   50.0
-50.0   0.0   33.333333333333336
-100.0   0.0   50.0
-50.0   30.0   50.0
-50.0   0.0   33.333333333333336
-100.0   30.0   33.333333333333336
-100.0   30.0   0.0
-50.0   30.0   0.0
-100.0   60.0   0.0
-100.0   30.0   16.666666666666668
-50.0   30.0   0.0
-50.0   60.0   0.0
-100.0   60.0   0.0
-50.0   60.0   16.666666666666668
-100.0   30.0   16.666666666666668
-100.0   60.0   16.666666666666668
-50.0   60.0   16.666666666666668
-100.0   60.0   0.0
-100.0   30.0   16.666666666666668
-50.0   60.0   16.666666666666668
-50.0   30.0   16.666666666666668
-50.0   30.0   0.0
-100.0   30.0   16.666666666666668
-50.0   60.0   16.666666666666668
-50.0   30.0   0.0
-100.0   60.0   0.0
-100.0   30.0   16.666666666666668
-50.0   30.0   16.666666666666668
-100.0   60.0   16.666666666666668
-100.0   30.0   33.333333333333336
-50.0   30.0   16.666666666666668
-50.0   60.0   16.666666666666668
-100.0   60.0   16.666666666666668
-50.0   60.0   33.333333333333336
-100.0   30.0   33.333333333333336
-100.0   60.0   33.333333333333336
-50.0   60.0   33.333333333333336
-100.0   60.0   16.666666666666668
-100.0   30.0   33.333333333333336
-50.0   60.0   33.333333333333336
-50.0   30.0   33.333333333333336
-50.0   30.0   16.666666666666668
-100.0   30.0   33.333333333333336
-50.0   60.0   33.333333333333336
-50.0   30.0   16.666666666666668
-100.0   60.0   16.666666666666668
-100.0   30.0   33.333333333333336
-50.0   30.0   33.333333333333336
-100.0   60.0   33.333333333333336
-100.0   30.0   50.0
-50.0   30.0   33.333333333333336
-50.0   60.0   33.333333333333336
-100.0   60.0   33.333333333333336
-50.0   60.0   50.0
-100.0   30.0   50.0
-100.0   60.0   50.0
-50.0   60.0   50.0
-100.0   60.0   33.333333333333336
-100.0   30.0   50.0
-50.0   60.0   50.0
-50.0   30.0   50.0
-50.0   30.0   33.333333333333336
-100.0   30.0   50.0
-50.0   60.0   50.0
-50.0   30.0   33.333333333333336
-100.0   60.0   33.333333333333336
-100.0   60.0   0.0
-50.0   60.0   0.0
-100.0   90.0   0.0
-100.0   60.0   16.666666666666668
-50.0   60.0   0.0
-50.0   90.0   0.0
-100.0   90.0   0.0
-50.0   90.0   16.666666666666668
-100.0   60.0   16.666666666666668
-100.0   90.0   16.666666666666668
-50.0   90.0   16.666666666666668
-100.0   90.0   0.0
-100.0   60.0   16.666666666666668
-50.0   90.0   16.666666666666668
-50.0   60.0   16.666666666666668
-50.0   60.0   0.0
-100.0   60.0   16.666666666666668
-50.0   90.0   16.666666666666668
-50.0   60.0   0.0
-100.0   90.0   0.0
-100.0   60.0   16.666666666666668
-50.0   60.0   16.666666666666668
-100.0   90.0   16.666666666666668
-100.0   60.0   33.333333333333336
-50.0   60.0   16.666666666666668
-50.0   90.0   16.666666666666668
-100.0   90.0   16.666666666666668
-50.0   90.0   33.333333333333336
-100.0   60.0   33.333333333333336
-100.0   90.0   33.333333333333336
-50.0   90.0   33.333333333333336
-100.0   90.0   16.666666666666668
-100.0   60.0   33.333333333333336
-50.0   90.0   33.333333333333336
-50.0   60.0   33.333333333333336
-50.0   60.0   16.666666666666668
-100.0   60.0   33.333333333333336
-50.0   90.0   33.333333333333336
-50.0   60.0   16.666666666666668
-100.0   90.0   16.666666666666668
-100.0   60.0   33.333333333333336
-50.0   60.0   33.333333333333336
-100.0   90.0   33.333333333333336
-100.0   60.0   50.0
-50.0   60.0   33.333333333333336
-50.0   90.0   33.333333333333336
-100.0   90.0   33.333333333333336
-50.0   90.0   50.0
-100.0   60.0   50.0
-100.0   90.0   50.0
-50.0   90.0   50.0
-100.0   90.0   33.333333333333336
-100.0   60.0   50.0
-50.0   90.0   50.0
-50.0   60.0   50.0
-50.0   60.0   33.333333333333336
-100.0   60.0   50.0
-50.0   90.0   50.0
-50.0   60.0   33.333333333333336
-100.0   90.0   33.333333333333336
-100.0   90.0   0.0
-50.0   90.0   0.0
-100.0   120.0   0.0
-100.0   90.0   16.666666666666668
-50.0   90.0   0.0
-50.0   120.0   0.0
-100.0   120.0   0.0
-50.0   120.0   16.666666666666668
-100.0   90.0   16.666666666666668
-100.0   120.0   16.666666666666668
-50.0   120.0   16.666666666666668
-100.0   120.0   0.0
-100.0   90.0   16.666666666666668
-50.0   120.0   16.666666666666668
-50.0   90.0   16.666666666666668
-50.0   90.0   0.0
-100.0   90.0   16.666666666666668
-50.0   120.0   16.666666666666668
-50.0   90.0   0.0
-100.0   120.0   0.0
-100.0   90.0   16.666666666666668
-50.0   90.0   16.666666666666668
-100.0   120.0   16.666666666666668
-100.0   90.0   33.333333333333336
-50.0   90.0   16.666666666666668
-50.0   120.0   16.666666666666668
-100.0   120.0   16.666666666666668
-50.0   120.0   33.333333333333336
-100.0   90.0   33.333333333333336
-100.0   120.0   33.333333333333336
-50.0   120.0   33.333333333333336
-100.0   120.0   16.666666666666668
-100.0   90.0   33.333333333333336
-50.0   120.0   33.333333333333336
-50.0   90.0   33.333333333333336
-50.0   90.0   16.666666666666668
-100.0   90.0   33.333333333333336
-50.0   120.0   33.333333333333336
-50.0   90.0   16.666666666666668
-100.0   120.0   16.666666666666668
-100.0   90.0   33.333333333333336
-50.0   90.0   33.333333333333336
-100.0   120.0   33.333333333333336
-100.0   90.0   50.0
-50.0   90.0   33.333333333333336
-50.0   120.0   33.333333333333336
-100.0   120.0   33.333333333333336
-50.0   120.0   50.0
-100.0   90.0   50.0
-100.0   120.0   50.0
-50.0   120.0   50.0
-100.0   120.0   33.333333333333336
-100.0   90.0   50.0
-50.0   120.0   50.0
-50.0   90.0   50.0
-50.0   90.0   33.333333333333336
-100.0   90.0   50.0
-50.0   120.0   50.0
-50.0   90.0   33.333333333333336
-100.0   120.0   33.333333333333336
-100.0   120.0   0.0
-50.0   120.0   0.0
-100.0   150.0   0.0
-100.0   120.0   16.666666666666668
-50.0   120.0   0.0
-50.0   150.0   0.0
-100.0   150.0   0.0
-50.0   150.0   16.666666666666668
-100.0   120.0   16.666666666666668
-100.0   150.0   16.666666666666668
-50.0   150.0   16.666666666666668
-100.0   150.0   0.0
-100.0   120.0   16.666666666666668
-50.0   150.0   16.666666666666668
-50.0   120.0   16.666666666666668
-50.0   120.0   0.0
-100.0   120.0   16.666666666666668
-50.0   150.0   16.666666666666668
-50.0   120.0   0.0
-100.0   150.0   0.0
-100.0   120.0   16.666666666666668
-50.0   120.0   16.666666666666668
-100.0   150.0   16.666666666666668
-100.0   120.0   33.333333333333336
-50.0   120.0   16.666666666666668
-50.0   150.0   16.666666666666668
-100.0   150.0   16.666666666666668
-50.0   150.0   33.333333333333336
-100.0   120.0   33.333333333333336
-100.0   150.0   33.333333333333336
-50.0   150.0   33.333333333333336
-100.0   150.0   16.666666666666668
-100.0   120.0   33.333333333333336
-50.0   150.0   33.333333333333336
-50.0   120.0   33.333333333333336
-50.0   120.0   16.666666666666668
-100.0   120.0   33.333333333333336
-50.0   150.0   33.333333333333336
-50.0   120.0   16.666666666666668
-100.0   150.0   16.666666666666668
-100.0   120.0   33.333333333333336
-50.0   120.0   33.333333333333336
-100.0   150.0   33.333333333333336
-100.0   120.0   50.0
-50.0   120.0   33.333333333333336
-50.0   150.0   33.333333333333336
-100.0   150.0   33.333333333333336
-50.0   150.0   50.0
-100.0   120.0   50.0
-100.0   150.0   50.0
-50.0   150.0   50.0
-100.0   150.0   33.333333333333336
-100.0   120.0   50.0
-50.0   150.0   50.0
-50.0   120.0   50.0
-50.0   120.0   33.333333333333336
-100.0   120.0   50.0
-50.0   150.0   50.0
-50.0   120.0   33.333333333333336
-100.0   150.0   33.333333333333336
-50.0   0.0   0.0
0.0   0.0   0.0
-50.0   30.0   0.0
-50.0   0.0   16.666666666666668
0.0   0.0   0.0
0.0   30.0   0.0
-50.0   30.0   0.0
0.0   30.0   16.666666666666668
-50.0   0.0   16.666666666666668
-50.0   30.0   16.666666666666668
0.0   30.0   16.666666666666668
-50.0   30.0   0.0
-50.0   0.0   16.666666666666668
0.0   30.0   16.666666666666668
0.0   0.0   16.666666666666668
0.0   0.0   0.0
-50.0   0.0   16.666666666666668
0.0   30.0   16.666666666666668
0.0   0.0   0.0
-50.0   30.0   0.0
-50.0   0.0   16.666666666666668
0.0   0.0   16.666666666666668
-50.0   30.0   16.666666666666668
-50.0   0.0   33.333333333333336
0.0   0.0   16.666666666666668
0.0   30.0   16.666666666666668
-50.0   30.0   16.666666666666668
0.0   30.0   33.333333333333336
-50.0   0.0   33.333333333333336
-50.0   30.0   33.333333333333336
0.0   30.0   33.333333333333336
-50.0   30.0   16.666666666666668
-50.0   0.0   33.333333333333336
0.0   30.0   33.333333333333336
0.0   0.0   33.333333333333336
0.0   0.0   16.666666666666668
-50.0   0.0   33.333333333333336
0.0   30.0   33.333333333333336
0.0   0.0   16.666666666666668
-50.0   30.0   16.666666666666668
-50.0   0.0   33.333333333333336
0.0   0.0   33.333333333333336
-50.0   30.0   33.333333333333336
-50.0   0.0   50.0
0.0   0.0   33.333333333333336
0.0   30.0   33.333333333333336
-50.0   30.0   33.333333333333336
0.0   30.0   50.0
-50.0   0.0   50.0
-50.0   30.0   50.0
0.0   30.0   50.0
-50.0   30.0   33.333333333333336
-50.0   0.0   50.0
0.0   30.0   50.0
0.0   0.0   50.0
0.0   0.0   33.333333333333336
-50.0   0.0   50.0
0.0   30.0   50.0
0.0   0.0   33.333333333333336
-50.0   30.0   33.333333333333336
-50.0   30.0   0.0
0.0   30.0   0.0
-50.0   60.0   0.0
-50.0   30.0   16.666666666666668
0.0   30.0   0.0
0.0   60.0   0.0
-50.0   60.0   0.0
0.0   60.0   16.666666666666668
-50.0   30.0   16.666666666666668
-50.0   60.0   16.666666666666668
0.0   60.0   16.666666666666668
-50.0   60.0   0.0
-50.0   30.0   16.666666666666668
0.0   60.0   16.666666666666668
0.0   30.0   16.666666666666668
0.0   30.0   0.0
-50.0   30.0   16.666666666666668
0.0   60.0   16.666666666666668
0.0   30.0   0.0
-50.0   60.0   0.0
-50.0   30.0   16.666666666666668
0.0   30.0   16.666666666666668
-50.0   60.0   16.666666666666668
-50.0   30.0   33.333333333333336
0.0   30.0   16.666666666666668
0.0   60.0   16.666666666666668
-50.0   60.0   16.666666666666668
0.0   60.0   33.333333333333336
-50.0   30.0   33.333333333333336
-50.0   60.0   33.333333333333336
0.0   60.0   33.333333333333336
-50.0   60.0   16.666666666666668
-50.0   30.0   33.333333333333336
0.0   60.0   33.333333333333336
0.0   30.0   33.333333333333336
0.0   30.0   16.666666666666668
-50.0   30.0   33.333333333333336
0.0   60.0   33.333333333333336
0.0   30.0   16.666666666666668
-50.0   60.0   16.666666666666668
-50.0   30.0   33.333333333333336
0.0   30.0   33.333333333333336
-50.0   60.0   33.333333333333336
-50.0   30.0   50.0
0.0   30.0   33.333333333333336
0.0   60.0   33.333333333333336
-50.0   60.0   33.333333333333336
0.0   60.0   50.0
-50.0   30.0   50.0
-50.0   60.0   50.0
0.0   60.0   50.0
-50.0   60.0   33.333333333333336
-50.0   30.0   50.0
0.0   60.0   50.0
0.0   30.0   50.0
0.0   30.0   33.333333333333336
-50.0   30.0   50.0
0.0   60.0   50.0
0.0   30.0   33.333333333333336
-50.0   60.0   33.333333333333336
-50.0   60.0   0.0
0.0   60.0   0.0
-50.0   90.0   0.0
-50.0   60.0   16.666666666666668
0.0   60.0   0.0
0.0   90.0   0.0
-50.0   90.0   0.0
0.0   90.0   16.666666666666668
-50.0   60.0   16.666666666666668
-50.0   90.0   16.666666666666668
0.0   90.0   16.666666666666668
-50.0   90.0   0.0
-50.0   60.0   16.666666666666668
0.0   90.0   16.666666666666668
0.0   60.0   16.666666666666668
0.0   60.0   0.0
-50.0   60.0   16.666666666666668
0.0   90.0   16.666666666666668
0.0   60.0   0.0
-50.0   90.0   0.0
-50.0   60.0   16.666666666666668
0.0   60.0   16.666666666666668
-50.0   90.0   16.666666666666668
-50.0   60.0   33.333333333333336
0.0   60.0   16.666666666666668
0.0   90.0   16.666666666666668
-50.0   90.0   16.666666666666668
0.0   90.0   33.333333333333336
-50.0   60.0   33.333333333333336
-50.0   90.0   33.333333333333336
0.0   90.0   33.333333333333336
-50.0   90.0   16.666666666666668
-50.0   60.0   33.333333333333336
0.0   90.0   33.333333333333336
0.0   60.0   33.333333333333336
0.0   60.0   16.666666666666668
-50.0   60.0   33.333333333333336
0.0   90.0   33.333333333333336
0.0   60.0   16.666666666666668
-50.0   90.0   16.666666666666668
-50.0   60.0   33.333333333333336
0.0   60.0   33.333333333333336
-50.0   90.0   33.333333333333336
-50.0   60.0   50.0
0.0   60.0   33.333333333333336
0.0   90.0   33.333333333333336
-50.0   90.0   33.333333333333336
0.0   90.0   50.0
-50.0   60.0   50.0
-50.0   90.0   50.0
0.0   90.0   50.0
-50.0   90.0   33.333333333333336
-50.0   60.0   50.0
0.0   90.0   50.0
0.0   60.0   50.0
0.0   60.0   33.333333333333336
-50.0   60.0   50.0
0.0   90.0   50.0
0.0   60.0   33.333333333333336
-50.0   90.0   33.333333333333336
-50.0   90.0   0.0
0.0   90.0   0.0
-50.0   120.0   0.0
-50.0   90.0   16.666666666666668
0.0   90.0   0.0
0.0   120.0   0.0
-50.0   120.0   0.0
0.0   120.0   16.666666666666668
-50.0   90.0   16.666666666666668
-50.0   120.0   16.666666666666668
0.0   120.0   16.666666666666668
-50.0   120.0   0.0
-50.0   90.0   16.666666666666668
0.0   120.0   16.666666666666668
0.0   90.0   16.666666666666668
0.0   90.0   0.0
-50.0   90.0   16.666666666666668
0.0   120.0   16.666666666666668
0.0   90.0   0.0
-50.0   120.0   0.0
-50.0   90.0   16.666666666666668
0.0   90.0   16.666666666666668
-50.0   120.0   16.666666666666668
-50.0   90.0   33.333333333333336
0.0   90.0   16.666666666666668
0.0   120.0   16.666666666666668
-50.0   120.0   16.666666666666668
0.0   120.0   33.333333333333336
-50.0   90.0   33.333333333333336
-50.0   120.0   33.333333333333336
0.0   120.0   33.333333333333336
-50.0   120.0   16.666666666666668
-50.0   90.0   33.333333333333336
0.0   120.0   33.333333333333336
0.0   90.0   33.333333333333336
0.0   90.0   16.666666666666668
-50.0   90.0   33.333333333333336
0.0   120.0   33.333333333333336
0.0   90.0   16.666666666666668
-50.0   120.0   16.666666666666668
-50.0   90.0   33.333333333333336
0.0   90.0   33.333333333333336
-50.0   120.0   33.333333333333336
-50.0   90.0   50.0
0.0   90.0   33.333333333333336
0.0   120.0   33.333333333333336
-50.0   120.0   33.333333333333336
0.0   120.0   50.0
-50.0   90.0   50.0
-50.0   120.0   50.0
0.0   120.0   50.0
-50.0   120.0   33.333333333333336
-50.0   90.0   50.0
0.0   120.0   50.0
0.0   90.0   50.0
0.0   90.0   33.333333333333336
-50.0   90.0   50.0
0.0   120.0   50.0
0.0   90.0   33.333333333333336
-50.0   120.0   33.333333333333336
-50.0   120.0   0.0
0.0   120.0   0.0
-50.0   150.0   0.0
-50.0   120.0   16.666666666666668
0.0   120.0   0.0
0.0   150.0   0.0
-50.0   150.0   0.0
0.0   150.0   16.666666666666668
-50.0   120.0   16.666666666666668
-50.0   150.0   16.666666666666668
0.0   150.0   16.666666666666668
-50.0   150.0   0.0
-50.0   120.0   16.666666666666668
0.0   150.0   16.666666666666668
0.0   120.0   16.666666666666668
0.0   120.0   0.0
-50.0   120.0   16.666666666666668
0.0   150.0   16.666666666666668
0.0   120.0   0.0
-50.0   150.0   0.0
-50.0   120.0   16.666666666666668
0.0   120.0   16.666666666666668
-50.0   150.0   16.666666666666668
-50.0   120.0   33.333333333333336
0.0   120.0   16.666666666666668
0.0   150.0   16.666666666666668
-50.0   150.0   16.666666666666668
0.0   150.0   33.333333333333336
-50.0   120.0   33.333333333333336
-50.0   150.0   33.333333333333336
0.0   150.0   33.333333333333336
-50.0   150.0   16.666666666666668
-50.0   120.0   33.333333333333336
0.0   150.0   33.333333333333336
0.0   120.0   33.333333333333336
0.0   120.0   16.666666666666668
-50.0   120.0   33.333333333333336
0.0   150.0   33.333333333333336
0.0   120.0   16.666666666666668
-50.0   150.0   16.666666666666668
-50.0   120.0   33.333333333333336
0.0   120.0   33.333333333333336
-50.0   150.0   33.333333333333336
-50.0   120.0   50.0
0.0   120.0   33.333333333333336
0.0   150.0   33.333333333333336
-50.0   150.0   33.333333333333336
0.0   150.0   50.0
-50.0   120.0   50.0
-50.0   150.0   50.0
0.0   150.0   50.0
-50.0   150.0   33.333333333333336
-50.0   120.0   50.0
0.0   150.0   50.0
0.0   120.0   50.0
0.0   120.0   33.333333333333336
-50.0   120.0   50.0
0.0   150.0   50.0
0.0   120.0   33.333333333333336
-50.0   150.0   33.333333333333336
0.0   0.0   0.0
50.0   0.0   0.0
0.0   30.0   0.0
0.0   0.0   16.666666666666668
50.0   0.0   0.0
50.0   30.0   0.0
0.0   30.0   0.0
50.0   30.0   16.666666666666668
0.0   0.0   16.666666666666668
0.0   30.0   16.666666666666668
50.0   30.0   16.666666666666668
0.0   30.0   0.0
0.0   0.0   16.666666666666668
50.0   30.0   16.666666666666668
50.0   0.0   16.666666666666668
50.0   0.0   0.0
0.0   0.0   16.666666666666668
50.0   30.0   16.666666666666668
50.0   0.0   0.0
0.0   30.0   0.0
0.0   0.0   16.666666666666668
50.0   0.0   16.666666666666668
0.0   30.0   16.666666666666668
0.0   0.0   33.333333333333336
50.0   0.0   16.666666666666668
50.0   30.0   16.666666666666668
0.0   30.0   16.666666666666668
50.0   30.0   33.333333333333336
0.0   0.0   33.333333333333336
0.0   30.0   33.333333333333336
50.0   30.0   33.333333333333336
0.0   30.0   16.666666666666668
0.0   0.0   33.333333333333336
50.0   30.0   33.333333333333336
50.0   0.0   33.333333333333336
50.0   0.0   16.666666666666668
0.0   0.0   33.333333333333336
50.0   30.0   33.333333333333336
50.0   0.0   16.666666666666668
0.0   30.0   16.666666666666668
0.0   0.0   33.333333333333336
50.0   0.0   33.333333333333336
0.0   30.0   33.333333333333336
0.0   0.0   50.0
50.0   0.0   33.333333333333336
50.0   30.0   33.333333333333336
0.0   30.0   33.333333333333336
50.0   30.0   50.0
0.0   0.0   50.0
0.0   30.0   50.0
50.0   30.0   50.0
0.0   30.0   33.333333333333336
0.0   0.0   50.0
50.0   30.0   50.0
50.0   0.0   50.0
50.0   0.0   33.333333333333336
0.0   0.0   50.0
50.0   30.0   50.0
50.0   0.0   33.333333333333336
0.0   30.0   33.333333333333336
0.0   30.0   0.0
50.0   30.0   0.0
0.0   60.0   0.0
0.0   30.0   16.666666666666668
50.0   30.0   0.0
50.0   60.0   0.0
0.0   60.0   0.0
50.0   60.0   16.666666666666668
0.0   30.0   16.666666666666668
0.0   60.0   16.666666666666668
50.0   60.0   16.666666666666668
0.0   60.0   0.0
0.0   30.0   16.666666666666668
50.0   60.0   16.666666666666668
50.0   30.0   16.666666666666668
50.0   30.0   0.0
0.0   30.0   16.666666666666668
50.0   60.0   16.666666666666668
50.0   30.0   0.0
0.0   60.0   0.0
0.0   30.0   16.666666666666668
50.0   30.0   16.666666666666668
0.0   60.0   16.666666666666668
0.0   30.0   33.333333333333336
50.0   30.0   16.666666666666668
50.0   60.0   16.666666666666668
0.0   60.0   16.666666666666668
50.0   60.0   33.333333333333336
0.0   30.0   33.333333333333336
0.0   60.0   33.333333333333336
50.0   60.0   33.333333333333336
0.0   60.0   16.666666666666668
0.0   30.0   33.333333333333336
50.0   60.0   33.333333333333336
50.0   30.0   33.333333333333336
50.0   30.0   16.666666666666668
0.0   30.0   33.333333333333336
50.0   60.0   33.333333333333336
50.0   30.0   16.666666666666668
0.0   60.0   16.666666666666668
0.0   30.0   33.333333333333336
50.0   30.0   33.333333333333336
0.0   60.0   33.333333333333336
0.0   30.0   50.0
50.0   30.0   33.333333333333336
50.0   60.0   33.333333333333336
0.0   60.0   33.333333333333336
50.0   60.0   50.0
0.0   30.0   50.0
0.0   60.0   50.0
50.0   60.0   50.0
0.0   60.0   33.333333333333336
0.0   30.0   50.0
50.0   60.0   50.0
50.0   30.0   50.0
50.0   30.0   33.333333333333336
0.0   30.0   50.0
50.0   60.0   50.0
50.0   30.0   33.333333333333336
0.0   60.0   33.333333333333336
0.0   60.0   0.0
50.0   60.0   0.0
0.0   90.0   0.0
0.0   60.0   16.666666666666668
50.0   60.0   0.0
50.0   90.0   0.0
0.0   90.0   0.0
50.0   90.0   16.666666666666668
0.0   60.0   16.666666666666668
0.0   90.0   16.666666666666668
50.0   90.0   16.666666666666668
0.0   90.0   0.0
0.0   60.0   16.666666666666668
50.0   90.0   16.666666666666668
50.0   60.0   16.666666666666668
50.0   60.0   0.0
0.0   60.0   16.666666666666668
50.0   90.0   16.666666666666668
50.0   60.0   0.0
0.0   90.0   0.0
0.0   60.0   16.666666666666668
50.0   60.0   16.666666666666668
0.0   90.0   16.666666666666668
0.0   60.0   33.333333333333336
50.0   60.0   16.666666666666668
50.0   90.0   16.666666666666668
0.0   90.0   16.666666666666668
50.0   90.0   33.333333333333336
0.0   60.0   33.333333333333336
0.0   90.0   33.333333333333336
50.0   90.0   33.333333333333336
0.0   90.0   16.666666666666668
0.0   60.0   33.333333333333336
50.0   90.0   33.333333333333336
50.0   60.0   33.333333333333336
50.0   60.0   16.666666666666668
0.0   60.0   33.333333333333336
50.0   90.0   33.333333333333336
50.0   60.0   16.666666666666668
0.0   90.0   16.666666666666668
0.0   60.0   33.333333333333336
50.0   60.0   33.333333333333336
0.0   90.0   33.333333333333336
0.0   60.0   50.0
50.0   60.0   33.333333333333336
50.0   90.0   33.333333333333336
0.0   90.0   33.333333333333336
50.0   90.0   50.0
0.0   60.0   50.0
0.0   90.0   50.0
50.0   90.0   50.0
0.0   90.0   33.333333333333336
0.0   60.0   50.0
50.0   90.0   50.0
50.0   60.0   50.0
50.0   60.0   33.333333333333336
0.0   60.0   50.0
50.0   90.0   50.0
50.0   60.0   33.333333333333336
0.0   90.0   33.333333333333336
0.0   90.0   0.0
50.0   90.0   0.0
0.0   120.0   0.0
0.0   90.0   16.666666666666668
50.0   90.0   0.0
50.0   120.0   0.0
0.0   120.0   0.0
50.0   120.0   16.666666666666668
0.0   90.0   16.666666666666668
0.0   120.0   16.666666666666668
50.0   120.0   16.666666666666668
0.0   120.0   0.0
0.0   90.0   16.666666666666668
50.0   120.0   16.666666666666668
50.0   90.0   16.666666666666668
50.0   90.0   0.0
0.0   90.0   16.666666666666668
50.0   120.0   16.666666666666668
50.0   90.0   0.0
0.0   120.0   0.0
0.0   90.0   16.666666666666668
50.0   90.0   16.666666666666668
0.0   120.0   16.666666666666668
0.0   90.0   33.333333333333336
50.0   90.0   16.666666666666668
50.0   120.0   16.666666666666668
0.0   120.0   16.666666666666668
50.0   120.0   33.333333333333336
0.0   90.0   33.333333333333336
0.0   120.0   33.333333333333336
50.0   120.0   33.333333333333336
0.0   120.0   16.666666666666668
0.0   90.0   33.333333333333336
50.0   120.0   33.333333333333336
50.0   90.0   33.333333333333336
50.0   90.0   16.666666666666668
0.0   90.0   33.333333333333336
50.0   120.0   33.333333333333336
50.0   90.0   16.666666666666668
0.0   120.0   16.666666666666668
0.0   90.0   33.333333333333336
50.0   90.0   33.333333333333336
0.0   120.0   33.333333333333336
0.0   90.0   50.0
50.0   90.0   33.333333333333336
50.0   120.0   33.333333333333336
0.0   120.0   33.333333333333336
50.0   120.0   50.0
0.0   90.0   50.0
0.0   120.0   50.0
50.0   120.0   50.0
0.0   120.0   33.333333333333336
0.0   90.0   50.0
50.0   120.0   50.0
50.0   90.0   50.0
50.0   90.0   33.333333333333336
0.0   90.0   50.0
50.0   120.0   50.0
50.0   90.0   33.333333333333336
0.0   120.0   33.333333333333336
0.0   120.0   0.0
50.0   120.0   0.0
0.0   150.0   0.0
0.0   120.0   16.666666666666668
50.0   120.0   0.0
50.0   150.0   0.0
0.0   150.0   0.0
50.0   150.0   16.666666666666668
0.0   120.0   16.666666666666668
0.0   150.0   16.666666666666668
50.0   150.0   16.666666666666668
0.0   150.0   0.0
0.0   120.0   16.666666666666668
50.0   150.0   16.666666666666668
50.0   120.0   16.666666666666668
50.0   120.0   0.0
0.0   120.0   16.666666666666668
50.0   150.0   16.666666666666668
50.0   120.0   0.0
0.0   150.0   0.0
0.0   120.0   16.666666666666668
50.0   120.0   16.666666666666668
0.0   150.0   16.666666666666668
0.0   120.0   33.333333333333336
50.0   120.0   16.666666666666668
50.0   150.0   16.666666666666668
0.0   150.0   16.666666666666668
50.0   150.0   33.333333333333336
0.0   120.0   33.333333333333336
0.0   150.0   33.333333333333336
50.0   150.0   33.333333333333336
0.0   150.0   16.666666666666668
0.0   120.0   33.333333333333336
50.0   150.0   33.333333333333336
50.0   120.0   33.333333333333336
50.0   120.0   16.666666666666668
0.0   120.0   33.333333333333336
50.0   150.0   33.333333333333336
50.0   120.0   16.666666666666668
0.0   150.0   16.666666666666668
0.0   120.0   33.333333333333336
50.0   120.0   33.333333333333336
0.0   150.0   33.333333333333336
0.0   120.0   50.0
50.0   120.0   33.333333333333336
50.0   150.0   33.333333333333336
0.0   150.0   33.333333333333336
50.0   150.0   50.0
0.0   120.0   50.0
0.0   150.0   50.0
50.0   150.0   50.0
0.0   150.0   33.333333333333336
0.0   120.0   50.0
50.0   150.0   50.0
50.0   120.0   50.0
50.0   120.0   33.333333333333336
0.0   120.0   50.0
50.0   150.0   50.0
50.0   120.0   33.333333333333336
0.0   150.0   33.333333333333336
50.0   0.0   0.0
100.0   0.0   0.0
50.0   30.0   0.0
50.0   0.0   16.666666666666668
100.0   0.0   0.0
100.0   30.0   0.0
50.0   30.0   0.0
100.0   30.0   16.666666666666668
50.0   0.0   16.666666666666668
50.0   30.0   16.666666666666668
100.0   30.0   16.666666666666668
50.0   30.0   0.0
50.0   0.0   16.666666666666668
100.0   30.0   16.666666666666668
100.0   0.0   16.666666666666668
100.0   0.0   0.0
50.0   0.0   16.666666666666668
100.0   30.0   16.666666666666668
100.0   0.0   0.0
50.0   30.0   0.0
50.0   0.0   16.666666666666668
100.0   0.0   16.666666666666668
50.0   30.0   16.666666666666668
50.0   0.0   33.333333333333336
100.0   0.0   16.666666666666668
100.0   30.0   16.666666666666668
50.0   30.0   16.666666666666668
100.0   30.0   33.333333333333336
50.0   0.0   33.333333333333336
50.0   30.0   33.333333333333336
100.0   30.0   33.333333333333336
50.0   30.0   16.666666666666668
50.0   0.0   33.333333333333336
100.0   30.0   33.333333333333336
100.0   0.0   33.333333333333336
100.0   0.0   16.666666666666668
50.0   0.0   33.333333333333336
100.0   30.0   33.333333333333336
100.0   0.0   16.666666666666668
50.0   30.0   16.666666666666668
50.0   0.0   33.333333333333336
100.0   0.0   33.333333333333336
50.0   30.0   33.333333333333336
50.0   0.0   50.0
100.0   0.0   33.333333333333336
100.0   30.0   33.333333333333336
50.0   30.0   33.333333333333336
100.0   30.0   50.0
50.0   0.0   50.0
50.0   30.0   50.0
100.0   30.0   50.0
50.0   30.0   33.333333333333336
50.0   0.0   50.0
100.0   30.0   50.0
100.0   0.0   50.0
100.0   0.0   33.333333333333336
50.0   0.0   50.0
100.0   30.0   50.0
100.0   0.0   33.333333333333336
50.0   30.0   33.333333333333336
50.0   30.0   0.0
100.0   30.0   0.0
50.0   60.0   0.0
50.0   30.0   16.666666666666668
100.0   30.0   0.0
100.0   60.0   0.0
50.0   60.0   0.0
100.0   60.0   16.666666666666668
50.0   30.0   16.666666666666668
50.0   60.0   16.666666666666668
100.0   60.0   16.666666666666668
50.0   60.0   0.0
50.0   30.0   16.666666666666668
100.0   60.0   16.666666666666668
100.0   30.0   16.666666666666668
100.0   30.0   0.0
50.0   30.0   16.666666666666668
100.0   60.0   16.666666666666668
100.0   30.0   0.0
50.0   60.0   0.0
50.0   30.0   16.666666666666668
100.0   30.0   16.666666666666668
50.0   60.0   16.666666666666668
50.0   30.0   33.333333333333336
100.0   30.0   16.666666666666668
100.0   60.0   16.666666666666668
50.0   60.0   16.666666666666668
100.0   60.0   33.333333333333336
50.0   30.0   33.333333333333336
50.0   60.0   33.333333333333336
100.0   60.0   33.333333333333336
50.0   60.0   16.666666666666668
50.0   30.0   33.333333333333336
100.0   60.0   33.333333333333336
100.0   30.0   33.333333333333336
100.0   30.0   16.666666666666668
50.0   30.0   33.333333333333336
100.0   60.0   33.333333333333336
100.0   30.0   16.666666666666668
50.0   60.0   16.666666666666668
50.0   30.0   33.333333333333336
100.0   30.0   33.333333333333336
50.0   60.0   33.333333333333336
50.0   30.0   50.0
100.0   30.0   33.333333333333336
100.0   60.0   33.333333333333336
50.0   60.0   33.333333333333336
100.0   60.0   50.0
50.0   30.0   50.0
50.0   60.0   50.0
100.0   60.0   50.0
50.0   60.0   33.333333333333336
50.0   30.0   50.0
100.0   60.0   50.0
100.0   30.0   50.0
100.0   30.0   33.333333333333336
50.0   30.0   50.0
100.0   60.0   50.0
100.0   30.0   33.333333333333336
50.0   60.0   33.333333333333336
50.0   60.0   0.0
100.0   60.0   0.0
50.0   90.0   0.0
50.0   60.0   16.666666666666668
100.0   60.0   0.0
100.0   90.0   0.0
50.0   90.0   0.0
100.0   90.0   16.666666666666668
50.0   60.0   16.666666666666668
50.0   90.0   16.666666666666668
100.0   90.0   16.666666666666668
50.0   90.0   0.0
50.0   60.0   16.666666666666668
100.0   90.0   16.666666666666668
100.0   60.0   16.666666666666668
100.0   60.0   0.0
50.0   60.0   16.666666666666668
100.0   90.0   16.666666666666668
100.0   60.0   0.0
50.0   90.0   0.0
50.0   60.0   16.666666666666668
100.0   60.0   16.666666666666668
50.0   90.0   16.666666666666668
50.0   60.0   33.333333333333336
100.0   60.0   16.666666666666668
100.0   90.0   16.666666666666668
50.0   90.0   16.666666666666668
100.0   90.0   33.333333333333336
50.0   60.0   33.333333333333336
50.0   90.0   33.333333333333336
100.0   90.0   33.333333333333336
50.0   90.0   16.666666666666668
50.0   60.0   33.333333333333336
100.0   90.0   33.333333333333336
100.0   60.0   33.333333333333336
100.0   60.0   16.666666666666668
50.0   60.0   33.333333333333336
100.0   90.0   33.333333333333336
100.0   60.0   16.666666666666668
50.0   90.0   16.666666666666668
50.0   60.0   33.333333333333336
100.0   60.0   33.333333333333336
50.0   90.0   33.333333333333336
50.0   60.0   50.0
100.0   60.0   33.333333333333336
100.0   90.0   33.333333333333336
50.0   90.0   33.333333333333336
100.0   90.0   50.0
50.0   60.0   50.0
50.0   90.0   50.0
100.0   90.0   50.0
50.0   90.0   33.333333333333336
50.0   60.0   50.0
100.0   90.0   50.0
100.0   60.0   50.0
100.0   60.0   33.333333333333336
50.0   60.0   50.0
100.0   90.0   50.0
100.0   60.0   33.333333333333336
50.0   90.0   33.333333333333336
50.0   90.0   0.0
100.0   90.0   0.0
50.0   120.0   0.0
50.0   90.0   16.666666666666668
100.0   90.0   0.0
100.0   120.0   0.0
50.0   120.0   0.0
100.0   120.0   16.666666666666668
50.0   90.0   16.666666666666668
50.0   120.0   16.666666666666668
100.0   120.0   16.666666666666668
50.0   120.0   0.0
50.0   90.0   16.666666666666668
100.0   120.0   16.666666666666668
100.0   90.0   16.666666666666668
100.0   90.0   0.0
50.0   90.0   16.666666666666668
100.0   120.0   16.666666666666668
100.0   90.0   0.0
50.0   120.0   0.0
50.0   90.0   16.666666666666668
100.0   90.0   16.666666666666668
50.0   120.0   16.666666666666668
50.0   90.0   33.333333333333336
100.0   90.0   16.666666666666668
100.0   120.0   16.666666666666668
50.0   120.0   16.666666666666668
100.0   120.0   33.333333333333336
50.0   90.0   33.333333333333336
50.0   120.0   33.333333333333336
100.0   120.0   33.333333333333336
50.0   120.0   16.666666666666668
50.0   90.0   33.333333333333336
100.0   120.0   33.333333333333336
100.0   90.0   33.333333333333336
100.0   90.0   16.666666666666668
50.0   90.0   33.333333333333336
100.0   120.0   33.333333333333336
100.0   90.0   16.666666666666668
50.0   120.0   16.666666666666668
50.0   90.0   33.333333333333336
100.0   90.0   33.333333333333336
50.0   120.0   33.333333333333336
50.0   90.0   50.0
100.0   90.0   33.333333333333336
100.0   120.0   33.333333333333336
50.0   120.0   33.333333333333336
100.0   120.0   50.0
50.0   90.0   50.0
50.0   120.0   50.0
100.0   120.0   50.0
50.0   120.0   33.333333333333336
50.0   90.0   50.0
100.0   120.0   50.0
100.0   90.0   50.0
100.0   90.0   33.333333333333336
50.0   90.0   50.0
100.0   120.0   50.0
100.0   90.0   33.333333333333336
50.0   120.0   33.333333333333336
50.0   120.0   0.0
100.0   120.0   0.0
50.0   150.0   0.0
50.0   120.0   16.666666666666668
100.0   120.0   0.0
100.0   150.0   0.0
50.0   150.0   0.0
100.0   150.0   16.666666666666668
50.0   120.0   16.666666666666668
50.0   150.0   16.666666666666668
100.0   150.0   16.666666666666668
50.0   150.0   0.0
50.0   120.0   16.666666666666668
100.0   150.0   16.666666666666668
100.0   120.0   16.666666666666668
100.0   120.0   0.0
50.0   120.0   16.666666666666668
100.0   150.0   16.666666666666668
100.0   120.0   0.0
50.0   150.0   0.0
50.0   120.0   16.666666666666668
100.0   120.0   16.666666666666668
50.0   150.0   16.666666666666668
50.0   120.0   33.333333333333336
100.0   120.0   16.666666666666668
100.0   150.0   16.666666666666668
50.0   150.0   16.666666666666668
100.0   150.0   33.333333333333336
50.0   120.0   33.333333333333336
50.0   150.0   33.333333333333336
100.0   150.0   33.333333333333336
50.0   150.0   16.666666666666668
50.0   120.0   33.333333333333336
100.0   150.0   33.333333333333336
100.0   120.0   33.333333333333336
100.0   120.0   16.666666666666668
50.0   120.0   33.333333333333336
100.0   150.0   33.333333333333336
100.0   120.0   16.666666666666668
50.0   150.0   16.666666666666668
50.0   120.0   33.333333333333336
100.0   120.0   33.333333333333336
50.0   150.0   33.333333333333336
50.0   120.0   50.0
100.0   120.0   33.333333333333336
100.0   150.0   33.333333333333336
50.0   150.0   33.333333333333336
100.0   150.0   50.0
50.0   120.0   50.0
50.0   150.0   50.0
100.0   150.0   50.0
50.0   150.0   33.333333333333336
50.0   120.0   50.0
100.0   150.0   50.0
100.0   120.0   50.0
100.0   120.0   33.333333333333336
50.0   120.0   50.0
100.0   150.0   50.0
100.0   120.0   33.333333333333336
50.0   150.0   33.333333333333336
100.0   0.0   0.0
150.0   0.0   0.0
100.0   30.0   0.0
100.0   0.0   16.666666666666668
150.0   0.0   0.0
150.0   30.0   0.0
100.0   30.0   0.0
150.0   30.0   16.666666666666668
100.0   0.0   16.666666666666668
100.0   30.0   16.666666666666668
150.0   30.0   16.666666666666668
100.0   30.0   0.0
100.0   0.0   16.666666666666668
150.0   30.0   16.666666666666668
150.0   0.0   16.666666666666668
150.0   0.0   0.0
100.0   0.0   16.666666666666668
150.0   30.0   16.666666666666668
150.0   0.0   0.0
100.0   30.0   0.0
100.0   0.0   16.666666666666668
150.0   0.0   16.666666666666668
100.0   30.0   16.666666666666668
100.0   0.0   33.333333333333336
150.0   0.0   16.666666666666668
150.0   30.0   16.666666666666668
100.0   30.0   16.666666666666668
150.0   30.0   33.333333333333336
100.0   0.0   33.333333333333336
100.0   30.0   33.333333333333336
150.0   30.0   33.333333333333336
100.0   30.0   16.666666666666668
100.0   0.0   33.333333333333336
150.0   30.0   33.333333333333336
150.0   0.0   33.333333333333336
150.0   0.0   16.666666666666668
100.0   0.0   33.333333333333336
150.0   30.0   33.333333333333336
150.0   0.0   16.666666666666668
100.0   30.0   16.666666666666668
100.0   0.0   33.333333333333336
150.0   0.0   33.333333333333336
100.0   30.0   33.333333333333336
100.0   0.0   50.0
150.0   0.0   33.333333333333336
150.0   30.0   33.333333333333336
100.0   30.0   33.333333333333336
150.0   30.0   50.0
100.0   0.0   50.0
100.0   30.0   50.0
150.0   30.0   50.0
100.0   30.0   33.333333333333336
100.0   0.0   50.0
150.0   30.0   50.0
150.0   0.0   50.0
150.0   0.0   33.333333333333336
100.0   0.0   50.0
150.0   30.0   50.0
150.0   0.0   33.333333333333336
100.0   30.0   33.333333333333336
100.0   30.0   0.0
150.0   30.0   0.0
100.0   60.0   0.0
100.0   30.0   16.666666666666668
150.0   30.0   0.0
150.0   60.0   0.0
100.0   60.0   0.0
150.0   60.0   16.666666666666668
100.0   30.0   16.666666666666668
100.0   60.0   16.666666666666668
150.0   60.0   16.666666666666668
100.0   60.0   0.0
100.0   30.0   16.666666666666668
150.0   60.0   16.666666666666668
150.0   30.0   16.666666666666668
150.0   30.0   0.0
100.0   30.0   16.666666666666668
150.0   60.0   16.666666666666668
150.0   30.0   0.0
100.0   60.0   0.0
100.0   30.0   16.666666666666668
150.0   30.0   16.666666666666668
100.0   60.0   16.666666666666668
100.0   30.0   33.333333333333336
150.0   30.0   16.666666666666668
150.0   60.0   16.666666666666668
100.0   60.0   16.666666666666668
150.0   60.0   33.333333333333336
100.0   30.0   33.333333333333336
100.0   60.0   33.333333333333336
150.0   60.0   33.333333333333336
100.0   60.0   16.666666666666668
100.0   30.0   33.333333333333336
150.0   60.0   33.333333333333336
150.0   30.0   33.333333333333336
150.0   30.0   16.666666666666668
100.0   30.0   33.333333333333336
150.0   60.0   33.333333333333336
150.0   30.0   16.666666666666668
100.0   60.0   16.666666666666668
100.0   30.0   33.333333333333336
150.0   30.0   33.333333333333336
100.0   60.0   33.333333333333336
100.0   30.0   50.0
150.0   30.0   33.333333333333336
150.0   60.0   33.333333333333336
100.0   60.0   33.333333333333336
150.0   60.0   50.0
100.0   30.0   50.0
100.0   60.0   50.0
150.0   60.0   50.0
100.0   60.0   33.333333333333336
100.0   30.0   50.0
150.0   60.0   50.0
150.0   30.0   50.0
150.0   30.0   33.333333333333336
100.0   30.0   50.0
150.0   60.0   50.0
150.0   30.0   33.333333333333336
100.0   60.0   33.333333333333336
100.0   60.0   0.0
150.0   60.0   0.0
100.0   90.0   0.0
100.0   60.0   16.666666666666668
150.0   60.0   0.0
150.0   90.0   0.0
100.0   90.0   0.0
150.0   90.0   16.666666666666668
100.0   60.0   16.666666666666668
100.0   90.0   16.666666666666668
150.0   90.0   16.666666666666668
100.0   90.0   0.0
100.0   60.0   16.666666666666668
150.0   90.0   16.666666666666668
150.0   60.0   16.666666666666668
150.0   60.0   0.0
100.0   60.0   16.666666666666668
150.0   90.0   16.666666666666668
150.0   60.0   0.0
100.0   90.0   0.0
100.0   60.0   16.666666666666668
150.0   60.0   16.666666666666668
100.0   90.0   16.666666666666668
100.0   60.0   33.333333333333336
150.0   60.0   16.666666666666668
150.0   90.0   16.666666666666668
100.0   90.0   16.666666666666668
150.0   90.0   33.333333333333336
100.0   60.0   33.333333333333336
100.0   90.0   33.333333333333336
150.0   90.0   33.333333333333336
100.0   90.0   16.666666666666668
100.0   60.0   33.333333333333336
150.0   90.0   33.333333333333336
150.0   60.0   33.333333333333336
150.0   60.0   16.666666666666668
100.0   60.0   33.333333333333336
150.0   90.0   33.333333333333336
150.0   60.0   16.666666666666668
100.0   90.0   16.666666666666668
100.0   60.0   33.333333333333336
150.0   60.0   33.333333333333336
100.0   90.0   33.333333333333336
100.0   60.0   50.0
150.0   60.0   33.333333333333336
150.0   90.0   33.333333333333336
100.0   90.0   33.333333333333336
150.0   90.0   50.0
100.0   60.0   50.0
100.0   90.0   50.0
150.0   90.0   50.0
100.0   90.0   33.333333333333336
100.0   60.0   50.0
150.0   90.0   50.0
150.0   60.0   50.0
150.0   60.0   33.333333333333336
100.0   60.0   50.0
150.0   90.0   50.0
150.0   60.0   33.333333333333336
100.0   90.0   33.333333333333336
100.0   90.0   0.0
150.0   90.0   0.0
100.0   120.0   0.0
100.0   90.0   16.666666666666668
150.0   90.0   0.0
150.0   120.0   0.0
100.0   120.0   0.0
150.0   120.0   16.666666666666668
100.0   90.0   16.666666666666668
100.0   120.0   16.666666666666668
150.0   120.0   16.666666666666668
100.0   120.0   0.0
100.0   90.0   16.666666666666668
150.0   120.0   16.666666666666668
150.0   90.0   16.666666666666668
150.0   90.0   0.0
100.0   90.0   16.666666666666668
150.0   120.0   16.666666666666668
150.0   90.0   0.0
100.0   120.0   0.0
100.0   90.0   16.666666666666668
150.0   90.0   16.666666666666668
100.0   120.0   16.666666666666668
100.0   90.0   33.333333333333336
150.0   90.0   16.666666666666668
150.0   120.0   16.666666666666668
100.0   120.0   16.666666666666668
150.0   120.0   33.333333333333336
100.0   90.0   33.333333333333336
100.0   120.0   33.333333333333336
150.0   120.0   33.333333333333336
100.0   120.0   16.666666666666668
100.0   90.0   33.333333333333336
150.0   120.0   33.333333333333336
150.0   90.0   33.333333333333336
150.0   90.0   16.666666666666668
100.0   90.0   33.333333333333336
150.0   120.0   33.333333333333336
150.0   90.0   16.666666666666668
100.0   120.0   16.666666666666668
100.0   90.0   33.333333333333336
150.0   90.0   33.333333333333336
100.0   120.0   33.333333333333336
100.0   90.0   50.0
150.0   90.0   33.333333333333336
150.0   120.0   33.333333333333336
100.0   120.0   33.333333333333336
150.0   120.0   50.0
100.0   90.0   50.0
100.0   120.0   50.0
150.0   120.0   50.0
100.0   120.0   33.333333333333336
100.0   90.0   50.0
150.0   120.0   50.0
150.0   90.0   50.0
150.0   90.0   33.333333333333336
100.0   90.0   50.0
150.0   120.0   50.0
150.0   90.0   33.333333333333336
100.0   120.0   33.333333333333336
100.0   120.0   0.0
150.0   120.0   0.0
100.0   150.0   0.0
100.0   120.0   16.666666666666668
150.0   120.0   0.0
150.0   150.0   0.0
100.0   150.0   0.0
150.0   150.0   16.666666666666668
100.0   120.0   16.666666666666668
100.0   150.0   16.666666666666668
150.0   150.0   16.666666666666668
100.0   150.0   0.0
100.0   120.0   16.666666666666668
150.0   150.0   16.666666666666668
150.0   120.0   16.666666666666668
150.0   120.0   0.0
100.0   120.0   16.666666666666668
150.0   150.0   16.666666666666668
150.0   120.0   0.0
100.0   150.0   0.0
100.0   120.0   16.666666666666668
150.0   120.0   16.666666666666668
100.0   150.0   16.666666666666668
100.0   120.0   33.333333333333336
150.0   120.0   16.666666666666668
150.0   150.0   16.666666666666668
100.0   150.0   16.666666666666668
150.0   150.0   33.333333333333336
100.0   120.0   33.333333333333336
100.0   150.0   33.333333333333336
150.0   150.0   33.333333333333336
100.0   150.0   16.666666666666668
100.0   120.0   33.333333333333336
150.0   150.0   33.333333333333336
150.0   120.0   33.333333333333336
150.0   120.0   16.666666666666668
100.0   120.0   33.333333333333336
150.0   150.0   33.333333333333336
150.0   120.0   16.666666666666668
100.0   150.0   16.666666666666668
100.0   120.0   33.333333333333336
150.0   120.0   33.333333333333336
100.0   150.0   33.333333333333336
100.0   120.0   50.0
150.0   120.0   33.333333333333336
150.0   150.0   33.333333333333336
100.0   150.0   33.333333333333336
150.0   150.0   50.0
100.0   120.0   50.0
100.0   150.0   50.0
150.0   150.0   50.0
100.0   150.0   33.333333333333336
100.0   120.0   50.0
150.0   150.0   50.0
150.0   120.0   50.0
150.0   120.0   33.333333333333336
100.0   120.0   50.0
150.0   150.0   50.0
150.0   120.0   33.333333333333336
100.0   150.0   33.333333333333336
150.0   0.0   0.0
200.0   0.0   0.0
150.0   30.0   0.0
150.0   0.0   16.666666666666668
200.0   0.0   0.0
200.0   30.0   0.0
150.0   30.0   0.0
200.0   30.0   16.666666666666668
150.0   0.0   16.666666666666668
150.0   30.0   16.666666666666668
200.0   30.0   16.666666666666668
150.0   30.0   0.0
150.0   0.0   16.666666666666668
200.0   30.0   16.666666666666668
200.0   0.0   16.666666666666668
200.0   0.0   0.0
150.0   0.0   16.666666666666668
200.0   30.0   16.666666666666668
200.0   0.0   0.0
150.0   30.0   0.0
150.0   0.0   16.666666666666668
200.0   0.0   16.666666666666668
150.0   30.0   16.666666666666668
150.0   0.0   33.333333333333336
200.0   0.0   16.666666666666668
200.0   30.0   16.666666666666668
150.0   30.0   16.666666666666668
200.0   30.0   33.333333333333336
150.0   0.0   33.333333333333336
150.0   30.0   33.333333333333336
200.0   30.0   33.333333333333336
150.0   30.0   16.666666666666668
150.0   0.0   33.333333333333336
200.0   30.0   33.333333333333336
200.0   0.0   33.333333333333336
200.0   0.0   16.666666666666668
150.0   0.0   33.333333333333336
200.0   30.0   33.333333333333336
200.0   0.0   16.666666666666668
150.0   30.0   16.666666666666668
150.0   0.0   33.333333333333336
200.0   0.0   33.333333333333336
150.0   30.0   33.333333333333336
150.0   0.0   50.0
200.0   0.0   33.333333333333336
200.0   30.0   33.333333333333336
150.0   30.0   33.333333333333336
200.0   30.0   50.0
150.0   0.0   50.0
150.0   30.0   50.0
200.0   30.0   50.0
150.0   30.0   33.333333333333336
150.0   0.0   50.0
200.0   30.0   50.0
200.0   0.0   50.0
200.0   0.0   33.333333333333336
150.0   0.0   50.0
200.0   30.0   50.0
200.0   0.0   33.333333333333336
150.0   30.0   33.333333333333336
150.0   30.0   0.0
200.0   30.0   0.0
150.0   60.0   0.0
150.0   30.0   16.666666666666668
200.0   30.0   0.0
200.0   60.0   0.0
150.0   60.0   0.0
200.0   60.0   16.666666666666668
150.0   30.0   16.666666666666668
150.0   60.0   16.666666666666668
200.0   60.0   16.666666666666668
150.0   60.0   0.0
150.0   30.0   16.666666666666668
200.0   60.0   16.666666666666668
200.0   30.0   16.666666666666668
200.0   30.0   0.0
150.0   30.0   16.666666666666668
200.0   60.0   16.666666666666668
200.0   30.0   0.0
150.0   60.0   0.0
150.0   30.0   16.666666666666668
200.0   30.0   16.666666666666668
150.0   60.0   16.666666666666668
150.0   30.0   33.333333333333336
200.0   30.0   16.666666666666668
200.0   60.0   16.666666666666668
150.0   60.0   16.666666666666668
200.0   60.0   33.333333333333336
150.0   30.0   33.333333333333336
150.0   60.0   33.333333333333336
200.0   60.0   33.333333333333336
150.0   60.0   16.666666666666668
150.0   30.0   33.333333333333336
200.0   60.0   33.333333333333336
200.0   30.0   33.333333333333336
200.0   30.0   16.666666666666668
150.0   30.0   33.333333333333336
200.0   60.0   33.333333333333336
200.0   30.0   16.666666666666668
150.0   60.0   16.666666666666668
150.0   30.0   33.333333333333336
200.0   30.0   33.333333333333336
150.0   60.0   33.333333333333336
150.0   30.0   50.0
200.0   30.0   33.333333333333336
200.0   60.0   33.333333333333336
150.0   60.0   33.333333333333336
200.0   60.0   50.0
150.0   30.0   50.0
150.0   60.0   50.0
200.0   60.0   50.0
150.0   60.0   33.333333333333336
150.0   30.0   50.0
200.0   60.0   50.0
200.0   30.0   50.0
200.0   30.0   33.333333333333336
150.0   30.0   50.0
200.0   60.0   50.0
200.0   30.0   33.333333333333336
150.0   60.0   33.333333333333336
150.0   60.0   0.0
200.0   60.0   0.0
150.0   90.0   0.0
150.0   60.0   16.666666666666668
200.0   60.0   0.0
200.0   90.0   0.0
150.0   90.0   0.0
200.0   90.0   16.666666666666668
150.0   60.0   16.666666666666668
150.0   90.0   16.666666666666668
200.0   90.0   16.666666666666668
150.0   90.0   0.0
150.0   60.0   16.666666666666668
200.0   90.0   16.666666666666668
200.0   60.0   16.666666666666668
200.0   60.0   0.0
150.0   60.0   16.666666666666668
200.0   90.0   16.666666666666668
200.0   60.0   0.0
150.0   90.0   0.0
150.0   60.0   16.666666666666668
200.0   60.0   16.666666666666668
150.0   90.0   16.666666666666668
150.0   60.0   33.333333333333336
200.0   60.0   16.666666666666668
200.0   90.0   16.666666666666668
150.0   90.0   16.666666666666668
200.0   90.0   33.333333333333336
150.0   60.0   33.333333333333336
150.0   90.0   33.333333333333336
200.0   90.0   33.333333333333336
150.0   90.0   16.666666666666668
150.0   60.0   33.333333333333336
200.0   90.0   33.333333333333336
200.0   60.0   33.333333333333336
200.0   60.0   16.666666666666668
150.0   60.0   33.333333333333336
200.0   90.0   33.333333333333336
200.0   60.0   16.666666666666668
150.0   90.0   16.666666666666668
150.0   60.0   33.333333333333336
200.0   60.0   33.333333333333336
150.0   90.0   33.333333333333336
150.0   60.0   50.0
200.0   60.0   33.333333333333336
200.0   90.0   33.333333333333336
150.0   90.0   33.333333333333336
200.0   90.0   50.0
150.0   60.0   50.0
150.0   90.0   50.0
200.0   90.0   50.0
150.0   90.0   33.333333333333336
150.0   60.0   50.0
200.0   90.0   50.0
200.0   60.0   50.0
200.0   60.0   33.333333333333336
150.0   60.0   50.0
200.0   90.0   50.0
200.0   60.0   33.333333333333336
150.0   90.0   33.333333333333336
150.0   90.0   0.0
200.0   90.0   0.0
150.0   120.0   0.0
150.0   90.0   16.666666666666668
200.0   90.0   0.0
200.0   120.0   0.0
150.0   120.0   0.0
200.0   120.0   16.666666666666668
150.0   90.0   16.666666666666668
150.0   120.0   16.666666666666668
200.0   120.0   16.666666666666668
150.0   120.0   0.0
150.0   90.0   16.666666666666668
200.0   120.0   16.666666666666668
200.0   90.0   16.666666666666668
200.0   90.0   0.0
150.0   90.0   16.666666666666668
200.0   120.0   16.666666666666668
200.0   90.0   0.0
150.0   120.0   0.0
150.0   90.0   16.666666666666668
200.0   90.0   16.666666666666668
150.0   120.0   16.666666666666668
150.0   90.0   33.333333333333336
200.0   90.0   16.666666666666668
200.0   120.0   16.666666666666668
150.0   120.0   16.666666666666668
200.0   120.0   33.333333333333336
150.0   90.0   33.333333333333336
150.0   120.0   33.333333333333336
200.0   120.0   33.333333333333336
150.0   120.0   16.666666666666668
150.0   90.0   33.333333333333336
200.0   120.0   33.333333333333336
200.0   90.0   33.333333333333336
200.0   90.0   16.666666666666668
150.0   90.0   33.333333333333336
200.0   120.0   33.333333333333336
200.0   90.0   16.666666666666668
150.0   120.0   16.666666666666668
150.0   90.0   33.333333333333336
200.0   90.0   33.333333333333336
150.0   120.0   33.333333333333336
150.0   90.0   50.0
200.0   90.0   33.333333333333336
200.0   120.0   33.333333333333336
150.0   120.0   33.333333333333336
200.0   120.0   50.0
150.0   90.0   50.0
150.0   120.0   50.0
200.0   120.0   50.0
150.0   120.0   33.333333333333336
150.0   90.0   50.0
200.0   120.0   50.0
200.0   90.0   50.0
200.0   90.0   33.333333333333336
150.0   90.0   50.0
200.0   120.0   50.0
200.0   90.0   33.333333333333336
150.0   120.0   33.333333333333336
150.0   120.0   0.0
200.0   120.0   0.0
150.0   150.0   0.0
150.0   120.0   16.666666666666668
200.0   120.0   0.0
200.0   150.0   0.0
150.0   150.0   0.0
200.0   150.0   16.666666666666668
150.0   120.0   16.666666666666668
150.0   150.0   16.666666666666668
200.0   150.0   16.666666666666668
150.0   150.0   0.0
150.0   120.0   16.666666666666668
200.0   150.0   16.666666666666668
200.0   120.0   16.666666666666668
200.0   120.0   0.0
150.0   120.0   16.666666666666668
200.0   150.0   16.666666666666668
200.0   120.0   0.0
150.0   150.0   0.0
150.0   120.0   16.666666666666668
200.0   120.0   16.666666666666668
150.0   150.0   16.666666666666668
150.0   120.0   33.333333333333336
200.0   120.0   16.666666666666668
200.0   150.0   16.666666666666668
150.0   150.0   16.666666666666668
200.0   150.0   33.333333333333336
150.0   120.0   33.333333333333336
150.0   150.0   33.333333333333336
200.0   150.0   33.333333333333336
150.0   150.0   16.666666666666668
150.0   120.0   33.333333333333336
200.0   150.0   33.333333333333336
200.0   120.0   33.333333333333336
200.0   120.0   16.666666666666668
150.0   120.0   33.333333333333336
200.0   150.0   33.333333333333336
200.0   120.0   16.666666666666668
150.0   150.0   16.666666666666668
150.0   120.0   33.333333333333336
200.0   120.0   33.333333333333336
150.0   150.0   33.333333333333336
150.0   120.0   50.0
200.0   120.0   33.333333333333336
200.0   150.0   33.333333333333336
150.0   150.0   33.333333333333336
200.0   150.0   50.0
150.0   120.0   50.0
150.0   150.0   50.0
200.0   150.0   50.0
150.0   150.0   33.333333333333336
150.0   120.0   50.0
200.0   150.0   50.0
200.0   120.0   50.0
200.0   120.0   33.333333333333336
150.0   120.0   50.0
200.0   150.0   50.0
200.0   120.0   33.333333333333336
150.0   150.0   33.333333333333336
200.0   0.0   0.0
250.0   0.0   0.0
200.0   30.0   0.0
200.0   0.0   16.666666666666668
250.0   0.0   0.0
250.0   30.0   0.0
200.0   30.0   0.0
250.0   30.0   16.666666666666668
200.0   0.0   16.666666666666668
200.0   30.0   16.666666666666668
250.0   30.0   16.666666666666668
200.0   30.0   0.0
200.0   0.0   16.666666666666668
250.0   30.0   16.666666666666668
250.0   0.0   16.666666666666668
250.0   0.0   0.0
200.0   0.0   16.666666666666668
250.0   30.0   16.666666666666668
250.0   0.0   0.0
200.0   30.0   0.0
200.0   0.0   16.666666666666668
250.0   0.0   16.666666666666668
200.0   30.0   16.666666666666668
200.0   0.0   33.333333333333336
250.0   0.0   16.666666666666668
250.0   30.0   16.666666666666668
200.0   30.0   16.666666666666668
250.0   30.0   33.333333333333336
200.0   0.0   33.333333333333336
200.0   30.0   33.333333333333336
250.0   30.0   33.333333333333336
200.0   30.0   16.666666666666668
200.0   0.0   33.333333333333336
250.0   30.0   33.333333333333336
250.0   0.0   33.333333333333336
250.0   0.0   16.666666666666668
200.0   0.0   33.333333333333336
250.0   30.0   33.333333333333336
250.0   0.0   16.666666666666668
200.0   30.0   16.666666666666668
200.0   0.0   33.333333333333336
250.0   0.0   33.333333333333336
200.0   30.0   33.333333333333336
200.0   0.0   50.0
250.0   0.0   33.333333333333336
250.0   30.0   33.333333333333336
200.0   30.0   33.333333333333336
250.0   30.0   50.0
200.0   0.0   50.0
200.0   30.0   50.0
250.0   30.0   50.0
200.0   30.0   33.333333333333336
200.0   0.0   50.0
250.0   30.0   50.0
250.0   0.0   50.0
250.0   0.0   33.333333333333336
200.0   0.0   50.0
250.0   30.0   50.0
250.0   0.0   33.333333333333336
200.0   30.0   33.333333333333336
200.0   30.0   0.0
250.0   30.0   0.0
200.0   60.0   0.0
200.0   30.0   16.666666666666668
250.0   30.0   0.0
250.0   60.0   0.0
200.0   60.0   0.0
250.0   60.0   16.666666666666668
200.0   30.0   16.666666666666668
200.0   60.0   16.666666666666668
250.0   60.0   16.666666666666668
200.0   60.0   0.0
200.0   30.0   16.666666666666668
250.0   60.0   16.666666666666668
250.0   30.0   16.666666666666668
250.0   30.0   0.0
200.0   30.0   16.666666666666668
250.0   60.0   16.666666666666668
250.0   30.0   0.0
200.0   60.0   0.0
200.0   30.0   16.666666666666668
250.0   30.0   16.666666666666668
200.0   60.0   16.666666666666668
200.0   30.0   33.333333333333336
250.0   30.0   16.666666666666668
250.0   60.0   16.666666666666668
200.0   60.0   16.666666666666668
250.0   60.0   33.333333333333336
200.0   30.0   33.333333333333336
200.0   60.0   33.333333333333336
250.0   60.0   33.333333333333336
200.0   60.0   16.666666666666668
200.0   30.0   33.333333333333336
250.0   60.0   33.333333333333336
250.0   30.0   33.333333333333336
250.0   30.0   16.666666666666668
200.0   30.0   33.333333333333336
250.0   60.0   33.333333333333336
250.0   30.0   16.666666666666668
200.0   60.0   16.666666666666668
200.0   30.0   33.333333333333336
250.0   30.0   33.333333333333336
200.0   60.0   33.333333333333336
200.0   30.0   50.0
250.0   30.0   33.333333333333336
250.0   60.0   33.333333333333336
200.0   60.0   33.333333333333336
250.0   60.0   50.0
200.0   30.0   50.0
200.0   60.0   50.0
250.0   60.0   50.0
200.0   60.0   33.333333333333336
200.0   30.0   50.0
250.0   60.0   50.0
250.0   30.0   50.0
250.0   30.0   33.333333333333336
200.0   30.0   50.0
250.0   60.0   50.0
250.0   30.0   33.333333333333336
200.0   60.0   33.333333333333336
200.0   60.0   0.0
250.0   60.0   0.0
200.0   90.0   0.0
200.0   60.0   16.666666666666668
250.0   60.0   0.0
250.0   90.0   0.0
200.0   90.0   0.0
250.0   90.0   16.666666666666668
200.0   60.0   16.666666666666668
200.0   90.0   16.666666666666668
250.0   90.0   16.666666666666668
200.0   90.0   0.0
200.0   60.0   16.666666666666668
250.0   90.0   16.666666666666668
250.0   60.0   16.666666666666668
250.0   60.0   0.0
200.0   60.0   16.666666666666668
250.0   90.0   16.666666666666668
250.0   60.0   0.0
200.0   90.0   0.0
200.0   60.0   16.666666666666668
250.0   60.0   16.666666666666668
200.0   90.0   16.666666666666668
200.0   60.0   33.333333333333336
250.0   60.0   16.666666666666668
250.0   90.0   16.666666666666668
200.0   90.0   16.666666666666668
250.0   90.0   33.333333333333336
200.0   60.0   33.333333333333336
200.0   90.0   33.333333333333336
250.0   90.0   33.333333333333336
200.0   90.0   16.666666666666668
200.0   60.0   33.333333333333336
250.0   90.0   33.333333333333336
250.0   60.0   33.333333333333336
250.0   60.0   16.666666666666668
200.0   60.0   33.333333333333336
250.0   90.0   33.333333333333336
250.0   60.0   16.666666666666668
200.0   90.0   16.666666666666668
200.0   60.0   33.333333333333336
250.0   60.0   33.333333333333336
200.0   90.0   33.333333333333336
200.0   60.0   50.0
250.0   60.0   33.333333333333336
250.0   90.0   33.333333333333336
200.0   90.0   33.333333333333336
250.0   90.0   50.0
200.0   60.0   50.0
200.0   90.0   50.0
250.0   90.0   50.0
200.0   90.0   33.333333333333336
200.0   60.0   50.0
250.0   90.0   50.0
250.0   60.0   50.0
250.0   60.0   33.333333333333336
200.0   60.0   50.0
250.0   90.0   50.0
250.0   60.0   33.333333333333336
200.0   90.0   33.333333333333336
200.0   90.0   0.0
250.0   90.0   0.0
200.0   120.0   0.0
200.0   90.0   16.666666666666668
250.0   90.0   0.0
250.0   120.0   0.0
200.0   120.0   0.0
250.0   120.0   16.666666666666668
200.0   90.0   16.666666666666668
200.0   120.0   16.666666666666668
250.0   120.0   16.666666666666668
200.0   120.0   0.0
200.0   90.0   16.666666666666668
250.0   120.0   16.666666666666668
250.0   90.0   16.666666666666668
250.0   90.0   0.0
200.0   90.0   16.666666666666668
250.0   120.0   16.666666666666668
250.0   90.0   0.0
200.0   120.0   0.0
200.0   90.0   16.666666666666668
250.0   90.0   16.666666666666668
200.0   120.0   16.666666666666668
200.0   90.0   33.333333333333336
250.0   90.0   16.666666666666668
250.0   120.0   16.666666666666668
200.0   120.0   16.666666666666668
250.0   120.0   33.333333333333336
200.0   90.0   33.333333333333336
200.0   120.0   33.333333333333336
250.0   120.0   33.333333333333336
200.0   120.0   16.666666666666668
200.0   90.0   33.333333333333336
250.0   120.0   33.333333333333336
250.0   90.0   33.333333333333336
250.0   90.0   16.666666666666668
200.0   90.0   33.333333333333336
250.0   120.0   33.333333333333336
250.0   90.0   16.666666666666668
200.0   120.0   16.666666666666668
200.0   90.0   33.333333333333336
250.0   90.0   33.333333333333336
200.0   120.0   33.333333333333336
200.0   90.0   50.0
250.0   90.0   33.333333333333336
250.0   120.0   33.333333333333336
200.0   120.0   33.333333333333336
250.0   120.0   50.0
200.0   90.0   50.0
200.0   120.0   50.0
250.0   120.0   50.0
200.0   120.0   33.333333333333336
200.0   90.0   50.0
250.0   120.0   50.0
250.0   90.0   50.0
250.0   90.0   33.333333333333336
200.0   90.0   50.0
250.0   120.0   50.0
250.0   90.0   33.333333333333336
200.0   120.0   33.333333333333336
200.0   120.0   0.0
250.0   120.0   0.0
200.0   150.0   0.0
200.0   120.0   16.666666666666668
250.0   120.0   0.0
250.0   150.0   0.0
200.0   150.0   0.0
250.0   150.0   16.666666666666668
200.0   120.0   16.666666666666668
200.0   150.0   16.666666666666668
250.0   150.0   16.666666666666668
200.0   150.0   0.0
200.0   120.0   16.666666666666668
250.0   150.0   16.666666666666668
250.0   120.0   16.666666666666668
250.0   120.0   0.0
200.0   120.0   16.666666666666668
250.0   150.0   16.666666666666668
250.0   120.0   0.0
200.0   150.0   0.0
200.0   120.0   16.666666666666668
250.0   120.0   16.666666666666668
200.0   150.0   16.666666666666668
200.0   120.0   33.333333333333336
250.0   120.0   16.666666666666668
250.0   150.0   16.666666666666668
200.0   150.0   16.666666666666668
250.0   150.0   33.333333333333336
200.0   120.0   33.333333333333336
200.0   150.0   33.333333333333336
250.0   150.0   33.333333333333336
200.0   150.0   16.666666666666668
200.0   120.0   33.333333333333336
250.0   150.0   33.333333333333336
250.0   120.0   33.333333333333336
250.0   120.0   16.666666666666668
200.0   120.0   33.333333333333336
250.0   150.0   33.333333333333336
250.0   120.0   16.666666666666668
200.0   150.0   16.666666666666668
200.0   120.0   33.333333333333336
250.0   120.0   33.333333333333336
200.0   150.0   33.333333333333336
200.0   120.0   50.0
250.0   120.0   33.333333333333336
250.0   150.0   33.333333333333336
200.0   150.0   33.333333333333336
250.0   150.0   50.0
200.0   120.0   50.0
200.0   150.0   50.0
250.0   150.0   50.0
200.0   150.0   33.333333333333336
200.0   120.0   50.0
250.0   150.0   50.0
250.0   120.0   50.0
250.0   120.0   33.333333333333336
200.0   120.0   50.0
250.0   150.0   50.0
250.0   120.0   33.333333333333336
200.0   150.0   33.333333333333336
250.0   0.0   0.0
300.0   0.0   0.0
250.0   30.0   0.0
250.0   0.0   16.666666666666668
300.0   0.0   0.0
300.0   30.0   0.0
250.0   30.0   0.0
300.0   30.0   16.666666666666668
250.0   0.0   16.666666666666668
250.0   30.0   16.666666666666668
300.0   30.0   16.666666666666668
250.0   30.0   0.0
250.0   0.0   16.666666666666668
300.0   30.0   16.666666666666668
300.0   0.0   16.666666666666668
300.0   0.0   0.0
250.0   0.0   16.666666666666668
300.0   30.0   16.666666666666668
300.0   0.0   0.0
250.0   30.0   0.0
250.0   0.0   16.666666666666668
300.0   0.0   16.666666666666668
250.0   30.0   16.666666666666668
250.0   0.0   33.333333333333336
300.0   0.0   16.666666666666668
300.0   30.0   16.666666666666668
250.0   30.0   16.666666666666668
300.0   30.0   33.333333333333336
250.0   0.0   33.333333333333336
250.0   30.0   33.333333333333336
300.0   30.0   33.333333333333336
250.0   30.0   16.666666666666668
250.0   0.0   33.333333333333336
300.0   30.0   33.333333333333336
300.0   0.0   33.333333333333336
300.0   0.0   16.666666666666668
250.0   0.0   33.333333333333336
300.0   30.0   33.333333333333336
300.0   0.0   16.666666666666668
250.0   30.0   16.666666666666668
250.0   0.0   33.333333333333336
300.0   0.0   33.333333333333336
250.0   30.0   33.333333333333336
250.0   0.0   50.0
300.0   0.0   33.333333333333336
300.0   30.0   33.333333333333336
250.0   30.0   33.333333333333336
300.0   30.0   50.0
250.0   0.0   50.0
250.0   30.0   50.0
300.0   30.0   50.0
250.0   30.0   33.333333333333336
250.0   0.0   50.0
300.0   30.0   50.0
300.0   0.0   50.0
300.0   0.0   33.333333333333336
250.0   0.0   50.0
300.0   30.0   50.0
300.0   0.0   33.333333333333336
250.0   30.0   33.333333333333336
250.0   30.0   0.0
300.0   30.0   0.0
250.0   60.0   0.0
250.0   30.0   16.666666666666668
300.0   30.0   0.0
300.0   60.0   0.0
250.0   60.0   0.0
300.0   60.0   16.666666666666668
250.0   30.0   16.666666666666668
250.0   60.0   16.666666666666668
300.0   60.0   16.666666666666668
250.0   60.0   0.0
250.0   30.0   16.666666666666668
300.0   60.0   16.666666666666668
300.0   30.0   16.666666666666668
300.0   30.0   0.0
250.0   30.0   16.666666666666668
300.0   60.0   16.666666666666668
300.0   30.0   0.0
250.0   60.0   0.0
250.0   30.0   16.666666666666668
300.0   30.0   16.666666666666668
250.0   60.0   16.666666666666668
250.0   30.0   33.333333333333336
300.0   30.0   16.666666666666668
300.0   60.0   16.666666666666668
250.0   60.0   16.666666666666668
300.0   60.0   33.333333333333336
250.0   30.0   33.333333333333336
250.0   60.0   33.333333333333336
300.0   60.0   33.333333333333336
250.0   60.0   16.666666666666668
250.0   30.0   33.333333333333336
300.0   60.0   33.333333333333336
300.0   30.0   33.333333333333336
300.0   30.0   16.666666666666668
250.0   30.0   33.333333333333336
300.0   60.0   33.333333333333336
300.0   30.0   16.666666666666668
250.0   60.0   16.666666666666668
250.0   30.0   33.333333333333336
300.0   30.0   33.333333333333336
250.0   60.0   33.333333333333336
250.0   30.0   50.0
300.0   30.0   33.333333333333336
300.0   60.0   33.333333333333336
250.0   60.0   33.333333333333336
300.0   60.0   50.0
250.0   30.0   50.0
250.0   60.0   50.0
300.0   60.0   50.0
250.0   60.0   33.333333333333336
250.0   30.0   50.0
300.0   60.0   50.0
300.0   30.0   50.0
300.0   30.0   33.333333333333336
250.0   30.0   50.0
300.0   60.0   50.0
300.0   30.0   33.333333333333336
250.0   60.0   33.333333333333336
250.0   60.0   0.0
300.0   60.0   0.0
250.0   90.0   0.0
250.0   60.0   16.666666666666668
300.0   60.0   0.0
300.0   90.0   0.0
250.0   90.0   0.0
300.0   90.0   16.666666666666668
250.0   60.0   16.666666666666668
250.0   90.0   16.666666666666668
300.0   90.0   16.666666666666668
250.0   90.0   0.0
250.0   60.0   16.666666666666668
300.0   90.0   16.666666666666668
300.0   60.0   16.666666666666668
300.0   60.0   0.0
250.0   60.0   16.666666666666668
300.0   90.0   16.666666666666668
300.0   60.0   0.0
250.0   90.0   0.0
250.0   60.0   16.666666666666668
300.0   60.0   16.666666666666668
250.0   90.0   16.666666666666668
250.0   60.0   33.333333333333336
300.0   60.0   16.666666666666668
300.0   90.0   16.666666666666668
250.0   90.0   16.666666666666668
300.0   90.0   33.333333333333336
250.0   60.0   33.333333333333336
250.0   90.0   33.333333333333336
300.0   90.0   33.333333333333336
250.0   90.0   16.666666666666668
250.0   60.0   33.333333333333336
300.0   90.0   33.333333333333336
300.0   60.0   33.333333333333336
300.0   60.0   16.666666666666668
250.0   60.0   33.333333333333336
300.0   90.0   33.333333333333336
300.0   60.0   16.666666666666668
250.0   90.0   16.666666666666668
250.0   60.0   33.333333333333336
300.0   60.0   33.333333333333336
250.0   90.0   33.333333333333336
250.0   60.0   50.0
300.0   60.0   33.333333333333336
300.0   90.0   33.333333333333336
250.0   90.0   33.333333333333336
300.0   90.0   50.0
250.0   60.0   50.0
250.0   90.0   50.0
300.0   90.0   50.0
250.0   90.0   33.333333333333336
250.0   60.0   50.0
300.0   90.0   50.0
300.0   60.0   50.0
300.0   60.0   33.333333333333336
250.0   60.0   50.0
300.0   90.0   50.0
300.0   60.0   33.333333333333336
250.0   90.0   33.333333333333336
250.0   90.0   0.0
300.0   90.0   0.0
250.0   120.0   0.0
250.0   90.0   16.666666666666668
300.0   90.0   0.0
300.0   120.0   0.0
250.0   120.0   0.0
300.0   120.0   16.666666666666668
250.0   90.0   16.666666666666668
250.0   120.0   16.666666666666668
300.0   120.0   16.666666666666668
250.0   120.0   0.0
250.0   90.0   16.666666666666668
300.0   120.0   16.666666666666668
300.0   90.0   16.666666666666668
300.0   90.0   0.0
250.0   90.0   16.666666666666668
300.0   120.0   16.666666666666668
300.0   90.0   0.0
250.0   120.0   0.0
250.0   90.0   16.666666666666668
300.0   90.0   16.666666666666668
250.0   120.0   16.666666666666668
250.0   90.0   33.333333333333336
300.0   90.0   16.666666666666668
300.0   120.0   16.666666666666668
250.0   120.0   16.666666666666668
300.0   120.0   33.333333333333336
250.0   90.0   33.333333333333336
250.0   120.0   33.333333333333336
300.0   120.0   33.333333333333336
250.0   120.0   16.666666666666668
250.0   90.0   33.333333333333336
300.0   120.0   33.333333333333336
300.0   90.0   33.333333333333336
300.0   90.0   16.666666666666668
250.0   90.0   33.333333333333336
300.0   120.0   33.333333333333336
300.0   90.0   16.666666666666668
250.0   120.0   16.666666666666668
250.0   90.0   33.333333333333336
300.0   90.0   33.333333333333336
250.0   120.0   33.333333333333336
250.0   90.0   50.0
300.0   90.0   33.333333333333336
300.0   120.0   33.333333333333336
250.0   120.0   33.333333333333336
300.0   120.0   50.0
250.0   90.0   50.0
250.0   120.0   50.0
300.0   120.0   50.0
250.0   120.0   33.333333333333336
250.0   90.0   50.0
300.0   120.0   50.0
300.0   90.0   50.0
300.0   90.0   33.333333333333336
250.0   90.0   50.0
300.0   120.0   50.0
300.0   90.0   33.333333333333336
250.0   120.0   33.333333333333336
250.0   120.0   0.0
300.0   120.0   0.0
250.0   150.0   0.0
250.0   120.0   16.666666666666668
300.0   120.0   0.0
300.0   150.0   0.0
250.0   150.0   0.0
300.0   150.0   16.666666666666668
250.0   120.0   16.666666666666668
250.0   150.0   16.666666666666668
300.0   150.0   16.666666666666668
250.0   150.0   0.0
250.0   120.0   16.666666666666668
300.0   150.0   16.666666666666668
300.0   120.0   16.666666666666668
300.0   120.0   0.0
250.0   120.0   16.666666666666668
300.0   150.0   16.666666666666668
300.0   120.0   0.0
250.0   150.0   0.0
250.0   120.0   16.666666666666668
300.0   120.0   16.666666666666668
250.0   150.0   16.666666666666668
250.0   120.0   33.333333333333336
300.0   120.0   16.666666666666668
300.0   150.0   16.666666666666668
250.0   150.0   16.666666666666668
300.0   150.0   33.333333333333336
250.0   120.0   33.333333333333336
250.0   150.0   33.333333333333336
300.0   150.0   33.333333333333336
250.0   150.0   16.666666666666668
250.0   120.0   33.333333333333336
300.0   150.0   33.333333333333336
300.0   120.0   33.333333333333336
300.0   120.0   16.666666666666668
250.0   120.0   33.333333333333336
300.0   150.0   33.333333333333336
300.0   120.0   16.666666666666668
250.0   150.0   16.666666666666668
250.0   120.0   33.333333333333336
300.0   120.0   33.333333333333336
250.0   150.0   33.333333333333336
250.0   120.0   50.0
300.0   120.0   33.333333333333336
300.0   150.0   33.333333333333336
250.0   150.0   33.333333333333336
300.0   150.0   50.0
250.0   120.0   50.0
250.0   150.0   50.0
300.0   150.0   50.0
250.0   150.0   33.333333333333336
250.0   120.0   50.0
300.0   150.0   50.0
300.0   120.0   50.0
300.0   120.0   33.333333333333336
250.0   120.0   50.0
300.0   150.0   50.0
300.0   120.0   33.333333333333336
250.0   150.0   33.333333333333336
300.0   0.0   0.0
350.0   0.0   0.0
300.0   30.0   0.0
300.0   0.0   16.666666666666668
350.0   0.0   0.0
350.0   30.0   0.0
300.0   30.0   0.0
350.0   30.0   16.666666666666668
300.0   0.0   16.666666666666668
300.0   30.0   16.666666666666668
350.0   30.0   16.666666666666668
300.0   30.0   0.0
300.0   0.0   16.666666666666668
350.0   30.0   16.666666666666668
350.0   0.0   16.666666666666668
350.0   0.0   0.0
300.0   0.0   16.666666666666668
350.0   30.0   16.666666666666668
350.0   0.0   0.0
300.0   30.0   0.0
300.0   0.0   16.666666666666668
350.0   0.0   16.666666666666668
300.0   30.0   16.666666666666668
300.0   0.0   33.333333333333336
350.0   0.0   16.666666666666668
350.0   30.0   16.666666666666668
300.0   30.0   16.666666666666668
350.0   30.0   33.333333333333336
300.0   0.0   33.333333333333336
300.0   30.0   33.333333333333336
350.0   30.0   33.333333333333336
300.0   30.0   16.666666666666668
300.0   0.0   33.333333333333336
350.0   30.0   33.333333333333336
350.0   0.0   33.333333333333336
350.0   0.0   16.666666666666668
300.0   0.0   33.333333333333336
350.0   30.0   33.333333333333336
350.0   0.0   16.666666666666668
300.0   30.0   16.666666666666668
300.0   0.0   33.333333333333336
350.0   0.0   33.333333333333336
300.0   30.0   33.333333333333336
300.0   0.0   50.0
350.0   0.0   33.333333333333336
350.0   30.0   33.333333333333336
300.0   30.0   33.333333333333336
350.0   30.0   50.0
300.0   0.0   50.0
300.0   30.0   50.0
350.0   30.0   50.0
300.0   30.0   33.333333333333336
300.0   0.0   50.0
350.0   30.0   50.0
350.0   0.0   50.0
350.0   0.0   33.333333333333336
300.0   0.0   50.0
350.0   30.0   50.0
350.0   0.0   33.333333333333336
300.0   30.0   33.333333333333336
300.0   30.0   0.0
350.0   30.0   0.0
300.0   60.0   0.0
300.0   30.0   16.666666666666668
350.0   30.0   0.0
350.0   60.0   0.0
300.0   60.0   0.0
350.0   60.0   16.666666666666668
300.0   30.0   16.666666666666668
300.0   60.0   16.666666666666668
350.0   60.0   16.666666666666668
300.0   60.0   0.0
300.0   30.0   16.666666666666668
350.0   60.0   16.666666666666668
350.0   30.0   16.666666666666668
350.0   30.0   0.0
300.0   30.0   16.666666666666668
350.0   60.0   16.666666666666668
350.0   30.0   0.0
300.0   60.0   0.0
300.0   30.0   16.666666666666668
350.0   30.0   16.666666666666668
300.0   60.0   16.666666666666668
300.0   30.0   33.333333333333336
350.0   30.0   16.666666666666668
350.0   60.0   16.666666666666668
300.0   60.0   16.666666666666668
350.0   60.0   33.333333333333336
300.0   30.0   33.333333333333336
300.0   60.0   33.333333333333336
350.0   60.0   33.333333333333336
300.0   60.0   16.666666666666668
300.0   30.0   33.333333333333336
350.0   60.0   33.333333333333336
350.0   30.0   33.333333333333336
350.0   30.0   16.666666666666668
300.0   30.0   33.333333333333336
350.0   60.0   33.333333333333336
350.0   30.0   16.666666666666668
300.0   60.0   16.666666666666668
300.0   30.0   33.333333333333336
350.0   30.0   33.333333333333336
300.0   60.0   33.333333333333336
300.0   30.0   50.0
350.0   30.0   33.333333333333336
350.0   60.0   33.333333333333336
300.0   60.0   33.333333333333336
350.0   60.0   50.0
300.0   30.0   50.0
300.0   60.0   50.0
350.0   60.0   50.0
300.0   60.0   33.333333333333336
300.0   30.0   50.0
350.0   60.0   50.0
350.0   30.0   50.0
350.0   30.0   33.333333333333336
300.0   30.0   50.0
350.0   60.0   50.0
350.0   30.0   33.333333333333336
300.0   60.0   33.333333333333336
300.0   60.0   0.0
350.0   60.0   0.0
300.0   90.0   0.0
300.0   60.0   16.666666666666668
350.0   60.0   0.0
350.0   90.0   0.0
300.0   90.0   0.0
350.0   90.0   16.666666666666668
300.0   60.0   16.666666666666668
300.0   90.0   16.666666666666668
350.0   90.0   16.666666666666668
300.0   90.0   0.0
300.0   60.0   16.666666666666668
350.0   90.0   16.666666666666668
350.0   60.0   16.666666666666668
350.0   60.0   0.0
300.0   60.0   16.666666666666668
350.0   90.0   16.666666666666668
350.0   60.0   0.0
300.0   90.0   0.0
300.0   60.0   16.666666666666668
350.0   60.0   16.666666666666668
300.0   90.0   16.666666666666668
300.0   60.0   33.333333333333336
350.0   60.0   16.666666666666668
350.0   90.0   16.666666666666668
300.0   90.0   16.666666666666668
350.0   90.0   33.333333333333336
300.0   60.0   33.333333333333336
300.0   90.0   33.333333333333336
350.0   90.0   33.333333333333336
300.0   90.0   16.666666666666668
300.0   60.0   33.333333333333336
350.0   90.0   33.333333333333336
350.0   60.0   33.333333333333336
350.0   60.0   16.666666666666668
300.0   60.0   33.333333333333336
350.0   90.0   33.333333333333336
350.0   60.0   16.666666666666668
300.0   90.0   16.666666666666668
300.0   60.0   33.333333333333336
350.0   60.0   33.333333333333336
300.0   90.0   33.333333333333336
300.0   60.0   50.0
350.0   60.0   33.333333333333336
350.0   90.0   33.333333333333336
300.0   90.0   33.333333333333336
350.0   90.0   50.0
300.0   60.0   50.0
300.0   90.0   50.0
350.0   90.0   50.0
300.0   90.0   33.333333333333336
300.0   60.0   50.0
350.0   90.0   50.0
350.0   60.0   50.0
350.0   60.0   33.333333333333336
300.0   60.0   50.0
350.0   90.0   50.0
350.0   60.0   33.333333333333336
300.0   90.0   33.333333333333336
300.0   90.0   0.0
350.0   90.0   0.0
300.0   120.0   0.0
300.0   90.0   16.666666666666668
350.0   90.0   0.0
350.0   120.0   0.0
300.0   120.0   0.0
350.0   120.0   16.666666666666668
300.0   90.0   16.666666666666668
300.0   120.0   16.666666666666668
350.0   120.0   16.666666666666668
300.0   120.0   0.0
300.0   90.0   16.666666666666668
350.0   120.0   16.666666666666668
350.0   90.0   16.666666666666668
350.0   90.0   0.0
300.0   90.0   16.666666666666668
350.0   120.0   16.666666666666668
350.0   90.0   0.0
300.0   120.0   0.0
300.0   90.0   16.666666666666668
350.0   90.0   16.666666666666668
300.0   120.0   16.666666666666668
300.0   90.0   33.333333333333336
350.0   90.0   16.666666666666668
350.0   120.0   16.666666666666668
300.0   120.0   16.666666666666668
350.0   120.0   33.333333333333336
300.0   90.0   33.333333333333336
300.0   120.0   33.333333333333336
350.0   120.0   33.333333333333336
300.0   120.0   16.666666666666668
300.0   90.0   33.333333333333336
350.0   120.0   33.333333333333336
350.0   90.0   33.333333333333336
350.0   90.0   16.666666666666668
300.0   90.0   33.333333333333336
350.0   120.0   33.333333333333336
350.0   90.0   16.666666666666668
300.0   120.0   16.666666666666668
300.0   90.0   33.333333333333336
350.0   90.0   33.333333333333336
300.0   120.0   33.333333333333336
300.0   90.0   50.0
350.0   90.0   33.333333333333336
350.0   120.0   33.333333333333336
300.0   120.0   33.333333333333336
350.0   120.0   50.0
300.0   90.0   50.0
300.0   120.0   50.0
350.0   120.0   50.0
300.0   120.0   33.333333333333336
300.0   90.0   50.0
350.0   120.0   50.0
350.0   90.0   50.0
350.0   90.0   33.333333333333336
300.0   90.0   50.0
350.0   120.0   50.0
350.0   90.0   33.333333333333336
300.0   120.0   33.333333333333336
300.0   120.0   0.0
350.0   120.0   0.0
300.0   150.0   0.0
300.0   120.0   16.666666666666668
350.0   120.0   0.0
350.0   150.0   0.0
300.0   150.0   0.0
350.0   150.0   16.666666666666668
300.0   120.0   16.666666666666668
300.0   150.0   16.666666666666668
350.0   150.0   16.666666666666668
300.0   150.0   0.0
300.0   120.0   16.666666666666668
350.0   150.0   16.666666666666668
350.0   120.0   16.666666666666668
350.0   120.0   0.0
300.0   120.0   16.666666666666668
350.0   150.0   16.666666666666668
350.0   120.0   0.0
300.0   150.0   0.0
300.0   120.0   16.666666666666668
350.0   120.0   16.666666666666668
300.0   150.0   16.666666666666668
300.0   120.0   33.333333333333336
350.0   120.0   16.666666666666668
350.0   150.0   16.666666666666668
300.0   150.0   16.666666666666668
350.0   150.0   33.333333333333336
300.0   120.0   33.333333333333336
300.0   150.0   33.333333333333336
350.0   150.0   33.333333333333336
300.0   150.0   16.666666666666668
300.0   120.0   33.333333333333336
350.0   150.0   33.333333333333336
350.0   120.0   33.333333333333336
350.0   120.0   16.666666666666668
300.0   120.0   33.333333333333336
350.0   150.0   33.333333333333336
350.0   120.0   16.666666666666668
300.0   150.0   16.666666666666668
300.0   120.0   33.333333333333336
350.0   120.0   33.333333333333336
300.0   150.0   33.333333333333336
300.0   120.0   50.0
350.0   120.0   33.333333333333336
350.0   150.0   33.333333333333336
300.0   150.0   33.333333333333336
350.0   150.0   50.0
300.0   120.0   50.0
300.0   150.0   50.0
350.0   150.0   50.0
300.0   150.0   33.333333333333336
300.0   120.0   50.0
350.0   150.0   50.0
350.0   120.0   50.0
350.0   120.0   33.333333333333336
300.0   120.0   50.0
350.0   150.0   50.0
350.0   120.0   33.333333333333336
300.0   150.0   33.333333333333336
350.0   0.0   0.0
400.0   0.0   0.0
350.0   30.0   0.0
350.0   0.0   16.666666666666668
400.0   0.0   0.0
400.0   30.0   0.0
350.0   30.0   0.0
400.0   30.0   16.666666666666668
350.0   0.0   16.666666666666668
350.0   30.0   16.666666666666668
400.0   30.0   16.666666666666668
350.0   30.0   0.0
350.0   0.0   16.666666666666668
400.0   30.0   16.666666666666668
400.0   0.0   16.666666666666668
400.0   0.0   0.0
350.0   0.0   16.666666666666668
400.0   30.0   16.666666666666668
400.0   0.0   0.0
350.0   30.0   0.0
350.0   0.0   16.666666666666668
400.0   0.0   16.666666666666668
350.0   30.0   16.666666666666668
350.0   0.0   33.333333333333336
400.0   0.0   16.666666666666668
400.0   30.0   16.666666666666668
350.0   30.0   16.666666666666668
400.0   30.0   33.333333333333336
350.0   0.0   33.333333333333336
350.0   30.0   33.333333333333336
400.0   30.0   33.333333333333336
350.0   30.0   16.666666666666668
350.0   0.0   33.333333333333336
400.0   30.0   33.333333333333336
400.0   0.0   33.333333333333336
400.0   0.0   16.666666666666668
350.0   0.0   33.333333333333336
400.0   30.0   33.333333333333336
400.0   0.0   16.666666666666668
350.0   30.0   16.666666666666668
350.0   0.0   33.333333333333336
400.0   0.0   33.333333333333336
350.0   30.0   33.333333333333336
350.0   0.0   50.0
400.0   0.0   33.333333333333336
400.0   30.0   33.333333333333336
350.0   30.0   33.333333333333336
400.0   30.0   50.0
350.0   0.0   50.0
350.0   30.0   50.0
400.0   30.0   50.0
350.0   30.0   33.333333333333336
350.0   0.0   50.0
400.0   30.0   50.0
400.0   0.0   50.0
400.0   0.0   33.333333333333336
350.0   0.0   50.0
400.0   30.0   50.0
400.0   0.0   33.333333333333336
350.0   30.0   33.333333333333336
350.0   30.0   0.0
400.0   30.0   0.0
350.0   60.0   0.0
350.0   30.0   16.666666666666668
400.0   30.0   0.0
400.0   60.0   0.0
350.0   60.0   0.0
400.0   60.0   16.666666666666668
350.0   30.0   16.666666666666668
350.0   60.0   16.666666666666668
400.0   60.0   16.666666666666668
350.0   60.0   0.0
350.0   30.0   16.666666666666668
400.0   60.0   16.666666666666668
400.0   30.0   16.666666666666668
400.0   30.0   0.0
350.0   30.0   16.666666666666668
400.0   60.0   16.666666666666668
400.0   30.0   0.0
350.0   60.0   0.0
350.0   30.0   16.666666666666668
400.0   30.0   16.666666666666668
350.0   60.0   16.666666666666668
350.0   30.0   33.333333333333336
400.0   30.0   16.666666666666668
400.0   60.0   16.666666666666668
350.0   60.0   16.666666666666668
400.0   60.0   33.333333333333336
350.0   30.0   33.333333333333336
350.0   60.0   33.333333333333336
400.0   60.0   33.333333333333336
350.0   60.0   16.666666666666668
350.0   30.0   33.333333333333336
400.0   60.0   33.333333333333336
400.0   30.0   33.333333333333336
400.0   30.0   16.666666666666668
350.0   30.0   33.333333333333336
400.0   60.0   33.333333333333336
400.0   30.0   16.666666666666668
350.0   60.0   16.666666666666668
350.0   30.0   33.333333333333336
400.0   30.0   33.333333333333336
350.0   60.0   33.333333333333336
350.0   30.0   50.0
400.0   30.0   33.333333333333336
400.0   60.0   33.333333333333336
350.0   60.0   33.333333333333336
400.0   60.0   50.0
350.0   30.0   50.0
350.0   60.0   50.0
400.0   60.0   50.0
350.0   60.0   33.333333333333336
350.0   30.0   50.0
400.0   60.0   50.0
400.0   30.0   50.0
400.0   30.0   33.333333333333336
350.0   30.0   50.0
400.0   60.0   50.0
400.0   30.0   33.333333333333336
350.0   60.0   33.333333333333336
350.0   60.0   0.0
400.0   60.0   0.0
350.0   90.0   0.0
350.0   60.0   16.666666666666668
400.0   60.0   0.0
400.0   90.0   0.0
350.0   90.0   0.0
400.0   90.0   16.666666666666668
350.0   60.0   16.666666666666668
350.0   90.0   16.666666666666668
400.0   90.0   16.666666666666668
350.0   90.0   0.0
350.0   60.0   16.666666666666668
400.0   90.0   16.666666666666668
400.0   60.0   16.666666666666668
400.0   60.0   0.0
350.0   60.0   16.666666666666668
400.0   90.0   16.666666666666668
400.0   60.0   0.0
350.0   90.0   0.0
350.0   60.0   16.666666666666668
400.0   60.0   16.666666666666668
350.0   90.0   16.666666666666668
350.0   60.0   33.333333333333336
400.0   60.0   16.666666666666668
400.0   90.0   16.666666666666668
350.0   90.0   16.666666666666668
400.0   90.0   33.333333333333336
350.0   60.0   33.333333333333336
350.0   90.0   33.333333333333336
400.0   90.0   33.333333333333336
350.0   90.0   16.666666666666668
350.0   60.0   33.333333333333336
400.0   90.0   33.333333333333336
400.0   60.0   33.333333333333336
400.0   60.0   16.666666666666668
350.0   60.0   33.333333333333336
400.0   90.0   33.333333333333336
400.0   60.0   16.666666666666668
350.0   90.0   16.666666666666668
350.0   60.0   33.333333333333336
400.0   60.0   33.333333333333336
350.0   90.0   33.333333333333336
350.0   60.0   50.0
400.0   60.0   33.333333333333336
400.0   90.0   33.333333333333336
350.0   90.0   33.333333333333336
400.0   90.0   50.0
350.0   60.0   50.0
350.0   90.0   50.0
400.0   90.0   50.0
350.0   90.0   33.333333333333336
350.0   60.0   50.0
400.0   90.0   50.0
400.0   60.0   50.0
400.0   60.0   33.333333333333336
350.0   60.0   50.0
400.0   90.0   50.0
400.0   60.0   33.333333333333336
350.0   90.0   33.333333333333336
350.0   90.0   0.0
400.0   90.0   0.0
350.0   120.0   0.0
350.0   90.0   16.666666666666668
400.0   90.0   0.0
400.0   120.0   0.0
350.0   120.0   0.0
400.0   120.0   16.666666666666668
350.0   90.0   16.666666666666668
350.0   120.0   16.666666666666668
400.0   120.0   16.666666666666668
350.0   120.0   0.0
350.0   90.0   16.666666666666668
400.0   120.0   16.666666666666668
400.0   90.0   16.666666666666668
400.0   90.0   0.0
350.0   90.0   16.666666666666668
400.0   120.0   16.666666666666668
400.0   90.0   0.0
350.0   120.0   0.0
350.0   90.0   16.666666666666668
400.0   90.0   16.666666666666668
350.0   120.0   16.666666666666668
350.0   90.0   33.333333333333336
400.0   90.0   16.666666666666668
400.0   120.0   16.666666666666668
350.0   120.0   16.666666666666668
400.0   120.0   33.333333333333336
350.0   90.0   33.333333333333336
350.0   120.0   33.333333333333336
400.0   120.0   33.333333333333336
350.0   120.0   16.666666666666668
350.0   90.0   33.333333333333336
400.0   120.0   33.333333333333336
400.0   90.0   33.333333333333336
400.0   90.0   16.666666666666668
350.0   90.0   33.333333333333336
400.0   120.0   33.333333333333336
400.0   90.0   16.666666666666668
350.0   120.0   16.666666666666668
350.0   90.0   33.333333333333336
400.0   90.0   33.333333333333336
350.0   120.0   33.333333333333336
350.0   90.0   50.0
400.0   90.0   33.333333333333336
400.0   120.0   33.333333333333336
350.0   120.0   33.333333333333336
400.0   120.0   50.0
350.0   90.0   50.0
350.0   120.0   50.0
400.0   120.0   50.0
350.0   120.0   33.333333333333336
350.0   90.0   50.0
400.0   120.0   50.0
400.0   90.0   50.0
400.0   90.0   33.333333333333336
350.0   90.0   50.0
400.0   120.0   50.0
400.0   90.0   33.333333333333336
350.0   120.0   33.333333333333336
350.0   120.0   0.0
400.0   120.0   0.0
350.0   150.0   0.0
350.0   120.0   16.666666666666668
400.0   120.0   0.0
400.0   150.0   0.0
350.0   150.0   0.0
400.0   150.0   16.666666666666668
350.0   120.0   16.666666666666668
350.0   150.0   16.666666666666668
400.0   150.0   16.666666666666668
350.0   150.0   0.0
350.0   120.0   16.666666666666668
400.0   150.0   16.666666666666668
400.0   120.0   16.666666666666668
400.0   120.0   0.0
350.0   120.0   16.666666666666668
400.0   150.0   16.666666666666668
400.0   120.0   0.0
350.0   150.0   0.0
350.0   120.0   16.666666666666668
400.0   120.0   16.666666666666668
350.0   150.0   16.666666666666668
350.0   120.0   33.333333333333336
400.0   120.0   16.666666666666668
400.0   150.0   16.666666666666668
350.0   150.0   16.666666666666668
400.0   150.0   33.333333333333336
350.0   120.0   33.333333333333336
350.0   150.0   33.333333333333336
400.0   150.0   33.333333333333336
350.0   150.0   16.666666666666668
350.0   120.0   33.333333333333336
400.0   150.0   33.333333333333336
400.0   120.0   33.333333333333336
400.0   120.0   16.666666666666668
350.0   120.0   33.333333333333336
400.0   150.0   33.333333333333336
400.0   120.0   16.666666666666668
350.0   150.0   16.666666666666668
350.0   120.0   33.333333333333336
400.0   120.0   33.333333333333336
350.0   150.0   33.333333333333336
350.0   120.0   50.0
400.0   120.0   33.333333333333336
400.0   150.0   33.333333333333336
350.0   150.0   33.333333333333336
400.0   150.0   50.0
350.0   120.0   50.0
350.0   150.0   50.0
400.0   150.0   50.0
350.0   150.0   33.333333333333336
350.0   120.0   50.0
400.0   150.0   50.0
400.0   120.0   50.0
400.0   120.0   33.333333333333336
350.0   120.0   50.0
400.0   150.0   50.0
400.0   120.0   33.333333333333336
350.0   150.0   33.333333333333336
400.0   0.0   0.0
450.0   0.0   0.0
400.0   30.0   0.0
400.0   0.0   16.666666666666668
450.0   0.0   0.0
450.0   30.0   0.0
400.0   30.0   0.0
450.0   30.0   16.666666666666668
400.0   0.0   16.666666666666668
400.0   30.0   16.666666666666668
450.0   30.0   16.666666666666668
400.0   30.0   0.0
400.0   0.0   16.666666666666668
450.0   30.0   16.666666666666668
450.0   0.0   16.666666666666668
450.0   0.0   0.0
400.0   0.0   16.666666666666668
450.0   30.0   16.666666666666668
450.0   0.0   0.0
400.0   30.0   0.0
400.0   0.0   16.666666666666668
450.0   0.0   16.666666666666668
400.0   30.0   16.666666666666668
400.0   0.0   33.333333333333336
450.0   0.0   16.666666666666668
450.0   30.0   16.666666666666668
400.0   30.0   16.666666666666668
450.0   30.0   33.333333333333336
400.0   0.0   33.333333333333336
400.0   30.0   33.333333333333336
450.0   30.0   33.333333333333336
400.0   30.0   16.666666666666668
400.0   0.0   33.333333333333336
450.0   30.0   33.333333333333336
450.0   0.0   33.333333333333336
450.0   0.0   16.666666666666668
400.0   0.0   33.333333333333336
450.0   30.0   33.333333333333336
450.0   0.0   16.666666666666668
400.0   30.0   16.666666666666668
400.0   0.0   33.333333333333336
450.0   0.0   33.333333333333336
400.0   30.0   33.333333333333336
400.0   0.0   50.0
450.0   0.0   33.333333333333336
450.0   30.0   33.333333333333336
400.0   30.0   33.333333333333336
450.0   30.0   50.0
400.0   0.0   50.0
400.0   30.0   50.0
450.0   30.0   50.0
400.0   30.0   33.333333333333336
400.0   0.0   50.0
450.0   30.0   50.0
450.0   0.0   50.0
450.0   0.0   33.333333333333336
400.0   0.0   50.0
450.0   30.0   50.0
450.0   0.0   33.333333333333336
400.0   30.0   33.333333333333336
400.0   30.0   0.0
450.0   30.0   0.0
400.0   60.0   0.0
400.0   30.0   16.666666666666668
450.0   30.0   0.0
450.0   60.0   0.0
400.0   60.0   0.0
450.0   60.0   16.666666666666668
400.0   30.0   16.666666666666668
400.0   60.0   16.666666666666668
450.0   60.0   16.666666666666668
400.0   60.0   0.0
400.0   30.0   16.666666666666668
450.0   60.0   16.666666666666668
450.0   30.0   16.666666666666668
450.0   30.0   0.0
400.0   30.0   16.666666666666668
450.0   60.0   16.666666666666668
450.0   30.0   0.0
400.0   60.0   0.0
400.0   30.0   16.666666666666668
450.0   30.0   16.666666666666668
400.0   60.0   16.666666666666668
400.0   30.0   33.333333333333336
450.0   30.0   16.666666666666668
450.0   60.0   16.666666666666668
400.0   60.0   16.666666666666668
450.0   60.0   33.333333333333336
400.0   30.0   33.333333333333336
400.0   60.0   33.333333333333336
450.0   60.0   33.333333333333336
400.0   60.0   16.666666666666668
400.0   30.0   33.333333333333336
450.0   60.0   33.333333333333336
450.0   30.0   33.333333333333336
450.0   30.0   16.666666666666668
400.0   30.0   33.333333333333336
450.0   60.0   33.333333333333336
450.0   30.0   16.666666666666668
400.0   60.0   16.666666666666668
400.0   30.0   33.333333333333336
450.0   30.0   33.333333333333336
400.0   60.0   33.333333333333336
400.0   30.0   50.0
450.0   30.0   33.333333333333336
450.0   60.0   33.333333333333336
400.0   60.0   33.333333333333336
450.0   60.0   50.0
400.0   30.0   50.0
400.0   60.0   50.0
450.0   60.0   50.0
400.0   60.0   33.333333333333336
400.0   30.0   50.0
450.0   60.0   50.0
450.0   30.0   50.0
450.0   30.0   33.333333333333336
400.0   30.0   50.0
450.0   60.0   50.0
450.0   30.0   33.333333333333336
400.0   60.0   33.333333333333336
400.0   60.0   0.0
450.0   60.0   0.0
400.0   90.0   0.0
400.0   60.0   16.666666666666668
450.0   60.0   0.0
450.0   90.0   0.0
400.0   90.0   0.0
450.0   90.0   16.666666666666668
400.0   60.0   16.666666666666668
400.0   90.0   16.666666666666668
450.0   90.0   16.666666666666668
400.0   90.0   0.0
400.0   60.0   16.666666666666668
450.0   90.0   16.666666666666668
450.0   60.0   16.666666666666668
450.0   60.0   0.0
400.0   60.0   16.666666666666668
450.0   90.0   16.666666666666668
450.0   60.0   0.0
400.0   90.0   0.0
400.0   60.0   16.666666666666668
450.0   60.0   16.666666666666668
400.0   90.0   16.666666666666668
400.0   60.0   33.333333333333336
450.0   60.0   16.666666666666668
450.0   90.0   16.666666666666668
400.0   90.0   16.666666666666668
450.0   90.0   33.333333333333336
400.0   60.0   33.333333333333336
400.0   90.0   33.333333333333336
450.0   90.0   33.333333333333336
400.0   90.0   16.666666666666668
400.0   60.0   33.333333333333336
450.0   90.0   33.333333333333336
450.0   60.0   33.333333333333336
450.0   60.0   16.666666666666668
400.0   60.0   33.333333333333336
450.0   90.0   33.333333333333336
450.0   60.0   16.666666666666668
400.0   90.0   16.666666666666668
400.0   60.0   33.333333333333336
450.0   60.0   33.333333333333336
400.0   90.0   33.333333333333336
400.0   60.0   50.0
450.0   60.0   33.333333333333336
450.0   90.0   33.333333333333336
400.0   90.0   33.333333333333336
450.0   90.0   50.0
400.0   60.0   50.0
400.0   90.0   50.0
450.0   90.0   50.0
400.0   90.0   33.333333333333336
400.0   60.0   50.0
450.0   90.0   50.0
450.0   60.0   50.0
450.0   60.0   33.333333333333336
400.0   60.0   50.0
450.0   90.0   50.0
450.0   60.0   33.333333333333336
400.0   90.0   33.333333333333336
400.0   90.0   0.0
450.0   90.0   0.0
400.0   120.0   0.0
400.0   90.0   16.666666666666668
450.0   90.0   0.0
450.0   120.0   0.0
400.0   120.0   0.0
450.0   120.0   16.666666666666668
400.0   90.0   16.666666666666668
400.0   120.0   16.666666666666668
450.0   120.0   16.666666666666668
400.0   120.0   0.0
400.0   90.0   16.666666666666668
450.0   120.0   16.666666666666668
450.0   90.0   16.666666666666668
450.0   90.0   0.0
400.0   90.0   16.666666666666668
450.0   120.0   16.666666666666668
450.0   90.0   0.0
400.0   120.0   0.0
400.0   90.0   16.666666666666668
450.0   90.0   16.666666666666668
400.0   120.0   16.666666666666668
400.0   90.0   33.333333333333336
450.0   90.0   16.666666666666668
450.0   120.0   16.666666666666668
400.0   120.0   16.666666666666668
450.0   120.0   33.333333333333336
400.0   90.0   33.333333333333336
400.0   120.0   33.333333333333336
450.0   120.0   33.333333333333336
400.0   120.0   16.666666666666668
400.0   90.0   33.333333333333336
450.0   120.0   33.333333333333336
450.0   90.0   33.333333333333336
450.0   90.0   16.666666666666668
400.0   90.0   33.333333333333336
450.0   120.0   33.333333333333336
450.0   90.0   16.666666666666668
400.0   120.0   16.666666666666668
400.0   90.0   33.333333333333336
450.0   90.0   33.333333333333336
400.0   120.0   33.333333333333336
400.0   90.0   50.0
450.0   90.0   33.333333333333336
450.0   120.0   33.333333333333336
400.0   120.0   33.333333333333336
450.0   120.0   50.0
400.0   90.0   50.0
400.0   120.0   50.0
450.0   120.0   50.0
400.0   120.0   33.333333333333336
400.0   90.0   50.0
450.0   120.0   50.0
450.0   90.0   50.0
450.0   90.0   33.333333333333336
400.0   90.0   50.0
450.0   120.0   50.0
450.0   90.0   33.333333333333336
400.0   120.0   33.333333333333336
400.0   120.0   0.0
450.0   120.0   0.0
400.0   150.0   0.0
400.0   120.0   16.666666666666668
450.0   120.0   0.0
450.0   150.0   0.0
400.0   150.0   0.0
450.0   150.0   16.666666666666668
400.0   120.0   16.666666666666668
400.0   150.0   16.666666666666668
450.0   150.0   16.666666666666668
400.0   150.0   0.0
400.0   120.0   16.666666666666668
450.0   150.0   16.666666666666668
450.0   120.0   16.666666666666668
450.0   120.0   0.0
400.0   120.0   16.666666666666668
450.0   150.0   16.666666666666668
450.0   120.0   0.0
400.0   150.0   0.0
400.0   120.0   16.666666666666668
450.0   120.0   16.666666666666668
400.0   150.0   16.666666666666668
400.0   120.0   33.333333333333336
450.0   120.0   16.666666666666668
450.0   150.0   16.666666666666668
400.0   150.0   16.666666666666668
450.0   150.0   33.333333333333336
400.0   120.0   33.333333333333336
400.0   150.0   33.333333333333336
450.0   150.0   33.333333333333336
400.0   150.0   16.666666666666668
400.0   120.0   33.333333333333336
450.0   150.0   33.333333333333336
450.0   120.0   33.333333333333336
450.0   120.0   16.666666666666668
400.0   120.0   33.333333333333336
450.0   150.0   33.333333333333336
450.0   120.0   16.666666666666668
400.0   150.0   16.666666666666668
400.0   120.0   33.333333333333336
450.0   120.0   33.333333333333336
400.0   150.0   33.333333333333336
400.0   120.0   50.0
450.0   120.0   33.333333333333336
450.0   150.0   33.333333333333336
400.0   150.0   33.333333333333336
450.0   150.0   50.0
400.0   120.0   50.0
400.0   150.0   50.0
450.0   150.0   50.0
400.0   150.0   33.333333333333336
400.0   120.0   50.0
450.0   150.0   50.0
450.0   120.0   50.0
450.0   120.0   33.333333333333336
400.0   120.0   50.0
450.0   150.0   50.0
450.0   120.0   33.333333333333336
400.0   150.0   33.333333333333336
450.0   0.0   0.0
500.0   0.0   0.0
450.0   30.0   0.0
450.0   0.0   16.666666666666668
500.0   0.0   0.0
500.0   30.0   0.0
450.0   30.0   0.0
500.0   30.0   16.666666666666668
450.0   0.0   16.666666666666668
450.0   30.0   16.666666666666668
500.0   30.0   16.666666666666668
450.0   30.0   0.0
450.0   0.0   16.666666666666668
500.0   30.0   16.666666666666668
500.0   0.0   16.666666666666668
500.0   0.0   0.0
450.0   0.0   16.666666666666668
500.0   30.0   16.666666666666668
500.0   0.0   0.0
450.0   30.0   0.0
450.0   0.0   16.666666666666668
500.0   0.0   16.666666666666668
450.0   30.0   16.666666666666668
450.0   0.0   33.333333333333336
500.0   0.0   16.666666666666668
500.0   30.0   16.666666666666668
450.0   30.0   16.666666666666668
500.0   30.0   33.333333333333336
450.0   0.0   33.333333333333336
450.0   30.0   33.333333333333336
500.0   30.0   33.333333333333336
450.0   30.0   16.666666666666668
450.0   0.0   33.333333333333336
500.0   30.0   33.333333333333336
500.0   0.0   33.333333333333336
500.0   0.0   16.666666666666668
450.0   0.0   33.333333333333336
500.0   30.0   33.333333333333336
500.0   0.0   16.666666666666668
450.0   30.0   16.666666666666668
450.0   0.0   33.333333333333336
500.0   0.0   33.333333333333336
450.0   30.0   33.333333333333336
450.0   0.0   50.0
500.0   0.0   33.333333333333336
500.0   30.0   33.333333333333336
450.0   30.0   33.333333333333336
500.0   30.0   50.0
450.0   0.0   50.0
450.0   30.0   50.0
500.0   30.0   50.0
450.0   30.0   33.333333333333336
450.0   0.0   50.0
500.0   30.0   50.0
500.0   0.0   50.0
500.0   0.0   33.333333333333336
450.0   0.0   50.0
500.0   30.0   50.0
500.0   0.0   33.333333333333336
450.0   30.0   33.333333333333336
450.0   30.0   0.0
500.0   30.0   0.0
450.0   60.0   0.0
450.0   30.0   16.666666666666668
500.0   30.0   0.0
500.0   60.0   0.0
450.0   60.0   0.0
500.0   60.0   16.666666666666668
450.0   30.0   16.666666666666668
450.0   60.0   16.666666666666668
500.0   60.0   16.666666666666668
450.0   60.0   0.0
450.0   30.0   16.666666666666668
500.0   60.0   16.666666666666668
500.0   30.0   16.666666666666668
500.0   30.0   0.0
450.0   30.0   16.666666666666668
500.0   60.0   16.666666666666668
500.0   30.0   0.0
450.0   60.0   0.0
450.0   30.0   16.666666666666668
500.0   30.0   16.666666666666668
450.0   60.0   16.666666666666668
450.0   30.0   33.333333333333336
500.0   30.0   16.666666666666668
500.0   60.0   16.666666666666668
450.0   60.0   16.666666666666668
500.0   60.0   33.333333333333336
450.0   30.0   33.333333333333336
450.0   60.0   33.333333333333336
500.0   60.0   33.333333333333336
450.0   60.0   16.666666666666668
450.0   30.0   33.333333333333336
500.0   60.0   33.333333333333336
500.0   30.0   33.333333333333336
500.0   30.0   16.666666666666668
450.0   30.0   33.333333333333336
500.0   60.0   33.333333333333336
500.0   30.0   16.666666666666668
450.0   60.0   16.666666666666668
450.0   30.0   33.333333333333336
500.0   30.0   33.333333333333336
450.0   60.0   33.333333333333336
450.0   30.0   50.0
500.0   30.0   33.333333333333336
500.0   60.0   33.333333333333336
450.0   60.0   33.333333333333336
500.0   60.0   50.0
450.0   30.0   50.0
450.0   60.0   50.0
500.0   60.0   50.0
450.0   60.0   33.333333333333336
450.0   30.0   50.0
500.0   60.0   50.0
500.0   30.0   50.0
500.0   30.0   33.333333333333336
450.0   30.0   50.0
500.0   60.0   50.0
500.0   30.0   33.333333333333336
450.0   60.0   33.333333333333336
450.0   60.0   0.0
500.0   60.0   0.0
450.0   90.0   0.0
450.0   60.0   16.666666666666668
500.0   60.0   0.0
500.0   90.0   0.0
450.0   90.0   0.0
500.0   90.0   16.666666666666668
450.0   60.0   16.666666666666668
450.0   90.0   16.666666666666668
500.0   90.0   16.666666666666668
450.0   90.0   0.0
450.0   60.0   16.666666666666668
500.0   90.0   16.666666666666668
500.0   60.0   16.666666666666668
500.0   60.0   0.0
450.0   60.0   16.666666666666668
500.0   90.0   16.666666666666668
500.0   60.0   0.0
450.0   90.0   0.0
450.0   60.0   16.666666666666668
500.0   60.0   16.666666666666668
450.0   90.0   16.666666666666668
450.0   60.0   33.333333333333336
500.0   60.0   16.666666666666668
500.0   90.0   16.666666666666668
450.0   90.0   16.666666666666668
500.0   90.0   33.333333333333336
450.0   60.0   33.333333333333336
450.0   90.0   33.333333333333336
500.0   90.0   33.333333333333336
450.0   90.0   16.666666666666668
450.0   60.0   33.333333333333336
500.0   90.0   33.333333333333336
500.0   60.0   33.333333333333336
500.0   60.0   16.666666666666668
450.0   60.0   33.333333333333336
500.0   90.0   33.333333333333336
500.0   60.0   16.666666666666668
450.0   90.0   16.666666666666668
450.0   60.0   33.333333333333336
500.0   60.0   33.333333333333336
450.0   90.0   33.333333333333336
450.0   60.0   50.0
500.0   60.0   33.333333333333336
500.0   90.0   33.333333333333336
450.0   90.0   33.333333333333336
500.0   90.0   50.0
450.0   60.0   50.0
450.0   90.0   50.0
500.0   90.0   50.0
450.0   90.0   33.333333333333336
450.0   60.0   50.0
500.0   90.0   50.0
500.0   60.0   50.0
500.0   60.0   33.333333333333336
450.0   60.0   50.0
500.0   90.0   50.0
500.0   60.0   33.333333333333336
450.0   90.0   33.333333333333336
450.0   90.0   0.0
500.0   90.0   0.0
450.0   120.0   0.0
450.0   90.0   16.666666666666668
500.0   90.0   0.0
500.0   120.0   0.0
450.0   120.0   0.0
500.0   120.0   16.666666666666668
450.0   90.0   16.666666666666668
450.0   120.0   16.666666666666668
500.0   120.0   16.666666666666668
450.0   120.0   0.0
450.0   90.0   16.666666666666668
500.0   120.0   16.666666666666668
500.0   90.0   16.666666666666668
500.0   90.0   0.0
450.0   90.0   16.666666666666668
500.0   120.0   16.666666666666668
500.0   90.0   0.0
450.0   120.0   0.0
450.0   90.0   16.666666666666668
500.0   90.0   16.666666666666668
450.0   120.0   16.666666666666668
450.0   90.0   33.333333333333336
500.0   90.0   16.666666666666668
500.0   120.0   16.666666666666668
450.0   120.0   16.666666666666668
500.0   120.0   33.333333333333336
450.0   90.0   33.333333333333336
450.0   120.0   33.333333333333336
500.0   120.0   33.333333333333336
450.0   120.0   16.666666666666668
450.0   90.0   33.333333333333336
500.0   120.0   33.333333333333336
500.0   90.0   33.333333333333336
500.0   90.0   16.666666666666668
450.0   90.0   33.333333333333336
500.0   120.0   33.333333333333336
500.0   90.0   16.666666666666668
450.0   120.0   16.666666666666668
450.0   90.0   33.333333333333336
500.0   90.0   33.333333333333336
450.0   120.0   33.333333333333336
450.0   90.0   50.0
500.0   90.0   33.333333333333336
500.0   120.0   33.333333333333336
450.0   120.0   33.333333333333336
500.0   120.0   50.0
450.0   90.0   50.0
450.0   120.0   50.0
500.0   120.0   50.0
450.0   120.0   33.333333333333336
450.0   90.0   50.0
500.0   120.0   50.0
500.0   90.0   50.0
500.0   90.0   33.333333333333336
450.0   90.0   50.0
500.0   120.0   50.0
500.0   90.0   33.333333333333336
450.0   120.0   33.333333333333336
450.0   120.0   0.0
500.0   120.0   0.0
450.0   150.0   0.0
450.0   120.0   16.666666666666668
500.0   120.0   0.0
500.0   150.0   0.0
450.0   150.0   0.0
500.0   150.0   16.666666666666668
450.0   120.0   16.666666666666668
450.0   150.0   16.666666666666668
500.0   150.0   16.666666666666668
450.0   150.0   0.0
450.0   120.0   16.666666666666668
500.0   150.0   16.666666666666668
500.0   120.0   16.666666666666668
500.0   120.0   0.0
450.0   120.0   16.666666666666668
500.0   150.0   16.666666666666668
500.0   120.0   0.0
450.0   150.0   0.0
450.0   120.0   16.666666666666668
500.0   120.0   16.666666666666668
450.0   150.0   16.666666666666668
450.0   120.0   33.333333333333336
500.0   120.0   16.666666666666668
500.0   150.0   16.666666666666668
450.0   150.0   16.666666666666668
500.0   150.0   33.333333333333336
450.0   120.0   33.333333333333336
450.0   150.0   33.333333333333336
500.0   150.0   33.333333333333336
450.0   150.0   16.666666666666668
450.0   120.0   33.333333333333336
500.0   150.0   33.333333333333336
500.0   120.0   33.333333333333336
500.0   120.0   16.666666666666668
450.0   120.0   33.333333333333336
500.0   150.0   33.333333333333336
500.0   120.0   16.666666666666668
450.0   150.0   16.666666666666668
450.0   120.0   33.333333333333336
500.0   120.0   33.333333333333336
450.0   150.0   33.333333333333336
450.0   120.0   50.0
500.0   120.0   33.333333333333336
500.0   150.0   33.333333333333336
450.0   150.0   33.333333333333336
500.0   150.0   50.0
450.0   120.0   50.0
450.0   150.0   50.0
500.0   150.0   50.0
450.0   150.0   33.333333333333336
450.0   120.0   50.0
500.0   150.0   50.0
500.0   120.0   50.0
500.0   120.0   33.333333333333336
450.0   120.0   50.0
500.0   150.0   50.0
500.0   120.0   33.333333333333336
450.0   150.0   33.333333333333336
             </DataArray>   
          </Points>  
          <Cells>  
             <DataArray type="Int32" Name="connectivity" format="ascii">   
0   1   2   3
4   5   6   7
8   9   10   11
12   13   14   15
16   17   18   19
20   21   22   23
24   25   26   27
28   29   30   31
32   33   34   35
36   37   38   39
40   41   42   43
44   45   46   47
48   49   50   51
52   53   54   55
56   57   58   59
60   61   62   63
64   65   66   67
68   69   70   71
72   73   74   75
76   77   78   79
80   81   82   83
84   85   86   87
88   89   90   91
92   93   94   95
96   97   98   99
100   101   102   103
104   105   106   107
108   109   110   111
112   113   114   115
116   117   118   119
120   121   122   123
124   125   126   127
128   129   130   131
132   133   134   135
136   137   138   139
140   141   142   143
144   145   146   147
148   149   150   151
152   153   154   155
156   157   158   159
160   161   162   163
164   165   166   167
168   169   170   171
172   173   174   175
176   177   178   179
180   181   182   183
184   185   186   187
188   189   190   191
192   193   194   195
196   197   198   199
200   201   202   203
204   205   206   207
208   209   210   211
212   213   214   215
216   217   218   219
220   221   222   223
224   225   226   227
228   229   230   231
232   233   234   235
236   237   238   239
240   241   242   243
244   245   246   247
248   249   250   251
252   253   254   255
256   257   258   259
260   261   262   263
264   265   266   267
268   269   270   271
272   273   274   275
276   277   278   279
280   281   282   283
284   285   286   287
288   289   290   291
292   293   294   295
296   297   298   299
300   301   302   303
304   305   306   307
308   309   310   311
312   313   314   315
316   317   318   319
320   321   322   323
324   325   326   327
328   329   330   331
332   333   334   335
336   337   338   339
340   341   342   343
344   345   346   347
348   349   350   351
352   353   354   355
356   357   358   359
360   361   362   363
364   365   366   367
368   369   370   371
372   373   374   375
376   377   378   379
380   381   382   383
384   385   386   387
388   389   390   391
392   393   394   395
396   397   398   399
400   401   402   403
404   405   406   407
408   409   410   411
412   413   414   415
416   417   418   419
420   421   422   423
424   425   426   427
428   429   430   431
432   433   434   435
436   437   438   439
440   441   442   443
444   445   446   447
448   449   450   451
452   453   454   455
456   457   458   459
460   461   462   463
464   465   466   467
468   469   470   471
472   473   474   475
476   477   478   479
480   481   482   483
484   485   486   487
488   489   490   491
492   493   494   495
496   497   498   499
500   501   502   503
504   505   506   507
508   509   510   511
512   513   514   515
516   517   518   519
520   521   522   523
524   525   526   527
528   529   530   531
532   533   534   535
536   537   538   539
540   541   542   543
544   545   546   547
548   549   550   551
552   553   554   555
556   557   558   559
560   561   562   563
564   565   566   567
568   569   570   571
572   573   574   575
576   577   578   579
580   581   582   583
584   585   586   587
588   589   590   591
592   593   594   595
596   597   598   599
600   601   602   603
604   605   606   607
608   609   610   611
612   613   614   615
616   617   618   619
620   621   622   623
624   625   626   627
628   629   630   631
632   633   634   635
636   637   638   639
640   641   642   643
644   645   646   647
648   649   650   651
652   653   654   655
656   657   658   659
660   661   662   663
664   665   666   667
668   669   670   671
672   673   674   675
676   677   678   679
680   681   682   683
684   685   686   687
688   689   690   691
692   693   694   695
696   697   698   699
700   701   702   703
704   705   706   707
708   709   710   711
712   713   714   715
716   717   718   719
720   721   722   723
724   725   726   727
728   729   730   731
732   733   734   735
736   737   738   739
740   741   742   743
744   745   746   747
748   749   750   751
752   753   754   755
756   757   758   759
760   761   762   763
764   765   766   767
768   769   770   771
772   773   774   775
776   777   778   779
780   781   782   783
784   785   786   787
788   789   790   791
792   793   794   795
796   797   798   799
800   801   802   803
804   805   806   807
808   809   810   811
812   813   814   815
816   817   818   819
820   821   822   823
824   825   826   827
828   829   830   831
832   833   834   835
836   837   838   839
840   841   842   843
844   845   846   847
848   849   850   851
852   853   854   855
856   857   858   859
860   861   862   863
864   865   866   867
868   869   870   871
872   873   874   875
876   877   878   879
880   881   882   883
884   885   886   887
888   889   890   891
892   893   894   895
896   897   898   899
900   901   902   903
904   905   906   907
908   909   910   911
912   913   914   915
916   917   918   919
920   921   922   923
924   925   926   927
928   929   930   931
932   933   934   935
936   937   938   939
940   941   942   943
944   945   946   947
948   949   950   951
952   953   954   955
956   957   958   959
960   961   962   963
964   965   966   967
968   969   970   971
972   973   974   975
976   977   978   979
980   981   982   983
984   985   986   987
988   989   990   991
992   993   994   995
996   997   998   999
1000   1001   1002   1003
1004   1005   1006   1007
1008   1009   1010   1011
1012   1013   1014   1015
1016   1017   1018   1019
1020   1021   1022   1023
1024   1025   1026   1027
1028   1029   1030   1031
1032   1033   1034   1035
1036   1037   1038   1039
1040   1041   1042   1043
1044   1045   1046   1047
1048   1049   1050   1051
1052   1053   1054   1055
1056   1057   1058   1059
1060   1061   1062   1063
1064   1065   1066   1067
1068   1069   1070   1071
1072   1073   1074   1075
1076   1077   1078   1079
1080   1081   1082   1083
1084   1085   1086   1087
1088   1089   1090   1091
1092   1093   1094   1095
1096   1097   1098   1099
1100   1101   1102   1103
1104   1105   1106   1107
1108   1109   1110   1111
1112   1113   1114   1115
1116   1117   1118   1119
1120   1121   1122   1123
1124   1125   1126   1127
1128   1129   1130   1131
1132   1133   1134   1135
1136   1137   1138   1139
1140   1141   1142   1143
1144   1145   1146   1147
1148   1149   1150   1151
1152   1153   1154   1155
1156   1157   1158   1159
1160   1161   1162   1163
1164   1165   1166   1167
1168   1169   1170   1171
1172   1173   1174   1175
1176   1177   1178   1179
1180   1181   1182   1183
1184   1185   1186   1187
1188   1189   1190   1191
1192   1193   1194   1195
1196   1197   1198   1199
1200   1201   1202   1203
1204   1205   1206   1207
1208   1209   1210   1211
1212   1213   1214   1215
1216   1217   1218   1219
1220   1221   1222   1223
1224   1225   1226   1227
1228   1229   1230   1231
1232   1233   1234   1235
1236   1237   1238   1239
1240   1241   1242   1243
1244   1245   1246   1247
1248   1249   1250   1251
1252   1253   1254   1255
1256   1257   1258   1259
1260   1261   1262   1263
1264   1265   1266   1267
1268   1269   1270   1271
1272   1273   1274   1275
1276   1277   1278   1279
1280   1281   1282   1283
1284   1285   1286   1287
1288   1289   1290   1291
1292   1293   1294   1295
1296   1297   1298   1299
1300   1301   1302   1303
1304   1305   1306   1307
1308   1309   1310   1311
1312   1313   1314   1315
1316   1317   1318   1319
1320   1321   1322   1323
1324   1325   1326   1327
1328   1329   1330   1331
1332   1333   1334   1335
1336   1337   1338   1339
1340   1341   1342   1343
1344   1345   1346   1347
1348   1349   1350   1351
1352   1353   1354   1355
1356   1357   1358   1359
1360   1361   1362   1363
1364   1365   1366   1367
1368   1369   1370   1371
1372   1373   1374   1375
1376   1377   1378   1379
1380   1381   1382   1383
1384   1385   1386   1387
1388   1389   1390   1391
1392   1393   1394   1395
1396   1397   1398   1399
1400   1401   1402   1403
1404   1405   1406   1407
1408   1409   1410   1411
1412   1413   1414   1415
1416   1417   1418   1419
1420   1421   1422   1423
1424   1425   1426   1427
1428   1429   1430   1431
1432   1433   1434   1435
1436   1437   1438   1439
1440   1441   1442   1443
1444   1445   1446   1447
1448   1449   1450   1451
1452   1453   1454   1455
1456   1457   1458   1459
1460   1461   1462   1463
1464   1465   1466   1467
1468   1469   1470   1471
1472   1473   1474   1475
1476   1477   1478   1479
1480   1481   1482   1483
1484   1485   1486   1487
1488   1489   1490   1491
1492   1493   1494   1495
1496   1497   1498   1499
1500   1501   1502   1503
1504   1505   1506   1507
1508   1509   1510   1511
1512   1513   1514   1515
1516   1517   1518   1519
1520   1521   1522   1523
1524   1525   1526   1527
1528   1529   1530   1531
1532   1533   1534   1535
1536   1537   1538   1539
1540   1541   1542   1543
1544   1545   1546   1547
1548   1549   1550   1551
1552   1553   1554   1555
1556   1557   1558   1559
1560   1561   1562   1563
1564   1565   1566   1567
1568   1569   1570   1571
1572   1573   1574   1575
1576   1577   1578   1579
1580   1581   1582   1583
1584   1585   1586   1587
1588   1589   1590   1591
1592   1593   1594   1595
1596   1597   1598   1599
1600   1601   1602   1603
1604   1605   1606   1607
1608   1609   1610   1611
1612   1613   1614   1615
1616   1617   1618   1619
1620   1621   1622   1623
1624   1625   1626   1627
1628   1629   1630   1631
1632   1633   1634   1635
1636   1637   1638   1639
1640   1641   1642   1643
1644   1645   1646   1647
1648   1649   1650   1651
1652   1653   1654   1655
1656   1657   1658   1659
1660   1661   1662   1663
1664   1665   1666   1667
1668   1669   1670   1671
1672   1673   1674   1675
1676   1677   1678   1679
1680   1681   1682   1683
1684   1685   1686   1687
1688   1689   1690   1691
1692   1693   1694   1695
1696   1697   1698   1699
1700   1701   1702   1703
1704   1705   1706   1707
1708   1709   1710   1711
1712   1713   1714   1715
1716   1717   1718   1719
1720   1721   1722   1723
1724   1725   1726   1727
1728   1729   1730   1731
1732   1733   1734   1735
1736   1737   1738   1739
1740   1741   1742   1743
1744   1745   1746   1747
1748   1749   1750   1751
1752   1753   1754   1755
1756   1757   1758   1759
1760   1761   1762   1763
1764   1765   1766   1767
1768   1769   1770   1771
1772   1773   1774   1775
1776   1777   1778   1779
1780   1781   1782   1783
1784   1785   1786   1787
1788   1789   1790   1791
1792   1793   1794   1795
1796   1797   1798   1799
1800   1801   1802   1803
1804   1805   1806   1807
1808   1809   1810   1811
1812   1813   1814   1815
1816   1817   1818   1819
1820   1821   1822   1823
1824   1825   1826   1827
1828   1829   1830   1831
1832   1833   1834   1835
1836   1837   1838   1839
1840   1841   1842   1843
1844   1845   1846   1847
1848   1849   1850   1851
1852   1853   1854   1855
1856   1857   1858   1859
1860   1861   1862   1863
1864   1865   1866   1867
1868   1869   1870   1871
1872   1873   1874   1875
1876   1877   1878   1879
1880   1881   1882   1883
1884   1885   1886   1887
1888   1889   1890   1891
1892   1893   1894   1895
1896   1897   1898   1899
1900   1901   1902   1903
1904   1905   1906   1907
1908   1909   1910   1911
1912   1913   1914   1915
1916   1917   1918   1919
1920   1921   1922   1923
1924   1925   1926   1927
1928   1929   1930   1931
1932   1933   1934   1935
1936   1937   1938   1939
1940   1941   1942   1943
1944   1945   1946   1947
1948   1949   1950   1951
1952   1953   1954   1955
1956   1957   1958   1959
1960   1961   1962   1963
1964   1965   1966   1967
1968   1969   1970   1971
1972   1973   1974   1975
1976   1977   1978   1979
1980   1981   1982   1983
1984   1985   1986   1987
1988   1989   1990   1991
1992   1993   1994   1995
1996   1997   1998   1999
2000   2001   2002   2003
2004   2005   2006   2007
2008   2009   2010   2011
2012   2013   2014   2015
2016   2017   2018   2019
2020   2021   2022   2023
2024   2025   2026   2027
2028   2029   2030   2031
2032   2033   2034   2035
2036   2037   2038   2039
2040   2041   2042   2043
2044   2045   2046   2047
2048   2049   2050   2051
2052   2053   2054   2055
2056   2057   2058   2059
2060   2061   2062   2063
2064   2065   2066   2067
2068   2069   2070   2071
2072   2073   2074   2075
2076   2077   2078   2079
2080   2081   2082   2083
2084   2085   2086   2087
2088   2089   2090   2091
2092   2093   2094   2095
2096   2097   2098   2099
2100   2101   2102   2103
2104   2105   2106   2107
2108   2109   2110   2111
2112   2113   2114   2115
2116   2117   2118   2119
2120   2121   2122   2123
2124   2125   2126   2127
2128   2129   2130   2131
2132   2133   2134   2135
2136   2137   2138   2139
2140   2141   2142   2143
2144   2145   2146   2147
2148   2149   2150   2151
2152   2153   2154   2155
2156   2157   2158   2159
2160   2161   2162   2163
2164   2165   2166   2167
2168   2169   2170   2171
2172   2173   2174   2175
2176   2177   2178   2179
2180   2181   2182   2183
2184   2185   2186   2187
2188   2189   2190   2191
2192   2193   2194   2195
2196   2197   2198   2199
2200   2201   2202   2203
2204   2205   2206   2207
2208   2209   2210   2211
2212   2213   2214   2215
2216   2217   2218   2219
2220   2221   2222   2223
2224   2225   2226   2227
2228   2229   2230   2231
2232   2233   2234   2235
2236   2237   2238   2239
2240   2241   2242   2243
2244   2245   2246   2247
2248   2249   2250   2251
2252   2253   2254   2255
2256   2257   2258   2259
2260   2261   2262   2263
2264   2265   2266   2267
2268   2269   2270   2271
2272   2273   2274   2275
2276   2277   2278   2279
2280   2281   2282   2283
2284   2285   2286   2287
2288   2289   2290   2291
2292   2293   2294   2295
2296   2297   2298   2299
2300   2301   2302   2303
2304   2305   2306   2307
2308   2309   2310   2311
2312   2313   2314   2315
2316   2317   2318   2319
2320   2321   2322   2323
2324   2325   2326   2327
2328   2329   2330   2331
2332   2333   2334   2335
2336   2337   2338   2339
2340   2341   2342   2343
2344   2345   2346   2347
2348   2349   2350   2351
2352   2353   2354   2355
2356   2357   2358   2359
2360   2361   2362   2363
2364   2365   2366   2367
2368   2369   2370   2371
2372   2373   2374   2375
2376   2377   2378   2379
2380   2381   2382   2383
2384   2385   2386   2387
2388   2389   2390   2391
2392   2393   2394   2395
2396   2397   2398   2399
2400   2401   2402   2403
2404   2405   2406   2407
2408   2409   2410   2411
2412   2413   2414   2415
2416   2417   2418   2419
2420   2421   2422   2423
2424   2425   2426   2427
2428   2429   2430   2431
2432   2433   2434   2435
2436   2437   2438   2439
2440   2441   2442   2443
2444   2445   2446   2447
2448   2449   2450   2451
2452   2453   2454   2455
2456   2457   2458   2459
2460   2461   2462   2463
2464   2465   2466   2467
2468   2469   2470   2471
2472   2473   2474   2475
2476   2477   2478   2479
2480   2481   2482   2483
2484   2485   2486   2487
2488   2489   2490   2491
2492   2493   2494   2495
2496   2497   2498   2499
2500   2501   2502   2503
2504   2505   2506   2507
2508   2509   2510   2511
2512   2513   2514   2515
2516   2517   2518   2519
2520   2521   2522   2523
2524   2525   2526   2527
2528   2529   2530   2531
2532   2533   2534   2535
2536   2537   2538   2539
2540   2541   2542   2543
2544   2545   2546   2547
2548   2549   2550   2551
2552   2553   2554   2555
2556   2557   2558   2559
2560   2561   2562   2563
2564   2565   2566   2567
2568   2569   2570   2571
2572   2573   2574   2575
2576   2577   2578   2579
2580   2581   2582   2583
2584   2585   2586   2587
2588   2589   2590   2591
2592   2593   2594   2595
2596   2597   2598   2599
2600   2601   2602   2603
2604   2605   2606   2607
2608   2609   2610   2611
2612   2613   2614   2615
2616   2617   2618   2619
2620   2621   2622   2623
2624   2625   2626   2627
2628   2629   2630   2631
2632   2633   2634   2635
2636   2637   2638   2639
2640   2641   2642   2643
2644   2645   2646   2647
2648   2649   2650   2651
2652   2653   2654   2655
2656   2657   2658   2659
2660   2661   2662   2663
2664   2665   2666   2667
2668   2669   2670   2671
2672   2673   2674   2675
2676   2677   2678   2679
2680   2681   2682   2683
2684   2685   2686   2687
2688   2689   2690   2691
2692   2693   2694   2695
2696   2697   2698   2699
2700   2701   2702   2703
2704   2705   2706   2707
2708   2709   2710   2711
2712   2713   2714   2715
2716   2717   2718   2719
2720   2721   2722   2723
2724   2725   2726   2727
2728   2729   2730   2731
2732   2733   2734   2735
2736   2737   2738   2739
2740   2741   2742   2743
2744   2745   2746   2747
2748   2749   2750   2751
2752   2753   2754   2755
2756   2757   2758   2759
2760   2761   2762   2763
2764   2765   2766   2767
2768   2769   2770   2771
2772   2773   2774   2775
2776   2777   2778   2779
2780   2781   2782   2783
2784   2785   2786   2787
2788   2789   2790   2791
2792   2793   2794   2795
2796   2797   2798   2799
2800   2801   2802   2803
2804   2805   2806   2807
2808   2809   2810   2811
2812   2813   2814   2815
2816   2817   2818   2819
2820   2821   2822   2823
2824   2825   2826   2827
2828   2829   2830   2831
2832   2833   2834   2835
2836   2837   2838   2839
2840   2841   2842   2843
2844   2845   2846   2847
2848   2849   2850   2851
2852   2853   2854   2855
2856   2857   2858   2859
2860   2861   2862   2863
2864   2865   2866   2867
2868   2869   2870   2871
2872   2873   2874   2875
2876   2877   2878   2879
2880   2881   2882   2883
2884   2885   2886   2887
2888   2889   2890   2891
2892   2893   2894   2895
2896   2897   2898   2899
2900   2901   2902   2903
2904   2905   2906   2907
2908   2909   2910   2911
2912   2913   2914   2915
2916   2917   2918   2919
2920   2921   2922   2923
2924   2925   2926   2927
2928   2929   2930   2931
2932   2933   2934   2935
2936   2937   2938   2939
2940   2941   2942   2943
2944   2945   2946   2947
2948   2949   2950   2951
2952   2953   2954   2955
2956   2957   2958   2959
2960   2961   2962   2963
2964   2965   2966   2967
2968   2969   2970   2971
2972   2973   2974   2975
2976   2977   2978   2979
2980   2981   2982   2983
2984   2985   2986   2987
2988   2989   2990   2991
2992   2993   2994   2995
2996   2997   2998   2999
3000   3001   3002   3003
3004   3005   3006   3007
3008   3009   3010   3011
3012   3013   3014   3015
3016   3017   3018   3019
3020   3021   3022   3023
3024   3025   3026   3027
3028   3029   3030   3031
3032   3033   3034   3035
3036   3037   3038   3039
3040   3041   3042   3043
3044   3045   3046   3047
3048   3049   3050   3051
3052   3053   3054   3055
3056   3057   3058   3059
3060   3061   3062   3063
3064   3065   3066   3067
3068   3069   3070   3071
3072   3073   3074   3075
3076   3077   3078   3079
3080   3081   3082   3083
3084   3085   3086   3087
3088   3089   3090   3091
3092   3093   3094   3095
3096   3097   3098   3099
3100   3101   3102   3103
3104   3105   3106   3107
3108   3109   3110   3111
3112   3113   3114   3115
3116   3117   3118   3119
3120   3121   3122   3123
3124   3125   3126   3127
3128   3129   3130   3131
3132   3133   3134   3135
3136   3137   3138   3139
3140   3141   3142   3143
3144   3145   3146   3147
3148   3149   3150   3151
3152   3153   3154   3155
3156   3157   3158   3159
3160   3161   3162   3163
3164   3165   3166   3167
3168   3169   3170   3171
3172   3173   3174   3175
3176   3177   3178   3179
3180   3181   3182   3183
3184   3185   3186   3187
3188   3189   3190   3191
3192   3193   3194   3195
3196   3197   3198   3199
3200   3201   3202   3203
3204   3205   3206   3207
3208   3209   3210   3211
3212   3213   3214   3215
3216   3217   3218   3219
3220   3221   3222   3223
3224   3225   3226   3227
3228   3229   3230   3231
3232   3233   3234   3235
3236   3237   3238   3239
3240   3241   3242   3243
3244   3245   3246   3247
3248   3249   3250   3251
3252   3253   3254   3255
3256   3257   3258   3259
3260   3261   3262   3263
3264   3265   3266   3267
3268   3269   3270   3271
3272   3273   3274   3275
3276   3277   3278   3279
3280   3281   3282   3283
3284   3285   3286   3287
3288   3289   3290   3291
3292   3293   3294   3295
3296   3297   3298   3299
3300   3301   3302   3303
3304   3305   3306   3307
3308   3309   3310   3311
3312   3313   3314   3315
3316   3317   3318   3319
3320   3321   3322   3323
3324   3325   3326   3327
3328   3329   3330   3331
3332   3333   3334   3335
3336   3337   3338   3339
3340   3341   3342   3343
3344   3345   3346   3347
3348   3349   3350   3351
3352   3353   3354   3355
3356   3357   3358   3359
3360   3361   3362   3363
3364   3365   3366   3367
3368   3369   3370   3371
3372   3373   3374   3375
3376   3377   3378   3379
3380   3381   3382   3383
3384   3385   3386   3387
3388   3389   3390   3391
3392   3393   3394   3395
3396   3397   3398   3399
3400   3401   3402   3403
3404   3405   3406   3407
3408   3409   3410   3411
3412   3413   3414   3415
3416   3417   3418   3419
3420   3421   3422   3423
3424   3425   3426   3427
3428   3429   3430   3431
3432   3433   3434   3435
3436   3437   3438   3439
3440   3441   3442   3443
3444   3445   3446   3447
3448   3449   3450   3451
3452   3453   3454   3455
3456   3457   3458   3459
3460   3461   3462   3463
3464   3465   3466   3467
3468   3469   3470   3471
3472   3473   3474   3475
3476   3477   3478   3479
3480   3481   3482   3483
3484   3485   3486   3487
3488   3489   3490   3491
3492   3493   3494   3495
3496   3497   3498   3499
3500   3501   3502   3503
3504   3505   3506   3507
3508   3509   3510   3511
3512   3513   3514   3515
3516   3517   3518   3519
3520   3521   3522   3523
3524   3525   3526   3527
3528   3529   3530   3531
3532   3533   3534   3535
3536   3537   3538   3539
3540   3541   3542   3543
3544   3545   3546   3547
3548   3549   3550   3551
3552   3553   3554   3555
3556   3557   3558   3559
3560   3561   3562   3563
3564   3565   3566   3567
3568   3569   3570   3571
3572   3573   3574   3575
3576   3577   3578   3579
3580   3581   3582   3583
3584   3585   3586   3587
3588   3589   3590   3591
3592   3593   3594   3595
3596   3597   3598   3599
3600   3601   3602   3603
3604   3605   3606   3607
3608   3609   3610   3611
3612   3613   3614   3615
3616   3617   3618   3619
3620   3621   3622   3623
3624   3625   3626   3627
3628   3629   3630   3631
3632   3633   3634   3635
3636   3637   3638   3639
3640   3641   3642   3643
3644   3645   3646   3647
3648   3649   3650   3651
3652   3653   3654   3655
3656   3657   3658   3659
3660   3661   3662   3663
3664   3665   3666   3667
3668   3669   3670   3671
3672   3673   3674   3675
3676   3677   3678   3679
3680   3681   3682   3683
3684   3685   3686   3687
3688   3689   3690   3691
3692   3693   3694   3695
3696   3697   3698   3699
3700   3701   3702   3703
3704   3705   3706   3707
3708   3709   3710   3711
3712   3713   3714   3715
3716   3717   3718   3719
3720   3721   3722   3723
3724   3725   3726   3727
3728   3729   3730   3731
3732   3733   3734   3735
3736   3737   3738   3739
3740   3741   3742   3743
3744   3745   3746   3747
3748   3749   3750   3751
3752   3753   3754   3755
3756   3757   3758   3759
3760   3761   3762   3763
3764   3765   3766   3767
3768   3769   3770   3771
3772   3773   3774   3775
3776   3777   3778   3779
3780   3781   3782   3783
3784   3785   3786   3787
3788   3789   3790   3791
3792   3793   3794   3795
3796   3797   3798   3799
3800   3801   3802   3803
3804   3805   3806   3807
3808   3809   3810   3811
3812   3813   3814   3815
3816   3817   3818   3819
3820   3821   3822   3823
3824   3825   3826   3827
3828   3829   3830   3831
3832   3833   3834   3835
3836   3837   3838   3839
3840   3841   3842   3843
3844   3845   3846   3847
3848   3849   3850   3851
3852   3853   3854   3855
3856   3857   3858   3859
3860   3861   3862   3863
3864   3865   3866   3867
3868   3869   3870   3871
3872   3873   3874   3875
3876   3877   3878   3879
3880   3881   3882   3883
3884   3885   3886   3887
3888   3889   3890   3891
3892   3893   3894   3895
3896   3897   3898   3899
3900   3901   3902   3903
3904   3905   3906   3907
3908   3909   3910   3911
3912   3913   3914   3915
3916   3917   3918   3919
3920   3921   3922   3923
3924   3925   3926   3927
3928   3929   3930   3931
3932   3933   3934   3935
3936   3937   3938   3939
3940   3941   3942   3943
3944   3945   3946   3947
3948   3949   3950   3951
3952   3953   3954   3955
3956   3957   3958   3959
3960   3961   3962   3963
3964   3965   3966   3967
3968   3969   3970   3971
3972   3973   3974   3975
3976   3977   3978   3979
3980   3981   3982   3983
3984   3985   3986   3987
3988   3989   3990   3991
3992   3993   3994   3995
3996   3997   3998   3999
4000   4001   4002   4003
4004   4005   4006   4007
4008   4009   4010   4011
4012   4013   4014   4015
4016   4017   4018   4019
4020   4021   4022   4023
4024   4025   4026   4027
4028   4029   4030   4031
4032   4033   4034   4035
4036   4037   4038   4039
4040   4041   4042   4043
4044   4045   4046   4047
4048   4049   4050   4051
4052   4053   4054   4055
4056   4057   4058   4059
4060   4061   4062   4063
4064   4065   4066   4067
4068   4069   4070   4071
4072   4073   4074   4075
4076   4077   4078   4079
4080   4081   4082   4083
4084   4085   4086   4087
4088   4089   4090   4091
4092   4093   4094   4095
4096   4097   4098   4099
4100   4101   4102   4103
4104   4105   4106   4107
4108   4109   4110   4111
4112   4113   4114   4115
4116   4117   4118   4119
4120   4121   4122   4123
4124   4125   4126   4127
4128   4129   4130   4131
4132   4133   4134   4135
4136   4137   4138   4139
4140   4141   4142   4143
4144   4145   4146   4147
4148   4149   4150   4151
4152   4153   4154   4155
4156   4157   4158   4159
4160   4161   4162   4163
4164   4165   4166   4167
4168   4169   4170   4171
4172   4173   4174   4175
4176   4177   4178   4179
4180   4181   4182   4183
4184   4185   4186   4187
4188   4189   4190   4191
4192   4193   4194   4195
4196   4197   4198   4199
4200   4201   4202   4203
4204   4205   4206   4207
4208   4209   4210   4211
4212   4213   4214   4215
4216   4217   4218   4219
4220   4221   4222   4223
4224   4225   4226   4227
4228   4229   4230   4231
4232   4233   4234   4235
4236   4237   4238   4239
4240   4241   4242   4243
4244   4245   4246   4247
4248   4249   4250   4251
4252   4253   4254   4255
4256   4257   4258   4259
4260   4261   4262   4263
4264   4265   4266   4267
4268   4269   4270   4271
4272   4273   4274   4275
4276   4277   4278   4279
4280   4281   4282   4283
4284   4285   4286   4287
4288   4289   4290   4291
4292   4293   4294   4295
4296   4297   4298   4299
4300   4301   4302   4303
4304   4305   4306   4307
4308   4309   4310   4311
4312   4313   4314   4315
4316   4317   4318   4319
4320   4321   4322   4323
4324   4325   4326   4327
4328   4329   4330   4331
4332   4333   4334   4335
4336   4337   4338   4339
4340   4341   4342   4343
4344   4345   4346   4347
4348   4349   4350   4351
4352   4353   4354   4355
4356   4357   4358   4359
4360   4361   4362   4363
4364   4365   4366   4367
4368   4369   4370   4371
4372   4373   4374   4375
4376   4377   4378   4379
4380   4381   4382   4383
4384   4385   4386   4387
4388   4389   4390   4391
4392   4393   4394   4395
4396   4397   4398   4399
4400   4401   4402   4403
4404   4405   4406   4407
4408   4409   4410   4411
4412   4413   4414   4415
4416   4417   4418   4419
4420   4421   4422   4423
4424   4425   4426   4427
4428   4429   4430   4431
4432   4433   4434   4435
4436   4437   4438   4439
4440   4441   4442   4443
4444   4445   4446   4447
4448   4449   4450   4451
4452   4453   4454   4455
4456   4457   4458   4459
4460   4461   4462   4463
4464   4465   4466   4467
4468   4469   4470   4471
4472   4473   4474   4475
4476   4477   4478   4479
4480   4481   4482   4483
4484   4485   4486   4487
4488   4489   4490   4491
4492   4493   4494   4495
4496   4497   4498   4499
4500   4501   4502   4503
4504   4505   4506   4507
4508   4509   4510   4511
4512   4513   4514   4515
4516   4517   4518   4519
4520   4521   4522   4523
4524   4525   4526   4527
4528   4529   4530   4531
4532   4533   4534   4535
4536   4537   4538   4539
4540   4541   4542   4543
4544   4545   4546   4547
4548   4549   4550   4551
4552   4553   4554   4555
4556   4557   4558   4559
4560   4561   4562   4563
4564   4565   4566   4567
4568   4569   4570   4571
4572   4573   4574   4575
4576   4577   4578   4579
4580   4581   4582   4583
4584   4585   4586   4587
4588   4589   4590   4591
4592   4593   4594   4595
4596   4597   4598   4599
4600   4601   4602   4603
4604   4605   4606   4607
4608   4609   4610   4611
4612   4613   4614   4615
4616   4617   4618   4619
4620   4621   4622   4623
4624   4625   4626   4627
4628   4629   4630   4631
4632   4633   4634   4635
4636   4637   4638   4639
4640   4641   4642   4643
4644   4645   4646   4647
4648   4649   4650   4651
4652   4653   4654   4655
4656   4657   4658   4659
4660   4661   4662   4663
4664   4665   4666   4667
4668   4669   4670   4671
4672   4673   4674   4675
4676   4677   4678   4679
4680   4681   4682   4683
4684   4685   4686   4687
4688   4689   4690   4691
4692   4693   4694   4695
4696   4697   4698   4699
4700   4701   4702   4703
4704   4705   4706   4707
4708   4709   4710   4711
4712   4713   4714   4715
4716   4717   4718   4719
4720   4721   4722   4723
4724   4725   4726   4727
4728   4729   4730   4731
4732   4733   4734   4735
4736   4737   4738   4739
4740   4741   4742   4743
4744   4745   4746   4747
4748   4749   4750   4751
4752   4753   4754   4755
4756   4757   4758   4759
4760   4761   4762   4763
4764   4765   4766   4767
4768   4769   4770   4771
4772   4773   4774   4775
4776   4777   4778   4779
4780   4781   4782   4783
4784   4785   4786   4787
4788   4789   4790   4791
4792   4793   4794   4795
4796   4797   4798   4799
4800   4801   4802   4803
4804   4805   4806   4807
4808   4809   4810   4811
4812   4813   4814   4815
4816   4817   4818   4819
4820   4821   4822   4823
4824   4825   4826   4827
4828   4829   4830   4831
4832   4833   4834   4835
4836   4837   4838   4839
4840   4841   4842   4843
4844   4845   4846   4847
4848   4849   4850   4851
4852   4853   4854   4855
4856   4857   4858   4859
4860   4861   4862   4863
4864   4865   4866   4867
4868   4869   4870   4871
4872   4873   4874   4875
4876   4877   4878   4879
4880   4881   4882   4883
4884   4885   4886   4887
4888   4889   4890   4891
4892   4893   4894   4895
4896   4897   4898   4899
4900   4901   4902   4903
4904   4905   4906   4907
4908   4909   4910   4911
4912   4913   4914   4915
4916   4917   4918   4919
4920   4921   4922   4923
4924   4925   4926   4927
4928   4929   4930   4931
4932   4933   4934   4935
4936   4937   4938   4939
4940   4941   4942   4943
4944   4945   4946   4947
4948   4949   4950   4951
4952   4953   4954   4955
4956   4957   4958   4959
4960   4961   4962   4963
4964   4965   4966   4967
4968   4969   4970   4971
4972   4973   4974   4975
4976   4977   4978   4979
4980   4981   4982   4983
4984   4985   4986   4987
4988   4989   4990   4991
4992   4993   4994   4995
4996   4997   4998   4999
5000   5001   5002   5003
5004   5005   5006   5007
5008   5009   5010   5011
5012   5013   5014   5015
5016   5017   5018   5019
5020   5021   5022   5023
5024   5025   5026   5027
5028   5029   5030   5031
5032   5033   5034   5035
5036   5037   5038   5039
5040   5041   5042   5043
5044   5045   5046   5047
5048   5049   5050   5051
5052   5053   5054   5055
5056   5057   5058   5059
5060   5061   5062   5063
5064   5065   5066   5067
5068   5069   5070   5071
5072   5073   5074   5075
5076   5077   5078   5079
5080   5081   5082   5083
5084   5085   5086   5087
5088   5089   5090   5091
5092   5093   5094   5095
5096   5097   5098   5099
5100   5101   5102   5103
5104   5105   5106   5107
5108   5109   5110   5111
5112   5113   5114   5115
5116   5117   5118   5119
5120   5121   5122   5123
5124   5125   5126   5127
5128   5129   5130   5131
5132   5133   5134   5135
5136   5137   5138   5139
5140   5141   5142   5143
5144   5145   5146   5147
5148   5149   5150   5151
5152   5153   5154   5155
5156   5157   5158   5159
5160   5161   5162   5163
5164   5165   5166   5167
5168   5169   5170   5171
5172   5173   5174   5175
5176   5177   5178   5179
5180   5181   5182   5183
5184   5185   5186   5187
5188   5189   5190   5191
5192   5193   5194   5195
5196   5197   5198   5199
5200   5201   5202   5203
5204   5205   5206   5207
5208   5209   5210   5211
5212   5213   5214   5215
5216   5217   5218   5219
5220   5221   5222   5223
5224   5225   5226   5227
5228   5229   5230   5231
5232   5233   5234   5235
5236   5237   5238   5239
5240   5241   5242   5243
5244   5245   5246   5247
5248   5249   5250   5251
5252   5253   5254   5255
5256   5257   5258   5259
5260   5261   5262   5263
5264   5265   5266   5267
5268   5269   5270   5271
5272   5273   5274   5275
5276   5277   5278   5279
5280   5281   5282   5283
5284   5285   5286   5287
5288   5289   5290   5291
5292   5293   5294   5295
5296   5297   5298   5299
5300   5301   5302   5303
5304   5305   5306   5307
5308   5309   5310   5311
5312   5313   5314   5315
5316   5317   5318   5319
5320   5321   5322   5323
5324   5325   5326   5327
5328   5329   5330   5331
5332   5333   5334   5335
5336   5337   5338   5339
5340   5341   5342   5343
5344   5345   5346   5347
5348   5349   5350   5351
5352   5353   5354   5355
5356   5357   5358   5359
5360   5361   5362   5363
5364   5365   5366   5367
5368   5369   5370   5371
5372   5373   5374   5375
5376   5377   5378   5379
5380   5381   5382   5383
5384   5385   5386   5387
5388   5389   5390   5391
5392   5393   5394   5395
5396   5397   5398   5399
5400   5401   5402   5403
5404   5405   5406   5407
5408   5409   5410   5411
5412   5413   5414   5415
5416   5417   5418   5419
5420   5421   5422   5423
5424   5425   5426   5427
5428   5429   5430   5431
5432   5433   5434   5435
5436   5437   5438   5439
5440   5441   5442   5443
5444   5445   5446   5447
5448   5449   5450   5451
5452   5453   5454   5455
5456   5457   5458   5459
5460   5461   5462   5463
5464   5465   5466   5467
5468   5469   5470   5471
5472   5473   5474   5475
5476   5477   5478   5479
5480   5481   5482   5483
5484   5485   5486   5487
5488   5489   5490   5491
5492   5493   5494   5495
5496   5497   5498   5499
5500   5501   5502   5503
5504   5505   5506   5507
5508   5509   5510   5511
5512   5513   5514   5515
5516   5517   5518   5519
5520   5521   5522   5523
5524   5525   5526   5527
5528   5529   5530   5531
5532   5533   5534   5535
5536   5537   5538   5539
5540   5541   5542   5543
5544   5545   5546   5547
5548   5549   5550   5551
5552   5553   5554   5555
5556   5557   5558   5559
5560   5561   5562   5563
5564   5565   5566   5567
5568   5569   5570   5571
5572   5573   5574   5575
5576   5577   5578   5579
5580   5581   5582   5583
5584   5585   5586   5587
5588   5589   5590   5591
5592   5593   5594   5595
5596   5597   5598   5599
5600   5601   5602   5603
5604   5605   5606   5607
5608   5609   5610   5611
5612   5613   5614   5615
5616   5617   5618   5619
5620   5621   5622   5623
5624   5625   5626   5627
5628   5629   5630   5631
5632   5633   5634   5635
5636   5637   5638   5639
5640   5641   5642   5643
5644   5645   5646   5647
5648   5649   5650   5651
5652   5653   5654   5655
5656   5657   5658   5659
5660   5661   5662   5663
5664   5665   5666   5667
5668   5669   5670   5671
5672   5673   5674   5675
5676   5677   5678   5679
5680   5681   5682   5683
5684   5685   5686   5687
5688   5689   5690   5691
5692   5693   5694   5695
5696   5697   5698   5699
5700   5701   5702   5703
5704   5705   5706   5707
5708   5709   5710   5711
5712   5713   5714   5715
5716   5717   5718   5719
5720   5721   5722   5723
5724   5725   5726   5727
5728   5729   5730   5731
5732   5733   5734   5735
5736   5737   5738   5739
5740   5741   5742   5743
5744   5745   5746   5747
5748   5749   5750   5751
5752   5753   5754   5755
5756   5757   5758   5759
5760   5761   5762   5763
5764   5765   5766   5767
5768   5769   5770   5771
5772   5773   5774   5775
5776   5777   5778   5779
5780   5781   5782   5783
5784   5785   5786   5787
5788   5789   5790   5791
5792   5793   5794   5795
5796   5797   5798   5799
5800   5801   5802   5803
5804   5805   5806   5807
5808   5809   5810   5811
5812   5813   5814   5815
5816   5817   5818   5819
5820   5821   5822   5823
5824   5825   5826   5827
5828   5829   5830   5831
5832   5833   5834   5835
5836   5837   5838   5839
5840   5841   5842   5843
5844   5845   5846   5847
5848   5849   5850   5851
5852   5853   5854   5855
5856   5857   5858   5859
5860   5861   5862   5863
5864   5865   5866   5867
5868   5869   5870   5871
5872   5873   5874   5875
5876   5877   5878   5879
5880   5881   5882   5883
5884   5885   5886   5887
5888   5889   5890   5891
5892   5893   5894   5895
5896   5897   5898   5899
5900   5901   5902   5903
5904   5905   5906   5907
5908   5909   5910   5911
5912   5913   5914   5915
5916   5917   5918   5919
5920   5921   5922   5923
5924   5925   5926   5927
5928   5929   5930   5931
5932   5933   5934   5935
5936   5937   5938   5939
5940   5941   5942   5943
5944   5945   5946   5947
5948   5949   5950   5951
5952   5953   5954   5955
5956   5957   5958   5959
5960   5961   5962   5963
5964   5965   5966   5967
5968   5969   5970   5971
5972   5973   5974   5975
5976   5977   5978   5979
5980   5981   5982   5983
5984   5985   5986   5987
5988   5989   5990   5991
5992   5993   5994   5995
5996   5997   5998   5999
              </DataArray>   
              <DataArray type="Int32" Name="offsets" format="ascii">   
4
8
12
16
20
24
28
32
36
40
44
48
52
56
60
64
68
72
76
80
84
88
92
96
100
104
108
112
116
120
124
128
132
136
140
144
148
152
156
160
164
168
172
176
180
184
188
192
196
200
204
208
212
216
220
224
228
232
236
240
244
248
252
256
260
264
268
272
276
280
284
288
292
296
300
304
308
312
316
320
324
328
332
336
340
344
348
352
356
360
364
368
372
376
380
384
388
392
396
400
404
408
412
416
420
424
428
432
436
440
444
448
452
456
460
464
468
472
476
480
484
488
492
496
500
504
508
512
516
520
524
528
532
536
540
544
548
552
556
560
564
568
572
576
580
584
588
592
596
600
604
608
612
616
620
624
628
632
636
640
644
648
652
656
660
664
668
672
676
680
684
688
692
696
700
704
708
712
716
720
724
728
732
736
740
744
748
752
756
760
764
768
772
776
780
784
788
792
796
800
804
808
812
816
820
824
828
832
836
840
844
848
852
856
860
864
868
872
876
880
884
888
892
896
900
904
908
912
916
920
924
928
932
936
940
944
948
952
956
960
964
968
972
976
980
984
988
992
996
1000
1004
1008
1012
1016
1020
1024
1028
1032
1036
1040
1044
1048
1052
1056
1060
1064
1068
1072
1076
1080
1084
1088
1092
1096
1100
1104
1108
1112
1116
1120
1124
1128
1132
1136
1140
1144
1148
1152
1156
1160
1164
1168
1172
1176
1180
1184
1188
1192
1196
1200
1204
1208
1212
1216
1220
1224
1228
1232
1236
1240
1244
1248
1252
1256
1260
1264
1268
1272
1276
1280
1284
1288
1292
1296
1300
1304
1308
1312
1316
1320
1324
1328
1332
1336
1340
1344
1348
1352
1356
1360
1364
1368
1372
1376
1380
1384
1388
1392
1396
1400
1404
1408
1412
1416
1420
1424
1428
1432
1436
1440
1444
1448
1452
1456
1460
1464
1468
1472
1476
1480
1484
1488
1492
1496
1500
1504
1508
1512
1516
1520
1524
1528
1532
1536
1540
1544
1548
1552
1556
1560
1564
1568
1572
1576
1580
1584
1588
1592
1596
1600
1604
1608
1612
1616
1620
1624
1628
1632
1636
1640
1644
1648
1652
1656
1660
1664
1668
1672
1676
1680
1684
1688
1692
1696
1700
1704
1708
1712
1716
1720
1724
1728
1732
1736
1740
1744
1748
1752
1756
1760
1764
1768
1772
1776
1780
1784
1788
1792
1796
1800
1804
1808
1812
1816
1820
1824
1828
1832
1836
1840
1844
1848
1852
1856
1860
1864
1868
1872
1876
1880
1884
1888
1892
1896
1900
1904
1908
1912
1916
1920
1924
1928
1932
1936
1940
1944
1948
1952
1956
1960
1964
1968
1972
1976
1980
1984
1988
1992
1996
2000
2004
2008
2012
2016
2020
2024
2028
2032
2036
2040
2044
2048
2052
2056
2060
2064
2068
2072
2076
2080
2084
2088
2092
2096
2100
2104
2108
2112
2116
2120
2124
2128
2132
2136
2140
2144
2148
2152
2156
2160
2164
2168
2172
2176
2180
2184
2188
2192
2196
2200
2204
2208
2212
2216
2220
2224
2228
2232
2236
2240
2244
2248
2252
2256
2260
2264
2268
2272
2276
2280
2284
2288
2292
2296
2300
2304
2308
2312
2316
2320
2324
2328
2332
2336
2340
2344
2348
2352
2356
2360
2364
2368
2372
2376
2380
2384
2388
2392
2396
2400
2404
2408
2412
2416
2420
2424
2428
2432
2436
2440
2444
2448
2452
2456
2460
2464
2468
2472
2476
2480
2484
2488
2492
2496
2500
2504
2508
2512
2516
2520
2524
2528
2532
2536
2540
2544
2548
2552
2556
2560
2564
2568
2572
2576
2580
2584
2588
2592
2596
2600
2604
2608
2612
2616
2620
2624
2628
2632
2636
2640
2644
2648
2652
2656
2660
2664
2668
2672
2676
2680
2684
2688
2692
2696
2700
2704
2708
2712
2716
2720
2724
2728
2732
2736
2740
2744
2748
2752
2756
2760
2764
2768
2772
2776
2780
2784
2788
2792
2796
2800
2804
2808
2812
2816
2820
2824
2828
2832
2836
2840
2844
2848
2852
2856
2860
2864
2868
2872
2876
2880
2884
2888
2892
2896
2900
2904
2908
2912
2916
2920
2924
2928
2932
2936
2940
2944
2948
2952
2956
2960
2964
2968
2972
2976
2980
2984
2988
2992
2996
3000
3004
3008
3012
3016
3020
3024
3028
3032
3036
3040
3044
3048
3052
3056
3060
3064
3068
3072
3076
3080
3084
3088
3092
3096
3100
3104
3108
3112
3116
3120
3124
3128
3132
3136
3140
3144
3148
3152
3156
3160
3164
3168
3172
3176
3180
3184
3188
3192
3196
3200
3204
3208
3212
3216
3220
3224
3228
3232
3236
3240
3244
3248
3252
3256
3260
3264
3268
3272
3276
3280
3284
3288
3292
3296
3300
3304
3308
3312
3316
3320
3324
3328
3332
3336
3340
3344
3348
3352
3356
3360
3364
3368
3372
3376
3380
3384
3388
3392
3396
3400
3404
3408
3412
3416
3420
3424
3428
3432
3436
3440
3444
3448
3452
3456
3460
3464
3468
3472
3476
3480
3484
3488
3492
3496
3500
3504
3508
3512
3516
3520
3524
3528
3532
3536
3540
3544
3548
3552
3556
3560
3564
3568
3572
3576
3580
3584
3588
3592
3596
3600
3604
3608
3612
3616
3620
3624
3628
3632
3636
3640
3644
3648
3652
3656
3660
3664
3668
3672
3676
3680
3684
3688
3692
3696
3700
3704
3708
3712
3716
3720
3724
3728
3732
3736
3740
3744
3748
3752
3756
3760
3764
3768
3772
3776
3780
3784
3788
3792
3796
3800
3804
3808
3812
3816
3820
3824
3828
3832
3836
3840
3844
3848
3852
3856
3860
3864
3868
3872
3876
3880
3884
3888
3892
3896
3900
3904
3908
3912
3916
3920
3924
3928
3932
3936
3940
3944
3948
3952
3956
3960
3964
3968
3972
3976
3980
3984
3988
3992
3996
4000
4004
4008
4012
4016
4020
4024
4028
4032
4036
4040
4044
4048
4052
4056
4060
4064
4068
4072
4076
4080
4084
4088
4092
4096
4100
4104
4108
4112
4116
4120
4124
4128
4132
4136
4140
4144
4148
4152
4156
4160
4164
4168
4172
4176
4180
4184
4188
4192
4196
4200
4204
4208
4212
4216
4220
4224
4228
4232
4236
4240
4244
4248
4252
4256
4260
4264
4268
4272
4276
4280
4284
4288
4292
4296
4300
4304
4308
4312
4316
4320
4324
4328
4332
4336
4340
4344
4348
4352
4356
4360
4364
4368
4372
4376
4380
4384
4388
4392
4396
4400
4404
4408
4412
4416
4420
4424
4428
4432
4436
4440
4444
4448
4452
4456
4460
4464
4468
4472
4476
4480
4484
4488
4492
4496
4500
4504
4508
4512
4516
4520
4524
4528
4532
4536
4540
4544
4548
4552
4556
4560
4564
4568
4572
4576
4580
4584
4588
4592
4596
4600
4604
4608
4612
4616
4620
4624
4628
4632
4636
4640
4644
4648
4652
4656
4660
4664
4668
4672
4676
4680
4684
4688
4692
4696
4700
4704
4708
4712
4716
4720
4724
4728
4732
4736
4740
4744
4748
4752
4756
4760
4764
4768
4772
4776
4780
4784
4788
4792
4796
4800
4804
4808
4812
4816
4820
4824
4828
4832
4836
4840
4844
4848
4852
4856
4860
4864
4868
4872
4876
4880
4884
4888
4892
4896
4900
4904
4908
4912
4916
4920
4924
4928
4932
4936
4940
4944
4948
4952
4956
4960
4964
4968
4972
4976
4980
4984
4988
4992
4996
5000
5004
5008
5012
5016
5020
5024
5028
5032
5036
5040
5044
5048
5052
5056
5060
5064
5068
5072
5076
5080
5084
5088
5092
5096
5100
5104
5108
5112
5116
5120
5124
5128
5132
5136
5140
5144
5148
5152
5156
5160
5164
5168
5172
5176
5180
5184
5188
5192
5196
5200
5204
5208
5212
5216
5220
5224
5228
5232
5236
5240
5244
5248
5252
5256
5260
5264
5268
5272
5276
5280
5284
5288
5292
5296
5300
5304
5308
5312
5316
5320
5324
5328
5332
5336
5340
5344
5348
5352
5356
5360
5364
5368
5372
5376
5380
5384
5388
5392
5396
5400
5404
5408
5412
5416
5420
5424
5428
5432
5436
5440
5444
5448
5452
5456
5460
5464
5468
5472
5476
5480
5484
5488
5492
5496
5500
5504
5508
5512
5516
5520
5524
5528
5532
5536
5540
5544
5548
5552
5556
5560
5564
5568
5572
5576
5580
5584
5588
5592
5596
5600
5604
5608
5612
5616
5620
5624
5628
5632
5636
5640
5644
5648
5652
5656
5660
5664
5668
5672
5676
5680
5684
5688
5692
5696
5700
5704
5708
5712
5716
5720
5724
5728
5732
5736
5740
5744
5748
5752
5756
5760
5764
5768
5772
5776
5780
5784
5788
5792
5796
5800
5804
5808
5812
5816
5820
5824
5828
5832
5836
5840
5844
5848
5852
5856
5860
5864
5868
5872
5876
5880
5884
5888
5892
5896
5900
5904
5908
5912
5916
5920
5924
5928
5932
5936
5940
5944
5948
5952
5956
5960
5964
5968
5972
5976
5980
5984
5988
5992
5996
6000
              </DataArray>   
              <DataArray type="UInt8" Name="types" format="ascii">   
10
10
10
10
10
10
10
10
10
10
10
10
10
10
10
10
10
10
10
10
10
10
10
10
10
10
10
10
10
10
10
10
10
10
10
10
10
10
10
10
10
10
10
10
10
10
10
10
10
10
10
10
10
10
10
10
10
10
10
10
10
10
10
10
10
10
10
10
10
10
10
10
10
10
10
10
10
10
10
10
10
10
10
10
10
10
10
10
10
10
10
10
10
10
10
10
10
10
10
10
10
10
10
10
10
10
10
10
10
10
10
10
10
10
10
10
10
10
10
10
10
10
10
10
10
10
10
10
10
10
10
10
10
10
10
10
10
10
10
10
10
10
10
10
10
10
10
10
10
10
10
10
10
10
10
10
10
10
10
10
10
10
10
10
10
10
10
10
10
10
10
10
10
10
10
10
10
10
10
10
10
10
10
10
10
10
10
10
10
10
10
10
10
10
10
10
10
10
10
10
10
10
10
10
10
10
10
10
10
10
10
10
10
10
10
10
10
10
10
10
10
10
10
10
10
10
10
10
10
10
10
10
10
10
10
10
10
10
10
10
10
10
10
10
10
10
10
10
10
10
10
10
10
10
10
10
10
10
10
10
10
10
10
10
10
10
10
10
10
10
10
10
10
10
10
10
10
10
10
10
10
10
10
10
10
10
10
10
10
10
10
10
10
10
10
10
10
10
10
10
10
10
10
10
10
10
10
10
10
10
10
10
10
10
10
10
10
10
10
10
10
10
10
10
10
10
10
10
10
10
10
10
10
10
10
10
10
10
10
10
10
10
10
10
10
10
10
10
10
10
10
10
10
10
10
10
10
10
10
10
10
10
10
10
10
10
10
10
10
10
10
10
10
10
10
10
10
10
10
10
10
10
10
10
10
10
10
10
10
10
10
10
10
10
10
10
10
10
10
10
10
10
10
10
10
10
10
10
10
10
10
10
10
10
10
10
10
10
10
10
10
10
10
10
10
10
10
10
10
10
10
10
10
10
10
10
10
10
10
10
10
10
10
10
10
10
10
10
10
10
10
10
10
10
10
10
10
10
10
10
10
10
10
10
10
10
10
10
10
10
10
10
10
10
10
10
10
10
10
10
10
10
10
10
10
10
10
10
10
10
10
10
10
10
10
10
10
10
10
10
10
10
10
10
10
10
10
10
10
10
10
10
10
10
10
10
10
10
10
10
10
10
10
10
10
10
10
10
10
10
10
10
10
10
10
10
10
10
10
10
10
10
10
10
10
10
10
10
10
10
10
10
10
10
10
10
10
10
10
10
10
10
10
10
10
10
10
10
10
10
10
10
10
10
10
10
10
10
10
10
10
10
10
10
10
10
10
10
10
10
10
10
10
10
10
10
10
10
10
10
10
10
10
10
10
10
10
10
10
10
10
10
10
10
10
10
10
10
10
10
10
10
10
10
10
10
10
10
10
10
10
10
10
10
10
10
10
10
10
10
10
10
10
10
10
10
10
10
10
10
10
10
10
10
10
10
10
10
10
10
10
10
10
10
10
10
10
10
10
10
10
10
10
10
10
10
10
10
10
10
10
10
10
10
10
10
10
10
10
10
10
10
10
10
10
10
10
10
10
10
10
10
10
10
10
10
10
10
10
10
10
10
10
10
10
10
10
10
10
10
10
10
10
10
10
10
10
10
10
10
10
10
10
10
10
10
10
10
10
10
10
10
10
10
10
10
10
10
10
10
10
10
10
10
10
10
10
10
10
10
10
10
10
10
10
10
10
10
10
10
10
10
10
10
10
10
10
10
10
10
10
10
10
10
10
10
10
10
10
10
10
10
10
10
10
10
10
10
10
10
10
10
10
10
10
10
10
10
10
10
10
10
10
10
10
10
10
10
10
10
10
10
10
10
10
10
10
10
10
10
10
10
10
10
10
10
10
10
10
10
10
10
10
10
10
10
10
10
10
10
10
10
10
10
10
10
10
10
10
10
10
10
10
10
10
10
10
10
10
10
10
10
10
10
10
10
10
10
10
10
10
10
10
10
10
10
10
10
10
10
10
10
10
10
10
10
10
10
10
10
10
10
10
10
10
10
10
10
10
10
10
10
10
10
10
10
10
10
10
10
10
10
10
10
10
10
10
10
10
10
10
10
10
10
10
10
10
10
10
10
10
10
10
10
10
10
10
10
10
10
10
10
10
10
10
10
10
10
10
10
10
10
10
10
10
10
10
10
10
10
10
10
10
10
10
10
10
10
10
10
10
10
10
10
10
10
10
10
10
10
10
10
10
10
10
10
10
10
10
10
10
10
10
10
10
10
10
10
10
10
10
10
10
10
10
10
10
10
10
10
10
10
10
10
10
10
10
10
10
10
10
10
10
10
10
10
10
10
10
10
10
10
10
10
10
10
10
10
10
10
10
10
10
10
10
10
10
10
10
10
10
10
10
10
10
10
10
10
10
10
10
10
10
10
10
10
10
10
10
10
10
10
10
10
10
10
10
10
10
10
10
10
10
10
10
10
10
10
10
10
10
10
10
10
10
10
10
10
10
10
10
10
10
10
10
10
10
10
10
10
10
10
10
10
10
10
10
10
10
10
10
10
10
10
10
10
10
10
10
10
10
10
10
10
10
10
10
10
10
10
10
10
10
10
10
10
10
10
10
10
10
10
10
10
10
10
10
10
10
10
10
10
10
10
10
10
10
10
10
10
10
10
10
10
10
10
10
10
10
10
10
10
10
10
10
10
10
10
10
10
10
10
10
10
10
10
10
10
10
10
10
10
10
10
10
10
10
10
10
10
10
10
10
10
10
10
10
10
10
10
10
10
10
10
10
10
10
10
10
10
10
10
10
10
10
10
10
10
10
10
10
10
10
10
10
10
10
10
10
10
10
10
10
10
10
10
10
10
10
10
10
10
10
10
10
10
10
10
10
10
10
10
10
10
10
10
10
10
10
10
10
10
10
10
10
10
10
10
10
10
10
10
10
10
10
10
10
10
10
10
10
10
10
10
10
10
10
10
10
10
10
10
10
10
10
10
10
10
10
10
10
10
10
10
10
10
10
10
10
10
10
10
10
10
10
10
10
10
10
10
10
10
10
10
10
10
10
10
10
10
10
10
10
10
10
10
10
10
10
10
10
10
10
10
10
10
10
10
10
10
10
10
10
10
10
10
10
10
10
10
10
10
10
10
10
10
10
10
10
10
10
10
10
10
10
10
10
10
10
10
10
10
10
10
10
10
10
10
10
10
10
10
10
10
10
10
10
10
10
10
10
10
10
10
10
10
10
10
10
10
10
10
10
10
10
10
10
10
10
10
10
10
10
10
10
10
10
10
10
10
10
10
10
10
10
10
10
10
10
10
10
10
10
10
10
10
10
10
10
10
10
10
10
10
10
10
10
10
10
10
10
10
10
10
10
10
10
10
10
10
              </DataArray>   
          </Cells>  
          <PointData>  
             <DataArray type="Float64" NumberOfComponents="3" Name="Strains" format="ascii">   
-0.0004385960229246524   0.0   -0.0002868979776887078
-0.0004385960229246524   0.0   -0.0002868979776887078
-0.0004385960229246524   0.0   -0.0002868979776887078
-0.0004385960229246524   0.0   -0.0002868979776887078
-0.0002791814537764434   4.871453087866763e-05   8.021689418840521e-06
-0.0002791814537764434   4.871453087866763e-05   8.021689418840521e-06
-0.0002791814537764434   4.871453087866763e-05   8.021689418840521e-06
-0.0002791814537764434   4.871453087866763e-05   8.021689418840521e-06
-0.00027372619278369175   0.0   -0.0002706495298864381
-0.00027372619278369175   0.0   -0.0002706495298864381
-0.00027372619278369175   0.0   -0.0002706495298864381
-0.00027372619278369175   0.0   -0.0002706495298864381
-0.0004590931663213185   5.83995619954834e-05   3.255688812317699e-06
-0.0004590931663213185   5.83995619954834e-05   3.255688812317699e-06
-0.0004590931663213185   5.83995619954834e-05   3.255688812317699e-06
-0.0004590931663213185   5.83995619954834e-05   3.255688812317699e-06
-0.00035616110785417147   1.3540373168558075e-05   -0.00014138222867010546
-0.00035616110785417147   1.3540373168558075e-05   -0.00014138222867010546
-0.00035616110785417147   1.3540373168558075e-05   -0.00014138222867010546
-0.00035616110785417147   1.3540373168558075e-05   -0.00014138222867010546
-0.0004590931663213193   0.0   -0.0003056892670837282
-0.0004590931663213193   0.0   -0.0003056892670837282
-0.0004590931663213193   0.0   -0.0003056892670837282
-0.0004590931663213193   0.0   -0.0003056892670837282
-0.00027372619278369175   5.839956199548351e-05   3.829542600960778e-05
-0.00027372619278369175   5.839956199548351e-05   3.829542600960778e-05
-0.00027372619278369175   5.839956199548351e-05   3.829542600960778e-05
-0.00027372619278369175   5.839956199548351e-05   3.829542600960778e-05
-0.000274569565067729   0.0   -0.0002772933018463183
-0.000274569565067729   0.0   -0.0002772933018463183
-0.000274569565067729   0.0   -0.0002772933018463183
-0.000274569565067729   0.0   -0.0002772933018463183
-0.0004735208949509906   6.254988651664656e-05   1.6762316049131012e-05
-0.0004735208949509906   6.254988651664656e-05   1.6762316049131012e-05
-0.0004735208949509906   6.254988651664656e-05   1.6762316049131012e-05
-0.0004735208949509906   6.254988651664656e-05   1.6762316049131012e-05
-0.0003668313656945235   2.3663304364508254e-05   -0.00013772161675369767
-0.0003668313656945235   2.3663304364508254e-05   -0.00013772161675369767
-0.0003668313656945235   2.3663304364508254e-05   -0.00013772161675369767
-0.0003668313656945235   2.3663304364508254e-05   -0.00013772161675369767
-0.0004735208949509914   0.0   -0.00031482323375630624
-0.0004735208949509914   0.0   -0.00031482323375630624
-0.0004735208949509914   0.0   -0.00031482323375630624
-0.0004735208949509914   0.0   -0.00031482323375630624
-0.000274569565067729   6.254988651664667e-05   5.429224795911895e-05
-0.000274569565067729   6.254988651664667e-05   5.429224795911895e-05
-0.000274569565067729   6.254988651664667e-05   5.429224795911895e-05
-0.000274569565067729   6.254988651664667e-05   5.429224795911895e-05
-0.00027450575099927446   0.0   -0.0002789892247168278
-0.00027450575099927446   0.0   -0.0002789892247168278
-0.00027450575099927446   0.0   -0.0002789892247168278
-0.00027450575099927446   0.0   -0.0002789892247168278
-0.0005045313245919297   7.120579607659312e-05   6.166325362497627e-05
-0.0005045313245919297   7.120579607659312e-05   6.166325362497627e-05
-0.0005045313245919297   7.120579607659312e-05   6.166325362497627e-05
-0.0005045313245919297   7.120579607659312e-05   6.166325362497627e-05
-0.0003740133229751323   2.9861674199565375e-05   -0.00013106027594346926
-0.0003740133229751323   2.9861674199565375e-05   -0.00013106027594346926
-0.0003740133229751323   2.9861674199565375e-05   -0.00013106027594346926
-0.0003740133229751323   2.9861674199565375e-05   -0.00013106027594346926
-0.00027918145377644387   0.0   -0.00025766925916150717
-0.00027918145377644387   0.0   -0.00025766925916150717
-0.00027918145377644387   0.0   -0.00025766925916150717
-0.00027918145377644387   0.0   -0.00025766925916150717
-0.00012705815636901663   1.78909821433893e-05   6.604159136904886e-06
-0.00012705815636901663   1.78909821433893e-05   6.604159136904886e-06
-0.00012705815636901663   1.78909821433893e-05   6.604159136904886e-06
-0.00012705815636901663   1.78909821433893e-05   6.604159136904886e-06
-0.0001222723420276726   0.0   -0.0002553918038679764
-0.0001222723420276726   0.0   -0.0002553918038679764
-0.0001222723420276726   0.0   -0.0002553918038679764
-0.0001222723420276726   0.0   -0.0002553918038679764
-0.00027372619278369175   2.5429543364102888e-05   -1.8226445293072853e-05
-0.00027372619278369175   2.5429543364102888e-05   -1.8226445293072853e-05
-0.00027372619278369175   2.5429543364102888e-05   -1.8226445293072853e-05
-0.00027372619278369175   2.5429543364102888e-05   -1.8226445293072853e-05
-0.00020072689790205788   1.8978794112756788e-06   -0.00012577293839076542
-0.00020072689790205788   1.8978794112756788e-06   -0.00012577293839076542
-0.00020072689790205788   1.8978794112756788e-06   -0.00012577293839076542
-0.00020072689790205788   1.8978794112756788e-06   -0.00012577293839076542
-0.0002737261927836915   0.0   -0.00027064952988643787
-0.0002737261927836915   0.0   -0.00027064952988643787
-0.0002737261927836915   0.0   -0.00027064952988643787
-0.0002737261927836915   0.0   -0.00027064952988643787
-0.0001222723420276726   2.5429543364102888e-05   -2.9687192746112015e-06
-0.0001222723420276726   2.5429543364102888e-05   -2.9687192746112015e-06
-0.0001222723420276726   2.5429543364102888e-05   -2.9687192746112015e-06
-0.0001222723420276726   2.5429543364102888e-05   -2.9687192746112015e-06
-0.00011961367439783283   0.0   -0.00025861242895248066
-0.00011961367439783283   0.0   -0.00025861242895248066
-0.00011961367439783283   0.0   -0.00025861242895248066
-0.00011961367439783283   0.0   -0.00025861242895248066
-0.000274569565067729   3.1134788156395986e-05   -1.9033484063158052e-05
-0.000274569565067729   3.1134788156395986e-05   -1.9033484063158052e-05
-0.000274569565067729   3.1134788156395986e-05   -1.9033484063158052e-05
-0.000274569565067729   3.1134788156395986e-05   -1.9033484063158052e-05
-0.0001966699335907619   1.0030917444964519e-05   -0.0001362038807645765
-0.0001966699335907619   1.0030917444964519e-05   -0.0001362038807645765
-0.0001966699335907619   1.0030917444964519e-05   -0.0001362038807645765
-0.0001966699335907619   1.0030917444964519e-05   -0.0001362038807645765
-0.000274569565067729   0.0   -0.0002772933018463183
-0.000274569565067729   0.0   -0.0002772933018463183
-0.000274569565067729   0.0   -0.0002772933018463183
-0.000274569565067729   0.0   -0.0002772933018463183
-0.00011961367439783283   3.1134788156395986e-05   -3.526111693204063e-07
-0.00011961367439783283   3.1134788156395986e-05   -3.526111693204063e-07
-0.00011961367439783283   3.1134788156395986e-05   -3.526111693204063e-07
-0.00011961367439783283   3.1134788156395986e-05   -3.526111693204063e-07
-0.00011720454679101692   0.0   -0.000257262012722995
-0.00011720454679101692   0.0   -0.000257262012722995
-0.00011720454679101692   0.0   -0.000257262012722995
-0.00011720454679101692   0.0   -0.000257262012722995
-0.00027450575099927376   3.621201998972091e-05   -1.6820551036398495e-05
-0.00027450575099927376   3.621201998972091e-05   -1.6820551036398495e-05
-0.00027450575099927376   3.621201998972091e-05   -1.6820551036398495e-05
-0.00027450575099927376   3.621201998972091e-05   -1.6820551036398495e-05
-0.0001958870559293729   1.6692740936102547e-05   -0.00013614014205406324
-0.0001958870559293729   1.6692740936102547e-05   -0.00013614014205406324
-0.0001958870559293729   1.6692740936102547e-05   -0.00013614014205406324
-0.0001958870559293729   1.6692740936102547e-05   -0.00013614014205406324
-0.00012705815636901684   0.0   -0.0002469346698754736
-0.00012705815636901684   0.0   -0.0002469346698754736
-0.00012705815636901684   0.0   -0.0002469346698754736
-0.00012705815636901684   0.0   -0.0002469346698754736
1.6730816929058198e-05   -2.273727206248354e-06   -8.650617369097312e-06
1.6730816929058198e-05   -2.273727206248354e-06   -8.650617369097312e-06
1.6730816929058198e-05   -2.273727206248354e-06   -8.650617369097312e-06
1.6730816929058198e-05   -2.273727206248354e-06   -8.650617369097312e-06
1.975248902870528e-05   0.0   -0.00025269166478331844
1.975248902870528e-05   0.0   -0.00025269166478331844
1.975248902870528e-05   0.0   -0.00025269166478331844
1.975248902870528e-05   0.0   -0.00025269166478331844
-0.0001222723420276726   4.500231807761789e-06   -1.868375210734656e-05
-0.0001222723420276726   4.500231807761789e-06   -1.868375210734656e-05
-0.0001222723420276726   4.500231807761789e-06   -1.868375210734656e-05
-0.0001222723420276726   4.500231807761789e-06   -1.868375210734656e-05
-5.3652833670155655e-05   -4.797495756538077e-06   -0.00012747096283129432
-5.3652833670155655e-05   -4.797495756538077e-06   -0.00012747096283129432
-5.3652833670155655e-05   -4.797495756538077e-06   -0.00012747096283129432
-5.3652833670155655e-05   -4.797495756538077e-06   -0.00012747096283129432
-0.0001222723420276726   0.0   -0.0002553918038679764
-0.0001222723420276726   0.0   -0.0002553918038679764
-0.0001222723420276726   0.0   -0.0002553918038679764
-0.0001222723420276726   0.0   -0.0002553918038679764
1.9752489028705314e-05   4.500231807761789e-06   -1.5983613022689393e-05
1.9752489028705314e-05   4.500231807761789e-06   -1.5983613022689393e-05
1.9752489028705314e-05   4.500231807761789e-06   -1.5983613022689393e-05
1.9752489028705314e-05   4.500231807761789e-06   -1.5983613022689393e-05
2.2127944825805735e-05   0.0   -0.0002523356355128725
2.2127944825805735e-05   0.0   -0.0002523356355128725
2.2127944825805735e-05   0.0   -0.0002523356355128725
2.2127944825805735e-05   0.0   -0.0002523356355128725
-0.00011961367439783262   1.0461322399346227e-05   -2.237639691308297e-05
-0.00011961367439783262   1.0461322399346227e-05   -2.237639691308297e-05
-0.00011961367439783262   1.0461322399346227e-05   -2.237639691308297e-05
-0.00011961367439783262   1.0461322399346227e-05   -2.237639691308297e-05
-5.007219860093342e-05   2.5468069625861887e-06   -0.00013353014731252598
-5.007219860093342e-05   2.5468069625861887e-06   -0.00013353014731252598
-5.007219860093342e-05   2.5468069625861887e-06   -0.00013353014731252598
-5.007219860093342e-05   2.5468069625861887e-06   -0.00013353014731252598
-0.00011961367439783283   0.0   -0.00025861242895248066
-0.00011961367439783283   0.0   -0.00025861242895248066
-0.00011961367439783283   0.0   -0.00025861242895248066
-0.00011961367439783283   0.0   -0.00025861242895248066
2.2127944825805772e-05   1.0461322399346227e-05   -1.609960347347535e-05
2.2127944825805772e-05   1.0461322399346227e-05   -1.609960347347535e-05
2.2127944825805772e-05   1.0461322399346227e-05   -1.609960347347535e-05
2.2127944825805772e-05   1.0461322399346227e-05   -1.609960347347535e-05
2.5347838921779802e-05   0.0   -0.00024683999430791866
2.5347838921779802e-05   0.0   -0.00024683999430791866
2.5347838921779802e-05   0.0   -0.00024683999430791866
2.5347838921779802e-05   0.0   -0.00024683999430791866
-0.00011720454679101683   1.7370030691793513e-05   -1.9674703201667077e-05
-0.00011720454679101683   1.7370030691793513e-05   -1.9674703201667077e-05
-0.00011720454679101683   1.7370030691793513e-05   -1.9674703201667077e-05
-0.00011720454679101683   1.7370030691793513e-05   -1.9674703201667077e-05
-4.713291773802641e-05   9.810362203801283e-06   -0.00013192495053052235
-4.713291773802641e-05   9.810362203801283e-06   -0.00013192495053052235
-4.713291773802641e-05   9.810362203801283e-06   -0.00013192495053052235
-4.713291773802641e-05   9.810362203801283e-06   -0.00013192495053052235
1.6730816929058225e-05   0.0   -0.00024829890619922264
1.6730816929058225e-05   0.0   -0.00024829890619922264
1.6730816929058225e-05   0.0   -0.00024829890619922264
1.6730816929058225e-05   0.0   -0.00024829890619922264
0.00017275081285493532   -2.0261529566612826e-05   -4.22497396061598e-07
0.00017275081285493532   -2.0261529566612826e-05   -4.22497396061598e-07
0.00017275081285493532   -2.0261529566612826e-05   -4.22497396061598e-07
0.00017275081285493532   -2.0261529566612826e-05   -4.22497396061598e-07
0.00017296564070102557   0.0   -0.0002618684500631916
0.00017296564070102557   0.0   -0.0002618684500631916
0.00017296564070102557   0.0   -0.0002618684500631916
0.00017296564070102557   0.0   -0.0002618684500631916
1.9752489028705348e-05   -1.52946421331205e-05   2.66358800388101e-06
1.9752489028705348e-05   -1.52946421331205e-05   2.66358800388101e-06
1.9752489028705348e-05   -1.52946421331205e-05   2.66358800388101e-06
1.9752489028705348e-05   -1.52946421331205e-05   2.66358800388101e-06
9.484822881504189e-05   -1.130795321997415e-05   -0.00012488799165456758
9.484822881504189e-05   -1.130795321997415e-05   -0.00012488799165456758
9.484822881504189e-05   -1.130795321997415e-05   -0.00012488799165456758
9.484822881504189e-05   -1.130795321997415e-05   -0.00012488799165456758
1.9752489028705348e-05   0.0   -0.0002526916647833193
1.9752489028705348e-05   0.0   -0.0002526916647833193
1.9752489028705348e-05   0.0   -0.0002526916647833193
1.9752489028705348e-05   0.0   -0.0002526916647833193
0.00017296564070102557   -1.52946421331205e-05   -6.513197275991262e-06
0.00017296564070102557   -1.52946421331205e-05   -6.513197275991262e-06
0.00017296564070102557   -1.52946421331205e-05   -6.513197275991262e-06
0.00017296564070102557   -1.52946421331205e-05   -6.513197275991262e-06
0.00017214526660671006   0.0   -0.0002581284058454716
0.00017214526660671006   0.0   -0.0002581284058454716
0.00017214526660671006   0.0   -0.0002581284058454716
0.00017214526660671006   0.0   -0.0002581284058454716
2.2127944825805772e-05   -9.654617220997727e-06   -2.3067658780325783e-06
2.2127944825805772e-05   -9.654617220997727e-06   -2.3067658780325783e-06
2.2127944825805772e-05   -9.654617220997727e-06   -2.3067658780325783e-06
2.2127944825805772e-05   -9.654617220997727e-06   -2.3067658780325783e-06
9.594887781770771e-05   -4.530617551793569e-06   -0.00012841605399939145
9.594887781770771e-05   -4.530617551793569e-06   -0.00012841605399939145
9.594887781770771e-05   -4.530617551793569e-06   -0.00012841605399939145
9.594887781770771e-05   -4.530617551793569e-06   -0.00012841605399939145
2.2127944825805755e-05   0.0   -0.00025233563551287276
2.2127944825805755e-05   0.0   -0.00025233563551287276
2.2127944825805755e-05   0.0   -0.00025233563551287276
2.2127944825805755e-05   0.0   -0.00025233563551287276
0.00017214526660671006   -9.654617220997727e-06   -8.0995362106312e-06
0.00017214526660671006   -9.654617220997727e-06   -8.0995362106312e-06
0.00017214526660671006   -9.654617220997727e-06   -8.0995362106312e-06
0.00017214526660671006   -9.654617220997727e-06   -8.0995362106312e-06
0.00017540272956333733   0.0   -0.000248082494182421
0.00017540272956333733   0.0   -0.000248082494182421
0.00017540272956333733   0.0   -0.000248082494182421
0.00017540272956333733   0.0   -0.000248082494182421
2.5347838921779846e-05   -2.0708331241698166e-06   3.2514900946767014e-06
2.5347838921779846e-05   -2.0708331241698166e-06   3.2514900946767014e-06
2.5347838921779846e-05   -2.0708331241698166e-06   3.2514900946767014e-06
2.5347838921779846e-05   -2.0708331241698166e-06   3.2514900946767014e-06
9.876533719457148e-05   3.5442844420433158e-06   -0.0001224800775663705
9.876533719457148e-05   3.5442844420433158e-06   -0.0001224800775663705
9.876533719457148e-05   3.5442844420433158e-06   -0.0001224800775663705
9.876533719457148e-05   3.5442844420433158e-06   -0.0001224800775663705
0.00017275081285493532   0.0   -0.0002604558239391903
0.00017275081285493532   0.0   -0.0002604558239391903
0.00017275081285493532   0.0   -0.0002604558239391903
0.00017275081285493532   0.0   -0.0002604558239391903
0.00038952132668427657   -5.130075508224174e-05   7.00479127270355e-05
0.00038952132668427657   -5.130075508224174e-05   7.00479127270355e-05
0.00038952132668427657   -5.130075508224174e-05   7.00479127270355e-05
0.00038952132668427657   -5.130075508224174e-05   7.00479127270355e-05
0.00036570342739318615   0.0   -0.0002880869844153876
0.00036570342739318615   0.0   -0.0002880869844153876
0.00036570342739318615   0.0   -0.0002880869844153876
0.00036570342739318615   0.0   -0.0002880869844153876
0.00017296564070102557   -4.3697557253659976e-05   5.936119442374264e-05
0.00017296564070102557   -4.3697557253659976e-05   5.936119442374264e-05
0.00017296564070102557   -4.3697557253659976e-05   5.936119442374264e-05
0.00017296564070102557   -4.3697557253659976e-05   5.936119442374264e-05
0.00026922712012406074   -2.3025967063497753e-05   -0.00011347755872874647
0.00026922712012406074   -2.3025967063497753e-05   -0.00011347755872874647
0.00026922712012406074   -2.3025967063497753e-05   -0.00011347755872874647
0.00026922712012406074   -2.3025967063497753e-05   -0.00011347755872874647
0.0001729656407010254   0.0   -0.00026186845006319137
0.0001729656407010254   0.0   -0.00026186845006319137
0.0001729656407010254   0.0   -0.00026186845006319137
0.0001729656407010254   0.0   -0.00026186845006319137
0.00036570342739318485   -4.369755725365987e-05   3.314266007154647e-05
0.00036570342739318485   -4.369755725365987e-05   3.314266007154647e-05
0.00036570342739318485   -4.369755725365987e-05   3.314266007154647e-05
0.00036570342739318485   -4.369755725365987e-05   3.314266007154647e-05
0.0003546840928854151   0.0   -0.00028209662591404907
0.0003546840928854151   0.0   -0.00028209662591404907
0.0003546840928854151   0.0   -0.00028209662591404907
0.0003546840928854151   0.0   -0.00028209662591404907
0.00017214526660671006   -3.9947033447629136e-05   4.6102971285703464e-05
0.00017214526660671006   -3.9947033447629136e-05   4.6102971285703464e-05
0.00017214526660671006   -3.9947033447629136e-05   4.6102971285703464e-05
0.00017214526660671006   -3.9947033447629136e-05   4.6102971285703464e-05
0.00026382486679322017   -1.6856813209047887e-05   -0.00012055049450162878
0.00026382486679322017   -1.6856813209047887e-05   -0.00012055049450162878
0.00026382486679322017   -1.6856813209047887e-05   -0.00012055049450162878
0.00026382486679322017   -1.6856813209047887e-05   -0.00012055049450162878
0.00017214526660671006   0.0   -0.0002581284058454716
0.00017214526660671006   0.0   -0.0002581284058454716
0.00017214526660671006   0.0   -0.0002581284058454716
0.00017214526660671006   0.0   -0.0002581284058454716
0.0003546840928854139   -3.994703344762897e-05   2.2134751217125874e-05
0.0003546840928854139   -3.994703344762897e-05   2.2134751217125874e-05
0.0003546840928854139   -3.994703344762897e-05   2.2134751217125874e-05
0.0003546840928854139   -3.994703344762897e-05   2.2134751217125874e-05
0.000338335030381319   0.0   -0.0002667455726161617
0.000338335030381319   0.0   -0.0002667455726161617
0.000338335030381319   0.0   -0.0002667455726161617
0.000338335030381319   0.0   -0.0002667455726161617
0.00017540272956333733   -3.1105130722901926e-05   2.347134051421595e-05
0.00017540272956333733   -3.1105130722901926e-05   2.347134051421595e-05
0.00017540272956333733   -3.1105130722901926e-05   2.347134051421595e-05
0.00017540272956333733   -3.1105130722901926e-05   2.347134051421595e-05
0.00025524014849401483   -7.180972308908811e-06   -0.00012394551941864222
0.00025524014849401483   -7.180972308908811e-06   -0.00012394551941864222
0.00025524014849401483   -7.180972308908811e-06   -0.00012394551941864222
0.00025524014849401483   -7.180972308908811e-06   -0.00012394551941864222
-0.0003812501677203367   4.871453087866757e-05   -0.00024951532906747505
-0.0003812501677203367   4.871453087866757e-05   -0.00024951532906747505
-0.0003812501677203367   4.871453087866757e-05   -0.00024951532906747505
-0.0003812501677203367   4.871453087866757e-05   -0.00024951532906747505
-0.00024412415802611045   4.385087334725997e-05   -2.3890174095942676e-05
-0.00024412415802611045   4.385087334725997e-05   -2.3890174095942676e-05
-0.00024412415802611045   4.385087334725997e-05   -2.3890174095942676e-05
-0.00024412415802611045   4.385087334725997e-05   -2.3890174095942676e-05
-0.00025030590923098546   5.839956199548335e-05   -0.0002094926251747101
-0.00025030590923098546   5.839956199548335e-05   -0.0002094926251747101
-0.00025030590923098546   5.839956199548335e-05   -0.0002094926251747101
-0.00025030590923098546   5.839956199548335e-05   -0.0002094926251747101
-0.0003854599320311664   5.259213323651878e-05   1.9248536747637794e-05
-0.0003854599320311664   5.259213323651878e-05   1.9248536747637794e-05
-0.0003854599320311664   5.259213323651878e-05   1.9248536747637794e-05
-0.0003854599320311664   5.259213323651878e-05   1.9248536747637794e-05
-0.0003028018362809521   5.0864293584630964e-05   -0.0001174782523782553
-0.0003028018362809521   5.0864293584630964e-05   -0.0001174782523782553
-0.0003028018362809521   5.0864293584630964e-05   -0.0001174782523782553
-0.0003028018362809521   5.0864293584630964e-05   -0.0001174782523782553
-0.0003854599320311664   5.839956199548335e-05   -0.00020600816791933136
-0.0003854599320311664   5.839956199548335e-05   -0.00020600816791933136
-0.0003854599320311664   5.839956199548335e-05   -0.00020600816791933136
-0.0003854599320311664   5.839956199548335e-05   -0.00020600816791933136
-0.00025030590923098633   5.259213323651922e-05   1.5764079492259163e-05
-0.00025030590923098633   5.259213323651922e-05   1.5764079492259163e-05
-0.00025030590923098633   5.259213323651922e-05   1.5764079492259163e-05
-0.00025030590923098633   5.259213323651922e-05   1.5764079492259163e-05
-0.00025164271351089566   6.254988651664651e-05   -0.00018830211872340394
-0.00025164271351089566   6.254988651664651e-05   -0.00018830211872340394
-0.00025164271351089566   6.254988651664651e-05   -0.00018830211872340394
-0.00025164271351089566   6.254988651664651e-05   -0.00018830211872340394
-0.0003882440461981188   5.653579951133943e-05   4.2975221291817554e-05
-0.0003882440461981188   5.653579951133943e-05   4.2975221291817554e-05
-0.0003882440461981188   5.653579951133943e-05   4.2975221291817554e-05
-0.0003882440461981188   5.653579951133943e-05   4.2975221291817554e-05
-0.00031175914459821415   5.6362603661512176e-05   -8.439569719812586e-05
-0.00031175914459821415   5.6362603661512176e-05   -8.439569719812586e-05
-0.00031175914459821415   5.6362603661512176e-05   -8.439569719812586e-05
-0.00031175914459821415   5.6362603661512176e-05   -8.439569719812586e-05
-0.00038824404619811813   6.254988651664651e-05   -0.0001846936665202197
-0.00038824404619811813   6.254988651664651e-05   -0.0001846936665202197
-0.00038824404619811813   6.254988651664651e-05   -0.0001846936665202197
-0.00038824404619811813   6.254988651664651e-05   -0.0001846936665202197
-0.00025164271351089604   5.653579951133943e-05   3.936676908863326e-05
-0.00025164271351089604   5.653579951133943e-05   3.936676908863326e-05
-0.00025164271351089604   5.653579951133943e-05   3.936676908863326e-05
-0.00025164271351089604   5.653579951133943e-05   3.936676908863326e-05
-0.00025025946761734146   7.120579607659307e-05   -0.00013899953187325562
-0.00025025946761734146   7.120579607659307e-05   -0.00013899953187325562
-0.00025025946761734146   7.120579607659307e-05   -0.00013899953187325562
-0.00025025946761734146   7.120579607659307e-05   -0.00013899953187325562
-0.0003775822890835299   5.96508224362561e-05   8.013815475459282e-05
-0.0003775822890835299   5.96508224362561e-05   8.013815475459282e-05
-0.0003775822890835299   5.96508224362561e-05   8.013815475459282e-05
-0.0003775822890835299   5.96508224362561e-05   8.013815475459282e-05
-0.0003037146350530335   6.179761501715422e-05   -4.426267751143995e-05
-0.0003037146350530335   6.179761501715422e-05   -4.426267751143995e-05
-0.0003037146350530335   6.179761501715422e-05   -4.426267751143995e-05
-0.0003037146350530335   6.179761501715422e-05   -4.426267751143995e-05
-0.00024412415802611045   1.7890982143389247e-05   -0.0002645856431542889
-0.00024412415802611045   1.7890982143389247e-05   -0.0002645856431542889
-0.00024412415802611045   1.7890982143389247e-05   -0.0002645856431542889
-0.00024412415802611045   1.7890982143389247e-05   -0.0002645856431542889
-0.00011556661133973063   2.0403145782172142e-05   -4.881576716038563e-05
-0.00011556661133973063   2.0403145782172142e-05   -4.881576716038563e-05
-0.00011556661133973063   2.0403145782172142e-05   -4.881576716038563e-05
-0.00011556661133973063   2.0403145782172142e-05   -4.881576716038563e-05
-0.00011836977721303596   2.542954336410278e-05   -0.0002642068925125605
-0.00011836977721303596   2.542954336410278e-05   -0.0002642068925125605
-0.00011836977721303596   2.542954336410278e-05   -0.0002642068925125605
-0.00011836977721303596   2.542954336410278e-05   -0.0002642068925125605
-0.00025030590923098546   2.8442216638819564e-05   -4.612094311414068e-05
-0.00025030590923098546   2.8442216638819564e-05   -4.612094311414068e-05
-0.00025030590923098546   2.8442216638819564e-05   -4.612094311414068e-05
-0.00025030590923098546   2.8442216638819564e-05   -4.612094311414068e-05
-0.0001815816909452775   2.290567530436379e-05   -0.00015733938212298217
-0.0001815816909452775   2.290567530436379e-05   -0.00015733938212298217
-0.0001815816909452775   2.290567530436379e-05   -0.00015733938212298217
-0.0001815816909452775   2.290567530436379e-05   -0.00015733938212298217
-0.00025030590923098524   2.542954336410278e-05   -0.0002660144964773901
-0.00025030590923098524   2.542954336410278e-05   -0.0002660144964773901
-0.00025030590923098524   2.542954336410278e-05   -0.0002660144964773901
-0.00025030590923098524   2.542954336410278e-05   -0.0002660144964773901
-0.00011836977721303618   2.8442216638819564e-05   -4.431333914931099e-05
-0.00011836977721303618   2.8442216638819564e-05   -4.431333914931099e-05
-0.00011836977721303618   2.8442216638819564e-05   -4.431333914931099e-05
-0.00011836977721303618   2.8442216638819564e-05   -4.431333914931099e-05
-0.0001192839512992289   3.113478815639588e-05   -0.00025925375252326666
-0.0001192839512992289   3.113478815639588e-05   -0.00025925375252326666
-0.0001192839512992289   3.113478815639588e-05   -0.00025925375252326666
-0.0001192839512992289   3.113478815639588e-05   -0.00025925375252326666
-0.00025164271351089566   3.5091618527085785e-05   -4.102991372623643e-05
-0.00025164271351089566   3.5091618527085785e-05   -4.102991372623643e-05
-0.00025164271351089566   3.5091618527085785e-05   -4.102991372623643e-05
-0.00025164271351089566   3.5091618527085785e-05   -4.102991372623643e-05
-0.00018304391030816885   2.9052174730523784e-05   -0.0001517375861195098
-0.00018304391030816885   2.9052174730523784e-05   -0.0001517375861195098
-0.00018304391030816885   2.9052174730523784e-05   -0.0001517375861195098
-0.00018304391030816885   2.9052174730523784e-05   -0.0001517375861195098
-0.00025164271351089566   3.113478815639588e-05   -0.00026162785074568067
-0.00025164271351089566   3.113478815639588e-05   -0.00026162785074568067
-0.00025164271351089566   3.113478815639588e-05   -0.00026162785074568067
-0.00025164271351089566   3.113478815639588e-05   -0.00026162785074568067
-0.0001192839512992293   3.5091618527086e-05   -3.865581550382269e-05
-0.0001192839512992293   3.5091618527086e-05   -3.865581550382269e-05
-0.0001192839512992293   3.5091618527086e-05   -3.865581550382269e-05
-0.0001192839512992293   3.5091618527086e-05   -3.865581550382269e-05
-0.00011903819633122329   3.6212019989720855e-05   -0.00025658879875788295
-0.00011903819633122329   3.6212019989720855e-05   -0.00025658879875788295
-0.00011903819633122329   3.6212019989720855e-05   -0.00025658879875788295
-0.00011903819633122329   3.6212019989720855e-05   -0.00025658879875788295
-0.0002502594676173413   4.224204569422581e-05   -4.150469537038935e-05
-0.0002502594676173413   4.224204569422581e-05   -4.150469537038935e-05
-0.0002502594676173413   4.224204569422581e-05   -4.150469537038935e-05
-0.0002502594676173413   4.224204569422581e-05   -4.150469537038935e-05
-0.000184167798151879   3.461523414849898e-05   -0.00014708139088539097
-0.000184167798151879   3.461523414849898e-05   -0.00014708139088539097
-0.000184167798151879   3.461523414849898e-05   -0.00014708139088539097
-0.000184167798151879   3.461523414849898e-05   -0.00014708139088539097
-0.00011556661133973044   -2.273727206248354e-06   -0.0002769688851532725
-0.00011556661133973044   -2.273727206248354e-06   -0.0002769688851532725
-0.00011556661133973044   -2.273727206248354e-06   -0.0002769688851532725
-0.00011556661133973044   -2.273727206248354e-06   -0.0002769688851532725
1.1376477842431375e-05   -5.964257155926123e-07   -6.439068895527586e-05
1.1376477842431375e-05   -5.964257155926123e-07   -6.439068895527586e-05
1.1376477842431375e-05   -5.964257155926123e-07   -6.439068895527586e-05
1.1376477842431375e-05   -5.964257155926123e-07   -6.439068895527586e-05
1.0810986202436924e-05   4.500231807761789e-06   -0.00027853712519704395
1.0810986202436924e-05   4.500231807761789e-06   -0.00027853712519704395
1.0810986202436924e-05   4.500231807761789e-06   -0.00027853712519704395
1.0810986202436924e-05   4.500231807761789e-06   -0.00027853712519704395
-0.00011836977721303596   6.808232054848935e-06   -6.462065298617386e-05
-0.00011836977721303596   6.808232054848935e-06   -6.462065298617386e-05
-0.00011836977721303596   6.808232054848935e-06   -6.462065298617386e-05
-0.00011836977721303596   6.808232054848935e-06   -6.462065298617386e-05
-5.325988368949533e-05   2.25658315552654e-06   -0.00017040615285248212
-5.325988368949533e-05   2.25658315552654e-06   -0.00017040615285248212
-5.325988368949533e-05   2.25658315552654e-06   -0.00017040615285248212
-5.325988368949533e-05   2.25658315552654e-06   -0.00017040615285248212
-0.00011836977721303596   4.500231807761789e-06   -0.0002799219253452959
-0.00011836977721303596   4.500231807761789e-06   -0.0002799219253452959
-0.00011836977721303596   4.500231807761789e-06   -0.0002799219253452959
-0.00011836977721303596   4.500231807761789e-06   -0.0002799219253452959
1.0810986202436924e-05   6.808232054848935e-06   -6.323585283792162e-05
1.0810986202436924e-05   6.808232054848935e-06   -6.323585283792162e-05
1.0810986202436924e-05   6.808232054848935e-06   -6.323585283792162e-05
1.0810986202436924e-05   6.808232054848935e-06   -6.323585283792162e-05
1.0053075894077932e-05   1.0461322399346227e-05   -0.0002791293217140281
1.0053075894077932e-05   1.0461322399346227e-05   -0.0002791293217140281
1.0053075894077932e-05   1.0461322399346227e-05   -0.0002791293217140281
1.0053075894077932e-05   1.0461322399346227e-05   -0.0002791293217140281
-0.0001192839512992289   1.4041683321015016e-05   -6.571582627818486e-05
-0.0001192839512992289   1.4041683321015016e-05   -6.571582627818486e-05
-0.0001192839512992289   1.4041683321015016e-05   -6.571582627818486e-05
-0.0001192839512992289   1.4041683321015016e-05   -6.571582627818486e-05
-5.4299956575848686e-05   8.534629897304492e-06   -0.00017071825209625822
-5.4299956575848686e-05   8.534629897304492e-06   -0.00017071825209625822
-5.4299956575848686e-05   8.534629897304492e-06   -0.00017071825209625822
-5.4299956575848686e-05   8.534629897304492e-06   -0.00017071825209625822
-0.0001192839512992289   1.0461322399346227e-05   -0.00028127753826702933
-0.0001192839512992289   1.0461322399346227e-05   -0.00028127753826702933
-0.0001192839512992289   1.0461322399346227e-05   -0.00028127753826702933
-0.0001192839512992289   1.0461322399346227e-05   -0.00028127753826702933
1.0053075894077949e-05   1.4041683321015016e-05   -6.356760972518359e-05
1.0053075894077949e-05   1.4041683321015016e-05   -6.356760972518359e-05
1.0053075894077949e-05   1.4041683321015016e-05   -6.356760972518359e-05
1.0053075894077949e-05   1.4041683321015016e-05   -6.356760972518359e-05
8.57680594714205e-06   1.7370030691793458e-05   -0.00027864421195482585
8.57680594714205e-06   1.7370030691793458e-05   -0.00027864421195482585
8.57680594714205e-06   1.7370030691793458e-05   -0.00027864421195482585
8.57680594714205e-06   1.7370030691793458e-05   -0.00027864421195482585
-0.0001190381963312234   2.1579948962057458e-05   -6.847849245304212e-05
-0.0001190381963312234   2.1579948962057458e-05   -6.847849245304212e-05
-0.0001190381963312234   2.1579948962057458e-05   -6.847849245304212e-05
-0.0001190381963312234   2.1579948962057458e-05   -6.847849245304212e-05
-5.494818943146429e-05   1.4984050570797337e-05   -0.00017133763158455102
-5.494818943146429e-05   1.4984050570797337e-05   -0.00017133763158455102
-5.494818943146429e-05   1.4984050570797337e-05   -0.00017133763158455102
-5.494818943146429e-05   1.4984050570797337e-05   -0.00017133763158455102
1.1376477842431375e-05   -2.026152956661277e-05   -0.0002555774665458757
1.1376477842431375e-05   -2.026152956661277e-05   -0.0002555774665458757
1.1376477842431375e-05   -2.026152956661277e-05   -0.0002555774665458757
1.1376477842431375e-05   -2.026152956661277e-05   -0.0002555774665458757
0.0001421952866699649   -2.0834402795622334e-05   -3.7889842437392024e-05
0.0001421952866699649   -2.0834402795622334e-05   -3.7889842437392024e-05
0.0001421952866699649   -2.0834402795622334e-05   -3.7889842437392024e-05
0.0001421952866699649   -2.0834402795622334e-05   -3.7889842437392024e-05
0.00014330866739849043   -1.5294642133120446e-05   -0.0002591816971742161
0.00014330866739849043   -1.5294642133120446e-05   -0.0002591816971742161
0.00014330866739849043   -1.5294642133120446e-05   -0.0002591816971742161
0.00014330866739849043   -1.5294642133120446e-05   -0.0002591816971742161
1.0810986202436924e-05   -1.4114263806026036e-05   -3.906045551038299e-05
1.0810986202436924e-05   -1.4114263806026036e-05   -3.906045551038299e-05
1.0810986202436924e-05   -1.4114263806026036e-05   -3.906045551038299e-05
1.0810986202436924e-05   -1.4114263806026036e-05   -3.906045551038299e-05
7.593915049368259e-05   -1.6883216576877398e-05   -0.00014594602433328207
7.593915049368259e-05   -1.6883216576877398e-05   -0.00014594602433328207
7.593915049368259e-05   -1.6883216576877398e-05   -0.00014594602433328207
7.593915049368259e-05   -1.6883216576877398e-05   -0.00014594602433328207
1.0810986202436904e-05   -1.5294642133120446e-05   -0.00025988992417047313
1.0810986202436904e-05   -1.5294642133120446e-05   -0.00025988992417047313
1.0810986202436904e-05   -1.5294642133120446e-05   -0.00025988992417047313
1.0810986202436904e-05   -1.5294642133120446e-05   -0.00025988992417047313
0.00014330866739849067   -1.4114263806026036e-05   -3.835222851412631e-05
0.00014330866739849067   -1.4114263806026036e-05   -3.835222851412631e-05
0.00014330866739849067   -1.4114263806026036e-05   -3.835222851412631e-05
0.00014330866739849067   -1.4114263806026036e-05   -3.835222851412631e-05
0.0001425454435245252   -9.654617220997727e-06   -0.0002640597495009696
0.0001425454435245252   -9.654617220997727e-06   -0.0002640597495009696
0.0001425454435245252   -9.654617220997727e-06   -0.0002640597495009696
0.0001425454435245252   -9.654617220997727e-06   -0.0002640597495009696
1.0053075894077932e-05   -7.526726191639044e-06   -4.451587140117296e-05
1.0053075894077932e-05   -7.526726191639044e-06   -4.451587140117296e-05
1.0053075894077932e-05   -7.526726191639044e-06   -4.451587140117296e-05
1.0053075894077932e-05   -7.526726191639044e-06   -4.451587140117296e-05
7.508029991777324e-05   -1.1510831492172807e-05   -0.00015050411492701106
7.508029991777324e-05   -1.1510831492172807e-05   -0.00015050411492701106
7.508029991777324e-05   -1.1510831492172807e-05   -0.00015050411492701106
7.508029991777324e-05   -1.1510831492172807e-05   -0.00015050411492701106
1.0053075894077925e-05   -9.654617220997727e-06   -0.00026533648411858487
1.0053075894077925e-05   -9.654617220997727e-06   -0.00026533648411858487
1.0053075894077925e-05   -9.654617220997727e-06   -0.00026533648411858487
1.0053075894077925e-05   -9.654617220997727e-06   -0.00026533648411858487
0.00014254544352452575   -7.526726191639044e-06   -4.3239136783557825e-05
0.00014254544352452575   -7.526726191639044e-06   -4.3239136783557825e-05
0.00014254544352452575   -7.526726191639044e-06   -4.3239136783557825e-05
0.00014254544352452575   -7.526726191639044e-06   -4.3239136783557825e-05
0.00013833619327076392   -2.0708331241697624e-06   -0.0002645211708305313
0.00013833619327076392   -2.0708331241697624e-06   -0.0002645211708305313
0.00013833619327076392   -2.0708331241697624e-06   -0.0002645211708305313
0.00013833619327076392   -2.0708331241697624e-06   -0.0002645211708305313
8.57680594714205e-06   6.272772808742656e-07   -4.987439153418819e-05
8.57680594714205e-06   6.272772808742656e-07   -4.987439153418819e-05
8.57680594714205e-06   6.272772808742656e-07   -4.987439153418819e-05
8.57680594714205e-06   6.272772808742656e-07   -4.987439153418819e-05
7.421341901274768e-05   -5.235476405668631e-06   -0.0001557510944316049
7.421341901274768e-05   -5.235476405668631e-06   -0.0001557510944316049
7.421341901274768e-05   -5.235476405668631e-06   -0.0001557510944316049
7.421341901274768e-05   -5.235476405668631e-06   -0.0001557510944316049
0.0001421952866699649   -5.130075508224174e-05   -0.00015467032731083927
0.0001421952866699649   -5.130075508224174e-05   -0.00015467032731083927
0.0001421952866699649   -5.130075508224174e-05   -0.00015467032731083927
0.0001421952866699649   -5.130075508224174e-05   -0.00015467032731083927
0.000271399076028393   -3.87619562295426e-05   6.819260093149349e-05
0.000271399076028393   -3.87619562295426e-05   6.819260093149349e-05
0.000271399076028393   -3.87619562295426e-05   6.819260093149349e-05
0.000271399076028393   -3.87619562295426e-05   6.819260093149349e-05
0.00028159193132067453   -4.3697557253659976e-05   -0.00018821026283960784
0.00028159193132067453   -4.3697557253659976e-05   -0.00018821026283960784
0.00028159193132067453   -4.3697557253659976e-05   -0.00018821026283960784
0.00028159193132067453   -4.3697557253659976e-05   -0.00018821026283960784
0.00014330866739849097   -3.520248619553481e-05   3.716480106249001e-05
0.00014330866739849097   -3.520248619553481e-05   3.716480106249001e-05
0.00014330866739849097   -3.520248619553481e-05   3.716480106249001e-05
0.00014330866739849097   -3.520248619553481e-05   3.716480106249001e-05
0.0001998772454267289   -4.207031475139428e-05   -5.2995465184391024e-05
0.0001998772454267289   -4.207031475139428e-05   -5.2995465184391024e-05
0.0001998772454267289   -4.207031475139428e-05   -5.2995465184391024e-05
0.0001998772454267289   -4.207031475139428e-05   -5.2995465184391024e-05
0.00014330866739849056   -4.369755725365987e-05   -0.0001933073054744824
0.00014330866739849056   -4.369755725365987e-05   -0.0001933073054744824
0.00014330866739849056   -4.369755725365987e-05   -0.0001933073054744824
0.00014330866739849056   -4.369755725365987e-05   -0.0001933073054744824
0.00028159193132067453   -3.520248619553481e-05   4.2261843697365045e-05
0.00028159193132067453   -3.520248619553481e-05   4.2261843697365045e-05
0.00028159193132067453   -3.520248619553481e-05   4.2261843697365045e-05
0.00028159193132067453   -3.520248619553481e-05   4.2261843697365045e-05
0.0002804500647439781   -3.994703344762908e-05   -0.00020473531779288673
0.0002804500647439781   -3.994703344762908e-05   -0.00020473531779288673
0.0002804500647439781   -3.994703344762908e-05   -0.00020473531779288673
0.0002804500647439781   -3.994703344762908e-05   -0.00020473531779288673
0.00014254544352452575   -3.141049309471388e-05   1.9983793361117797e-05
0.00014254544352452575   -3.141049309471388e-05   1.9983793361117797e-05
0.00014254544352452575   -3.141049309471388e-05   1.9983793361117797e-05
0.00014254544352452575   -3.141049309471388e-05   1.9983793361117797e-05
0.0002067798858645065   -3.7180416152848015e-05   -8.361165670396956e-05
0.0002067798858645065   -3.7180416152848015e-05   -8.361165670396956e-05
0.0002067798858645065   -3.7180416152848015e-05   -8.361165670396956e-05
0.0002067798858645065   -3.7180416152848015e-05   -8.361165670396956e-05
0.0001425454435245255   -3.994703344762897e-05   -0.0002098572420046355
0.0001425454435245255   -3.994703344762897e-05   -0.0002098572420046355
0.0001425454435245255   -3.994703344762897e-05   -0.0002098572420046355
0.0001425454435245255   -3.994703344762897e-05   -0.0002098572420046355
0.0002804500647439781   -3.141049309471388e-05   2.5105717572866887e-05
0.0002804500647439781   -3.141049309471388e-05   2.5105717572866887e-05
0.0002804500647439781   -3.141049309471388e-05   2.5105717572866887e-05
0.0002804500647439781   -3.141049309471388e-05   2.5105717572866887e-05
0.00027865208874576904   -3.1105130722901926e-05   -0.00023834384441610563
0.00027865208874576904   -3.1105130722901926e-05   -0.00023834384441610563
0.00027865208874576904   -3.1105130722901926e-05   -0.00023834384441610563
0.00027865208874576904   -3.1105130722901926e-05   -0.00023834384441610563
0.00013833619327076446   -2.324683718892646e-05   -9.198994744816875e-06
0.00013833619327076446   -2.324683718892646e-05   -9.198994744816875e-06
0.00013833619327076446   -2.324683718892646e-05   -9.198994744816875e-06
0.00013833619327076446   -2.324683718892646e-05   -9.198994744816875e-06
0.000200795503404786   -3.203363206604197e-05   -0.00010802576804191672
0.000200795503404786   -3.203363206604197e-05   -0.00010802576804191672
0.000200795503404786   -3.203363206604197e-05   -0.00010802576804191672
0.000200795503404786   -3.203363206604197e-05   -0.00010802576804191672
-0.00030428085939724974   4.3850873347259754e-05   -0.00020959105938407618
-0.00030428085939724974   4.3850873347259754e-05   -0.00020959105938407618
-0.00030428085939724974   4.3850873347259754e-05   -0.00020959105938407618
-0.00030428085939724974   4.3850873347259754e-05   -0.00020959105938407618
-0.00019934369963654644   3.3556794092514525e-05   -4.087224066908455e-05
-0.00019934369963654644   3.3556794092514525e-05   -4.087224066908455e-05
-0.00019934369963654644   3.3556794092514525e-05   -4.087224066908455e-05
-0.00019934369963654644   3.3556794092514525e-05   -4.087224066908455e-05
-0.00020033201378332356   5.259213323651878e-05   -0.00017399796857894704
-0.00020033201378332356   5.259213323651878e-05   -0.00017399796857894704
-0.00020033201378332356   5.259213323651878e-05   -0.00017399796857894704
-0.00020033201378332356   5.259213323651878e-05   -0.00017399796857894704
-0.0002997422344749185   4.056686153247049e-05   -1.0991044038599716e-06
-0.0002997422344749185   4.056686153247049e-05   -1.0991044038599716e-06
-0.0002997422344749185   4.056686153247049e-05   -1.0991044038599716e-06
-0.0002997422344749185   4.056686153247049e-05   -1.0991044038599716e-06
-0.00024031622784260022   4.457627688592234e-05   -0.00010254809800312932
-0.00024031622784260022   4.457627688592234e-05   -0.00010254809800312932
-0.00024031622784260022   4.457627688592234e-05   -0.00010254809800312932
-0.00024031622784260022   4.457627688592234e-05   -0.00010254809800312932
-0.0002997422344749185   5.259213323651878e-05   -0.00016678280555651817
-0.0002997422344749185   5.259213323651878e-05   -0.00016678280555651817
-0.0002997422344749185   5.259213323651878e-05   -0.00016678280555651817
-0.0002997422344749185   5.259213323651878e-05   -0.00016678280555651817
-0.00020033201378332356   4.056686153247049e-05   -8.314267426288622e-06
-0.00020033201378332356   4.056686153247049e-05   -8.314267426288622e-06
-0.00020033201378332356   4.056686153247049e-05   -8.314267426288622e-06
-0.00020033201378332356   4.056686153247049e-05   -8.314267426288622e-06
-0.0002001552572265023   5.653579951133943e-05   -0.00014883820739457513
-0.0002001552572265023   5.653579951133943e-05   -0.00014883820739457513
-0.0002001552572265023   5.653579951133943e-05   -0.00014883820739457513
-0.0002001552572265023   5.653579951133943e-05   -0.00014883820739457513
-0.0002953045282088116   4.3642066150152616e-05   1.7480150925984657e-05
-0.0002953045282088116   4.3642066150152616e-05   1.7480150925984657e-05
-0.0002953045282088116   4.3642066150152616e-05   1.7480150925984657e-05
-0.0002953045282088116   4.3642066150152616e-05   1.7480150925984657e-05
-0.00024243291273437224   4.864048396349945e-05   -7.363825888608618e-05
-0.00024243291273437224   4.864048396349945e-05   -7.363825888608618e-05
-0.00024243291273437224   4.864048396349945e-05   -7.363825888608618e-05
-0.00024243291273437224   4.864048396349945e-05   -7.363825888608618e-05
-0.0002953045282088116   5.653579951133943e-05   -0.0001411019673778634
-0.0002953045282088116   5.653579951133943e-05   -0.0001411019673778634
-0.0002953045282088116   5.653579951133943e-05   -0.0001411019673778634
-0.0002953045282088116   5.653579951133943e-05   -0.0001411019673778634
-0.0002001552572265025   4.3642066150152616e-05   9.743910909274325e-06
-0.0002001552572265025   4.3642066150152616e-05   9.743910909274325e-06
-0.0002001552572265025   4.3642066150152616e-05   9.743910909274325e-06
-0.0002001552572265025   4.3642066150152616e-05   9.743910909274325e-06
-0.00020037857613882195   5.96508224362561e-05   -0.00011356755880622717
-0.00020037857613882195   5.96508224362561e-05   -0.00011356755880622717
-0.00020037857613882195   5.96508224362561e-05   -0.00011356755880622717
-0.00020037857613882195   5.96508224362561e-05   -0.00011356755880622717
-0.00028949033749840595   4.665348022021799e-05   4.2750448789367684e-05
-0.00028949033749840595   4.665348022021799e-05   4.2750448789367684e-05
-0.00028949033749840595   4.665348022021799e-05   4.2750448789367684e-05
-0.00028949033749840595   4.665348022021799e-05   4.2750448789367684e-05
-0.0002369436859296373   5.07668007718857e-05   -4.729529615624464e-05
-0.0002369436859296373   5.07668007718857e-05   -4.729529615624464e-05
-0.0002369436859296373   5.07668007718857e-05   -4.729529615624464e-05
-0.0002369436859296373   5.07668007718857e-05   -4.729529615624464e-05
-0.00019934369963654644   2.0403145782172142e-05   -0.0002422003981846359
-0.00019934369963654644   2.0403145782172142e-05   -0.0002422003981846359
-0.00019934369963654644   2.0403145782172142e-05   -0.0002422003981846359
-0.00019934369963654644   2.0403145782172142e-05   -0.0002422003981846359
-0.00010130640613695275   1.6713447434557518e-05   -8.101872802721531e-05
-0.00010130640613695275   1.6713447434557518e-05   -8.101872802721531e-05
-0.00010130640613695275   1.6713447434557518e-05   -8.101872802721531e-05
-0.00010130640613695275   1.6713447434557518e-05   -8.101872802721531e-05
-0.00010255741415860701   2.8442216638819564e-05   -0.0002387860743719777
-0.00010255741415860701   2.8442216638819564e-05   -0.0002387860743719777
-0.00010255741415860701   2.8442216638819564e-05   -0.0002387860743719777
-0.00010255741415860701   2.8442216638819564e-05   -0.0002387860743719777
-0.00020033201378332312   2.3603744661101957e-05   -7.292532514415308e-05
-0.00020033201378332312   2.3603744661101957e-05   -7.292532514415308e-05
-0.00020033201378332312   2.3603744661101957e-05   -7.292532514415308e-05
-0.00020033201378332312   2.3603744661101957e-05   -7.292532514415308e-05
-0.000149595987557496   2.350525844304241e-05   -0.00015742627712302993
-0.000149595987557496   2.350525844304241e-05   -0.00015742627712302993
-0.000149595987557496   2.350525844304241e-05   -0.00015742627712302993
-0.000149595987557496   2.350525844304241e-05   -0.00015742627712302993
-0.00020033201378332334   2.8442216638819564e-05   -0.00023588299118534634
-0.00020033201378332334   2.8442216638819564e-05   -0.00023588299118534634
-0.00020033201378332334   2.8442216638819564e-05   -0.00023588299118534634
-0.00020033201378332334   2.8442216638819564e-05   -0.00023588299118534634
-0.0001025574141586072   2.3603744661101957e-05   -7.582840833078304e-05
-0.0001025574141586072   2.3603744661101957e-05   -7.582840833078304e-05
-0.0001025574141586072   2.3603744661101957e-05   -7.582840833078304e-05
-0.0001025574141586072   2.3603744661101957e-05   -7.582840833078304e-05
-0.00010337576084992368   3.5091618527085785e-05   -0.00023245832428173217
-0.00010337576084992368   3.5091618527085785e-05   -0.00023245832428173217
-0.00010337576084992368   3.5091618527085785e-05   -0.00023245832428173217
-0.00010337576084992368   3.5091618527085785e-05   -0.00023245832428173217
-0.0002001552572265023   2.9719228406606662e-05   -6.793572958181497e-05
-0.0002001552572265023   2.9719228406606662e-05   -6.793572958181497e-05
-0.0002001552572265023   2.9719228406606662e-05   -6.793572958181497e-05
-0.0002001552572265023   2.9719228406606662e-05   -6.793572958181497e-05
-0.0001498915522628264   2.9169875964307496e-05   -0.000151378959722559
-0.0001498915522628264   2.9169875964307496e-05   -0.000151378959722559
-0.0001498915522628264   2.9169875964307496e-05   -0.000151378959722559
-0.0001498915522628264   2.9169875964307496e-05   -0.000151378959722559
-0.0002001552572265023   3.5091618527086e-05   -0.00022923489020944515
-0.0002001552572265023   3.5091618527086e-05   -0.00022923489020944515
-0.0002001552572265023   3.5091618527086e-05   -0.00022923489020944515
-0.0002001552572265023   3.5091618527086e-05   -0.00022923489020944515
-0.00010337576084992406   2.9719228406607096e-05   -7.115916365410166e-05
-0.00010337576084992406   2.9719228406607096e-05   -7.115916365410166e-05
-0.00010337576084992406   2.9719228406607096e-05   -7.115916365410166e-05
-0.00010337576084992406   2.9719228406607096e-05   -7.115916365410166e-05
-0.00010442706193341628   4.2242045694226025e-05   -0.00023189169671654743
-0.00010442706193341628   4.2242045694226025e-05   -0.00023189169671654743
-0.00010442706193341628   4.2242045694226025e-05   -0.00023189169671654743
-0.00010442706193341628   4.2242045694226025e-05   -0.00023189169671654743
-0.00020037857613882173   3.621825907832582e-05   -6.835823440466465e-05
-0.00020037857613882173   3.621825907832582e-05   -6.835823440466465e-05
-0.00020037857613882173   3.621825907832582e-05   -6.835823440466465e-05
-0.00020037857613882173   3.621825907832582e-05   -6.835823440466465e-05
-0.0001516872482735527   3.477529528138736e-05   -0.00014864466923528185
-0.0001516872482735527   3.477529528138736e-05   -0.00014864466923528185
-0.0001516872482735527   3.477529528138736e-05   -0.00014864466923528185
-0.0001516872482735527   3.477529528138736e-05   -0.00014864466923528185
-0.00010130640613695258   -5.964257155926123e-07   -0.0002609955198824884
-0.00010130640613695258   -5.964257155926123e-07   -0.0002609955198824884
-0.00010130640613695258   -5.964257155926123e-07   -0.0002609955198824884
-0.00010130640613695258   -5.964257155926123e-07   -0.0002609955198824884
-4.387877994995274e-06   8.860984319707631e-07   -9.85751251573548e-05
-4.387877994995274e-06   8.860984319707631e-07   -9.85751251573548e-05
-4.387877994995274e-06   8.860984319707631e-07   -9.85751251573548e-05
-4.387877994995274e-06   8.860984319707631e-07   -9.85751251573548e-05
-5.394244532215243e-06   6.808232054848935e-06   -0.0002585804487363714
-5.394244532215243e-06   6.808232054848935e-06   -0.0002585804487363714
-5.394244532215243e-06   6.808232054848935e-06   -0.0002585804487363714
-5.394244532215243e-06   6.808232054848935e-06   -0.0002585804487363714
-0.00010255741415860701   7.663131175630455e-06   -9.715477216485442e-05
-0.00010255741415860701   7.663131175630455e-06   -9.715477216485442e-05
-0.00010255741415860701   7.663131175630455e-06   -9.715477216485442e-05
-0.00010255741415860701   7.663131175630455e-06   -9.715477216485442e-05
-5.311355933877694e-05   4.4607791363725745e-06   -0.0001776397856410166
-5.311355933877694e-05   4.4607791363725745e-06   -0.0001776397856410166
-5.311355933877694e-05   4.4607791363725745e-06   -0.0001776397856410166
-5.311355933877694e-05   4.4607791363725745e-06   -0.0001776397856410166
-0.00010255741415860701   6.808232054848935e-06   -0.0002590933882088408
-0.00010255741415860701   6.808232054848935e-06   -0.0002590933882088408
-0.00010255741415860701   6.808232054848935e-06   -0.0002590933882088408
-0.00010255741415860701   6.808232054848935e-06   -0.0002590933882088408
-5.394244532215253e-06   7.663131175630455e-06   -9.664183269238495e-05
-5.394244532215253e-06   7.663131175630455e-06   -9.664183269238495e-05
-5.394244532215253e-06   7.663131175630455e-06   -9.664183269238495e-05
-5.394244532215253e-06   7.663131175630455e-06   -9.664183269238495e-05
-6.128586594314151e-06   1.4041683321015016e-05   -0.0002592917008698019
-6.128586594314151e-06   1.4041683321015016e-05   -0.0002592917008698019
-6.128586594314151e-06   1.4041683321015016e-05   -0.0002592917008698019
-6.128586594314151e-06   1.4041683321015016e-05   -0.0002592917008698019
-0.00010337576084992387   1.4419406964836286e-05   -9.743971129674606e-05
-0.00010337576084992387   1.4419406964836286e-05   -9.743971129674606e-05
-0.00010337576084992387   1.4419406964836286e-05   -9.743971129674606e-05
-0.00010337576084992387   1.4419406964836286e-05   -9.743971129674606e-05
-5.440647440391329e-05   1.0436013880055911e-05   -0.00017666515285589407
-5.440647440391329e-05   1.0436013880055911e-05   -0.00017666515285589407
-5.440647440391329e-05   1.0436013880055911e-05   -0.00017666515285589407
-5.440647440391329e-05   1.0436013880055911e-05   -0.00017666515285589407
-0.00010337576084992387   1.4041683321015016e-05   -0.0002595183350560951
-0.00010337576084992387   1.4041683321015016e-05   -0.0002595183350560951
-0.00010337576084992387   1.4041683321015016e-05   -0.0002595183350560951
-0.00010337576084992387   1.4041683321015016e-05   -0.0002595183350560951
-6.1285865943141615e-06   1.4419406964836286e-05   -9.721307711045232e-05
-6.1285865943141615e-06   1.4419406964836286e-05   -9.721307711045232e-05
-6.1285865943141615e-06   1.4419406964836286e-05   -9.721307711045232e-05
-6.1285865943141615e-06   1.4419406964836286e-05   -9.721307711045232e-05
-7.270664186693505e-06   2.1579948962057458e-05   -0.00026263146947791633
-7.270664186693505e-06   2.1579948962057458e-05   -0.00026263146947791633
-7.270664186693505e-06   2.1579948962057458e-05   -0.00026263146947791633
-7.270664186693505e-06   2.1579948962057458e-05   -0.00026263146947791633
-0.00010442706193341614   2.1333348535367783e-05   -0.00010055617964403263
-0.00010442706193341614   2.1333348535367783e-05   -0.00010055617964403263
-0.00010442706193341614   2.1333348535367783e-05   -0.00010055617964403263
-0.00010442706193341614   2.1333348535367783e-05   -0.00010055617964403263
-5.577884173120025e-05   1.648217415916274e-05   -0.00017872584202200108
-5.577884173120025e-05   1.648217415916274e-05   -0.00017872584202200108
-5.577884173120025e-05   1.648217415916274e-05   -0.00017872584202200108
-5.577884173120025e-05   1.648217415916274e-05   -0.00017872584202200108
-4.387877994995284e-06   -2.0834402795622334e-05   -0.00023326143493866095
-4.387877994995284e-06   -2.0834402795622334e-05   -0.00023326143493866095
-4.387877994995284e-06   -2.0834402795622334e-05   -0.00023326143493866095
-4.387877994995284e-06   -2.0834402795622334e-05   -0.00023326143493866095
9.207908211194009e-05   -1.4002361168901148e-05   -6.838394311773624e-05
9.207908211194009e-05   -1.4002361168901148e-05   -6.838394311773624e-05
9.207908211194009e-05   -1.4002361168901148e-05   -6.838394311773624e-05
9.207908211194009e-05   -1.4002361168901148e-05   -6.838394311773624e-05
9.19879750465553e-05   -1.4114263806026036e-05   -0.00023061532180550877
9.19879750465553e-05   -1.4114263806026036e-05   -0.00023061532180550877
9.19879750465553e-05   -1.4114263806026036e-05   -0.00023061532180550877
9.19879750465553e-05   -1.4114263806026036e-05   -0.00023061532180550877
-5.394244532215253e-06   -7.798047800484757e-06   -7.210135211088245e-05
-5.394244532215253e-06   -7.798047800484757e-06   -7.210135211088245e-05
-5.394244532215253e-06   -7.798047800484757e-06   -7.210135211088245e-05
-5.394244532215253e-06   -7.798047800484757e-06   -7.210135211088245e-05
4.32360625832616e-05   -1.3702611405090603e-05   -0.00014960912580724704
4.32360625832616e-05   -1.3702611405090603e-05   -0.00014960912580724704
4.32360625832616e-05   -1.3702611405090603e-05   -0.00014960912580724704
4.32360625832616e-05   -1.3702611405090603e-05   -0.00014960912580724704
-5.394244532215253e-06   -1.4114263806026036e-05   -0.00023440505140883317
-5.394244532215253e-06   -1.4114263806026036e-05   -0.00023440505140883317
-5.394244532215253e-06   -1.4114263806026036e-05   -0.00023440505140883317
-5.394244532215253e-06   -1.4114263806026036e-05   -0.00023440505140883317
9.19879750465553e-05   -7.798047800484757e-06   -6.831162250755716e-05
9.19879750465553e-05   -7.798047800484757e-06   -6.831162250755716e-05
9.19879750465553e-05   -7.798047800484757e-06   -6.831162250755716e-05
9.19879750465553e-05   -7.798047800484757e-06   -6.831162250755716e-05
9.239276376056765e-05   -7.526726191639044e-06   -0.0002367408943483335
9.239276376056765e-05   -7.526726191639044e-06   -0.0002367408943483335
9.239276376056765e-05   -7.526726191639044e-06   -0.0002367408943483335
9.239276376056765e-05   -7.526726191639044e-06   -0.0002367408943483335
-6.128586594314175e-06   -1.6949458625410696e-06   -7.603771195432304e-05
-6.128586594314175e-06   -1.6949458625410696e-06   -7.603771195432304e-05
-6.128586594314175e-06   -1.6949458625410696e-06   -7.603771195432304e-05
-6.128586594314175e-06   -1.6949458625410696e-06   -7.603771195432304e-05
4.189868788566503e-05   -8.320998202550594e-06   -0.00015210753801694833
4.189868788566503e-05   -8.320998202550594e-06   -0.00015210753801694833
4.189868788566503e-05   -8.320998202550594e-06   -0.00015210753801694833
4.189868788566503e-05   -8.320998202550594e-06   -0.00015210753801694833
-6.128586594314155e-06   -7.526726191639044e-06   -0.00024023996254579074
-6.128586594314155e-06   -7.526726191639044e-06   -0.00024023996254579074
-6.128586594314155e-06   -7.526726191639044e-06   -0.00024023996254579074
-6.128586594314155e-06   -7.526726191639044e-06   -0.00024023996254579074
9.239276376056765e-05   -1.6949458625415033e-06   -7.253864375686338e-05
9.239276376056765e-05   -1.6949458625415033e-06   -7.253864375686338e-05
9.239276376056765e-05   -1.6949458625415033e-06   -7.253864375686338e-05
9.239276376056765e-05   -1.6949458625415033e-06   -7.253864375686338e-05
9.166004915631755e-05   6.272772808742656e-07   -0.00024366097740700888
9.166004915631755e-05   6.272772808742656e-07   -0.00024366097740700888
9.166004915631755e-05   6.272772808742656e-07   -0.00024366097740700888
9.166004915631755e-05   6.272772808742656e-07   -0.00024366097740700888
-7.270664186693515e-06   5.4478474712290476e-06   -8.166879728287038e-05
-7.270664186693515e-06   5.4478474712290476e-06   -8.166879728287038e-05
-7.270664186693515e-06   5.4478474712290476e-06   -8.166879728287038e-05
-7.270664186693515e-06   5.4478474712290476e-06   -8.166879728287038e-05
4.14180255579154e-05   -2.5569431644891297e-06   -0.00015801373914245317
4.14180255579154e-05   -2.5569431644891297e-06   -0.00015801373914245317
4.14180255579154e-05   -2.5569431644891297e-06   -0.00015801373914245317
4.14180255579154e-05   -2.5569431644891297e-06   -0.00015801373914245317
9.207908211193993e-05   -3.8761956229542384e-05   -0.00013060304590536227
9.207908211193993e-05   -3.8761956229542384e-05   -0.00013060304590536227
9.207908211193993e-05   -3.8761956229542384e-05   -0.00013060304590536227
9.207908211193993e-05   -3.8761956229542384e-05   -0.00013060304590536227
0.00018255755636785074   -2.544447418524826e-05   2.8184900414398965e-05
0.00018255755636785074   -2.544447418524826e-05   2.8184900414398965e-05
0.00018255755636785074   -2.544447418524826e-05   2.8184900414398965e-05
0.00018255755636785074   -2.544447418524826e-05   2.8184900414398965e-05
0.00018863660979787458   -3.520248619553459e-05   -0.00014710554684952695
0.00018863660979787458   -3.520248619553459e-05   -0.00014710554684952695
0.00018863660979787458   -3.520248619553459e-05   -0.00014710554684952695
0.00018863660979787458   -3.520248619553459e-05   -0.00014710554684952695
9.198797504655513e-05   -2.1881243896593097e-05   5.9827656899746114e-06
9.198797504655513e-05   -2.1881243896593097e-05   5.9827656899746114e-06
9.198797504655513e-05   -2.1881243896593097e-05   5.9827656899746114e-06
9.198797504655513e-05   -2.1881243896593097e-05   5.9827656899746114e-06
0.00013288121966819415   -2.9965898980694643e-05   -5.732184896229688e-05
0.00013288121966819415   -2.9965898980694643e-05   -5.732184896229688e-05
0.00013288121966819415   -2.9965898980694643e-05   -5.732184896229688e-05
0.00013288121966819415   -2.9965898980694643e-05   -5.732184896229688e-05
9.198797504655513e-05   -3.520248619553481e-05   -0.00015509829222889137
9.198797504655513e-05   -3.520248619553481e-05   -0.00015509829222889137
9.198797504655513e-05   -3.520248619553481e-05   -0.00015509829222889137
9.198797504655513e-05   -3.520248619553481e-05   -0.00015509829222889137
0.00018863660979787458   -2.1881243896593097e-05   1.3975511069339898e-05
0.00018863660979787458   -2.1881243896593097e-05   1.3975511069339898e-05
0.00018863660979787458   -2.1881243896593097e-05   1.3975511069339898e-05
0.00018863660979787458   -2.1881243896593097e-05   1.3975511069339898e-05
0.0001932946237773257   -3.141049309471388e-05   -0.00016595855544707756
0.0001932946237773257   -3.141049309471388e-05   -0.00016595855544707756
0.0001932946237773257   -3.141049309471388e-05   -0.00016595855544707756
0.0001932946237773257   -3.141049309471388e-05   -0.00016595855544707756
9.239276376056733e-05   -1.881147850041386e-05   -5.348197509061044e-06
9.239276376056733e-05   -1.881147850041386e-05   -5.348197509061044e-06
9.239276376056733e-05   -1.881147850041386e-05   -5.348197509061044e-06
9.239276376056733e-05   -1.881147850041386e-05   -5.348197509061044e-06
0.00013735249785384673   -2.7665593554463026e-05   -7.496861863209652e-05
0.00013735249785384673   -2.7665593554463026e-05   -7.496861863209652e-05
0.00013735249785384673   -2.7665593554463026e-05   -7.496861863209652e-05
0.00013735249785384673   -2.7665593554463026e-05   -7.496861863209652e-05
9.239276376056749e-05   -3.141049309471388e-05   -0.00017351796420365733
9.239276376056749e-05   -3.141049309471388e-05   -0.00017351796420365733
9.239276376056749e-05   -3.141049309471388e-05   -0.00017351796420365733
9.239276376056749e-05   -3.141049309471388e-05   -0.00017351796420365733
0.00019329462377732536   -1.881147850041386e-05   2.2112112475201375e-06
0.00019329462377732536   -1.881147850041386e-05   2.2112112475201375e-06
0.00019329462377732536   -1.881147850041386e-05   2.2112112475201375e-06
0.00019329462377732536   -1.881147850041386e-05   2.2112112475201375e-06
0.00019824608703207817   -2.324683718892646e-05   -0.0001980020768023277
0.00019824608703207817   -2.324683718892646e-05   -0.0001980020768023277
0.00019824608703207817   -2.324683718892646e-05   -0.0001980020768023277
0.00019824608703207817   -2.324683718892646e-05   -0.0001980020768023277
9.166004915631723e-05   -1.2242887091699992e-05   -2.6961050401062706e-05
9.166004915631723e-05   -1.2242887091699992e-05   -2.6961050401062706e-05
9.166004915631723e-05   -1.2242887091699992e-05   -2.6961050401062706e-05
9.166004915631723e-05   -1.2242887091699992e-05   -2.6961050401062706e-05
0.00013672179979373755   -2.3849798966862554e-05   -9.5099821004998e-05
0.00013672179979373755   -2.3849798966862554e-05   -9.5099821004998e-05
0.00013672179979373755   -2.3849798966862554e-05   -9.5099821004998e-05
0.00013672179979373755   -2.3849798966862554e-05   -9.5099821004998e-05
-0.00021914822083999317   3.3556794092514525e-05   -0.00016641069530311703
-0.00021914822083999317   3.3556794092514525e-05   -0.00016641069530311703
-0.00021914822083999317   3.3556794092514525e-05   -0.00016641069530311703
-0.00021914822083999317   3.3556794092514525e-05   -0.00016641069530311703
-0.00014902912129792544   2.1393274262244185e-05   -5.684364129783189e-05
-0.00014902912129792544   2.1393274262244185e-05   -5.684364129783189e-05
-0.00014902912129792544   2.1393274262244185e-05   -5.684364129783189e-05
-0.00014902912129792544   2.1393274262244185e-05   -5.684364129783189e-05
-0.00014849035373535897   4.056686153247049e-05   -0.00014136363694184674
-0.00014849035373535897   4.056686153247049e-05   -0.00014136363694184674
-0.00014849035373535897   4.056686153247049e-05   -0.00014136363694184674
-0.00014849035373535897   4.056686153247049e-05   -0.00014136363694184674
-0.00021263847757681514   2.7206301993974637e-05   -2.6433761482988396e-05
-0.00021263847757681514   2.7206301993974637e-05   -2.6433761482988396e-05
-0.00021263847757681514   2.7206301993974637e-05   -2.6433761482988396e-05
-0.00021263847757681514   2.7206301993974637e-05   -2.6433761482988396e-05
-0.00017459254807454332   3.230454529929393e-05   -9.290258996996672e-05
-0.00017459254807454332   3.230454529929393e-05   -9.290258996996672e-05
-0.00017459254807454332   3.230454529929393e-05   -9.290258996996672e-05
-0.00017459254807454332   3.230454529929393e-05   -9.290258996996672e-05
-0.00021263847757681514   4.056686153247049e-05   -0.00013334730121874875
-0.00021263847757681514   4.056686153247049e-05   -0.00013334730121874875
-0.00021263847757681514   4.056686153247049e-05   -0.00013334730121874875
-0.00021263847757681514   4.056686153247049e-05   -0.00013334730121874875
-0.00014849035373535918   2.7206301993974204e-05   -3.4450097206086385e-05
-0.00014849035373535918   2.7206301993974204e-05   -3.4450097206086385e-05
-0.00014849035373535918   2.7206301993974204e-05   -3.4450097206086385e-05
-0.00014849035373535918   2.7206301993974204e-05   -3.4450097206086385e-05
-0.00014736674083141164   4.3642066150152616e-05   -0.00012326518554057857
-0.00014736674083141164   4.3642066150152616e-05   -0.00012326518554057857
-0.00014736674083141164   4.3642066150152616e-05   -0.00012326518554057857
-0.00014736674083141164   4.3642066150152616e-05   -0.00012326518554057857
-0.00020776439547776754   2.99083973216022e-05   -1.4362226499521364e-05
-0.00020776439547776754   2.99083973216022e-05   -1.4362226499521364e-05
-0.00020776439547776754   2.99083973216022e-05   -1.4362226499521364e-05
-0.00020776439547776754   2.99083973216022e-05   -1.4362226499521364e-05
-0.0001746172509424184   3.554689840174407e-05   -7.299056803985603e-05
-0.0001746172509424184   3.554689840174407e-05   -7.299056803985603e-05
-0.0001746172509424184   3.554689840174407e-05   -7.299056803985603e-05
-0.0001746172509424184   3.554689840174407e-05   -7.299056803985603e-05
-0.00020776439547776754   4.3642066150152616e-05   -0.00011502498424344784
-0.00020776439547776754   4.3642066150152616e-05   -0.00011502498424344784
-0.00020776439547776754   4.3642066150152616e-05   -0.00011502498424344784
-0.00020776439547776754   4.3642066150152616e-05   -0.00011502498424344784
-0.00014736674083141196   2.99083973216022e-05   -2.2602427796651657e-05
-0.00014736674083141196   2.99083973216022e-05   -2.2602427796651657e-05
-0.00014736674083141196   2.99083973216022e-05   -2.2602427796651657e-05
-0.00014736674083141196   2.99083973216022e-05   -2.2602427796651657e-05
-0.0001469118131451261   4.665348022021799e-05   -9.818856471443226e-05
-0.0001469118131451261   4.665348022021799e-05   -9.818856471443226e-05
-0.0001469118131451261   4.665348022021799e-05   -9.818856471443226e-05
-0.0001469118131451261   4.665348022021799e-05   -9.818856471443226e-05
-0.00020137791126298454   3.329648629201137e-05   6.024618389231622e-07
-0.00020137791126298454   3.329648629201137e-05   6.024618389231622e-07
-0.00020137791126298454   3.329648629201137e-05   6.024618389231622e-07
-0.00020137791126298454   3.329648629201137e-05   6.024618389231622e-07
-0.0001694589928786302   3.729170214598551e-05   -5.499286498071923e-05
-0.0001694589928786302   3.729170214598551e-05   -5.499286498071923e-05
-0.0001694589928786302   3.729170214598551e-05   -5.499286498071923e-05
-0.0001694589928786302   3.729170214598551e-05   -5.499286498071923e-05
-0.0001490291212979251   1.671344743455795e-05   -0.00021164147555084072
-0.0001490291212979251   1.671344743455795e-05   -0.00021164147555084072
-0.0001490291212979251   1.671344743455795e-05   -0.00021164147555084072
-0.0001490291212979251   1.671344743455795e-05   -0.00021164147555084072
-8.553117141879205e-05   1.102962124772391e-05   -0.00010922185479771954
-8.553117141879205e-05   1.102962124772391e-05   -0.00010922185479771954
-8.553117141879205e-05   1.102962124772391e-05   -0.00010922185479771954
-8.553117141879205e-05   1.102962124772391e-05   -0.00010922185479771954
-8.557090286106763e-05   2.3603744661101957e-05   -0.00020983959587176281
-8.557090286106763e-05   2.3603744661101957e-05   -0.00020983959587176281
-8.557090286106763e-05   2.3603744661101957e-05   -0.00020983959587176281
-8.557090286106763e-05   2.3603744661101957e-05   -0.00020983959587176281
-0.00014849035373535897   1.7162242641015606e-05   -0.00010110894320255808
-0.00014849035373535897   1.7162242641015606e-05   -0.00010110894320255808
-0.00014849035373535897   1.7162242641015606e-05   -0.00010110894320255808
-0.00014849035373535897   1.7162242641015606e-05   -0.00010110894320255808
-0.0001160767896768544   1.8262322439722284e-05   -0.00015579159784595705
-0.0001160767896768544   1.8262322439722284e-05   -0.00015579159784595705
-0.0001160767896768544   1.8262322439722284e-05   -0.00015579159784595705
-0.0001160767896768544   1.8262322439722284e-05   -0.00015579159784595705
-0.00014849035373535897   2.3603744661101957e-05   -0.00020597469465971
-0.00014849035373535897   2.3603744661101957e-05   -0.00020597469465971
-0.00014849035373535897   2.3603744661101957e-05   -0.00020597469465971
-0.00014849035373535897   2.3603744661101957e-05   -0.00020597469465971
-8.557090286106763e-05   1.7162242641015606e-05   -0.00010497384441461013
-8.557090286106763e-05   1.7162242641015606e-05   -0.00010497384441461013
-8.557090286106763e-05   1.7162242641015606e-05   -0.00010497384441461013
-8.557090286106763e-05   1.7162242641015606e-05   -0.00010497384441461013
-8.550485110925385e-05   2.9719228406606662e-05   -0.00020513465704212518
-8.550485110925385e-05   2.9719228406606662e-05   -0.00020513465704212518
-8.550485110925385e-05   2.9719228406606662e-05   -0.00020513465704212518
-8.550485110925385e-05   2.9719228406606662e-05   -0.00020513465704212518
-0.00014736674083141164   2.273617672250922e-05   -9.784167649473695e-05
-0.00014736674083141164   2.273617672250922e-05   -9.784167649473695e-05
-0.00014736674083141164   2.273617672250922e-05   -9.784167649473695e-05
-0.00014736674083141164   2.273617672250922e-05   -9.784167649473695e-05
-0.00011553281899257816   2.32926750214869e-05   -0.0001512321118721777
-0.00011553281899257816   2.32926750214869e-05   -0.0001512321118721777
-0.00011553281899257816   2.32926750214869e-05   -0.0001512321118721777
-0.00011553281899257816   2.32926750214869e-05   -0.0001512321118721777
-0.00014736674083141164   2.9719228406606662e-05   -0.00020094482603166645
-0.00014736674083141164   2.9719228406606662e-05   -0.00020094482603166645
-0.00014736674083141164   2.9719228406606662e-05   -0.00020094482603166645
-0.00014736674083141164   2.9719228406606662e-05   -0.00020094482603166645
-8.550485110925401e-05   2.2736176722509653e-05   -0.00010203150750519492
-8.550485110925401e-05   2.2736176722509653e-05   -0.00010203150750519492
-8.550485110925401e-05   2.2736176722509653e-05   -0.00010203150750519492
-8.550485110925401e-05   2.2736176722509653e-05   -0.00010203150750519492
-8.556913370568657e-05   3.621825907832582e-05   -0.00020595928426200187
-8.556913370568657e-05   3.621825907832582e-05   -0.00020595928426200187
-8.556913370568657e-05   3.621825907832582e-05   -0.00020595928426200187
-8.556913370568657e-05   3.621825907832582e-05   -0.00020595928426200187
-0.00014691181314512621   2.8784189606393534e-05   -9.926104351310871e-05
-0.00014691181314512621   2.8784189606393534e-05   -9.926104351310871e-05
-0.00014691181314512621   2.8784189606393534e-05   -9.926104351310871e-05
-0.00014691181314512621   2.8784189606393534e-05   -9.926104351310871e-05
-0.00011627801704772886   2.8262472381575515e-05   -0.0001500043400072136
-0.00011627801704772886   2.8262472381575515e-05   -0.0001500043400072136
-0.00011627801704772886   2.8262472381575515e-05   -0.0001500043400072136
-0.00011627801704772886   2.8262472381575515e-05   -0.0001500043400072136
-8.553117141879194e-05   8.860984319707631e-07   -0.00023349768288161892
-8.553117141879194e-05   8.860984319707631e-07   -0.00023349768288161892
-8.553117141879194e-05   8.860984319707631e-07   -0.00023349768288161892
-8.553117141879194e-05   8.860984319707631e-07   -0.00023349768288161892
-2.2943822311263143e-05   1.8797394799800575e-06   -0.00012858924974026614
-2.2943822311263143e-05   1.8797394799800575e-06   -0.00012858924974026614
-2.2943822311263143e-05   1.8797394799800575e-06   -0.00012858924974026614
-2.2943822311263143e-05   1.8797394799800575e-06   -0.00012858924974026614
-2.2984316466320325e-05   7.663131175630455e-06   -0.0002309404337245951
-2.2984316466320325e-05   7.663131175630455e-06   -0.0002309404337245951
-2.2984316466320325e-05   7.663131175630455e-06   -0.0002309404337245951
-2.2984316466320325e-05   7.663131175630455e-06   -0.0002309404337245951
-8.557090286106752e-05   8.039007811027048e-06   -0.00012685498238125406
-8.557090286106752e-05   8.039007811027048e-06   -0.00012685498238125406
-8.557090286106752e-05   8.039007811027048e-06   -0.00012685498238125406
-8.557090286106752e-05   8.039007811027048e-06   -0.00012685498238125406
-5.389865720453192e-05   5.408192606809123e-06   -0.0001780635693529494
-5.389865720453192e-05   5.408192606809123e-06   -0.0001780635693529494
-5.389865720453192e-05   5.408192606809123e-06   -0.0001780635693529494
-5.389865720453192e-05   5.408192606809123e-06   -0.0001780635693529494
-8.557090286106752e-05   7.663131175630455e-06   -0.00023116595970583257
-8.557090286106752e-05   7.663131175630455e-06   -0.00023116595970583257
-8.557090286106752e-05   7.663131175630455e-06   -0.00023116595970583257
-8.557090286106752e-05   7.663131175630455e-06   -0.00023116595970583257
-2.2984316466320325e-05   8.039007811027048e-06   -0.00012662945640001637
-2.2984316466320325e-05   8.039007811027048e-06   -0.00012662945640001637
-2.2984316466320325e-05   8.039007811027048e-06   -0.00012662945640001637
-2.2984316466320325e-05   8.039007811027048e-06   -0.00012662945640001637
-2.289988156254436e-05   1.4419406964836286e-05   -0.00023153613160375314
-2.289988156254436e-05   1.4419406964836286e-05   -0.00023153613160375314
-2.289988156254436e-05   1.4419406964836286e-05   -0.00023153613160375314
-2.289988156254436e-05   1.4419406964836286e-05   -0.00023153613160375314
-8.550485110925385e-05   1.4217862099861079e-05   -0.000127073588773586
-8.550485110925385e-05   1.4217862099861079e-05   -0.000127073588773586
-8.550485110925385e-05   1.4217862099861079e-05   -0.000127073588773586
-8.550485110925385e-05   1.4217862099861079e-05   -0.000127073588773586
-5.4256863924649684e-05   1.07924361354211e-05   -0.00017709831183592887
-5.4256863924649684e-05   1.07924361354211e-05   -0.00017709831183592887
-5.4256863924649684e-05   1.07924361354211e-05   -0.00017709831183592887
-5.4256863924649684e-05   1.07924361354211e-05   -0.00017709831183592887
-8.550485110925385e-05   1.4419406964836286e-05   -0.0002314152046847685
-8.550485110925385e-05   1.4419406964836286e-05   -0.0002314152046847685
-8.550485110925385e-05   1.4419406964836286e-05   -0.0002314152046847685
-8.550485110925385e-05   1.4419406964836286e-05   -0.0002314152046847685
-2.2899881562544398e-05   1.4217862099861079e-05   -0.00012719451569257064
-2.2899881562544398e-05   1.4217862099861079e-05   -0.00012719451569257064
-2.2899881562544398e-05   1.4217862099861079e-05   -0.00012719451569257064
-2.2899881562544398e-05   1.4217862099861079e-05   -0.00012719451569257064
-2.2934739678021796e-05   2.1333348535367783e-05   -0.00023504011588343582
-2.2934739678021796e-05   2.1333348535367783e-05   -0.00023504011588343582
-2.2934739678021796e-05   2.1333348535367783e-05   -0.00023504011588343582
-2.2934739678021796e-05   2.1333348535367783e-05   -0.00023504011588343582
-8.556913370568652e-05   2.050475128269032e-05   -0.00013015230081905383
-8.556913370568652e-05   2.050475128269032e-05   -0.00013015230081905383
-8.556913370568652e-05   2.050475128269032e-05   -0.00013015230081905383
-8.556913370568652e-05   2.050475128269032e-05   -0.00013015230081905383
-5.47208128609729e-05   1.624733360492108e-05   -0.00017901171828691554
-5.47208128609729e-05   1.624733360492108e-05   -0.00017901171828691554
-5.47208128609729e-05   1.624733360492108e-05   -0.00017901171828691554
-5.47208128609729e-05   1.624733360492108e-05   -0.00017901171828691554
-2.2943822311263103e-05   -1.4002361168901148e-05   -0.00020680954118922697
-2.2943822311263103e-05   -1.4002361168901148e-05   -0.00020680954118922697
-2.2943822311263103e-05   -1.4002361168901148e-05   -0.00020680954118922697
-2.2943822311263103e-05   -1.4002361168901148e-05   -0.00020680954118922697
3.8776158292953096e-05   -6.493618290685354e-06   -9.943766112193797e-05
3.8776158292953096e-05   -6.493618290685354e-06   -9.943766112193797e-05
3.8776158292953096e-05   -6.493618290685354e-06   -9.943766112193797e-05
3.8776158292953096e-05   -6.493618290685354e-06   -9.943766112193797e-05
3.9281659273387244e-05   -7.798047800484757e-06   -0.00020214047267238123
3.9281659273387244e-05   -7.798047800484757e-06   -0.00020214047267238123
3.9281659273387244e-05   -7.798047800484757e-06   -0.00020214047267238123
3.9281659273387244e-05   -7.798047800484757e-06   -0.00020214047267238123
-2.2984316466320325e-05   -6.989136826342571e-07   -0.000102623326910246
-2.2984316466320325e-05   -6.989136826342571e-07   -0.000102623326910246
-2.2984316466320325e-05   -6.989136826342571e-07   -0.000102623326910246
-2.2984316466320325e-05   -6.989136826342571e-07   -0.000102623326910246
8.062562274461366e-06   -6.713880146763836e-06   -0.00015075914493307106
8.062562274461366e-06   -6.713880146763836e-06   -0.00015075914493307106
8.062562274461366e-06   -6.713880146763836e-06   -0.00015075914493307106
8.062562274461366e-06   -6.713880146763836e-06   -0.00015075914493307106
-2.2984316466320325e-05   -7.798047800484757e-06   -0.00020639995314309214
-2.2984316466320325e-05   -7.798047800484757e-06   -0.00020639995314309214
-2.2984316466320325e-05   -7.798047800484757e-06   -0.00020639995314309214
-2.2984316466320325e-05   -7.798047800484757e-06   -0.00020639995314309214
3.928165927338741e-05   -6.989136826342571e-07   -9.836384643953583e-05
3.928165927338741e-05   -6.989136826342571e-07   -9.836384643953583e-05
3.928165927338741e-05   -6.989136826342571e-07   -9.836384643953583e-05
3.928165927338741e-05   -6.989136826342571e-07   -9.836384643953583e-05
4.0462151464850434e-05   -1.6949458625415033e-06   -0.0002064145950298466
4.0462151464850434e-05   -1.6949458625415033e-06   -0.0002064145950298466
4.0462151464850434e-05   -1.6949458625415033e-06   -0.0002064145950298466
4.0462151464850434e-05   -1.6949458625415033e-06   -0.0002064145950298466
-2.2899881562544398e-05   4.882006500418583e-06   -0.00010475737806863169
-2.2899881562544398e-05   4.882006500418583e-06   -0.00010475737806863169
-2.2899881562544398e-05   4.882006500418583e-06   -0.00010475737806863169
-2.2899881562544398e-05   4.882006500418583e-06   -0.00010475737806863169
7.70791115880963e-06   -1.8947919025432206e-06   -0.00015170428689577733
7.70791115880963e-06   -1.8947919025432206e-06   -0.00015170428689577733
7.70791115880963e-06   -1.8947919025432206e-06   -0.00015170428689577733
7.70791115880963e-06   -1.8947919025432206e-06   -0.00015170428689577733
-2.289988156254438e-05   -1.6949458625415033e-06   -0.00021036076644762231
-2.289988156254438e-05   -1.6949458625415033e-06   -0.00021036076644762231
-2.289988156254438e-05   -1.6949458625415033e-06   -0.00021036076644762231
-2.289988156254438e-05   -1.6949458625415033e-06   -0.00021036076644762231
4.046215146485054e-05   4.8820065004190165e-06   -0.00010081120665085498
4.046215146485054e-05   4.8820065004190165e-06   -0.00010081120665085498
4.046215146485054e-05   4.8820065004190165e-06   -0.00010081120665085498
4.046215146485054e-05   4.8820065004190165e-06   -0.00010081120665085498
4.103713486231685e-05   5.4478474712290476e-06   -0.00021250219850703508
4.103713486231685e-05   5.4478474712290476e-06   -0.00021250219850703508
4.103713486231685e-05   5.4478474712290476e-06   -0.00021250219850703508
4.103713486231685e-05   5.4478474712290476e-06   -0.00021250219850703508
-2.2934739678021755e-05   1.1285472069936294e-05   -0.00010938498236569435
-2.2934739678021755e-05   1.1285472069936294e-05   -0.00010938498236569435
-2.2934739678021755e-05   1.1285472069936294e-05   -0.00010938498236569435
-2.2934739678021755e-05   1.1285472069936294e-05   -0.00010938498236569435
7.925602420864591e-06   3.266991391004479e-06   -0.000156007797456479
7.925602420864591e-06   3.266991391004479e-06   -0.000156007797456479
7.925602420864591e-06   3.266991391004479e-06   -0.000156007797456479
7.925602420864591e-06   3.266991391004479e-06   -0.000156007797456479
3.877615829295299e-05   -2.5444474185248693e-05   -0.00011372594115673963
3.877615829295299e-05   -2.5444474185248693e-05   -0.00011372594115673963
3.877615829295299e-05   -2.5444474185248693e-05   -0.00011372594115673963
3.877615829295299e-05   -2.5444474185248693e-05   -0.00011372594115673963
9.375445705809996e-05   -1.197085893787659e-05   -1.4011274066404525e-05
9.375445705809996e-05   -1.197085893787659e-05   -1.4011274066404525e-05
9.375445705809996e-05   -1.197085893787659e-05   -1.4011274066404525e-05
9.375445705809996e-05   -1.197085893787659e-05   -1.4011274066404525e-05
0.0001002267525010205   -2.1881243896593097e-05   -0.00011955013664861067
0.0001002267525010205   -2.1881243896593097e-05   -0.00011955013664861067
0.0001002267525010205   -2.1881243896593097e-05   -0.00011955013664861067
0.0001002267525010205   -2.1881243896593097e-05   -0.00011955013664861067
3.92816592733873e-05   -8.054664186194285e-06   -2.6270929095461486e-05
3.92816592733873e-05   -8.054664186194285e-06   -2.6270929095461486e-05
3.92816592733873e-05   -8.054664186194285e-06   -2.6270929095461486e-05
3.92816592733873e-05   -8.054664186194285e-06   -2.6270929095461486e-05
6.510990935797796e-05   -1.6317616286900486e-05   -6.436024130935516e-05
6.510990935797796e-05   -1.6317616286900486e-05   -6.436024130935516e-05
6.510990935797796e-05   -1.6317616286900486e-05   -6.436024130935516e-05
6.510990935797796e-05   -1.6317616286900486e-05   -6.436024130935516e-05
3.9281659273387244e-05   -2.1881243896593097e-05   -0.00012784608447484903
3.9281659273387244e-05   -2.1881243896593097e-05   -0.00012784608447484903
3.9281659273387244e-05   -2.1881243896593097e-05   -0.00012784608447484903
3.9281659273387244e-05   -2.1881243896593097e-05   -0.00012784608447484903
0.00010022675250102018   -8.054664186194719e-06   -1.7974981269221722e-05
0.00010022675250102018   -8.054664186194719e-06   -1.7974981269221722e-05
0.00010022675250102018   -8.054664186194719e-06   -1.7974981269221722e-05
0.00010022675250102018   -8.054664186194719e-06   -1.7974981269221722e-05
0.00010520167251622226   -1.881147850041386e-05   -0.00013114324688192215
0.00010520167251622226   -1.881147850041386e-05   -0.00013114324688192215
0.00010520167251622226   -1.881147850041386e-05   -0.00013114324688192215
0.00010520167251622226   -1.881147850041386e-05   -0.00013114324688192215
4.046215146485054e-05   -5.343308666877315e-06   -3.132494702975778e-05
4.046215146485054e-05   -5.343308666877315e-06   -3.132494702975778e-05
4.046215146485054e-05   -5.343308666877315e-06   -3.132494702975778e-05
4.046215146485054e-05   -5.343308666877315e-06   -3.132494702975778e-05
6.907947696943015e-05   -1.431013841169098e-05   -7.364039169050168e-05
6.907947696943015e-05   -1.431013841169098e-05   -7.364039169050168e-05
6.907947696943015e-05   -1.431013841169098e-05   -7.364039169050168e-05
6.907947696943015e-05   -1.431013841169098e-05   -7.364039169050168e-05
4.046215146485049e-05   -1.881147850041386e-05   -0.00013922414878204383
4.046215146485049e-05   -1.881147850041386e-05   -0.00013922414878204383
4.046215146485049e-05   -1.881147850041386e-05   -0.00013922414878204383
4.046215146485049e-05   -1.881147850041386e-05   -0.00013922414878204383
0.00010520167251622194   -5.343308666877315e-06   -2.324404512963566e-05
0.00010520167251622194   -5.343308666877315e-06   -2.324404512963566e-05
0.00010520167251622194   -5.343308666877315e-06   -2.324404512963566e-05
0.00010520167251622194   -5.343308666877315e-06   -2.324404512963566e-05
0.00011180328599787322   -1.2242887091699992e-05   -0.0001533401749336179
0.00011180328599787322   -1.2242887091699992e-05   -0.0001533401749336179
0.00011180328599787322   -1.2242887091699992e-05   -0.0001533401749336179
0.00011180328599787322   -1.2242887091699992e-05   -0.0001533401749336179
4.1037134862316905e-05   1.4775846709363938e-09   -4.27432085135127e-05
4.1037134862316905e-05   1.4775846709363938e-09   -4.27432085135127e-05
4.1037134862316905e-05   1.4775846709363938e-09   -4.27432085135127e-05
4.1037134862316905e-05   1.4775846709363938e-09   -4.27432085135127e-05
7.037718205827784e-05   -1.1302936052691448e-05   -8.486063899103106e-05
7.037718205827784e-05   -1.1302936052691448e-05   -8.486063899103106e-05
7.037718205827784e-05   -1.1302936052691448e-05   -8.486063899103106e-05
7.037718205827784e-05   -1.1302936052691448e-05   -8.486063899103106e-05
-0.00013307884914163354   2.139327426224462e-05   -0.0001244355472370391
-0.00013307884914163354   2.139327426224462e-05   -0.0001244355472370391
-0.00013307884914163354   2.139327426224462e-05   -0.0001244355472370391
-0.00013307884914163354   2.139327426224462e-05   -0.0001244355472370391
-9.802195825548538e-05   8.756540150547942e-06   -7.358943622714337e-05
-9.802195825548538e-05   8.756540150547942e-06   -7.358943622714337e-05
-9.802195825548538e-05   8.756540150547942e-06   -7.358943622714337e-05
-9.802195825548538e-05   8.756540150547942e-06   -7.358943622714337e-05
-9.656690407411307e-05   2.720630199397377e-05   -0.00010977309045316803
-9.656690407411307e-05   2.720630199397377e-05   -0.00010977309045316803
-9.656690407411307e-05   2.720630199397377e-05   -0.00010977309045316803
-9.656690407411307e-05   2.720630199397377e-05   -0.00010977309045316803
-0.0001258774193346557   1.3602189944827807e-05   -5.27597644561081e-05
-0.0001258774193346557   1.3602189944827807e-05   -5.27597644561081e-05
-0.0001258774193346557   1.3602189944827807e-05   -5.27597644561081e-05
-0.0001258774193346557   1.3602189944827807e-05   -5.27597644561081e-05
-0.00010858162524504677   1.91816927734784e-05   -8.493378963598608e-05
-0.00010858162524504677   1.91816927734784e-05   -8.493378963598608e-05
-0.00010858162524504677   1.91816927734784e-05   -8.493378963598608e-05
-0.00010858162524504677   1.91816927734784e-05   -8.493378963598608e-05
-0.0001258774193346557   2.720630199397377e-05   -0.00010161062322368037
-0.0001258774193346557   2.720630199397377e-05   -0.00010161062322368037
-0.0001258774193346557   2.720630199397377e-05   -0.00010161062322368037
-0.0001258774193346557   2.720630199397377e-05   -0.00010161062322368037
-9.65669040741134e-05   1.3602189944828674e-05   -6.092223168559642e-05
-9.65669040741134e-05   1.3602189944828674e-05   -6.092223168559642e-05
-9.65669040741134e-05   1.3602189944828674e-05   -6.092223168559642e-05
-9.65669040741134e-05   1.3602189944828674e-05   -6.092223168559642e-05
-9.449430139421447e-05   2.99083973216022e-05   -9.802704919250563e-05
-9.449430139421447e-05   2.99083973216022e-05   -9.802704919250563e-05
-9.449430139421447e-05   2.99083973216022e-05   -9.802704919250563e-05
-9.449430139421447e-05   2.99083973216022e-05   -9.802704919250563e-05
-0.00012012114033756378   1.604299777654885e-05   -4.699641122655855e-05
-0.00012012114033756378   1.604299777654885e-05   -4.699641122655855e-05
-0.00012012114033756378   1.604299777654885e-05   -4.699641122655855e-05
-0.00012012114033756378   1.604299777654885e-05   -4.699641122655855e-05
-0.00010667573670029005   2.1793317838919232e-05   -7.285560932610382e-05
-0.00010667573670029005   2.1793317838919232e-05   -7.285560932610382e-05
-0.00010667573670029005   2.1793317838919232e-05   -7.285560932610382e-05
-0.00010667573670029005   2.1793317838919232e-05   -7.285560932610382e-05
-0.00012012114033756356   2.99083973216022e-05   -8.970780946547388e-05
-0.00012012114033756356   2.99083973216022e-05   -8.970780946547388e-05
-0.00012012114033756356   2.99083973216022e-05   -8.970780946547388e-05
-0.00012012114033756356   2.99083973216022e-05   -8.970780946547388e-05
-9.449430139421458e-05   1.604299777654885e-05   -5.5315650953590085e-05
-9.449430139421458e-05   1.604299777654885e-05   -5.5315650953590085e-05
-9.449430139421458e-05   1.604299777654885e-05   -5.5315650953590085e-05
-9.449430139421458e-05   1.604299777654885e-05   -5.5315650953590085e-05
-9.307152333645329e-05   3.32964862920105e-05   -8.29423462061973e-05
-9.307152333645329e-05   3.32964862920105e-05   -8.29423462061973e-05
-9.307152333645329e-05   3.32964862920105e-05   -8.29423462061973e-05
-9.307152333645329e-05   3.32964862920105e-05   -8.29423462061973e-05
-0.0001127884275051842   1.9905680496016924e-05   -4.204635578071436e-05
-0.0001127884275051842   1.9905680496016924e-05   -4.204635578071436e-05
-0.0001127884275051842   1.9905680496016924e-05   -4.204635578071436e-05
-0.0001127884275051842   1.9905680496016924e-05   -4.204635578071436e-05
-0.00010168299866844077   2.3592180165736727e-05   -6.27673036437881e-05
-0.00010168299866844077   2.3592180165736727e-05   -6.27673036437881e-05
-0.00010168299866844077   2.3592180165736727e-05   -6.27673036437881e-05
-0.00010168299866844077   2.3592180165736727e-05   -6.27673036437881e-05
-9.802195825548538e-05   1.1029621247723477e-05   -0.0001809855054918431
-9.802195825548538e-05   1.1029621247723477e-05   -0.0001809855054918431
-9.802195825548538e-05   1.1029621247723477e-05   -0.0001809855054918431
-9.802195825548538e-05   1.1029621247723477e-05   -0.0001809855054918431
-6.956713591973064e-05   4.9870394081509214e-06   -0.00013718635070266274
-6.956713591973064e-05   4.9870394081509214e-06   -0.00013718635070266274
-6.956713591973064e-05   4.9870394081509214e-06   -0.00013718635070266274
-6.956713591973064e-05   4.9870394081509214e-06   -0.00013718635070266274
-6.86052476280749e-05   1.7162242641015606e-05   -0.00018040572866738318
-6.86052476280749e-05   1.7162242641015606e-05   -0.00018040572866738318
-6.86052476280749e-05   1.7162242641015606e-05   -0.00018040572866738318
-6.86052476280749e-05   1.7162242641015606e-05   -0.00018040572866738318
-9.65669040741135e-05   1.0539255611444719e-05   -0.0001298291757062418
-9.65669040741135e-05   1.0539255611444719e-05   -0.0001298291757062418
-9.65669040741135e-05   1.0539255611444719e-05   -0.0001298291757062418
-9.65669040741135e-05   1.0539255611444719e-05   -0.0001298291757062418
-8.237963004155898e-05   1.1984710130802725e-05   -0.00015434190513878392
-8.237963004155898e-05   1.1984710130802725e-05   -0.00015434190513878392
-8.237963004155898e-05   1.1984710130802725e-05   -0.00015434190513878392
-8.237963004155898e-05   1.1984710130802725e-05   -0.00015434190513878392
-9.656690407411307e-05   1.7162242641015606e-05   -0.00017643193644963865
-9.656690407411307e-05   1.7162242641015606e-05   -0.00017643193644963865
-9.656690407411307e-05   1.7162242641015606e-05   -0.00017643193644963865
-9.656690407411307e-05   1.7162242641015606e-05   -0.00017643193644963865
-6.86052476280749e-05   1.0539255611444719e-05   -0.0001338029679239848
-6.86052476280749e-05   1.0539255611444719e-05   -0.0001338029679239848
-6.86052476280749e-05   1.0539255611444719e-05   -0.0001338029679239848
-6.86052476280749e-05   1.0539255611444719e-05   -0.0001338029679239848
-6.754418373240803e-05   2.273617672250922e-05   -0.00017749059570283492
-6.754418373240803e-05   2.273617672250922e-05   -0.00017749059570283492
-6.754418373240803e-05   2.273617672250922e-05   -0.00017749059570283492
-6.754418373240803e-05   2.273617672250922e-05   -0.00017749059570283492
-9.44943013942148e-05   1.5695680368769602e-05   -0.00012834943512091243
-9.44943013942148e-05   1.5695680368769602e-05   -0.00012834943512091243
-9.44943013942148e-05   1.5695680368769602e-05   -0.00012834943512091243
-9.44943013942148e-05   1.5695680368769602e-05   -0.00012834943512091243
-8.111954104959932e-05   1.646698571059705e-05   -0.0001511034855670335
-8.111954104959932e-05   1.646698571059705e-05   -0.0001511034855670335
-8.111954104959932e-05   1.646698571059705e-05   -0.0001511034855670335
-8.111954104959932e-05   1.646698571059705e-05   -0.0001511034855670335
-9.449430139421447e-05   2.273617672250922e-05   -0.00017326629789059028
-9.449430139421447e-05   2.273617672250922e-05   -0.00017326629789059028
-9.449430139421447e-05   2.273617672250922e-05   -0.00017326629789059028
-9.449430139421447e-05   2.273617672250922e-05   -0.00017326629789059028
-6.754418373240793e-05   1.5695680368769602e-05   -0.0001325737329331562
-6.754418373240793e-05   1.5695680368769602e-05   -0.0001325737329331562
-6.754418373240793e-05   1.5695680368769602e-05   -0.0001325737329331562
-6.754418373240793e-05   1.5695680368769602e-05   -0.0001325737329331562
-6.659698798182817e-05   2.87841896063931e-05   -0.00017921063516272966
-6.659698798182817e-05   2.87841896063931e-05   -0.00017921063516272966
-6.659698798182817e-05   2.87841896063931e-05   -0.00017921063516272966
-6.659698798182817e-05   2.87841896063931e-05   -0.00017921063516272966
-9.307152333645351e-05   2.141922300401798e-05   -0.0001306674296102611
-9.307152333645351e-05   2.141922300401798e-05   -0.0001306674296102611
-9.307152333645351e-05   2.141922300401798e-05   -0.0001306674296102611
-9.307152333645351e-05   2.141922300401798e-05   -0.0001306674296102611
-8.061532960856023e-05   2.1000137994719136e-05   -0.00015117630148450624
-8.061532960856023e-05   2.1000137994719136e-05   -0.00015117630148450624
-8.061532960856023e-05   2.1000137994719136e-05   -0.00015117630148450624
-8.061532960856023e-05   2.1000137994719136e-05   -0.00015117630148450624
-6.956713591973037e-05   1.8797394799800575e-06   -0.00020457463416693892
-6.956713591973037e-05   1.8797394799800575e-06   -0.00020457463416693892
-6.956713591973037e-05   1.8797394799800575e-06   -0.00020457463416693892
-6.956713591973037e-05   1.8797394799800575e-06   -0.00020457463416693892
-4.1864224159486394e-05   2.831496300226624e-06   -0.00015783206047438473
-4.1864224159486394e-05   2.831496300226624e-06   -0.00015783206047438473
-4.1864224159486394e-05   2.831496300226624e-06   -0.00015783206047438473
-4.1864224159486394e-05   2.831496300226624e-06   -0.00015783206047438473
-4.0924603358345385e-05   8.039007811026615e-06   -0.00020202257221228282
-4.0924603358345385e-05   8.039007811026615e-06   -0.00020202257221228282
-4.0924603358345385e-05   8.039007811026615e-06   -0.00020202257221228282
-4.0924603358345385e-05   8.039007811026615e-06   -0.00020202257221228282
-6.86052476280749e-05   8.479498513934598e-06   -0.0001561524595178103
-6.86052476280749e-05   8.479498513934598e-06   -0.0001561524595178103
-6.86052476280749e-05   8.479498513934598e-06   -0.0001561524595178103
-6.86052476280749e-05   8.479498513934598e-06   -0.0001561524595178103
-5.488716425740462e-05   6.089688103176789e-06   -0.00017758204555580958
-5.488716425740462e-05   6.089688103176789e-06   -0.00017758204555580958
-5.488716425740462e-05   6.089688103176789e-06   -0.00017758204555580958
-5.488716425740462e-05   6.089688103176789e-06   -0.00017758204555580958
-6.86052476280748e-05   8.039007811027048e-06   -0.000202286866634027
-6.86052476280748e-05   8.039007811027048e-06   -0.000202286866634027
-6.86052476280748e-05   8.039007811027048e-06   -0.000202286866634027
-6.86052476280748e-05   8.039007811027048e-06   -0.000202286866634027
-4.0924603358345385e-05   8.479498513934598e-06   -0.00015588816509606602
-4.0924603358345385e-05   8.479498513934598e-06   -0.00015588816509606602
-4.0924603358345385e-05   8.479498513934598e-06   -0.00015588816509606602
-4.0924603358345385e-05   8.479498513934598e-06   -0.00015588816509606602
-3.9871404482280445e-05   1.4217862099861079e-05   -0.00020255701322219148
-3.9871404482280445e-05   1.4217862099861079e-05   -0.00020255701322219148
-3.9871404482280445e-05   1.4217862099861079e-05   -0.00020255701322219148
-3.9871404482280445e-05   1.4217862099861079e-05   -0.00020255701322219148
-6.754418373240793e-05   1.4177301681584861e-05   -0.00015641137822101187
-6.754418373240793e-05   1.4177301681584861e-05   -0.00015641137822101187
-6.754418373240793e-05   1.4177301681584861e-05   -0.00015641137822101187
-6.754418373240793e-05   1.4177301681584861e-05   -0.00015641137822101187
-5.425060619204027e-05   1.0937424289926036e-05   -0.00017662341435329673
-5.425060619204027e-05   1.0937424289926036e-05   -0.00017662341435329673
-5.425060619204027e-05   1.0937424289926036e-05   -0.00017662341435329673
-5.425060619204027e-05   1.0937424289926036e-05   -0.00017662341435329673
-6.754418373240787e-05   1.4217862099861079e-05   -0.0002025326769712248
-6.754418373240787e-05   1.4217862099861079e-05   -0.0002025326769712248
-6.754418373240787e-05   1.4217862099861079e-05   -0.0002025326769712248
-6.754418373240787e-05   1.4217862099861079e-05   -0.0002025326769712248
-3.9871404482280506e-05   1.4177301681584861e-05   -0.00015643571447197802
-3.9871404482280506e-05   1.4177301681584861e-05   -0.00015643571447197802
-3.9871404482280506e-05   1.4177301681584861e-05   -0.00015643571447197802
-3.9871404482280506e-05   1.4177301681584861e-05   -0.00015643571447197802
-3.89240485087812e-05   2.050475128269032e-05   -0.00020596786925623344
-3.89240485087812e-05   2.050475128269032e-05   -0.00020596786925623344
-3.89240485087812e-05   2.050475128269032e-05   -0.00020596786925623344
-3.89240485087812e-05   2.050475128269032e-05   -0.00020596786925623344
-6.659698798182828e-05   1.9960720498161423e-05   -0.00015951988499710262
-6.659698798182828e-05   1.9960720498161423e-05   -0.00015951988499710262
-6.659698798182828e-05   1.9960720498161423e-05   -0.00015951988499710262
-6.659698798182828e-05   1.9960720498161423e-05   -0.00015951988499710262
-5.372042134745197e-05   1.5849494306149903e-05   -0.00017851409367252417
-5.372042134745197e-05   1.5849494306149903e-05   -0.00017851409367252417
-5.372042134745197e-05   1.5849494306149903e-05   -0.00017851409367252417
-5.372042134745197e-05   1.5849494306149903e-05   -0.00017851409367252417
-4.186422415948625e-05   -6.493618290685354e-06   -0.00017935723718339293
-4.186422415948625e-05   -6.493618290685354e-06   -0.00017935723718339293
-4.186422415948625e-05   -6.493618290685354e-06   -0.00017935723718339293
-4.186422415948625e-05   -6.493618290685354e-06   -0.00017935723718339293
-1.4949371830449401e-05   1.162381457012543e-06   -0.00012990555011971284
-1.4949371830449401e-05   1.162381457012543e-06   -0.00012990555011971284
-1.4949371830449401e-05   1.162381457012543e-06   -0.00012990555011971284
-1.4949371830449401e-05   1.162381457012543e-06   -0.00012990555011971284
-1.3554900068584483e-05   -6.989136826342571e-07   -0.00017362031994849064
-1.3554900068584483e-05   -6.989136826342571e-07   -0.00017362031994849064
-1.3554900068584483e-05   -6.989136826342571e-07   -0.00017362031994849064
-1.3554900068584483e-05   -6.989136826342571e-07   -0.00017362031994849064
-4.092460335834531e-05   6.6279576074008625e-06   -0.00013240027057290918
-4.092460335834531e-05   6.6279576074008625e-06   -0.00013240027057290918
-4.092460335834531e-05   6.6279576074008625e-06   -0.00013240027057290918
-4.092460335834531e-05   6.6279576074008625e-06   -0.00013240027057290918
-2.754292075289037e-05   7.216057059077075e-07   -0.0001511592637744412
-2.754292075289037e-05   7.216057059077075e-07   -0.0001511592637744412
-2.754292075289037e-05   7.216057059077075e-07   -0.0001511592637744412
-2.754292075289037e-05   7.216057059077075e-07   -0.0001511592637744412
-4.092460335834524e-05   -6.989136826342571e-07   -0.00017801644272251145
-4.092460335834524e-05   -6.989136826342571e-07   -0.00017801644272251145
-4.092460335834524e-05   -6.989136826342571e-07   -0.00017801644272251145
-4.092460335834524e-05   -6.989136826342571e-07   -0.00017801644272251145
-1.3554900068584537e-05   6.6279576074008625e-06   -0.00012800414779888915
-1.3554900068584537e-05   6.6279576074008625e-06   -0.00012800414779888915
-1.3554900068584537e-05   6.6279576074008625e-06   -0.00012800414779888915
-1.3554900068584537e-05   6.6279576074008625e-06   -0.00012800414779888915
-1.14998507220116e-05   4.882006500418583e-06   -0.00017597877596307182
-1.14998507220116e-05   4.882006500418583e-06   -0.00017597877596307182
-1.14998507220116e-05   4.882006500418583e-06   -0.00017597877596307182
-1.14998507220116e-05   4.882006500418583e-06   -0.00017597877596307182
-3.9871404482280445e-05   1.1783839225718018e-05   -0.0001328339526644694
-3.9871404482280445e-05   1.1783839225718018e-05   -0.0001328339526644694
-3.9871404482280445e-05   1.1783839225718018e-05   -0.0001328339526644694
-3.9871404482280445e-05   1.1783839225718018e-05   -0.0001328339526644694
-2.669520473679028e-05   5.131206754569427e-06   -0.00015080270609093085
-2.669520473679028e-05   5.131206754569427e-06   -0.00015080270609093085
-2.669520473679028e-05   5.131206754569427e-06   -0.00015080270609093085
-2.669520473679028e-05   5.131206754569427e-06   -0.00015080270609093085
-3.9871404482280336e-05   4.882006500418583e-06   -0.00018011987559825
-3.9871404482280336e-05   4.882006500418583e-06   -0.00018011987559825
-3.9871404482280336e-05   4.882006500418583e-06   -0.00018011987559825
-3.9871404482280336e-05   4.882006500418583e-06   -0.00018011987559825
-1.14998507220116e-05   1.1783839225718018e-05   -0.0001286928530292897
-1.14998507220116e-05   1.1783839225718018e-05   -0.0001286928530292897
-1.14998507220116e-05   1.1783839225718018e-05   -0.0001286928530292897
-1.14998507220116e-05   1.1783839225718018e-05   -0.0001286928530292897
-1.0062414115271994e-05   1.1285472069936294e-05   -0.0001809022877633645
-1.0062414115271994e-05   1.1285472069936294e-05   -0.0001809022877633645
-1.0062414115271994e-05   1.1285472069936294e-05   -0.0001809022877633645
-1.0062414115271994e-05   1.1285472069936294e-05   -0.0001809022877633645
-3.89240485087812e-05   1.7620646549774098e-05   -0.0001366006684620839
-3.89240485087812e-05   1.7620646549774098e-05   -0.0001366006684620839
-3.89240485087812e-05   1.7620646549774098e-05   -0.0001366006684620839
-3.89240485087812e-05   1.7620646549774098e-05   -0.0001366006684620839
-2.5805012771325993e-05   9.759794349108002e-06   -0.00015374921670411029
-2.5805012771325993e-05   9.759794349108002e-06   -0.00015374921670411029
-2.5805012771325993e-05   9.759794349108002e-06   -0.00015374921670411029
-2.5805012771325993e-05   9.759794349108002e-06   -0.00015374921670411029
-1.4949371830449293e-05   -1.1970858937877023e-05   -9.742141942766349e-05
-1.4949371830449293e-05   -1.1970858937877023e-05   -9.742141942766349e-05
-1.4949371830449293e-05   -1.1970858937877023e-05   -9.742141942766349e-05
-1.4949371830449293e-05   -1.1970858937877023e-05   -9.742141942766349e-05
5.155208652046772e-06   1.5583111036806055e-06   -5.5796283265235804e-05
5.155208652046772e-06   1.5583111036806055e-06   -5.5796283265235804e-05
5.155208652046772e-06   1.5583111036806055e-06   -5.5796283265235804e-05
5.155208652046772e-06   1.5583111036806055e-06   -5.5796283265235804e-05
1.2413638613545147e-05   -8.054664186194285e-06   -9.317173679254079e-05
1.2413638613545147e-05   -8.054664186194285e-06   -9.317173679254079e-05
1.2413638613545147e-05   -8.054664186194285e-06   -9.317173679254079e-05
1.2413638613545147e-05   -8.054664186194285e-06   -9.317173679254079e-05
-1.3554900068584483e-05   5.8714455002661925e-06   -5.824650480086547e-05
-1.3554900068584483e-05   5.8714455002661925e-06   -5.824650480086547e-05
-1.3554900068584483e-05   5.8714455002661925e-06   -5.824650480086547e-05
-1.3554900068584483e-05   5.8714455002661925e-06   -5.824650480086547e-05
-2.6760154162178216e-06   -2.559834900086634e-06   -7.13192109812672e-05
-2.6760154162178216e-06   -2.559834900086634e-06   -7.13192109812672e-05
-2.6760154162178216e-06   -2.559834900086634e-06   -7.13192109812672e-05
-2.6760154162178216e-06   -2.559834900086634e-06   -7.13192109812672e-05
-1.3554900068584483e-05   -8.054664186194285e-06   -0.00010152740260441565
-1.3554900068584483e-05   -8.054664186194285e-06   -0.00010152740260441565
-1.3554900068584483e-05   -8.054664186194285e-06   -0.00010152740260441565
-1.3554900068584483e-05   -8.054664186194285e-06   -0.00010152740260441565
1.2413638613545147e-05   5.8714455002661925e-06   -4.989083898899061e-05
1.2413638613545147e-05   5.8714455002661925e-06   -4.989083898899061e-05
1.2413638613545147e-05   5.8714455002661925e-06   -4.989083898899061e-05
1.2413638613545147e-05   5.8714455002661925e-06   -4.989083898899061e-05
1.814256800253852e-05   -5.343308666877315e-06   -9.830611581428616e-05
1.814256800253852e-05   -5.343308666877315e-06   -9.830611581428616e-05
1.814256800253852e-05   -5.343308666877315e-06   -9.830611581428616e-05
1.814256800253852e-05   -5.343308666877315e-06   -9.830611581428616e-05
-1.14998507220116e-05   8.300692212603357e-06   -5.708848513438997e-05
-1.14998507220116e-05   8.300692212603357e-06   -5.708848513438997e-05
-1.14998507220116e-05   8.300692212603357e-06   -5.708848513438997e-05
-1.14998507220116e-05   8.300692212603357e-06   -5.708848513438997e-05
1.028858953471722e-06   -5.007612861361935e-07   -7.268879582761865e-05
1.028858953471722e-06   -5.007612861361935e-07   -7.268879582761865e-05
1.028858953471722e-06   -5.007612861361935e-07   -7.268879582761865e-05
1.028858953471722e-06   -5.007612861361935e-07   -7.268879582761865e-05
-1.14998507220116e-05   -5.343308666877315e-06   -0.00010649251634197495
-1.14998507220116e-05   -5.343308666877315e-06   -0.00010649251634197495
-1.14998507220116e-05   -5.343308666877315e-06   -0.00010649251634197495
-1.14998507220116e-05   -5.343308666877315e-06   -0.00010649251634197495
1.814256800253852e-05   8.30069221260249e-06   -4.8902084606701826e-05
1.814256800253852e-05   8.30069221260249e-06   -4.8902084606701826e-05
1.814256800253852e-05   8.30069221260249e-06   -4.8902084606701826e-05
1.814256800253852e-05   8.30069221260249e-06   -4.8902084606701826e-05
2.5357235295784533e-05   1.477584670502713e-09   -0.00011018884287207313
2.5357235295784533e-05   1.477584670502713e-09   -0.00011018884287207313
2.5357235295784533e-05   1.477584670502713e-09   -0.00011018884287207313
2.5357235295784533e-05   1.477584670502713e-09   -0.00011018884287207313
-1.0062414115271994e-05   1.2625220581895247e-05   -5.8730339651978745e-05
-1.0062414115271994e-05   1.2625220581895247e-05   -5.8730339651978745e-05
-1.0062414115271994e-05   1.2625220581895247e-05   -5.8730339651978745e-05
-1.0062414115271994e-05   1.2625220581895247e-05   -5.8730339651978745e-05
4.186470655894809e-06   1.8660946587900282e-06   -7.602300538339483e-05
4.186470655894809e-06   1.8660946587900282e-06   -7.602300538339483e-05
4.186470655894809e-06   1.8660946587900282e-06   -7.602300538339483e-05
4.186470655894809e-06   1.8660946587900282e-06   -7.602300538339483e-05
-4.6802834120001236e-05   8.756540150547942e-06   -8.32804800404768e-05
-4.6802834120001236e-05   8.756540150547942e-06   -8.32804800404768e-05
-4.6802834120001236e-05   8.756540150547942e-06   -8.32804800404768e-05
-4.6802834120001236e-05   8.756540150547942e-06   -8.32804800404768e-05
-4.700731222263333e-05   -4.007988565532701e-06   -9.127999410784497e-05
-4.700731222263333e-05   -4.007988565532701e-06   -9.127999410784497e-05
-4.700731222263333e-05   -4.007988565532701e-06   -9.127999410784497e-05
-4.700731222263333e-05   -4.007988565532701e-06   -9.127999410784497e-05
-4.4628076945837946e-05   1.3602189944828674e-05   -7.82376391265582e-05
-4.4628076945837946e-05   1.3602189944828674e-05   -7.82376391265582e-05
-4.4628076945837946e-05   1.3602189944828674e-05   -7.82376391265582e-05
-4.4628076945837946e-05   1.3602189944828674e-05   -7.82376391265582e-05
-3.870128356185253e-05   -7.969921706017097e-08   -7.990649460273402e-05
-3.870128356185253e-05   -7.969921706017097e-08   -7.990649460273402e-05
-3.870128356185253e-05   -7.969921706017097e-08   -7.990649460273402e-05
-3.870128356185253e-05   -7.969921706017097e-08   -7.990649460273402e-05
-4.2347391982895666e-05   6.0260003925498296e-06   -7.749306700009784e-05
-4.2347391982895666e-05   6.0260003925498296e-06   -7.749306700009784e-05
-4.2347391982895666e-05   6.0260003925498296e-06   -7.749306700009784e-05
-4.2347391982895666e-05   6.0260003925498296e-06   -7.749306700009784e-05
-3.870128356185253e-05   1.3602189944828674e-05   -7.00285056294248e-05
-3.870128356185253e-05   1.3602189944828674e-05   -7.00285056294248e-05
-3.870128356185253e-05   1.3602189944828674e-05   -7.00285056294248e-05
-3.870128356185253e-05   1.3602189944828674e-05   -7.00285056294248e-05
-4.4628076945837946e-05   -7.969921706017097e-08   -8.811562809986763e-05
-4.4628076945837946e-05   -7.969921706017097e-08   -8.811562809986763e-05
-4.4628076945837946e-05   -7.969921706017097e-08   -8.811562809986763e-05
-4.4628076945837946e-05   -7.969921706017097e-08   -8.811562809986763e-05
-4.163193624151984e-05   1.604299777654885e-05   -7.260899424272292e-05
-4.163193624151984e-05   1.604299777654885e-05   -7.260899424272292e-05
-4.163193624151984e-05   1.604299777654885e-05   -7.260899424272292e-05
-4.163193624151984e-05   1.604299777654885e-05   -7.260899424272292e-05
-3.1987357779035596e-05   2.1338830301868145e-06   -8.033782283237926e-05
-3.1987357779035596e-05   2.1338830301868145e-06   -8.033782283237926e-05
-3.1987357779035596e-05   2.1338830301868145e-06   -8.033782283237926e-05
-3.1987357779035596e-05   2.1338830301868145e-06   -8.033782283237926e-05
-3.84983243961377e-05   8.038060278636391e-06   -7.302871815294829e-05
-3.84983243961377e-05   8.038060278636391e-06   -7.302871815294829e-05
-3.84983243961377e-05   8.038060278636391e-06   -7.302871815294829e-05
-3.84983243961377e-05   8.038060278636391e-06   -7.302871815294829e-05
-3.198735777903538e-05   1.604299777654885e-05   -6.426352539490657e-05
-3.198735777903538e-05   1.604299777654885e-05   -6.426352539490657e-05
-3.198735777903538e-05   1.604299777654885e-05   -6.426352539490657e-05
-3.198735777903538e-05   1.604299777654885e-05   -6.426352539490657e-05
-4.163193624151995e-05   2.133883030187682e-06   -8.868329168019691e-05
-4.163193624151995e-05   2.133883030187682e-06   -8.868329168019691e-05
-4.163193624151995e-05   2.133883030187682e-06   -8.868329168019691e-05
-4.163193624151995e-05   2.133883030187682e-06   -8.868329168019691e-05
-3.928315486464149e-05   1.9905680496016057e-05   -6.735835561618407e-05
-3.928315486464149e-05   1.9905680496016057e-05   -6.735835561618407e-05
-3.928315486464149e-05   1.9905680496016057e-05   -6.735835561618407e-05
-3.928315486464149e-05   1.9905680496016057e-05   -6.735835561618407e-05
-2.369783509086369e-05   6.551709449458855e-06   -8.532150594454512e-05
-2.369783509086369e-05   6.551709449458855e-06   -8.532150594454512e-05
-2.369783509086369e-05   6.551709449458855e-06   -8.532150594454512e-05
-2.369783509086369e-05   6.551709449458855e-06   -8.532150594454512e-05
-3.367689054057982e-05   9.95540900394342e-06   -7.073196659437625e-05
-3.367689054057982e-05   9.95540900394342e-06   -7.073196659437625e-05
-3.367689054057982e-05   9.95540900394342e-06   -7.073196659437625e-05
-3.367689054057982e-05   9.95540900394342e-06   -7.073196659437625e-05
-4.7007312222633224e-05   4.9870394081509214e-06   -0.00015091056264189898
-4.7007312222633224e-05   4.9870394081509214e-06   -0.00015091056264189898
-4.7007312222633224e-05   4.9870394081509214e-06   -0.00015091056264189898
-4.7007312222633224e-05   4.9870394081509214e-06   -0.00015091056264189898
-5.3833123751370355e-05   -8.963115687883605e-07   -0.00016581692577595768
-5.3833123751370355e-05   -8.963115687883605e-07   -0.00016581692577595768
-5.3833123751370355e-05   -8.963115687883605e-07   -0.00016581692577595768
-5.3833123751370355e-05   -8.963115687883605e-07   -0.00016581692577595768
-5.1901336954711234e-05   1.0539255611444719e-05   -0.00015103537957692793
-5.1901336954711234e-05   1.0539255611444719e-05   -0.00015103537957692793
-5.1901336954711234e-05   1.0539255611444719e-05   -0.00015103537957692793
-5.1901336954711234e-05   1.0539255611444719e-05   -0.00015103537957692793
-4.462807694583827e-05   4.0545948952397035e-06   -0.00015926668316199174
-4.462807694583827e-05   4.0545948952397035e-06   -0.00015926668316199174
-4.462807694583827e-05   4.0545948952397035e-06   -0.00015926668316199174
-4.462807694583827e-05   4.0545948952397035e-06   -0.00015926668316199174
-4.8766934633309386e-05   5.749716854597589e-06   -0.00015338566019182398
-4.8766934633309386e-05   5.749716854597589e-06   -0.00015338566019182398
-4.8766934633309386e-05   5.749716854597589e-06   -0.00015338566019182398
-4.8766934633309386e-05   5.749716854597589e-06   -0.00015338566019182398
-4.462807694583784e-05   1.0539255611444719e-05   -0.00014714458314720336
-4.462807694583784e-05   1.0539255611444719e-05   -0.00014714458314720336
-4.462807694583784e-05   1.0539255611444719e-05   -0.00014714458314720336
-4.462807694583784e-05   1.0539255611444719e-05   -0.00014714458314720336
-5.1901336954711125e-05   4.0545948952397035e-06   -0.00016315747959171588
-5.1901336954711125e-05   4.0545948952397035e-06   -0.00016315747959171588
-5.1901336954711125e-05   4.0545948952397035e-06   -0.00016315747959171588
-5.1901336954711125e-05   4.0545948952397035e-06   -0.00016315747959171588
-4.9893021819309344e-05   1.5695680368768734e-05   -0.00014977086199675395
-4.9893021819309344e-05   1.5695680368768734e-05   -0.00014977086199675395
-4.9893021819309344e-05   1.5695680368768734e-05   -0.00014977086199675395
-4.9893021819309344e-05   1.5695680368768734e-05   -0.00014977086199675395
-4.163193624151995e-05   8.815541057589915e-06   -0.00015941125437302756
-4.163193624151995e-05   8.815541057589915e-06   -0.00015941125437302756
-4.163193624151995e-05   8.815541057589915e-06   -0.00015941125437302756
-4.163193624151995e-05   8.815541057589915e-06   -0.00015941125437302756
-4.68303159210282e-05   9.733809333408935e-06   -0.00015129824920600654
-4.68303159210282e-05   9.733809333408935e-06   -0.00015129824920600654
-4.68303159210282e-05   9.733809333408935e-06   -0.00015129824920600654
-4.68303159210282e-05   9.733809333408935e-06   -0.00015129824920600654
-4.163193624151984e-05   1.5695680368769602e-05   -0.0001456427784100457
-4.163193624151984e-05   1.5695680368769602e-05   -0.0001456427784100457
-4.163193624151984e-05   1.5695680368769602e-05   -0.0001456427784100457
-4.163193624151984e-05   1.5695680368769602e-05   -0.0001456427784100457
-4.989302181930902e-05   8.815541057589048e-06   -0.0001635393379597356
-4.989302181930902e-05   8.815541057589048e-06   -0.0001635393379597356
-4.989302181930902e-05   8.815541057589048e-06   -0.0001635393379597356
-4.989302181930902e-05   8.815541057589048e-06   -0.0001635393379597356
-4.799826330911946e-05   2.141922300401885e-05   -0.00015224876043795892
-4.799826330911946e-05   2.141922300401885e-05   -0.00015224876043795892
-4.799826330911946e-05   2.141922300401885e-05   -0.00015224876043795892
-4.799826330911946e-05   2.141922300401885e-05   -0.00015224876043795892
-3.92831548646416e-05   1.4246198887642343e-05   -0.00016247012670892922
-3.92831548646416e-05   1.4246198887642343e-05   -0.00016247012670892922
-3.92831548646416e-05   1.4246198887642343e-05   -0.00016247012670892922
-3.92831548646416e-05   1.4246198887642343e-05   -0.00016247012670892922
-4.512257584944932e-05   1.3906566869047524e-05   -0.00015253397918976123
-4.512257584944932e-05   1.3906566869047524e-05   -0.00015253397918976123
-4.512257584944932e-05   1.3906566869047524e-05   -0.00015253397918976123
-4.512257584944932e-05   1.3906566869047524e-05   -0.00015253397918976123
-5.383312375137014e-05   2.8314963002257568e-06   -0.00017565733709193343
-5.383312375137014e-05   2.8314963002257568e-06   -0.00017565733709193343
-5.383312375137014e-05   2.8314963002257568e-06   -0.00017565733709193343
-5.383312375137014e-05   2.8314963002257568e-06   -0.00017565733709193343
-6.10655474735193e-05   4.066692994312594e-06   -0.00018697025861239653
-6.10655474735193e-05   4.066692994312594e-06   -0.00018697025861239653
-6.10655474735193e-05   4.066692994312594e-06   -0.00018697025861239653
-6.10655474735193e-05   4.066692994312594e-06   -0.00018697025861239653
-5.9164840578845026e-05   8.479498513934598e-06   -0.0001729666434948738
-5.9164840578845026e-05   8.479498513934598e-06   -0.0001729666434948738
-5.9164840578845026e-05   8.479498513934598e-06   -0.0001729666434948738
-5.9164840578845026e-05   8.479498513934598e-06   -0.0001729666434948738
-5.1901336954711234e-05   9.176544640401851e-06   -0.0001854907105443089
-5.1901336954711234e-05   9.176544640401851e-06   -0.0001854907105443089
-5.1901336954711234e-05   9.176544640401851e-06   -0.0001854907105443089
-5.1901336954711234e-05   9.176544640401851e-06   -0.0001854907105443089
-5.6151410528731525e-05   6.932265303582347e-06   -0.00017706068698551984
-5.6151410528731525e-05   6.932265303582347e-06   -0.00017706068698551984
-5.6151410528731525e-05   6.932265303582347e-06   -0.00017706068698551984
-5.6151410528731525e-05   6.932265303582347e-06   -0.00017706068698551984
-5.190133695471102e-05   8.479498513934598e-06   -0.0001733848711707531
-5.190133695471102e-05   8.479498513934598e-06   -0.0001733848711707531
-5.190133695471102e-05   8.479498513934598e-06   -0.0001733848711707531
-5.190133695471102e-05   8.479498513934598e-06   -0.0001733848711707531
-5.9164840578845134e-05   9.176544640401851e-06   -0.00018507248286843024
-5.9164840578845134e-05   9.176544640401851e-06   -0.00018507248286843024
-5.9164840578845134e-05   9.176544640401851e-06   -0.00018507248286843024
-5.9164840578845134e-05   9.176544640401851e-06   -0.00018507248286843024
-5.716906902042774e-05   1.4177301681584861e-05   -0.0001734749557629877
-5.716906902042774e-05   1.4177301681584861e-05   -0.0001734749557629877
-5.716906902042774e-05   1.4177301681584861e-05   -0.0001734749557629877
-5.716906902042774e-05   1.4177301681584861e-05   -0.0001734749557629877
-4.9893021819309344e-05   1.4399887550958085e-05   -0.00018573525261980672
-4.9893021819309344e-05   1.4399887550958085e-05   -0.00018573525261980672
-4.9893021819309344e-05   1.4399887550958085e-05   -0.00018573525261980672
-4.9893021819309344e-05   1.4399887550958085e-05   -0.00018573525261980672
-5.455141563423314e-05   1.1298364733850624e-05   -0.00017611034923800564
-5.455141563423314e-05   1.1298364733850624e-05   -0.00017611034923800564
-5.455141563423314e-05   1.1298364733850624e-05   -0.00017611034923800564
-5.455141563423314e-05   1.1298364733850624e-05   -0.00017611034923800564
-4.989302181930902e-05   1.4177301681584861e-05   -0.00017360850728460973
-4.989302181930902e-05   1.4177301681584861e-05   -0.00017360850728460973
-4.989302181930902e-05   1.4177301681584861e-05   -0.00017360850728460973
-4.989302181930902e-05   1.4177301681584861e-05   -0.00017360850728460973
-5.716906902042774e-05   1.4399887550958085e-05   -0.00018560170109818393
-5.716906902042774e-05   1.4399887550958085e-05   -0.00018560170109818393
-5.716906902042774e-05   1.4399887550958085e-05   -0.00018560170109818393
-5.716906902042774e-05   1.4399887550958085e-05   -0.00018560170109818393
-5.5285913250870045e-05   1.9960720498161423e-05   -0.00017684169451912847
-5.5285913250870045e-05   1.9960720498161423e-05   -0.00017684169451912847
-5.5285913250870045e-05   1.9960720498161423e-05   -0.00017684169451912847
-5.5285913250870045e-05   1.9960720498161423e-05   -0.00017684169451912847
-4.799826330911957e-05   1.969495607190893e-05   -0.00018882831909962676
-4.799826330911957e-05   1.969495607190893e-05   -0.00018882831909962676
-4.799826330911957e-05   1.969495607190893e-05   -0.00018882831909962676
-4.799826330911957e-05   1.969495607190893e-05   -0.00018882831909962676
-5.307569265048739e-05   1.572531371499264e-05   -0.00017798415144986291
-5.307569265048739e-05   1.572531371499264e-05   -0.00017798415144986291
-5.307569265048739e-05   1.572531371499264e-05   -0.00017798415144986291
-5.307569265048739e-05   1.572531371499264e-05   -0.00017798415144986291
-6.106554747351909e-05   1.1623814570134103e-06   -0.00015158330856942853
-6.106554747351909e-05   1.1623814570134103e-06   -0.00015158330856942853
-6.106554747351909e-05   1.1623814570134103e-06   -0.00015158330856942853
-6.106554747351909e-05   1.1623814570134103e-06   -0.00015158330856942853
-6.86710524684936e-05   9.054369908987649e-06   -0.00015952395715653454
-6.86710524684936e-05   9.054369908987649e-06   -0.00015952395715653454
-6.86710524684936e-05   9.054369908987649e-06   -0.00015952395715653454
-6.86710524684936e-05   9.054369908987649e-06   -0.00015952395715653454
-6.637777403779399e-05   6.627957607399995e-06   -0.000144948963119583
-6.637777403779399e-05   6.627957607399995e-06   -0.000144948963119583
-6.637777403779399e-05   6.627957607399995e-06   -0.000144948963119583
-6.637777403779399e-05   6.627957607399995e-06   -0.000144948963119583
-5.9164840578845026e-05   1.4177600694291817e-05   -0.0001615003047366316
-5.9164840578845026e-05   1.4177600694291817e-05   -0.0001615003047366316
-5.9164840578845026e-05   1.4177600694291817e-05   -0.0001615003047366316
-5.9164840578845026e-05   1.4177600694291817e-05   -0.0001615003047366316
-6.332759391414968e-05   8.32916062511093e-06   -0.0001510533184696181
-6.332759391414968e-05   8.32916062511093e-06   -0.0001510533184696181
-6.332759391414968e-05   8.32916062511093e-06   -0.0001510533184696181
-6.332759391414968e-05   8.32916062511093e-06   -0.0001510533184696181
-5.916484057884493e-05   6.6279576074008625e-06   -0.00014947874897171644
-5.916484057884493e-05   6.6279576074008625e-06   -0.00014947874897171644
-5.916484057884493e-05   6.6279576074008625e-06   -0.00014947874897171644
-5.916484057884493e-05   6.6279576074008625e-06   -0.00014947874897171644
-6.637777403779399e-05   1.4177600694291817e-05   -0.00015697051888449807
-6.637777403779399e-05   1.4177600694291817e-05   -0.00015697051888449807
-6.637777403779399e-05   1.4177600694291817e-05   -0.00015697051888449807
-6.637777403779399e-05   1.4177600694291817e-05   -0.00015697051888449807
-6.34291508950291e-05   1.1783839225718018e-05   -0.0001455983611216658
-6.34291508950291e-05   1.1783839225718018e-05   -0.0001455983611216658
-6.34291508950291e-05   1.1783839225718018e-05   -0.0001455983611216658
-6.34291508950291e-05   1.1783839225718018e-05   -0.0001455983611216658
-5.716906902042764e-05   1.8908560615403698e-05   -0.00016030666374647896
-5.716906902042764e-05   1.8908560615403698e-05   -0.00016030666374647896
-5.716906902042764e-05   1.8908560615403698e-05   -0.00016030666374647896
-5.716906902042764e-05   1.8908560615403698e-05   -0.00016030666374647896
-6.127904819829488e-05   1.2389700684259548e-05   -0.0001495453824913492
-6.127904819829488e-05   1.2389700684259548e-05   -0.0001495453824913492
-6.127904819829488e-05   1.2389700684259548e-05   -0.0001495453824913492
-6.127904819829488e-05   1.2389700684259548e-05   -0.0001495453824913492
-5.716906902042749e-05   1.1783839225718018e-05   -0.00014987319395547627
-5.716906902042749e-05   1.1783839225718018e-05   -0.00014987319395547627
-5.716906902042749e-05   1.1783839225718018e-05   -0.00014987319395547627
-5.716906902042749e-05   1.1783839225718018e-05   -0.00014987319395547627
-6.342915089502921e-05   1.8908560615403698e-05   -0.00015603183091266858
-6.342915089502921e-05   1.8908560615403698e-05   -0.00015603183091266858
-6.342915089502921e-05   1.8908560615403698e-05   -0.00015603183091266858
-6.342915089502921e-05   1.8908560615403698e-05   -0.00015603183091266858
-6.110893180138452e-05   1.762064654977323e-05   -0.00014963770467305015
-6.110893180138452e-05   1.762064654977323e-05   -0.00014963770467305015
-6.110893180138452e-05   1.762064654977323e-05   -0.00014963770467305015
-6.110893180138452e-05   1.762064654977323e-05   -0.00014963770467305015
-5.5285913250870045e-05   2.421790461700976e-05   -0.0001633010904309155
-5.5285913250870045e-05   2.421790461700976e-05   -0.0001633010904309155
-5.5285913250870045e-05   2.421790461700976e-05   -0.0001633010904309155
-5.5285913250870045e-05   2.421790461700976e-05   -0.0001633010904309155
-5.973206356683562e-05   1.6545881611795474e-05   -0.00015128762610117585
-5.973206356683562e-05   1.6545881611795474e-05   -0.00015128762610117585
-5.973206356683562e-05   1.6545881611795474e-05   -0.00015128762610117585
-5.973206356683562e-05   1.6545881611795474e-05   -0.00015128762610117585
-6.867105246849338e-05   1.5583111036806055e-06   -8.085635066870092e-05
-6.867105246849338e-05   1.5583111036806055e-06   -8.085635066870092e-05
-6.867105246849338e-05   1.5583111036806055e-06   -8.085635066870092e-05
-6.867105246849338e-05   1.5583111036806055e-06   -8.085635066870092e-05
-8.288815777382822e-05   1.5186284295229217e-05   -9.637474226266343e-05
-8.288815777382822e-05   1.5186284295229217e-05   -9.637474226266343e-05
-8.288815777382822e-05   1.5186284295229217e-05   -9.637474226266343e-05
-8.288815777382822e-05   1.5186284295229217e-05   -9.637474226266343e-05
-7.483936074491359e-05   5.8714455002661925e-06   -6.68195011989869e-05
-7.483936074491359e-05   5.8714455002661925e-06   -6.68195011989869e-05
-7.483936074491359e-05   5.8714455002661925e-06   -6.68195011989869e-05
-7.483936074491359e-05   5.8714455002661925e-06   -6.68195011989869e-05
-6.637777403779388e-05   1.982447703788911e-05   -8.929396463342625e-05
-6.637777403779388e-05   1.982447703788911e-05   -8.929396463342625e-05
-6.637777403779388e-05   1.982447703788911e-05   -8.929396463342625e-05
-6.637777403779388e-05   1.982447703788911e-05   -8.929396463342625e-05
-7.023137631465251e-05   1.11793909377024e-05   -7.768424251188423e-05
-7.023137631465251e-05   1.11793909377024e-05   -7.768424251188423e-05
-7.023137631465251e-05   1.11793909377024e-05   -7.768424251188423e-05
-7.023137631465251e-05   1.11793909377024e-05   -7.768424251188423e-05
-6.637777403779372e-05   5.8714455002661925e-06   -7.51913201215591e-05
-6.637777403779372e-05   5.8714455002661925e-06   -7.51913201215591e-05
-6.637777403779372e-05   5.8714455002661925e-06   -7.51913201215591e-05
-6.637777403779372e-05   5.8714455002661925e-06   -7.51913201215591e-05
-7.483936074491337e-05   1.982447703788824e-05   -8.0922145710852e-05
-7.483936074491337e-05   1.982447703788824e-05   -8.0922145710852e-05
-7.483936074491337e-05   1.982447703788824e-05   -8.0922145710852e-05
-7.483936074491337e-05   1.982447703788824e-05   -8.0922145710852e-05
-6.829277990261619e-05   8.300692212603357e-06   -6.580515005133545e-05
-6.829277990261619e-05   8.300692212603357e-06   -6.580515005133545e-05
-6.829277990261619e-05   8.300692212603357e-06   -6.580515005133545e-05
-6.829277990261619e-05   8.300692212603357e-06   -6.580515005133545e-05
-6.34291508950291e-05   2.194876417165384e-05   -8.210004157274383e-05
-6.34291508950291e-05   2.194876417165384e-05   -8.210004157274383e-05
-6.34291508950291e-05   2.194876417165384e-05   -8.210004157274383e-05
-6.34291508950291e-05   2.194876417165384e-05   -8.210004157274383e-05
-6.676331196250014e-05   1.3319085560214647e-05   -7.13652992934302e-05
-6.676331196250014e-05   1.3319085560214647e-05   -7.13652992934302e-05
-6.676331196250014e-05   1.3319085560214647e-05   -7.13652992934302e-05
-6.676331196250014e-05   1.3319085560214647e-05   -7.13652992934302e-05
-6.342915089502894e-05   8.300692212603357e-06   -7.399399322676609e-05
-6.342915089502894e-05   8.300692212603357e-06   -7.399399322676609e-05
-6.342915089502894e-05   8.300692212603357e-06   -7.399399322676609e-05
-6.342915089502894e-05   8.300692212603357e-06   -7.399399322676609e-05
-6.829277990261619e-05   2.194876417165384e-05   -7.391119839731362e-05
-6.829277990261619e-05   2.194876417165384e-05   -7.391119839731362e-05
-6.829277990261619e-05   2.194876417165384e-05   -7.391119839731362e-05
-6.829277990261619e-05   2.194876417165384e-05   -7.391119839731362e-05
-6.0302185216921586e-05   1.2625220581895247e-05   -6.798854796780367e-05
-6.0302185216921586e-05   1.2625220581895247e-05   -6.798854796780367e-05
-6.0302185216921586e-05   1.2625220581895247e-05   -6.798854796780367e-05
-6.0302185216921586e-05   1.2625220581895247e-05   -6.798854796780367e-05
-6.110893180138441e-05   2.5258441553635026e-05   -7.42239029100744e-05
-6.110893180138441e-05   2.5258441553635026e-05   -7.42239029100744e-05
-6.110893180138441e-05   2.5258441553635026e-05   -7.42239029100744e-05
-6.110893180138441e-05   2.5258441553635026e-05   -7.42239029100744e-05
-6.17192743437138e-05   1.5060844912325767e-05   -6.70881073547402e-05
-6.17192743437138e-05   1.5060844912325767e-05   -6.70881073547402e-05
-6.17192743437138e-05   1.5060844912325767e-05   -6.70881073547402e-05
-6.17192743437138e-05   1.5060844912325767e-05   -6.70881073547402e-05
4.042455616986109e-05   -4.007988565531834e-06   -4.2562032685574194e-05
4.042455616986109e-05   -4.007988565531834e-06   -4.2562032685574194e-05
4.042455616986109e-05   -4.007988565531834e-06   -4.2562032685574194e-05
4.042455616986109e-05   -4.007988565531834e-06   -4.2562032685574194e-05
4.069448757231236e-06   -1.703921343524685e-05   -0.00011097261329511736
4.069448757231236e-06   -1.703921343524685e-05   -0.00011097261329511736
4.069448757231236e-06   -1.703921343524685e-05   -0.00011097261329511736
4.069448757231236e-06   -1.703921343524685e-05   -0.00011097261329511736
7.337200650721137e-06   -7.969921706017097e-08   -4.692904936141797e-05
7.337200650721137e-06   -7.969921706017097e-08   -4.692904936141797e-05
7.337200650721137e-06   -7.969921706017097e-08   -4.692904936141797e-05
7.337200650721137e-06   -7.969921706017097e-08   -4.692904936141797e-05
4.947251708978641e-05   -1.3992101628060999e-05   -0.00010880713531325999
4.947251708978641e-05   -1.3992101628060999e-05   -0.00010880713531325999
4.947251708978641e-05   -1.3992101628060999e-05   -0.00010880713531325999
4.947251708978641e-05   -1.3992101628060999e-05   -0.00010880713531325999
2.4387784319638162e-05   -7.091096424910459e-06   -7.113985048490387e-05
2.4387784319638162e-05   -7.091096424910459e-06   -7.113985048490387e-05
2.4387784319638162e-05   -7.091096424910459e-06   -7.113985048490387e-05
2.4387784319638162e-05   -7.091096424910459e-06   -7.113985048490387e-05
4.947251708978641e-05   -7.969921706017097e-08   -3.8581607914818516e-05
4.947251708978641e-05   -7.969921706017097e-08   -3.8581607914818516e-05
4.947251708978641e-05   -7.969921706017097e-08   -3.8581607914818516e-05
4.947251708978641e-05   -7.969921706017097e-08   -3.8581607914818516e-05
7.33720065072092e-06   -1.3992101628060999e-05   -0.00011715457675986205
7.33720065072092e-06   -1.3992101628060999e-05   -0.00011715457675986205
7.33720065072092e-06   -1.3992101628060999e-05   -0.00011715457675986205
7.33720065072092e-06   -1.3992101628060999e-05   -0.00011715457675986205
1.118481434121861e-05   2.1338830301868145e-06   -4.7257665950125975e-05
1.118481434121861e-05   2.1338830301868145e-06   -4.7257665950125975e-05
1.118481434121861e-05   2.1338830301868145e-06   -4.7257665950125975e-05
1.118481434121861e-05   2.1338830301868145e-06   -4.7257665950125975e-05
5.7135463266655764e-05   -1.1970675519909144e-05   -0.00011537934569579586
5.7135463266655764e-05   -1.1970675519909144e-05   -0.00011537934569579586
5.7135463266655764e-05   -1.1970675519909144e-05   -0.00011537934569579586
5.7135463266655764e-05   -1.1970675519909144e-05   -0.00011537934569579586
3.0138058681801472e-05   -5.6734924736923445e-06   -7.416198121543843e-05
3.0138058681801472e-05   -5.6734924736923445e-06   -7.416198121543843e-05
3.0138058681801472e-05   -5.6734924736923445e-06   -7.416198121543843e-05
3.0138058681801472e-05   -5.6734924736923445e-06   -7.416198121543843e-05
5.71354632666562e-05   2.1338830301868145e-06   -3.879493082006684e-05
5.71354632666562e-05   2.1338830301868145e-06   -3.879493082006684e-05
5.71354632666562e-05   2.1338830301868145e-06   -3.879493082006684e-05
5.71354632666562e-05   2.1338830301868145e-06   -3.879493082006684e-05
1.118481434121861e-05   -1.1970675519910878e-05   -0.000123842080825855
1.118481434121861e-05   -1.1970675519910878e-05   -0.000123842080825855
1.118481434121861e-05   -1.1970675519910878e-05   -0.000123842080825855
1.118481434121861e-05   -1.1970675519910878e-05   -0.000123842080825855
1.4363755867551802e-05   6.551709449458855e-06   -5.170029796768439e-05
1.4363755867551802e-05   6.551709449458855e-06   -5.170029796768439e-05
1.4363755867551802e-05   6.551709449458855e-06   -5.170029796768439e-05
1.4363755867551802e-05   6.551709449458855e-06   -5.170029796768439e-05
6.633928518947241e-05   -6.867396832052272e-06   -0.00013027471640197777
6.633928518947241e-05   -6.867396832052272e-06   -0.00013027471640197777
6.633928518947241e-05   -6.867396832052272e-06   -0.00013027471640197777
6.633928518947241e-05   -6.867396832052272e-06   -0.00013027471640197777
3.4737604692715784e-05   -3.6005517321168953e-06   -7.956535596734867e-05
3.4737604692715784e-05   -3.6005517321168953e-06   -7.956535596734867e-05
3.4737604692715784e-05   -3.6005517321168953e-06   -7.956535596734867e-05
3.4737604692715784e-05   -3.6005517321168953e-06   -7.956535596734867e-05
4.069448757231236e-06   -8.963115687892279e-07   -0.00012138768868935178
4.069448757231236e-06   -8.963115687892279e-07   -0.00012138768868935178
4.069448757231236e-06   -8.963115687892279e-07   -0.00012138768868935178
4.069448757231236e-06   -8.963115687892279e-07   -0.00012138768868935178
-3.8542834021359704e-05   -6.781100883687663e-06   -0.00019593903357594325
-3.8542834021359704e-05   -6.781100883687663e-06   -0.00019593903357594325
-3.8542834021359704e-05   -6.781100883687663e-06   -0.00019593903357594325
-3.8542834021359704e-05   -6.781100883687663e-06   -0.00019593903357594325
-3.566775336779444e-05   4.054594895238836e-06   -0.00012208148836666006
-3.566775336779444e-05   4.054594895238836e-06   -0.00012208148836666006
-3.566775336779444e-05   4.054594895238836e-06   -0.00012208148836666006
-3.566775336779444e-05   4.054594895238836e-06   -0.00012208148836666006
7.33720065072092e-06   -2.6143783432887313e-06   -0.00018975502778773587
7.33720065072092e-06   -2.6143783432887313e-06   -0.00018975502778773587
7.33720065072092e-06   -2.6143783432887313e-06   -0.00018975502778773587
7.33720065072092e-06   -2.6143783432887313e-06   -0.00018975502778773587
-1.5335486589986784e-05   -2.8698505479506087e-07   -0.00015336365169298636
-1.5335486589986784e-05   -2.8698505479506087e-07   -0.00015336365169298636
-1.5335486589986784e-05   -2.8698505479506087e-07   -0.00015336365169298636
-1.5335486589986784e-05   -2.8698505479506087e-07   -0.00015336365169298636
7.33720065072092e-06   4.0545948952397035e-06   -0.00011808010442354317
7.33720065072092e-06   4.0545948952397035e-06   -0.00011808010442354317
7.33720065072092e-06   4.0545948952397035e-06   -0.00011808010442354317
7.33720065072092e-06   4.0545948952397035e-06   -0.00011808010442354317
-3.566775336779444e-05   -2.6143783432887313e-06   -0.00019375641173085363
-3.566775336779444e-05   -2.6143783432887313e-06   -0.00019375641173085363
-3.566775336779444e-05   -2.6143783432887313e-06   -0.00019375641173085363
-3.566775336779444e-05   -2.6143783432887313e-06   -0.00019375641173085363
-3.277664001701398e-05   8.815541057589048e-06   -0.00012226060496135002
-3.277664001701398e-05   8.815541057589048e-06   -0.00012226060496135002
-3.277664001701398e-05   8.815541057589048e-06   -0.00012226060496135002
-3.277664001701398e-05   8.815541057589048e-06   -0.00012226060496135002
1.118481434121861e-05   1.6905805269341878e-06   -0.00019125471924001116
1.118481434121861e-05   1.6905805269341878e-06   -0.00019125471924001116
1.118481434121861e-05   1.6905805269341878e-06   -0.00019125471924001116
1.118481434121861e-05   1.6905805269341878e-06   -0.00019125471924001116
-1.2783399006058977e-05   3.1282045363303923e-06   -0.00015217027140018583
-1.2783399006058977e-05   3.1282045363303923e-06   -0.00015217027140018583
-1.2783399006058977e-05   3.1282045363303923e-06   -0.00015217027140018583
-1.2783399006058977e-05   3.1282045363303923e-06   -0.00015217027140018583
1.118481434121861e-05   8.815541057589915e-06   -0.0001179856286429564
1.118481434121861e-05   8.815541057589915e-06   -0.0001179856286429564
1.118481434121861e-05   8.815541057589915e-06   -0.0001179856286429564
1.118481434121861e-05   8.815541057589915e-06   -0.0001179856286429564
-3.277664001701398e-05   1.690580526932453e-06   -0.00019552969555840455
-3.277664001701398e-05   1.690580526932453e-06   -0.00019552969555840455
-3.277664001701398e-05   1.690580526932453e-06   -0.00019552969555840455
-3.277664001701398e-05   1.690580526932453e-06   -0.00019552969555840455
-3.0011199463798486e-05   1.4246198887641476e-05   -0.00012531425879572494
-3.0011199463798486e-05   1.4246198887641476e-05   -0.00012531425879572494
-3.0011199463798486e-05   1.4246198887641476e-05   -0.00012531425879572494
-3.0011199463798486e-05   1.4246198887641476e-05   -0.00012531425879572494
1.4363755867551802e-05   6.783327734989977e-06   -0.0001947947949897189
1.4363755867551802e-05   6.783327734989977e-06   -0.0001947947949897189
1.4363755867551802e-05   6.783327734989977e-06   -0.0001947947949897189
1.4363755867551802e-05   6.783327734989977e-06   -0.0001947947949897189
-9.94768006876384e-06   6.9083656993977616e-06   -0.00015435075787450657
-9.94768006876384e-06   6.9083656993977616e-06   -0.00015435075787450657
-9.94768006876384e-06   6.9083656993977616e-06   -0.00015435075787450657
-9.94768006876384e-06   6.9083656993977616e-06   -0.00015435075787450657
-3.8542834021359704e-05   4.066692994312594e-06   -0.00014681301313118275
-3.8542834021359704e-05   4.066692994312594e-06   -0.00014681301313118275
-3.8542834021359704e-05   4.066692994312594e-06   -0.00014681301313118275
-3.8542834021359704e-05   4.066692994312594e-06   -0.00014681301313118275
-8.080111159516573e-05   5.128900846059284e-06   -0.00021660615104314397
-8.080111159516573e-05   5.128900846059284e-06   -0.00021660615104314397
-8.080111159516573e-05   5.128900846059284e-06   -0.00021660615104314397
-8.080111159516573e-05   5.128900846059284e-06   -0.00021660615104314397
-7.79036588158224e-05   9.176544640401851e-06   -0.00014420244516492094
-7.79036588158224e-05   9.176544640401851e-06   -0.00014420244516492094
-7.79036588158224e-05   9.176544640401851e-06   -0.00014420244516492094
-7.79036588158224e-05   9.176544640401851e-06   -0.00014420244516492094
-3.566775336779444e-05   9.530334897624171e-06   -0.00021480789506596852
-3.566775336779444e-05   9.530334897624171e-06   -0.00021480789506596852
-3.566775336779444e-05   9.530334897624171e-06   -0.00021480789506596852
-3.566775336779444e-05   9.530334897624171e-06   -0.00021480789506596852
-5.789121473320748e-05   7.874781885397301e-06   -0.0001767754609829443
-5.789121473320748e-05   7.874781885397301e-06   -0.0001767754609829443
-5.789121473320748e-05   7.874781885397301e-06   -0.0001767754609829443
-5.789121473320748e-05   7.874781885397301e-06   -0.0001767754609829443
-3.566775336779444e-05   9.176544640401851e-06   -0.00014441471931925503
-3.566775336779444e-05   9.176544640401851e-06   -0.00014441471931925503
-3.566775336779444e-05   9.176544640401851e-06   -0.00014441471931925503
-3.566775336779444e-05   9.176544640401851e-06   -0.00014441471931925503
-7.79036588158224e-05   9.530334897624171e-06   -0.00021459562091163432
-7.79036588158224e-05   9.530334897624171e-06   -0.00021459562091163432
-7.79036588158224e-05   9.530334897624171e-06   -0.00021459562091163432
-7.79036588158224e-05   9.530334897624171e-06   -0.00021459562091163432
-7.496240995540166e-05   1.4399887550958085e-05   -0.00014458038233035927
-7.496240995540166e-05   1.4399887550958085e-05   -0.00014458038233035927
-7.496240995540166e-05   1.4399887550958085e-05   -0.00014458038233035927
-7.496240995540166e-05   1.4399887550958085e-05   -0.00014458038233035927
-3.277664001701398e-05   1.4193449702727332e-05   -0.00021476613618540195
-3.277664001701398e-05   1.4193449702727332e-05   -0.00021476613618540195
-3.277664001701398e-05   1.4193449702727332e-05   -0.00021476613618540195
-3.277664001701398e-05   1.4193449702727332e-05   -0.00021476613618540195
-5.533756609675395e-05   1.1712620350744392e-05   -0.00017567609510798024
-5.533756609675395e-05   1.1712620350744392e-05   -0.00017567609510798024
-5.533756609675395e-05   1.1712620350744392e-05   -0.00017567609510798024
-5.533756609675395e-05   1.1712620350744392e-05   -0.00017567609510798024
-3.277664001701398e-05   1.4399887550958085e-05   -0.00014445651962142255
-3.277664001701398e-05   1.4399887550958085e-05   -0.00014445651962142255
-3.277664001701398e-05   1.4399887550958085e-05   -0.00014445651962142255
-3.277664001701398e-05   1.4399887550958085e-05   -0.00014445651962142255
-7.496240995540153e-05   1.4193449702727332e-05   -0.00021488999889433986
-7.496240995540153e-05   1.4193449702727332e-05   -0.00021488999889433986
-7.496240995540153e-05   1.4193449702727332e-05   -0.00021488999889433986
-7.496240995540153e-05   1.4193449702727332e-05   -0.00021488999889433986
-7.215722848818285e-05   1.969495607190893e-05   -0.00014782352771418837
-7.215722848818285e-05   1.969495607190893e-05   -0.00014782352771418837
-7.215722848818285e-05   1.969495607190893e-05   -0.00014782352771418837
-7.215722848818285e-05   1.969495607190893e-05   -0.00014782352771418837
-3.0011199463798595e-05   1.893680440925513e-05   -0.00021761201842390276
-3.0011199463798595e-05   1.893680440925513e-05   -0.00021761201842390276
-3.0011199463798595e-05   1.893680440925513e-05   -0.00021761201842390276
-3.0011199463798595e-05   1.893680440925513e-05   -0.00021761201842390276
-5.295896073831215e-05   1.5608321972217405e-05   -0.00017736866017082774
-5.295896073831215e-05   1.5608321972217405e-05   -0.00017736866017082774
-5.295896073831215e-05   1.5608321972217405e-05   -0.00017736866017082774
-5.295896073831215e-05   1.5608321972217405e-05   -0.00017736866017082774
-8.080111159516588e-05   9.054369908987649e-06   -0.00012346458003545738
-8.080111159516588e-05   9.054369908987649e-06   -0.00012346458003545738
-8.080111159516588e-05   9.054369908987649e-06   -0.00012346458003545738
-8.080111159516588e-05   9.054369908987649e-06   -0.00012346458003545738
-0.00012249475733185512   1.6670746396368202e-05   -0.00018838416370417672
-0.00012249475733185512   1.6670746396368202e-05   -0.00018838416370417672
-0.00012249475733185512   1.6670746396368202e-05   -0.00018838416370417672
-0.00012249475733185512   1.6670746396368202e-05   -0.00018838416370417672
-0.00011918897008768531   1.4177600694291817e-05   -0.00011631585495689659
-0.00011918897008768531   1.4177600694291817e-05   -0.00011631585495689659
-0.00011918897008768531   1.4177600694291817e-05   -0.00011631585495689659
-0.00011918897008768531   1.4177600694291817e-05   -0.00011631585495689659
-7.79036588158224e-05   2.136828748800293e-05   -0.00018943911915289438
-7.79036588158224e-05   2.136828748800293e-05   -0.00018943911915289438
-7.79036588158224e-05   2.136828748800293e-05   -0.00018943911915289438
-7.79036588158224e-05   2.136828748800293e-05   -0.00018943911915289438
-9.940468823190583e-05   1.5933387840663324e-05   -0.00015034313033768449
-9.940468823190583e-05   1.5933387840663324e-05   -0.00015034313033768449
-9.940468823190583e-05   1.5933387840663324e-05   -0.00015034313033768449
-9.940468823190583e-05   1.5933387840663324e-05   -0.00015034313033768449
-7.790365881582252e-05   1.4177600694291817e-05   -0.00012063026703312395
-7.790365881582252e-05   1.4177600694291817e-05   -0.00012063026703312395
-7.790365881582252e-05   1.4177600694291817e-05   -0.00012063026703312395
-7.790365881582252e-05   1.4177600694291817e-05   -0.00012063026703312395
-0.00011918897008768553   2.136828748800293e-05   -0.00018512470707666984
-0.00011918897008768553   2.136828748800293e-05   -0.00018512470707666984
-0.00011918897008768553   2.136828748800293e-05   -0.00018512470707666984
-0.00011918897008768553   2.136828748800293e-05   -0.00018512470707666984
-0.00011524448326466285   1.8908560615403698e-05   -0.0001152684352606027
-0.00011524448326466285   1.8908560615403698e-05   -0.0001152684352606027
-0.00011524448326466285   1.8908560615403698e-05   -0.0001152684352606027
-0.00011524448326466285   1.8908560615403698e-05   -0.0001152684352606027
-7.496240995540166e-05   2.5603410145491265e-05   -0.00018642213382742446
-7.496240995540166e-05   2.5603410145491265e-05   -0.00018642213382742446
-7.496240995540166e-05   2.5603410145491265e-05   -0.00018642213382742446
-7.496240995540166e-05   2.5603410145491265e-05   -0.00018642213382742446
-9.607969770942681e-05   1.9638014546344805e-05   -0.00014764741687789645
-9.607969770942681e-05   1.9638014546344805e-05   -0.00014764741687789645
-9.607969770942681e-05   1.9638014546344805e-05   -0.00014764741687789645
-9.607969770942681e-05   1.9638014546344805e-05   -0.00014764741687789645
-7.496240995540158e-05   1.8908560615403698e-05   -0.00011928534497865524
-7.496240995540158e-05   1.8908560615403698e-05   -0.00011928534497865524
-7.496240995540158e-05   1.8908560615403698e-05   -0.00011928534497865524
-7.496240995540158e-05   1.8908560615403698e-05   -0.00011928534497865524
-0.00011524448326466285   2.5603410145491265e-05   -0.00018240522410937262
-0.00011524448326466285   2.5603410145491265e-05   -0.00018240522410937262
-0.00011524448326466285   2.5603410145491265e-05   -0.00018240522410937262
-0.00011524448326466285   2.5603410145491265e-05   -0.00018240522410937262
-0.00011195473828498381   2.421790461700976e-05   -0.00011845751826994756
-0.00011195473828498381   2.421790461700976e-05   -0.00011845751826994756
-0.00011195473828498381   2.421790461700976e-05   -0.00011845751826994756
-0.00011195473828498381   2.421790461700976e-05   -0.00011845751826994756
-7.215722848818285e-05   3.035010814997352e-05   -0.00018846602338439412
-7.215722848818285e-05   3.035010814997352e-05   -0.00018846602338439412
-7.215722848818285e-05   3.035010814997352e-05   -0.00018846602338439412
-7.215722848818285e-05   3.035010814997352e-05   -0.00018846602338439412
-9.383310561407863e-05   2.3293453467587884e-05   -0.00014810556869846998
-9.383310561407863e-05   2.3293453467587884e-05   -0.00014810556869846998
-9.383310561407863e-05   2.3293453467587884e-05   -0.00014810556869846998
-9.383310561407863e-05   2.3293453467587884e-05   -0.00014810556869846998
-0.00012249475733185512   1.5186284295229217e-05   -6.392232316408588e-05
-0.00012249475733185512   1.5186284295229217e-05   -6.392232316408588e-05
-0.00012249475733185512   1.5186284295229217e-05   -6.392232316408588e-05
-0.00012249475733185512   1.5186284295229217e-05   -6.392232316408588e-05
-0.0001699456314360288   2.8649326932802394e-05   -0.00013492928775516583
-0.0001699456314360288   2.8649326932802394e-05   -0.00013492928775516583
-0.0001699456314360288   2.8649326932802394e-05   -0.00013492928775516583
-0.0001699456314360288   2.8649326932802394e-05   -0.00013492928775516583
-0.00016094544885512495   1.982447703788824e-05   -4.0422191699380355e-05
-0.00016094544885512495   1.982447703788824e-05   -4.0422191699380355e-05
-0.00016094544885512495   1.982447703788824e-05   -4.0422191699380355e-05
-0.00016094544885512495   1.982447703788824e-05   -4.0422191699380355e-05
-0.00011918897008768531   3.3519658715298536e-05   -0.00011823343198489033
-0.00011918897008768531   3.3519658715298536e-05   -0.00011823343198489033
-0.00011918897008768531   3.3519658715298536e-05   -0.00011823343198489033
-0.00011918897008768531   3.3519658715298536e-05   -0.00011823343198489033
-0.00013731851350233138   2.486218580059589e-05   -8.282304254499334e-05
-0.00013731851350233138   2.486218580059589e-05   -8.282304254499334e-05
-0.00013731851350233138   2.486218580059589e-05   -8.282304254499334e-05
-0.00013731851350233138   2.486218580059589e-05   -8.282304254499334e-05
-0.00011918897008768542   1.982447703788824e-05   -4.863930070582445e-05
-0.00011918897008768542   1.982447703788824e-05   -4.863930070582445e-05
-0.00011918897008768542   1.982447703788824e-05   -4.863930070582445e-05
-0.00011918897008768542   1.982447703788824e-05   -4.863930070582445e-05
-0.0001609454488551244   3.35196587152968e-05   -0.00011001632297844618
-0.0001609454488551244   3.35196587152968e-05   -0.00011001632297844618
-0.0001609454488551244   3.35196587152968e-05   -0.00011001632297844618
-0.0001609454488551244   3.35196587152968e-05   -0.00011001632297844618
-0.00015350616028341683   2.194876417165384e-05   -3.334837624393823e-05
-0.00015350616028341683   2.194876417165384e-05   -3.334837624393823e-05
-0.00015350616028341683   2.194876417165384e-05   -3.334837624393823e-05
-0.00015350616028341683   2.194876417165384e-05   -3.334837624393823e-05
-0.00011524448326466263   3.526254696622176e-05   -0.00010510610761860342
-0.00011524448326466263   3.526254696622176e-05   -0.00010510610761860342
-0.00011524448326466263   3.526254696622176e-05   -0.00010510610761860342
-0.00011524448326466263   3.526254696622176e-05   -0.00010510610761860342
-0.0001339766213280798   2.7043102496696926e-05   -6.895421083119341e-05
-0.0001339766213280798   2.7043102496696926e-05   -6.895421083119341e-05
-0.0001339766213280798   2.7043102496696926e-05   -6.895421083119341e-05
-0.0001339766213280798   2.7043102496696926e-05   -6.895421083119341e-05
-0.00011524448326466285   2.1948764171652972e-05   -4.1336645920679246e-05
-0.00011524448326466285   2.1948764171652972e-05   -4.1336645920679246e-05
-0.00011524448326466285   2.1948764171652972e-05   -4.1336645920679246e-05
-0.00011524448326466285   2.1948764171652972e-05   -4.1336645920679246e-05
-0.0001535061602834165   3.5262546966220026e-05   -9.711783794186333e-05
-0.0001535061602834165   3.5262546966220026e-05   -9.711783794186333e-05
-0.0001535061602834165   3.5262546966220026e-05   -9.711783794186333e-05
-0.0001535061602834165   3.5262546966220026e-05   -9.711783794186333e-05
-0.0001447260530262343   2.5258441553635026e-05   -2.5998306009186907e-05
-0.0001447260530262343   2.5258441553635026e-05   -2.5998306009186907e-05
-0.0001447260530262343   2.5258441553635026e-05   -2.5998306009186907e-05
-0.0001447260530262343   2.5258441553635026e-05   -2.5998306009186907e-05
-0.00011195473828498381   3.749240752073772e-05   -8.79575434915334e-05
-0.00011195473828498381   3.749240752073772e-05   -8.79575434915334e-05
-0.00011195473828498381   3.749240752073772e-05   -8.79575434915334e-05
-0.00011195473828498381   3.749240752073772e-05   -8.79575434915334e-05
-0.00012700368663716175   2.8103381932532284e-05   -5.724254755164768e-05
-0.00012700368663716175   2.8103381932532284e-05   -5.724254755164768e-05
-0.00012700368663716175   2.8103381932532284e-05   -5.724254755164768e-05
-0.00012700368663716175   2.8103381932532284e-05   -5.724254755164768e-05
0.00012968100217730563   -1.703921343524685e-05   -1.6666060592661347e-06
0.00012968100217730563   -1.703921343524685e-05   -1.6666060592661347e-06
0.00012968100217730563   -1.703921343524685e-05   -1.6666060592661347e-06
0.00012968100217730563   -1.703921343524685e-05   -1.6666060592661347e-06
5.538768728285796e-05   -3.082782953445391e-05   -0.00013376196720953646
5.538768728285796e-05   -3.082782953445391e-05   -0.00013376196720953646
5.538768728285796e-05   -3.082782953445391e-05   -0.00013376196720953646
5.538768728285796e-05   -3.082782953445391e-05   -0.00013376196720953646
5.937769701699349e-05   -1.3992101628060999e-05   -1.533783436081463e-05
5.937769701699349e-05   -1.3992101628060999e-05   -1.533783436081463e-05
5.937769701699349e-05   -1.3992101628060999e-05   -1.533783436081463e-05
5.937769701699349e-05   -1.3992101628060999e-05   -1.533783436081463e-05
0.00013960238423968733   -2.8659517406185928e-05   -0.00014024519693176278
0.00013960238423968733   -2.8659517406185928e-05   -0.00014024519693176278
0.00013960238423968733   -2.8659517406185928e-05   -0.00014024519693176278
0.00013960238423968733   -2.8659517406185928e-05   -0.00014024519693176278
9.214615099327873e-05   -2.0288351661080714e-05   -6.61741743014782e-05
9.214615099327873e-05   -2.0288351661080714e-05   -6.61741743014782e-05
9.214615099327873e-05   -2.0288351661080714e-05   -6.61741743014782e-05
9.214615099327873e-05   -2.0288351661080714e-05   -6.61741743014782e-05
0.00013960238423968755   -1.3992101628060999e-05   -6.537384893938805e-06
0.00013960238423968755   -1.3992101628060999e-05   -6.537384893938805e-06
0.00013960238423968755   -1.3992101628060999e-05   -6.537384893938805e-06
0.00013960238423968755   -1.3992101628060999e-05   -6.537384893938805e-06
5.9377697016993274e-05   -2.8659517406185928e-05   -0.00014904564639863687
5.9377697016993274e-05   -2.8659517406185928e-05   -0.00014904564639863687
5.9377697016993274e-05   -2.8659517406185928e-05   -0.00014904564639863687
5.9377697016993274e-05   -2.8659517406185928e-05   -0.00014904564639863687
6.379423615497138e-05   -1.1970675519910878e-05   -2.131276620339316e-05
6.379423615497138e-05   -1.1970675519910878e-05   -2.131276620339316e-05
6.379423615497138e-05   -1.1970675519910878e-05   -2.131276620339316e-05
6.379423615497138e-05   -1.1970675519910878e-05   -2.131276620339316e-05
0.0001479511980363097   -2.68093379817997e-05   -0.00015267117186182387
0.0001479511980363097   -2.68093379817997e-05   -0.00015267117186182387
0.0001479511980363097   -2.68093379817997e-05   -0.00015267117186182387
0.0001479511980363097   -2.68093379817997e-05   -0.00015267117186182387
9.960003692044243e-05   -1.946566945162237e-05   -7.649210445348433e-05
9.960003692044243e-05   -1.946566945162237e-05   -7.649210445348433e-05
9.960003692044243e-05   -1.946566945162237e-05   -7.649210445348433e-05
9.960003692044243e-05   -1.946566945162237e-05   -7.649210445348433e-05
0.0001479511980363097   -1.1970675519910878e-05   -1.2409568726259347e-05
0.0001479511980363097   -1.1970675519910878e-05   -1.2409568726259347e-05
0.0001479511980363097   -1.1970675519910878e-05   -1.2409568726259347e-05
0.0001479511980363097   -1.1970675519910878e-05   -1.2409568726259347e-05
6.379423615497128e-05   -2.68093379817997e-05   -0.00016157436933895812
6.379423615497128e-05   -2.68093379817997e-05   -0.00016157436933895812
6.379423615497128e-05   -2.68093379817997e-05   -0.00016157436933895812
6.379423615497128e-05   -2.68093379817997e-05   -0.00016157436933895812
6.745620184301043e-05   -6.867396832052272e-06   -3.514638070681482e-05
6.745620184301043e-05   -6.867396832052272e-06   -3.514638070681482e-05
6.745620184301043e-05   -6.867396832052272e-06   -3.514638070681482e-05
6.745620184301043e-05   -6.867396832052272e-06   -3.514638070681482e-05
0.00015764307219918983   -2.0943375348903698e-05   -0.00017701224419033792
0.00015764307219918983   -2.0943375348903698e-05   -0.00017701224419033792
0.00015764307219918983   -2.0943375348903698e-05   -0.00017701224419033792
0.00015764307219918983   -2.0943375348903698e-05   -0.00017701224419033792
0.00010367925486703033   -1.7187365402479213e-05   -8.932615460459825e-05
0.00010367925486703033   -1.7187365402479213e-05   -8.932615460459825e-05
0.00010367925486703033   -1.7187365402479213e-05   -8.932615460459825e-05
0.00010367925486703033   -1.7187365402479213e-05   -8.932615460459825e-05
5.538768728285796e-05   -6.781100883687663e-06   -9.137532241067659e-05
5.538768728285796e-05   -6.781100883687663e-06   -9.137532241067659e-05
5.538768728285796e-05   -6.781100883687663e-06   -9.137532241067659e-05
5.538768728285796e-05   -6.781100883687663e-06   -9.137532241067659e-05
-2.3383929474810462e-05   -1.4505992586923838e-05   -0.00022729628536206567
-2.3383929474810462e-05   -1.4505992586923838e-05   -0.00022729628536206567
-2.3383929474810462e-05   -1.4505992586923838e-05   -0.00022729628536206567
-2.3383929474810462e-05   -1.4505992586923838e-05   -0.00022729628536206567
-1.966353068922537e-05   -2.6143783432887313e-06   -9.32789778862993e-05
-1.966353068922537e-05   -2.6143783432887313e-06   -9.32789778862993e-05
-1.966353068922537e-05   -2.6143783432887313e-06   -9.32789778862993e-05
-1.966353068922537e-05   -2.6143783432887313e-06   -9.32789778862993e-05
5.937769701699338e-05   -1.151553250597348e-05   -0.000219673664899053
5.937769701699338e-05   -1.151553250597348e-05   -0.000219673664899053
5.937769701699338e-05   -1.151553250597348e-05   -0.000219673664899053
5.937769701699338e-05   -1.151553250597348e-05   -0.000219673664899053
1.8129408392148958e-05   -7.0267027746529626e-06   -0.0001536198150297709
1.8129408392148958e-05   -7.0267027746529626e-06   -0.0001536198150297709
1.8129408392148958e-05   -7.0267027746529626e-06   -0.0001536198150297709
1.8129408392148958e-05   -7.0267027746529626e-06   -0.0001536198150297709
5.937769701699338e-05   -2.6143783432887313e-06   -8.793828538868845e-05
5.937769701699338e-05   -2.6143783432887313e-06   -8.793828538868845e-05
5.937769701699338e-05   -2.6143783432887313e-06   -8.793828538868845e-05
5.937769701699338e-05   -2.6143783432887313e-06   -8.793828538868845e-05
-1.9663530689225262e-05   -1.151553250597348e-05   -0.00022501435739666256
-1.9663530689225262e-05   -1.151553250597348e-05   -0.00022501435739666256
-1.9663530689225262e-05   -1.151553250597348e-05   -0.00022501435739666256
-1.9663530689225262e-05   -1.151553250597348e-05   -0.00022501435739666256
-1.6111027545524098e-05   1.690580526932453e-06   -9.445462875849048e-05
-1.6111027545524098e-05   1.690580526932453e-06   -9.445462875849048e-05
-1.6111027545524098e-05   1.690580526932453e-06   -9.445462875849048e-05
-1.6111027545524098e-05   1.690580526932453e-06   -9.445462875849048e-05
6.379423615497128e-05   -7.858126374635926e-06   -0.00022190084411837538
6.379423615497128e-05   -7.858126374635926e-06   -0.00022190084411837538
6.379423615497128e-05   -7.858126374635926e-06   -0.00022190084411837538
6.379423615497128e-05   -7.858126374635926e-06   -0.00022190084411837538
2.1091405242963527e-05   -4.386825347538897e-06   -0.0001528122398812852
2.1091405242963527e-05   -4.386825347538897e-06   -0.0001528122398812852
2.1091405242963527e-05   -4.386825347538897e-06   -0.0001528122398812852
2.1091405242963527e-05   -4.386825347538897e-06   -0.0001528122398812852
6.379423615497138e-05   1.6905805269341878e-06   -8.872540461754824e-05
6.379423615497138e-05   1.6905805269341878e-06   -8.872540461754824e-05
6.379423615497138e-05   1.6905805269341878e-06   -8.872540461754824e-05
6.379423615497138e-05   1.6905805269341878e-06   -8.872540461754824e-05
-1.6111027545524098e-05   -7.858126374635926e-06   -0.00022763006825931697
-1.6111027545524098e-05   -7.858126374635926e-06   -0.00022763006825931697
-1.6111027545524098e-05   -7.858126374635926e-06   -0.00022763006825931697
-1.6111027545524098e-05   -7.858126374635926e-06   -0.00022763006825931697
-1.2771250187372952e-05   6.783327734989977e-06   -9.764148995924492e-05
-1.2771250187372952e-05   6.783327734989977e-06   -9.764148995924492e-05
-1.2771250187372952e-05   6.783327734989977e-06   -9.764148995924492e-05
-1.2771250187372952e-05   6.783327734989977e-06   -9.764148995924492e-05
6.745620184301032e-05   -3.260829654338007e-06   -0.00022532741557628735
6.745620184301032e-05   -3.260829654338007e-06   -0.00022532741557628735
6.745620184301032e-05   -3.260829654338007e-06   -0.00022532741557628735
6.745620184301032e-05   -3.260829654338007e-06   -0.00022532741557628735
2.4770254989766303e-05   -1.1341225592525345e-06   -0.00015546019507793455
2.4770254989766303e-05   -1.1341225592525345e-06   -0.00015546019507793455
2.4770254989766303e-05   -1.1341225592525345e-06   -0.00015546019507793455
2.4770254989766303e-05   -1.1341225592525345e-06   -0.00015546019507793455
-2.338392947481057e-05   5.128900846059284e-06   -0.00011731469961086521
-2.338392947481057e-05   5.128900846059284e-06   -0.00011731469961086521
-2.338392947481057e-05   5.128900846059284e-06   -0.00011731469961086521
-2.338392947481057e-05   5.128900846059284e-06   -0.00011731469961086521
-0.0001007686106028794   2.5038096031805568e-06   -0.00024786422290337413
-0.0001007686106028794   2.5038096031805568e-06   -0.00024786422290337413
-0.0001007686106028794   2.5038096031805568e-06   -0.00024786422290337413
-0.0001007686106028794   2.5038096031805568e-06   -0.00024786422290337413
-9.676311854552085e-05   9.530334897624171e-06   -0.00011653417539250234
-9.676311854552085e-05   9.530334897624171e-06   -0.00011653417539250234
-9.676311854552085e-05   9.530334897624171e-06   -0.00011653417539250234
-9.676311854552085e-05   9.530334897624171e-06   -0.00011653417539250234
-1.9663530689225262e-05   5.857477945809403e-06   -0.00024282977431524014
-1.9663530689225262e-05   5.857477945809403e-06   -0.00024282977431524014
-1.9663530689225262e-05   5.857477945809403e-06   -0.00024282977431524014
-1.9663530689225262e-05   5.857477945809403e-06   -0.00024282977431524014
-5.973030626189299e-05   7.026672086386798e-06   -0.00017675333151180648
-5.973030626189299e-05   7.026672086386798e-06   -0.00017675333151180648
-5.973030626189299e-05   7.026672086386798e-06   -0.00017675333151180648
-5.973030626189299e-05   7.026672086386798e-06   -0.00017675333151180648
-1.966353068922537e-05   9.530334897624171e-06   -0.00011433046122141452
-1.966353068922537e-05   9.530334897624171e-06   -0.00011433046122141452
-1.966353068922537e-05   9.530334897624171e-06   -0.00011433046122141452
-1.966353068922537e-05   9.530334897624171e-06   -0.00011433046122141452
-9.676311854552085e-05   5.857477945809403e-06   -0.00024503348848632905
-9.676311854552085e-05   5.857477945809403e-06   -0.00024503348848632905
-9.676311854552085e-05   5.857477945809403e-06   -0.00024503348848632905
-9.676311854552085e-05   5.857477945809403e-06   -0.00024503348848632905
-9.290154458535085e-05   1.4193449702727332e-05   -0.00011635803705389337
-9.290154458535085e-05   1.4193449702727332e-05   -0.00011635803705389337
-9.290154458535085e-05   1.4193449702727332e-05   -0.00011635803705389337
-9.290154458535085e-05   1.4193449702727332e-05   -0.00011635803705389337
-1.6111027545524207e-05   9.748503588716262e-06   -0.00024167526445186406
-1.6111027545524207e-05   9.748503588716262e-06   -0.00024167526445186406
-1.6111027545524207e-05   9.748503588716262e-06   -0.00024167526445186406
-1.6111027545524207e-05   9.748503588716262e-06   -0.00024167526445186406
-5.627995431762375e-05   1.01650698851527e-05   -0.00017497699294289455
-5.627995431762375e-05   1.01650698851527e-05   -0.00017497699294289455
-5.627995431762375e-05   1.01650698851527e-05   -0.00017497699294289455
-5.627995431762375e-05   1.01650698851527e-05   -0.00017497699294289455
-1.6111027545524207e-05   1.4193449702727332e-05   -0.0001136910693854869
-1.6111027545524207e-05   1.4193449702727332e-05   -0.0001136910693854869
-1.6111027545524207e-05   1.4193449702727332e-05   -0.0001136910693854869
-1.6111027545524207e-05   1.4193449702727332e-05   -0.0001136910693854869
-9.290154458535085e-05   9.748503588717997e-06   -0.0002443422321202716
-9.290154458535085e-05   9.748503588717997e-06   -0.0002443422321202716
-9.290154458535085e-05   9.748503588717997e-06   -0.0002443422321202716
-9.290154458535085e-05   9.748503588717997e-06   -0.0002443422321202716
-8.933293444805522e-05   1.893680440925513e-05   -0.0001190803816484209
-8.933293444805522e-05   1.893680440925513e-05   -0.0001190803816484209
-8.933293444805522e-05   1.893680440925513e-05   -0.0001190803816484209
-8.933293444805522e-05   1.893680440925513e-05   -0.0001190803816484209
-1.2771250187372952e-05   1.3771152831619851e-05   -0.00024358379780297604
-1.2771250187372952e-05   1.3771152831619851e-05   -0.00024358379780297604
-1.2771250187372952e-05   1.3771152831619851e-05   -0.00024358379780297604
-1.2771250187372952e-05   1.3771152831619851e-05   -0.00024358379780297604
-5.3194137025501696e-05   1.338557802774143e-05   -0.00017598097485710537
-5.3194137025501696e-05   1.338557802774143e-05   -0.00017598097485710537
-5.3194137025501696e-05   1.338557802774143e-05   -0.00017598097485710537
-5.3194137025501696e-05   1.338557802774143e-05   -0.00017598097485710537
-0.00010076861060287956   1.6670746396368202e-05   -9.523759291005414e-05
-0.00010076861060287956   1.6670746396368202e-05   -9.523759291005414e-05
-0.00010076861060287956   1.6670746396368202e-05   -9.523759291005414e-05
-0.00010076861060287956   1.6670746396368202e-05   -9.523759291005414e-05
-0.00017664152078098204   2.011951747350922e-05   -0.00021962318056060852
-0.00017664152078098204   2.011951747350922e-05   -0.00021962318056060852
-0.00017664152078098204   2.011951747350922e-05   -0.00021962318056060852
-0.00017664152078098204   2.011951747350922e-05   -0.00021962318056060852
-0.00017181859066204246   2.136828748800293e-05   -8.956609240020653e-05
-0.00017181859066204246   2.136828748800293e-05   -8.956609240020653e-05
-0.00017181859066204246   2.136828748800293e-05   -8.956609240020653e-05
-0.00017181859066204246   2.136828748800293e-05   -8.956609240020653e-05
-9.676311854552104e-05   2.4387589543931748e-05   -0.00021647012716130006
-9.676311854552104e-05   2.4387589543931748e-05   -0.00021647012716130006
-9.676311854552104e-05   2.4387589543931748e-05   -0.00021647012716130006
-9.676311854552104e-05   2.4387589543931748e-05   -0.00021647012716130006
-0.00013549908079052837   2.1538767806136144e-05   -0.00015020089704360906
-0.00013549908079052837   2.1538767806136144e-05   -0.00015020089704360906
-0.00013549908079052837   2.1538767806136144e-05   -0.00015020089704360906
-0.00013549908079052837   2.1538767806136144e-05   -0.00015020089704360906
-9.676311854552104e-05   2.136828748800293e-05   -9.137767363376348e-05
-9.676311854552104e-05   2.136828748800293e-05   -9.137767363376348e-05
-9.676311854552104e-05   2.136828748800293e-05   -9.137767363376348e-05
-9.676311854552104e-05   2.136828748800293e-05   -9.137767363376348e-05
-0.00017181859066204276   2.4387589543931748e-05   -0.00021465854592774263
-0.00017181859066204276   2.4387589543931748e-05   -0.00021465854592774263
-0.00017181859066204276   2.4387589543931748e-05   -0.00021465854592774263
-0.00017181859066204276   2.4387589543931748e-05   -0.00021465854592774263
-0.0001664926912892888   2.5603410145491265e-05   -8.641342333771083e-05
-0.0001664926912892888   2.5603410145491265e-05   -8.641342333771083e-05
-0.0001664926912892888   2.5603410145491265e-05   -8.641342333771083e-05
-0.0001664926912892888   2.5603410145491265e-05   -8.641342333771083e-05
-9.290154458535104e-05   2.80646578942733e-05   -0.00021054208316020944
-9.290154458535104e-05   2.80646578942733e-05   -0.00021054208316020944
-9.290154458535104e-05   2.80646578942733e-05   -0.00021054208316020944
-9.290154458535104e-05   2.80646578942733e-05   -0.00021054208316020944
-0.00013063191260528814   2.4856078752022448e-05   -0.00014573298897496402
-0.00013063191260528814   2.4856078752022448e-05   -0.00014573298897496402
-0.00013063191260528814   2.4856078752022448e-05   -0.00014573298897496402
-0.00013063191260528814   2.4856078752022448e-05   -0.00014573298897496402
-9.290154458535093e-05   2.5603410145491265e-05   -8.789017198697867e-05
-9.290154458535093e-05   2.5603410145491265e-05   -8.789017198697867e-05
-9.290154458535093e-05   2.5603410145491265e-05   -8.789017198697867e-05
-9.290154458535093e-05   2.5603410145491265e-05   -8.789017198697867e-05
-0.0001664926912892888   2.80646578942733e-05   -0.00020906533451094111
-0.0001664926912892888   2.80646578942733e-05   -0.00020906533451094111
-0.0001664926912892888   2.80646578942733e-05   -0.00020906533451094111
-0.0001664926912892888   2.80646578942733e-05   -0.00020906533451094111
-0.00016198945067097983   3.035010814997352e-05   -8.840564015586121e-05
-0.00016198945067097983   3.035010814997352e-05   -8.840564015586121e-05
-0.00016198945067097983   3.035010814997352e-05   -8.840564015586121e-05
-0.00016198945067097983   3.035010814997352e-05   -8.840564015586121e-05
-8.933293444805538e-05   3.2139867242403364e-05   -0.0002105736893161935
-8.933293444805538e-05   3.2139867242403364e-05   -0.0002105736893161935
-8.933293444805538e-05   3.2139867242403364e-05   -0.0002105736893161935
-8.933293444805538e-05   3.2139867242403364e-05   -0.0002105736893161935
-0.00012757774736582133   2.791456272270565e-05   -0.00014429715174143077
-0.00012757774736582133   2.791456272270565e-05   -0.00014429715174143077
-0.00012757774736582133   2.791456272270565e-05   -0.00014429715174143077
-0.00012757774736582133   2.791456272270565e-05   -0.00014429715174143077
-0.00017664152078098204   2.8649326932802394e-05   -4.779127989730427e-05
-0.00017664152078098204   2.8649326932802394e-05   -4.779127989730427e-05
-0.00017664152078098204   2.8649326932802394e-05   -4.779127989730427e-05
-0.00017664152078098204   2.8649326932802394e-05   -4.779127989730427e-05
-0.000256452630167397   3.9652499410132436e-05   -0.00017420789205493253
-0.000256452630167397   3.9652499410132436e-05   -0.00017420789205493253
-0.000256452630167397   3.9652499410132436e-05   -0.00017420789205493253
-0.000256452630167397   3.9652499410132436e-05   -0.00017420789205493253
-0.0002454510020879815   3.3519658715298536e-05   -1.5593406089066397e-05
-0.0002454510020879815   3.3519658715298536e-05   -1.5593406089066397e-05
-0.0002454510020879815   3.3519658715298536e-05   -1.5593406089066397e-05
-0.0002454510020879815   3.3519658715298536e-05   -1.5593406089066397e-05
-0.00017181859066204246   4.532201074756645e-05   -0.0001453955030183278
-0.00017181859066204246   4.532201074756645e-05   -0.0001453955030183278
-0.00017181859066204246   4.532201074756645e-05   -0.0001453955030183278
-0.00017181859066204246   4.532201074756645e-05   -0.0001453955030183278
-0.00020379747417495557   3.778053416556536e-05   -8.757247788093703e-05
-0.00020379747417495557   3.778053416556536e-05   -8.757247788093703e-05
-0.00020379747417495557   3.778053416556536e-05   -8.757247788093703e-05
-0.00020379747417495557   3.778053416556536e-05   -8.757247788093703e-05
-0.00017181859066204262   3.3519658715298536e-05   -2.267481730842784e-05
-0.00017181859066204262   3.3519658715298536e-05   -2.267481730842784e-05
-0.00017181859066204262   3.3519658715298536e-05   -2.267481730842784e-05
-0.00017181859066204262   3.3519658715298536e-05   -2.267481730842784e-05
-0.00024545100208798104   4.532201074756645e-05   -0.00013831409179896476
-0.00024545100208798104   4.532201074756645e-05   -0.00013831409179896476
-0.00024545100208798104   4.532201074756645e-05   -0.00013831409179896476
-0.00024545100208798104   4.532201074756645e-05   -0.00013831409179896476
-0.00023639633137697376   3.526254696622176e-05   -2.1863929911825064e-06
-0.00023639633137697376   3.526254696622176e-05   -2.1863929911825064e-06
-0.00023639633137697376   3.526254696622176e-05   -2.1863929911825064e-06
-0.00023639633137697376   3.526254696622176e-05   -2.1863929911825064e-06
-0.0001664926912892888   4.6809070059154745e-05   -0.00012562037365975015
-0.0001664926912892888   4.6809070059154745e-05   -0.00012562037365975015
-0.0001664926912892888   4.6809070059154745e-05   -0.00012562037365975015
-0.0001664926912892888   4.6809070059154745e-05   -0.00012562037365975015
-0.0001999891162876943   4.002494329453932e-05   -6.572252260363478e-05
-0.0001999891162876943   4.002494329453932e-05   -6.572252260363478e-05
-0.0001999891162876943   4.002494329453932e-05   -6.572252260363478e-05
-0.0001999891162876943   4.002494329453932e-05   -6.572252260363478e-05
-0.0001664926912892888   3.526254696622176e-05   -9.114306846942123e-06
-0.0001664926912892888   3.526254696622176e-05   -9.114306846942123e-06
-0.0001664926912892888   3.526254696622176e-05   -9.114306846942123e-06
-0.0001664926912892888   3.526254696622176e-05   -9.114306846942123e-06
-0.000236396331376973   4.6809070059154745e-05   -0.00011869245980399099
-0.000236396331376973   4.6809070059154745e-05   -0.00011869245980399099
-0.000236396331376973   4.6809070059154745e-05   -0.00011869245980399099
-0.000236396331376973   4.6809070059154745e-05   -0.00011869245980399099
-0.00022664703945450755   3.749240752073772e-05   1.4795608053298423e-05
-0.00022664703945450755   3.749240752073772e-05   1.4795608053298423e-05
-0.00022664703945450755   3.749240752073772e-05   1.4795608053298423e-05
-0.00022664703945450755   3.749240752073772e-05   1.4795608053298423e-05
-0.00016198945067097983   4.8112558247534465e-05   -9.933913035532429e-05
-0.00016198945067097983   4.8112558247534465e-05   -9.933913035532429e-05
-0.00016198945067097983   4.8112558247534465e-05   -9.933913035532429e-05
-0.00016198945067097983   4.8112558247534465e-05   -9.933913035532429e-05
-0.00019084310272485933   4.039473230746035e-05   -4.661901470148224e-05
-0.00019084310272485933   4.039473230746035e-05   -4.661901470148224e-05
-0.00019084310272485933   4.039473230746035e-05   -4.661901470148224e-05
-0.00019084310272485933   4.039473230746035e-05   -4.661901470148224e-05
0.0002207923179930898   -3.082782953445391e-05   4.308447094445757e-05
0.0002207923179930898   -3.082782953445391e-05   4.308447094445757e-05
0.0002207923179930898   -3.082782953445391e-05   4.308447094445757e-05
0.0002207923179930898   -3.082782953445391e-05   4.308447094445757e-05
0.00010655740589310002   -4.5751285218111407e-05   -0.00015626112263238557
0.00010655740589310002   -4.5751285218111407e-05   -0.00015626112263238557
0.00010655740589310002   -4.5751285218111407e-05   -0.00015626112263238557
0.00010655740589310002   -4.5751285218111407e-05   -0.00015626112263238557
0.00011098362974587463   -2.8659517406185928e-05   2.0414390038459712e-05
0.00011098362974587463   -2.8659517406185928e-05   2.0414390038459712e-05
0.00011098362974587463   -2.8659517406185928e-05   2.0414390038459712e-05
0.00011098362974587463   -2.8659517406185928e-05   2.0414390038459712e-05
0.00023100683512892062   -4.4670532033471225e-05   -0.00017001767682358
0.00023100683512892062   -4.4670532033471225e-05   -0.00017001767682358
0.00023100683512892062   -4.4670532033471225e-05   -0.00017001767682358
0.00023100683512892062   -4.4670532033471225e-05   -0.00017001767682358
0.00016053908910148809   -3.377739431422583e-05   -5.910731607607382e-05
0.00016053908910148809   -3.377739431422583e-05   -5.910731607607382e-05
0.00016053908910148809   -3.377739431422583e-05   -5.910731607607382e-05
0.00016053908910148809   -3.377739431422583e-05   -5.910731607607382e-05
0.00023100683512892084   -2.8659517406185928e-05   3.002099881482985e-05
0.00023100683512892084   -2.8659517406185928e-05   3.002099881482985e-05
0.00023100683512892084   -2.8659517406185928e-05   3.002099881482985e-05
0.00023100683512892084   -2.8659517406185928e-05   3.002099881482985e-05
0.00011098362974587442   -4.4670532033471225e-05   -0.00017962428559995143
0.00011098362974587442   -4.4670532033471225e-05   -0.00017962428559995143
0.00011098362974587442   -4.4670532033471225e-05   -0.00017962428559995143
0.00011098362974587442   -4.4670532033471225e-05   -0.00017962428559995143
0.00011538509817547184   -2.68093379817997e-05   9.352067948543291e-06
0.00011538509817547184   -2.68093379817997e-05   9.352067948543291e-06
0.00011538509817547184   -2.68093379817997e-05   9.352067948543291e-06
0.00011538509817547184   -2.68093379817997e-05   9.352067948543291e-06
0.00023885665165886616   -4.31238387630737e-05   -0.00018664515405501596
0.00023885665165886616   -4.31238387630737e-05   -0.00018664515405501596
0.00023885665165886616   -4.31238387630737e-05   -0.00018664515405501596
0.00023885665165886616   -4.31238387630737e-05   -0.00018664515405501596
0.00016913155604598724   -3.3668507287540686e-05   -7.610986025220474e-05
0.00016913155604598724   -3.3668507287540686e-05   -7.610986025220474e-05
0.00016913155604598724   -3.3668507287540686e-05   -7.610986025220474e-05
0.00016913155604598724   -3.3668507287540686e-05   -7.610986025220474e-05
0.00023885665165886616   -2.68093379817997e-05   1.9140768417308038e-05
0.00023885665165886616   -2.68093379817997e-05   1.9140768417308038e-05
0.00023885665165886616   -2.68093379817997e-05   1.9140768417308038e-05
0.00023885665165886616   -2.68093379817997e-05   1.9140768417308038e-05
0.00011538509817547184   -4.31238387630737e-05   -0.0001964338545237818
0.00011538509817547184   -4.31238387630737e-05   -0.0001964338545237818
0.00011538509817547184   -4.31238387630737e-05   -0.0001964338545237818
0.00011538509817547184   -4.31238387630737e-05   -0.0001964338545237818
0.00011838513434951398   -2.0943375348903698e-05   -1.2978650036838887e-05
0.00011838513434951398   -2.0943375348903698e-05   -1.2978650036838887e-05
0.00011838513434951398   -2.0943375348903698e-05   -1.2978650036838887e-05
0.00011838513434951398   -2.0943375348903698e-05   -1.2978650036838887e-05
0.0002471538483926443   -3.7075983059423057e-05   -0.00021791360881574405
0.0002471538483926443   -3.7075983059423057e-05   -0.00021791360881574405
0.0002471538483926443   -3.7075983059423057e-05   -0.00021791360881574405
0.0002471538483926443   -3.7075983059423057e-05   -0.00021791360881574405
0.00017158149369413995   -3.108865173811516e-05   -9.555208311102376e-05
0.00017158149369413995   -3.108865173811516e-05   -9.555208311102376e-05
0.00017158149369413995   -3.108865173811516e-05   -9.555208311102376e-05
0.00017158149369413995   -3.108865173811516e-05   -9.555208311102376e-05
0.00010655740589310023   -1.4505992586923838e-05   -5.476898559632348e-05
0.00010655740589310023   -1.4505992586923838e-05   -5.476898559632348e-05
0.00010655740589310023   -1.4505992586923838e-05   -5.476898559632348e-05
0.00010655740589310023   -1.4505992586923838e-05   -5.476898559632348e-05
-6.1689885873316514e-06   -2.981839625884608e-05   -0.000251833751933531
-6.1689885873316514e-06   -2.981839625884608e-05   -0.000251833751933531
-6.1689885873316514e-06   -2.981839625884608e-05   -0.000251833751933531
-6.1689885873316514e-06   -2.981839625884608e-05   -0.000251833751933531
-1.6193800010963575e-06   -1.151553250597348e-05   -6.0353013553592245e-05
-1.6193800010963575e-06   -1.151553250597348e-05   -6.0353013553592245e-05
-1.6193800010963575e-06   -1.151553250597348e-05   -6.0353013553592245e-05
-1.6193800010963575e-06   -1.151553250597348e-05   -6.0353013553592245e-05
0.00011098362974587463   -2.8414507658698976e-05   -0.0002378853113735751
0.00011098362974587463   -2.8414507658698976e-05   -0.0002378853113735751
0.00011098362974587463   -2.8414507658698976e-05   -0.0002378853113735751
0.00011098362974587463   -2.8414507658698976e-05   -0.0002378853113735751
5.2601537567059436e-05   -1.8032243124885966e-05   -0.00014681118312916998
5.2601537567059436e-05   -1.8032243124885966e-05   -0.00014681118312916998
5.2601537567059436e-05   -1.8032243124885966e-05   -0.00014681118312916998
5.2601537567059436e-05   -1.8032243124885966e-05   -0.00014681118312916998
0.00011098362974587463   -1.151553250597348e-05   -5.021362846195556e-05
0.00011098362974587463   -1.151553250597348e-05   -5.021362846195556e-05
0.00011098362974587463   -1.151553250597348e-05   -5.021362846195556e-05
0.00011098362974587463   -1.151553250597348e-05   -5.021362846195556e-05
-1.6193800010963575e-06   -2.8414507658698976e-05   -0.00024802469646521136
-1.6193800010963575e-06   -2.8414507658698976e-05   -0.00024802469646521136
-1.6193800010963575e-06   -2.8414507658698976e-05   -0.00024802469646521136
-1.6193800010963575e-06   -2.8414507658698976e-05   -0.00024802469646521136
2.3907111542699217e-06   -7.858126374635926e-06   -6.172958513855388e-05
2.3907111542699217e-06   -7.858126374635926e-06   -6.172958513855388e-05
2.3907111542699217e-06   -7.858126374635926e-06   -6.172958513855388e-05
2.3907111542699217e-06   -7.858126374635926e-06   -6.172958513855388e-05
0.00011538509817547184   -2.5783423554101223e-05   -0.00023929838519954477
0.00011538509817547184   -2.5783423554101223e-05   -0.00023929838519954477
0.00011538509817547184   -2.5783423554101223e-05   -0.00023929838519954477
0.00011538509817547184   -2.5783423554101223e-05   -0.00023929838519954477
5.571322296016285e-05   -1.6578050309941708e-05   -0.00014536848378718836
5.571322296016285e-05   -1.6578050309941708e-05   -0.00014536848378718836
5.571322296016285e-05   -1.6578050309941708e-05   -0.00014536848378718836
5.571322296016285e-05   -1.6578050309941708e-05   -0.00014536848378718836
0.00011538509817547184   -7.858126374635926e-06   -5.097440683087418e-05
0.00011538509817547184   -7.858126374635926e-06   -5.097440683087418e-05
0.00011538509817547184   -7.858126374635926e-06   -5.097440683087418e-05
0.00011538509817547184   -7.858126374635926e-06   -5.097440683087418e-05
2.3907111542699217e-06   -2.5783423554101223e-05   -0.00025005356350722447
2.3907111542699217e-06   -2.5783423554101223e-05   -0.00025005356350722447
2.3907111542699217e-06   -2.5783423554101223e-05   -0.00025005356350722447
2.3907111542699217e-06   -2.5783423554101223e-05   -0.00025005356350722447
5.251275965343087e-06   -3.2608296543362725e-06   -6.411653733972948e-05
5.251275965343087e-06   -3.2608296543362725e-06   -6.411653733972948e-05
5.251275965343087e-06   -3.2608296543362725e-06   -6.411653733972948e-05
5.251275965343087e-06   -3.2608296543362725e-06   -6.411653733972948e-05
0.00011838513434951419   -2.2041334699424847e-05   -0.00024140466495296332
0.00011838513434951419   -2.2041334699424847e-05   -0.00024140466495296332
0.00011838513434951419   -2.2041334699424847e-05   -0.00024140466495296332
0.00011838513434951419   -2.2041334699424847e-05   -0.00024140466495296332
5.941585491143071e-05   -1.4004775219154247e-05   -0.00014794446824431973
5.941585491143071e-05   -1.4004775219154247e-05   -0.00014794446824431973
5.941585491143071e-05   -1.4004775219154247e-05   -0.00014794446824431973
5.941585491143071e-05   -1.4004775219154247e-05   -0.00014794446824431973
-6.1689885873316514e-06   2.5038096031805568e-06   -8.294931059505892e-05
-6.1689885873316514e-06   2.5038096031805568e-06   -8.294931059505892e-05
-6.1689885873316514e-06   2.5038096031805568e-06   -8.294931059505892e-05
-6.1689885873316514e-06   2.5038096031805568e-06   -8.294931059505892e-05
-0.00011722933329808547   -1.5921446201484085e-05   -0.00027910503859578193
-0.00011722933329808547   -1.5921446201484085e-05   -0.00027910503859578193
-0.00011722933329808547   -1.5921446201484085e-05   -0.00027910503859578193
-0.00011722933329808547   -1.5921446201484085e-05   -0.00027910503859578193
-0.00011177294014858886   5.857477945809403e-06   -9.024775206597016e-05
-0.00011177294014858886   5.857477945809403e-06   -9.024775206597016e-05
-0.00011177294014858886   5.857477945809403e-06   -9.024775206597016e-05
-0.00011177294014858886   5.857477945809403e-06   -9.024775206597016e-05
-1.6193800010963575e-06   -1.4274724710524114e-05   -0.0002617576973846566
-1.6193800010963575e-06   -1.4274724710524114e-05   -0.0002617576973846566
-1.6193800010963575e-06   -1.4274724710524114e-05   -0.0002617576973846566
-1.6193800010963575e-06   -1.4274724710524114e-05   -0.0002617576973846566
-5.8485199983800834e-05   -3.2507362961488317e-06   -0.00017359572379544038
-5.8485199983800834e-05   -3.2507362961488317e-06   -0.00017359572379544038
-5.8485199983800834e-05   -3.2507362961488317e-06   -0.00017359572379544038
-5.8485199983800834e-05   -3.2507362961488317e-06   -0.00017359572379544038
-1.6193800010963575e-06   5.8574779458111376e-06   -7.816843047216918e-05
-1.6193800010963575e-06   5.8574779458111376e-06   -7.816843047216918e-05
-1.6193800010963575e-06   5.8574779458111376e-06   -7.816843047216918e-05
-1.6193800010963575e-06   5.8574779458111376e-06   -7.816843047216918e-05
-0.00011177294014858886   -1.4274724710524114e-05   -0.00027383701897845756
-0.00011177294014858886   -1.4274724710524114e-05   -0.00027383701897845756
-0.00011177294014858886   -1.4274724710524114e-05   -0.00027383701897845756
-0.00011177294014858886   -1.4274724710524114e-05   -0.00027383701897845756
-0.00010676670165797353   9.748503588716262e-06   -8.863559359876053e-05
-0.00010676670165797353   9.748503588716262e-06   -8.863559359876053e-05
-0.00010676670165797353   9.748503588716262e-06   -8.863559359876053e-05
-0.00010676670165797353   9.748503588716262e-06   -8.863559359876053e-05
2.3907111542699217e-06   -1.1686183524046989e-05   -0.0002577038026848422
2.3907111542699217e-06   -1.1686183524046989e-05   -0.0002577038026848422
2.3907111542699217e-06   -1.1686183524046989e-05   -0.0002577038026848422
2.3907111542699217e-06   -1.1686183524046989e-05   -0.0002577038026848422
-5.4035922101636224e-05   -1.3560860823939175e-06   -0.00016985747238999066
-5.4035922101636224e-05   -1.3560860823939175e-06   -0.00016985747238999066
-5.4035922101636224e-05   -1.3560860823939175e-06   -0.00016985747238999066
-5.4035922101636224e-05   -1.3560860823939175e-06   -0.00016985747238999066
2.3907111542699217e-06   9.748503588716262e-06   -7.577478133110292e-05
2.3907111542699217e-06   9.748503588716262e-06   -7.577478133110292e-05
2.3907111542699217e-06   9.748503588716262e-06   -7.577478133110292e-05
2.3907111542699217e-06   9.748503588716262e-06   -7.577478133110292e-05
-0.0001067667016579737   -1.1686183524046989e-05   -0.00027056461495250043
-0.0001067667016579737   -1.1686183524046989e-05   -0.00027056461495250043
-0.0001067667016579737   -1.1686183524046989e-05   -0.00027056461495250043
-0.0001067667016579737   -1.1686183524046989e-05   -0.00027056461495250043
-0.00010338910602994915   1.3771152831619851e-05   -9.015012984322276e-05
-0.00010338910602994915   1.3771152831619851e-05   -9.015012984322276e-05
-0.00010338910602994915   1.3771152831619851e-05   -9.015012984322276e-05
-0.00010338910602994915   1.3771152831619851e-05   -9.015012984322276e-05
5.251275965343087e-06   -9.235021685715522e-06   -0.00025741372845831056
5.251275965343087e-06   -9.235021685715522e-06   -0.00025741372845831056
5.251275965343087e-06   -9.235021685715522e-06   -0.00025741372845831056
5.251275965343087e-06   -9.235021685715522e-06   -0.00025741372845831056
-5.085693707697941e-05   7.740923365622682e-07   -0.00016990550846780793
-5.085693707697941e-05   7.740923365622682e-07   -0.00016990550846780793
-5.085693707697941e-05   7.740923365622682e-07   -0.00016990550846780793
-5.085693707697941e-05   7.740923365622682e-07   -0.00016990550846780793
-0.00011722933329808526   2.011951747350922e-05   -6.783268438137566e-05
-0.00011722933329808526   2.011951747350922e-05   -6.783268438137566e-05
-0.00011722933329808526   2.011951747350922e-05   -6.783268438137566e-05
-0.00011722933329808526   2.011951747350922e-05   -6.783268438137566e-05
-0.00022980328114821983   3.475099064322029e-06   -0.00026544258184377743
-0.00022980328114821983   3.475099064322029e-06   -0.00026544258184377743
-0.00022980328114821983   3.475099064322029e-06   -0.00026544258184377743
-0.00022980328114821983   3.475099064322029e-06   -0.00026544258184377743
-0.00022203829238659565   2.4387589543931748e-05   -7.238378303230791e-05
-0.00022203829238659565   2.4387589543931748e-05   -7.238378303230791e-05
-0.00022203829238659565   2.4387589543931748e-05   -7.238378303230791e-05
-0.00022203829238659565   2.4387589543931748e-05   -7.238378303230791e-05
-0.0001117729401485887   6.555269058317395e-06   -0.00024545997780428563
-0.0001117729401485887   6.555269058317395e-06   -0.00024545997780428563
-0.0001117729401485887   6.555269058317395e-06   -0.00024545997780428563
-0.0001117729401485887   6.555269058317395e-06   -0.00024545997780428563
-0.0001684305739696173   1.5118641097601818e-05   -0.0001561686113261402
-0.0001684305739696173   1.5118641097601818e-05   -0.0001561686113261402
-0.0001684305739696173   1.5118641097601818e-05   -0.0001561686113261402
-0.0001684305739696173   1.5118641097601818e-05   -0.0001561686113261402
-0.0001117729401485887   2.4387589543931748e-05   -6.168439074094069e-05
-0.0001117729401485887   2.4387589543931748e-05   -6.168439074094069e-05
-0.0001117729401485887   2.4387589543931748e-05   -6.168439074094069e-05
-0.0001117729401485887   2.4387589543931748e-05   -6.168439074094069e-05
-0.00022203829238659603   6.55526905831913e-06   -0.00025615937009565437
-0.00022203829238659603   6.55526905831913e-06   -0.00025615937009565437
-0.00022203829238659603   6.55526905831913e-06   -0.00025615937009565437
-0.00022203829238659603   6.55526905831913e-06   -0.00025615937009565437
-0.00021454372778804872   2.8064657894271566e-05   -6.603757419144408e-05
-0.00021454372778804872   2.8064657894271566e-05   -6.603757419144408e-05
-0.00021454372778804872   2.8064657894271566e-05   -6.603757419144408e-05
-0.00021454372778804872   2.8064657894271566e-05   -6.603757419144408e-05
-0.0001067667016579737   9.39444197302873e-06   -0.00023446382152215756
-0.0001067667016579737   9.39444197302873e-06   -0.00023446382152215756
-0.0001067667016579737   9.39444197302873e-06   -0.00023446382152215756
-0.0001067667016579737   9.39444197302873e-06   -0.00023446382152215756
-0.00016143017894990996   1.7798040236991983e-05   -0.00014840018499397362
-0.00016143017894990996   1.7798040236991983e-05   -0.00014840018499397362
-0.00016143017894990996   1.7798040236991983e-05   -0.00014840018499397362
-0.00016143017894990996   1.7798040236991983e-05   -0.00014840018499397362
-0.00010676670165797342   2.8064657894271566e-05   -5.483544463869786e-05
-0.00010676670165797342   2.8064657894271566e-05   -5.483544463869786e-05
-0.00010676670165797342   2.8064657894271566e-05   -5.483544463869786e-05
-0.00010676670165797342   2.8064657894271566e-05   -5.483544463869786e-05
-0.0002145437277880491   9.394441973026996e-06   -0.00024566595107490454
-0.0002145437277880491   9.394441973026996e-06   -0.00024566595107490454
-0.0002145437277880491   9.394441973026996e-06   -0.00024566595107490454
-0.0002145437277880491   9.394441973026996e-06   -0.00024566595107490454
-0.00020884141511599586   3.2139867242403364e-05   -6.624216741453123e-05
-0.00020884141511599586   3.2139867242403364e-05   -6.624216741453123e-05
-0.00020884141511599586   3.2139867242403364e-05   -6.624216741453123e-05
-0.00020884141511599586   3.2139867242403364e-05   -6.624216741453123e-05
-0.00010338910602994932   1.1803972234616933e-05   -0.00022979447888660275
-0.00010338910602994932   1.1803972234616933e-05   -0.00022979447888660275
-0.00010338910602994932   1.1803972234616933e-05   -0.00022979447888660275
-0.00010338910602994932   1.1803972234616933e-05   -0.00022979447888660275
-0.00015746899288413381   1.9665922747220954e-05   -0.00014437850443719033
-0.00015746899288413381   1.9665922747220954e-05   -0.00014437850443719033
-0.00015746899288413381   1.9665922747220954e-05   -0.00014437850443719033
-0.00015746899288413381   1.9665922747220954e-05   -0.00014437850443719033
-0.00022980328114821983   3.965249941013417e-05   -3.9005950407609326e-05
-0.00022980328114821983   3.965249941013417e-05   -3.9005950407609326e-05
-0.00022980328114821983   3.965249941013417e-05   -3.9005950407609326e-05
-0.00022980328114821983   3.965249941013417e-05   -3.9005950407609326e-05
-0.0003473174557609526   3.732529518651537e-05   -0.00023625923062966982
-0.0003473174557609526   3.732529518651537e-05   -0.00023625923062966982
-0.0003473174557609526   3.732529518651537e-05   -0.00023625923062966982
-0.0003473174557609526   3.732529518651537e-05   -0.00023625923062966982
-0.00033209325865486114   4.5322010747568184e-05   -1.8734982340663092e-06
-0.00033209325865486114   4.5322010747568184e-05   -1.8734982340663092e-06
-0.00033209325865486114   4.5322010747568184e-05   -1.8734982340663092e-06
-0.00033209325865486114   4.5322010747568184e-05   -1.8734982340663092e-06
-0.00022203829238659527   4.7400747228946646e-05   -0.00018654568390333683
-0.00022203829238659527   4.7400747228946646e-05   -0.00018654568390333683
-0.00022203829238659527   4.7400747228946646e-05   -0.00018654568390333683
-0.00022203829238659527   4.7400747228946646e-05   -0.00018654568390333683
-0.0002706101336617762   4.471392011301187e-05   -0.00010398051884180908
-0.0002706101336617762   4.471392011301187e-05   -0.00010398051884180908
-0.0002706101336617762   4.471392011301187e-05   -0.00010398051884180908
-0.0002706101336617762   4.471392011301187e-05   -0.00010398051884180908
-0.00022203829238659587   4.5322010747568184e-05   -3.1207401228932133e-06
-0.00022203829238659587   4.5322010747568184e-05   -3.1207401228932133e-06
-0.00022203829238659587   4.5322010747568184e-05   -3.1207401228932133e-06
-0.00022203829238659587   4.5322010747568184e-05   -3.1207401228932133e-06
-0.00033209325865486114   4.7400747228946646e-05   -0.00018529844201450874
-0.00033209325865486114   4.7400747228946646e-05   -0.00018529844201450874
-0.00033209325865486114   4.7400747228946646e-05   -0.00018529844201450874
-0.00033209325865486114   4.7400747228946646e-05   -0.00018529844201450874
-0.0003194521807460526   4.6809070059154745e-05   1.911693800841184e-05
-0.0003194521807460526   4.6809070059154745e-05   1.911693800841184e-05
-0.0003194521807460526   4.6809070059154745e-05   1.911693800841184e-05
-0.0003194521807460526   4.6809070059154745e-05   1.911693800841184e-05
-0.00021454372778804872   4.9658322306930444e-05   -0.00015744003493692703
-0.00021454372778804872   4.9658322306930444e-05   -0.00015744003493692703
-0.00021454372778804872   4.9658322306930444e-05   -0.00015744003493692703
-0.00021454372778804872   4.9658322306930444e-05   -0.00015744003493692703
-0.000264762506165383   4.797824328794595e-05   -7.273402356330894e-05
-0.000264762506165383   4.797824328794595e-05   -7.273402356330894e-05
-0.000264762506165383   4.797824328794595e-05   -7.273402356330894e-05
-0.000264762506165383   4.797824328794595e-05   -7.273402356330894e-05
-0.0002145437277880491   4.6809070059154745e-05   1.7407386659744686e-05
-0.0002145437277880491   4.6809070059154745e-05   1.7407386659744686e-05
-0.0002145437277880491   4.6809070059154745e-05   1.7407386659744686e-05
-0.0002145437277880491   4.6809070059154745e-05   1.7407386659744686e-05
-0.00031945218074605204   4.965832230693218e-05   -0.00015573048358826207
-0.00031945218074605204   4.965832230693218e-05   -0.00015573048358826207
-0.00031945218074605204   4.965832230693218e-05   -0.00015573048358826207
-0.00031945218074605204   4.965832230693218e-05   -0.00015573048358826207
-0.00030624652585641156   4.8112558247534465e-05   4.719922002554156e-05
-0.00030624652585641156   4.8112558247534465e-05   4.719922002554156e-05
-0.00030624652585641156   4.8112558247534465e-05   4.719922002554156e-05
-0.00030624652585641156   4.8112558247534465e-05   4.719922002554156e-05
-0.00020884141511599586   5.3580364805303274e-05   -0.0001184233151431474
-0.00020884141511599586   5.3580364805303274e-05   -0.0001184233151431474
-0.00020884141511599586   5.3580364805303274e-05   -0.0001184233151431474
-0.00020884141511599586   5.3580364805303274e-05   -0.0001184233151431474
-0.0002520453385231133   4.909348557173565e-05   -4.372464859114507e-05
-0.0002520453385231133   4.909348557173565e-05   -4.372464859114507e-05
-0.0002520453385231133   4.909348557173565e-05   -4.372464859114507e-05
-0.0002520453385231133   4.909348557173565e-05   -4.372464859114507e-05
0.0003040986915730168   -4.5751285218111407e-05   0.00010319824930161026
0.0003040986915730168   -4.5751285218111407e-05   0.00010319824930161026
0.0003040986915730168   -4.5751285218111407e-05   0.00010319824930161026
0.0003040986915730168   -4.5751285218111407e-05   0.00010319824930161026
0.00015302447210093872   -5.794149503064207e-05   -0.00015590624237270517
0.00015302447210093872   -5.794149503064207e-05   -0.00015590624237270517
0.00015302447210093872   -5.794149503064207e-05   -0.00015590624237270517
0.00015302447210093872   -5.794149503064207e-05   -0.00015590624237270517
0.00015681862192196052   -4.4670532033471225e-05   7.389061619838926e-05
0.00015681862192196052   -4.4670532033471225e-05   7.389061619838926e-05
0.00015681862192196052   -4.4670532033471225e-05   7.389061619838926e-05
0.00015681862192196052   -4.4670532033471225e-05   7.389061619838926e-05
0.0003117481879668754   -5.9390398710321146e-05   -0.0001754934072036912
0.0003117481879668754   -5.9390398710321146e-05   -0.0001754934072036912
0.0003117481879668754   -5.9390398710321146e-05   -0.0001754934072036912
0.0003117481879668754   -5.9390398710321146e-05   -0.0001754934072036912
0.0002222156253379664   -4.673662674091299e-05   -3.386473267048785e-05
0.0002222156253379664   -4.673662674091299e-05   -3.386473267048785e-05
0.0002222156253379664   -4.673662674091299e-05   -3.386473267048785e-05
0.0002222156253379664   -4.673662674091299e-05   -3.386473267048785e-05
0.0003117481879668754   -4.4670532033471225e-05   8.272253620450042e-05
0.0003117481879668754   -4.4670532033471225e-05   8.272253620450042e-05
0.0003117481879668754   -4.4670532033471225e-05   8.272253620450042e-05
0.0003117481879668754   -4.4670532033471225e-05   8.272253620450042e-05
0.00015681862192196052   -5.9390398710321146e-05   -0.00018432532720980173
0.00015681862192196052   -5.9390398710321146e-05   -0.00018432532720980173
0.00015681862192196052   -5.9390398710321146e-05   -0.00018432532720980173
0.00015681862192196052   -5.9390398710321146e-05   -0.00018432532720980173
0.00016002691287666138   -4.31238387630737e-05   5.823255180375381e-05
0.00016002691287666138   -4.31238387630737e-05   5.823255180375381e-05
0.00016002691287666138   -4.31238387630737e-05   5.823255180375381e-05
0.00016002691287666138   -4.31238387630737e-05   5.823255180375381e-05
0.0003165210612371234   -5.886314931514633e-05   -0.00019314744246577242
0.0003165210612371234   -5.886314931514633e-05   -0.00019314744246577242
0.0003165210612371234   -5.886314931514633e-05   -0.00019314744246577242
0.0003165210612371234   -5.886314931514633e-05   -0.00019314744246577242
0.00023009896576538523   -4.822610390894065e-05   -5.549284392326534e-05
0.00023009896576538523   -4.822610390894065e-05   -5.549284392326534e-05
0.00023009896576538523   -4.822610390894065e-05   -5.549284392326534e-05
0.00023009896576538523   -4.822610390894065e-05   -5.549284392326534e-05
0.0003165210612371234   -4.31238387630737e-05   6.767613813499739e-05
0.0003165210612371234   -4.31238387630737e-05   6.767613813499739e-05
0.0003165210612371234   -4.31238387630737e-05   6.767613813499739e-05
0.0003165210612371234   -4.31238387630737e-05   6.767613813499739e-05
0.00016002691287666138   -5.886314931514633e-05   -0.00020259102879701622
0.00016002691287666138   -5.886314931514633e-05   -0.00020259102879701622
0.00016002691287666138   -5.886314931514633e-05   -0.00020259102879701622
0.00016002691287666138   -5.886314931514633e-05   -0.00020259102879701622
0.00016338696908057085   -3.7075983059423057e-05   2.7787104824414377e-05
0.00016338696908057085   -3.7075983059423057e-05   2.7787104824414377e-05
0.00016338696908057085   -3.7075983059423057e-05   2.7787104824414377e-05
0.00016338696908057085   -3.7075983059423057e-05   2.7787104824414377e-05
0.000321220035632007   -5.5619906225922236e-05   -0.00022414165219474523
0.000321220035632007   -5.5619906225922236e-05   -0.00022414165219474523
0.000321220035632007   -5.5619906225922236e-05   -0.00022414165219474523
0.000321220035632007   -5.5619906225922236e-05   -0.00022414165219474523
0.00023026603556892863   -4.642971758696095e-05   -7.806576527299254e-05
0.00023026603556892863   -4.642971758696095e-05   -7.806576527299254e-05
0.00023026603556892863   -4.642971758696095e-05   -7.806576527299254e-05
0.00023026603556892863   -4.642971758696095e-05   -7.806576527299254e-05
0.00015302447210093872   -2.981839625884608e-05   9.498936316100319e-06
0.00015302447210093872   -2.981839625884608e-05   9.498936316100319e-06
0.00015302447210093872   -2.981839625884608e-05   9.498936316100319e-06
0.00015302447210093872   -2.981839625884608e-05   9.498936316100319e-06
1.8603198806609912e-05   -5.853925296346249e-05   -0.0002317690331972164
1.8603198806609912e-05   -5.853925296346249e-05   -0.0002317690331972164
1.8603198806609912e-05   -5.853925296346249e-05   -0.0002317690331972164
1.8603198806609912e-05   -5.853925296346249e-05   -0.0002317690331972164
2.3030558640588597e-05   -2.8414507658698976e-05   -2.2775254415515617e-06
2.3030558640588597e-05   -2.8414507658698976e-05   -2.2775254415515617e-06
2.3030558640588597e-05   -2.8414507658698976e-05   -2.2775254415515617e-06
2.3030558640588597e-05   -2.8414507658698976e-05   -2.2775254415515617e-06
0.00015681862192196085   -5.825970076922711e-05   -0.00020735051504418788
0.00015681862192196085   -5.825970076922711e-05   -0.00020735051504418788
0.00015681862192196085   -5.825970076922711e-05   -0.00020735051504418788
0.00015681862192196085   -5.825970076922711e-05   -0.00020735051504418788
8.822173235855155e-05   -3.9469661722893803e-05   -0.00010429638919963935
8.822173235855155e-05   -3.9469661722893803e-05   -0.00010429638919963935
8.822173235855155e-05   -3.9469661722893803e-05   -0.00010429638919963935
8.822173235855155e-05   -3.9469661722893803e-05   -0.00010429638919963935
0.0001568186219219603   -2.8414507658698976e-05   1.5629590424766013e-05
0.0001568186219219603   -2.8414507658698976e-05   1.5629590424766013e-05
0.0001568186219219603   -2.8414507658698976e-05   1.5629590424766013e-05
0.0001568186219219603   -2.8414507658698976e-05   1.5629590424766013e-05
2.3030558640588488e-05   -5.825970076922711e-05   -0.00022525763091050394
2.3030558640588488e-05   -5.825970076922711e-05   -0.00022525763091050394
2.3030558640588488e-05   -5.825970076922711e-05   -0.00022525763091050394
2.3030558640588488e-05   -5.825970076922711e-05   -0.00022525763091050394
2.7027646448152492e-05   -2.5783423554101223e-05   -3.6653073173884693e-06
2.7027646448152492e-05   -2.5783423554101223e-05   -3.6653073173884693e-06
2.7027646448152492e-05   -2.5783423554101223e-05   -3.6653073173884693e-06
2.7027646448152492e-05   -2.5783423554101223e-05   -3.6653073173884693e-06
0.00016002691287666138   -5.75056376297331e-05   -0.00020629742291952474
0.00016002691287666138   -5.75056376297331e-05   -0.00020629742291952474
0.00016002691287666138   -5.75056376297331e-05   -0.00020629742291952474
0.00016002691287666138   -5.75056376297331e-05   -0.00020629742291952474
9.075349805803172e-05   -3.9929057816461e-05   -0.000101387679443103
9.075349805803172e-05   -3.9929057816461e-05   -0.000101387679443103
9.075349805803172e-05   -3.9929057816461e-05   -0.000101387679443103
9.075349805803172e-05   -3.9929057816461e-05   -0.000101387679443103
0.00016002691287666138   -2.5783423554101223e-05   1.536802112798996e-05
0.00016002691287666138   -2.5783423554101223e-05   1.536802112798996e-05
0.00016002691287666138   -2.5783423554101223e-05   1.536802112798996e-05
0.00016002691287666138   -2.5783423554101223e-05   1.536802112798996e-05
2.7027646448152384e-05   -5.75056376297331e-05   -0.00022533075136490274
2.7027646448152384e-05   -5.75056376297331e-05   -0.00022533075136490274
2.7027646448152384e-05   -5.75056376297331e-05   -0.00022533075136490274
2.7027646448152384e-05   -5.75056376297331e-05   -0.00022533075136490274
3.2988727534640134e-05   -2.2041334699423112e-05   -6.388193091812905e-06
3.2988727534640134e-05   -2.2041334699423112e-05   -6.388193091812905e-06
3.2988727534640134e-05   -2.2041334699423112e-05   -6.388193091812905e-06
3.2988727534640134e-05   -2.2041334699423112e-05   -6.388193091812905e-06
0.00016338696908057074   -5.598101204162646e-05   -0.00020335478926304272
0.00016338696908057074   -5.598101204162646e-05   -0.00020335478926304272
0.00016338696908057074   -5.598101204162646e-05   -0.00020335478926304272
0.00016338696908057074   -5.598101204162646e-05   -0.00020335478926304272
9.553575236518952e-05   -3.93423691975401e-05   -0.00010025261377719346
9.553575236518952e-05   -3.93423691975401e-05   -0.00010025261377719346
9.553575236518952e-05   -3.93423691975401e-05   -0.00010025261377719346
9.553575236518952e-05   -3.93423691975401e-05   -0.00010025261377719346
1.8603198806609912e-05   -1.592144620148235e-05   -2.3949710886119607e-05
1.8603198806609912e-05   -1.592144620148235e-05   -2.3949710886119607e-05
1.8603198806609912e-05   -1.592144620148235e-05   -2.3949710886119607e-05
1.8603198806609912e-05   -1.592144620148235e-05   -2.3949710886119607e-05
-0.00011444680623757218   -7.10548887984351e-05   -0.00027877978485126194
-0.00011444680623757218   -7.10548887984351e-05   -0.00027877978485126194
-0.00011444680623757218   -7.10548887984351e-05   -0.00027877978485126194
-0.00011444680623757218   -7.10548887984351e-05   -0.00027877978485126194
-0.00010755520169957394   -1.4274724710524114e-05   -5.104078003658873e-05
-0.00010755520169957394   -1.4274724710524114e-05   -5.104078003658873e-05
-0.00010755520169957394   -1.4274724710524114e-05   -5.104078003658873e-05
-0.00010755520169957394   -1.4274724710524114e-05   -5.104078003658873e-05
2.3030558640588488e-05   -7.265848083651272e-05   -0.00023365346026126693
2.3030558640588488e-05   -7.265848083651272e-05   -0.00023365346026126693
2.3030558640588488e-05   -7.265848083651272e-05   -0.00023365346026126693
2.3030558640588488e-05   -7.265848083651272e-05   -0.00023365346026126693
-4.353684478069204e-05   -4.0282744930810604e-05   -0.00014213322943588665
-4.353684478069204e-05   -4.0282744930810604e-05   -0.00014213322943588665
-4.353684478069204e-05   -4.0282744930810604e-05   -0.00014213322943588665
-4.353684478069204e-05   -4.0282744930810604e-05   -0.00014213322943588665
2.3030558640588488e-05   -1.4274724710524114e-05   -1.6010526360995918e-05
2.3030558640588488e-05   -1.4274724710524114e-05   -1.6010526360995918e-05
2.3030558640588488e-05   -1.4274724710524114e-05   -1.6010526360995918e-05
2.3030558640588488e-05   -1.4274724710524114e-05   -1.6010526360995918e-05
-0.00010755520169957415   -7.265848083651272e-05   -0.00026868371393685975
-0.00010755520169957415   -7.265848083651272e-05   -0.00026868371393685975
-0.00010755520169957415   -7.265848083651272e-05   -0.00026868371393685975
-0.00010755520169957415   -7.265848083651272e-05   -0.00026868371393685975
-0.0001016221207891204   -1.1686183524046989e-05   -4.771828094663009e-05
-0.0001016221207891204   -1.1686183524046989e-05   -4.771828094663009e-05
-0.0001016221207891204   -1.1686183524046989e-05   -4.771828094663009e-05
-0.0001016221207891204   -1.1686183524046989e-05   -4.771828094663009e-05
2.7027646448152384e-05   -7.23574076100849e-05   -0.00022573182522379442
2.7027646448152384e-05   -7.23574076100849e-05   -0.00022573182522379442
2.7027646448152384e-05   -7.23574076100849e-05   -0.00022573182522379442
2.7027646448152384e-05   -7.23574076100849e-05   -0.00022573182522379442
-3.8640588678742874e-05   -4.122356181509787e-05   -0.00013496507415596036
-3.8640588678742874e-05   -4.122356181509787e-05   -0.00013496507415596036
-3.8640588678742874e-05   -4.122356181509787e-05   -0.00013496507415596036
-3.8640588678742874e-05   -4.122356181509787e-05   -0.00013496507415596036
2.7027646448152384e-05   -1.1686183524046989e-05   -1.1315546495005956e-05
2.7027646448152384e-05   -1.1686183524046989e-05   -1.1315546495005956e-05
2.7027646448152384e-05   -1.1686183524046989e-05   -1.1315546495005956e-05
2.7027646448152384e-05   -1.1686183524046989e-05   -1.1315546495005956e-05
-0.00010162212078912073   -7.235740761008663e-05   -0.00026213455967541866
-0.00010162212078912073   -7.235740761008663e-05   -0.00026213455967541866
-0.00010162212078912073   -7.235740761008663e-05   -0.00026213455967541866
-0.00010162212078912073   -7.235740761008663e-05   -0.00026213455967541866
-9.138886600790317e-05   -9.235021685717257e-06   -4.7507338662175144e-05
-9.138886600790317e-05   -9.235021685717257e-06   -4.7507338662175144e-05
-9.138886600790317e-05   -9.235021685717257e-06   -4.7507338662175144e-05
-9.138886600790317e-05   -9.235021685717257e-06   -4.7507338662175144e-05
3.298872753464024e-05   -6.986566350583069e-05   -0.00021842494280767898
3.298872753464024e-05   -6.986566350583069e-05   -0.00021842494280767898
3.298872753464024e-05   -6.986566350583069e-05   -0.00021842494280767898
3.298872753464024e-05   -6.986566350583069e-05   -0.00021842494280767898
-3.227983401053963e-05   -4.03448065478991e-05   -0.00012735652107380554
-3.227983401053963e-05   -4.03448065478991e-05   -0.00012735652107380554
-3.227983401053963e-05   -4.03448065478991e-05   -0.00012735652107380554
-3.227983401053963e-05   -4.03448065478991e-05   -0.00012735652107380554
-0.00011444680623757202   3.475099064322029e-06   -3.338066864677636e-05
-0.00011444680623757202   3.475099064322029e-06   -3.338066864677636e-05
-0.00011444680623757202   3.475099064322029e-06   -3.338066864677636e-05
-0.00011444680623757202   3.475099064322029e-06   -3.338066864677636e-05
-0.0002630628887335016   -8.902048073453246e-05   -0.0003365714873526382
-0.0002630628887335016   -8.902048073453246e-05   -0.0003365714873526382
-0.0002630628887335016   -8.902048073453246e-05   -0.0003365714873526382
-0.0002630628887335016   -8.902048073453246e-05   -0.0003365714873526382
-0.00025486607740239577   6.55526905831913e-06   -8.61327807683502e-05
-0.00025486607740239577   6.55526905831913e-06   -8.61327807683502e-05
-0.00025486607740239577   6.55526905831913e-06   -8.61327807683502e-05
-0.00025486607740239577   6.55526905831913e-06   -8.61327807683502e-05
-0.00010755520169957394   -9.922646745156791e-05   -0.0002681818650337862
-0.00010755520169957394   -9.922646745156791e-05   -0.0002681818650337862
-0.00010755520169957394   -9.922646745156791e-05   -0.0002681818650337862
-0.00010755520169957394   -9.922646745156791e-05   -0.0002681818650337862
-0.00018229890514119687   -4.54936223699548e-05   -0.00017584873301338343
-0.00018229890514119687   -4.54936223699548e-05   -0.00017584873301338343
-0.00018229890514119687   -4.54936223699548e-05   -0.00017584873301338343
-0.00018229890514119687   -4.54936223699548e-05   -0.00017584873301338343
-0.00010755520169957394   6.55526905831913e-06   -2.2663738862417453e-05
-0.00010755520169957394   6.55526905831913e-06   -2.2663738862417453e-05
-0.00010755520169957394   6.55526905831913e-06   -2.2663738862417453e-05
-0.00010755520169957394   6.55526905831913e-06   -2.2663738862417453e-05
-0.00025486607740239577   -9.922646745156964e-05   -0.0003316509069397188
-0.00025486607740239577   -9.922646745156964e-05   -0.0003316509069397188
-0.00025486607740239577   -9.922646745156964e-05   -0.0003316509069397188
-0.00025486607740239577   -9.922646745156964e-05   -0.0003316509069397188
-0.000247004951336613   9.39444197302873e-06   -7.714580280510867e-05
-0.000247004951336613   9.39444197302873e-06   -7.714580280510867e-05
-0.000247004951336613   9.39444197302873e-06   -7.714580280510867e-05
-0.000247004951336613   9.39444197302873e-06   -7.714580280510867e-05
-0.00010162212078912056   -9.981941684167502e-05   -0.00025392220509544146
-0.00010162212078912056   -9.981941684167502e-05   -0.00025392220509544146
-0.00010162212078912056   -9.981941684167502e-05   -0.00025392220509544146
-0.00010162212078912056   -9.981941684167502e-05   -0.00025392220509544146
-0.0001743077584457188   -4.568330352649683e-05   -0.00016526114365688314
-0.0001743077584457188   -4.568330352649683e-05   -0.00016526114365688314
-0.0001743077584457188   -4.568330352649683e-05   -0.00016526114365688314
-0.0001743077584457188   -4.568330352649683e-05   -0.00016526114365688314
-0.00010162212078912051   9.39444197302873e-06   -1.1617487516286246e-05
-0.00010162212078912051   9.39444197302873e-06   -1.1617487516286246e-05
-0.00010162212078912051   9.39444197302873e-06   -1.1617487516286246e-05
-0.00010162212078912051   9.39444197302873e-06   -1.1617487516286246e-05
-0.0002470049513366133   -9.981941684167502e-05   -0.0003194505203842632
-0.0002470049513366133   -9.981941684167502e-05   -0.0003194505203842632
-0.0002470049513366133   -9.981941684167502e-05   -0.0003194505203842632
-0.0002470049513366133   -9.981941684167502e-05   -0.0003194505203842632
-0.0002341456420518263   1.1803972234615198e-05   -6.796520438076287e-05
-0.0002341456420518263   1.1803972234615198e-05   -6.796520438076287e-05
-0.0002341456420518263   1.1803972234615198e-05   -6.796520438076287e-05
-0.0002341456420518263   1.1803972234615198e-05   -6.796520438076287e-05
-9.138886600790344e-05   -9.133072776654205e-05   -0.00024401234445327324
-9.138886600790344e-05   -9.133072776654205e-05   -0.00024401234445327324
-9.138886600790344e-05   -9.133072776654205e-05   -0.00024401234445327324
-9.138886600790344e-05   -9.133072776654205e-05   -0.00024401234445327324
-0.00016638645739560818   -4.051673479675555e-05   -0.0001495047545889669
-0.00016638645739560818   -4.051673479675555e-05   -0.0001495047545889669
-0.00016638645739560818   -4.051673479675555e-05   -0.0001495047545889669
-0.00016638645739560818   -4.051673479675555e-05   -0.0001495047545889669
-0.0002630628887335016   3.732529518651537e-05   -5.8298342777811374e-05
-0.0002630628887335016   3.732529518651537e-05   -5.8298342777811374e-05
-0.0002630628887335016   3.732529518651537e-05   -5.8298342777811374e-05
-0.0002630628887335016   3.732529518651537e-05   -5.8298342777811374e-05
-0.0004538532861675166   0.0   -0.0003986775156130792
-0.0004538532861675166   0.0   -0.0003986775156130792
-0.0004538532861675166   0.0   -0.0003986775156130792
-0.0004538532861675166   0.0   -0.0003986775156130792
-0.00044182958813490517   4.7400747228946646e-05   -4.49595429134024e-05
-0.00044182958813490517   4.7400747228946646e-05   -4.49595429134024e-05
-0.00044182958813490517   4.7400747228946646e-05   -4.49595429134024e-05
-0.00044182958813490517   4.7400747228946646e-05   -4.49595429134024e-05
-0.0002548660774023953   0.0   -0.00032812494579688347
-0.0002548660774023953   0.0   -0.00032812494579688347
-0.0002548660774023953   0.0   -0.00032812494579688347
-0.0002548660774023953   0.0   -0.00032812494579688347
-0.00033837849802220493   1.4401631061408682e-05   -0.00019757855673404668
-0.00033837849802220493   1.4401631061408682e-05   -0.00019757855673404668
-0.00033837849802220493   1.4401631061408682e-05   -0.00019757855673404668
-0.00033837849802220493   1.4401631061408682e-05   -0.00019757855673404668
-0.00025486607740239544   4.7400747228946646e-05   -1.6519094576034066e-05
-0.00025486607740239544   4.7400747228946646e-05   -1.6519094576034066e-05
-0.00025486607740239544   4.7400747228946646e-05   -1.6519094576034066e-05
-0.00025486607740239544   4.7400747228946646e-05   -1.6519094576034066e-05
-0.00044182958813490436   0.0   -0.0003565653941342518
-0.00044182958813490436   0.0   -0.0003565653941342518
-0.00044182958813490436   0.0   -0.0003565653941342518
-0.00044182958813490436   0.0   -0.0003565653941342518
-0.0004316774560106612   4.9658322306930444e-05   -1.871488005129266e-05
-0.0004316774560106612   4.9658322306930444e-05   -1.871488005129266e-05
-0.0004316774560106612   4.9658322306930444e-05   -1.871488005129266e-05
-0.0004316774560106612   4.9658322306930444e-05   -1.871488005129266e-05
-0.0002470049513366133   0.0   -0.0002967073944572146
-0.0002470049513366133   0.0   -0.0002967073944572146
-0.0002470049513366133   0.0   -0.0002967073944572146
-0.0002470049513366133   0.0   -0.0002967073944572146
-0.00033471577965045576   2.2933082827246085e-05   -0.00016428253029715322
-0.00033471577965045576   2.2933082827246085e-05   -0.00016428253029715322
-0.00033471577965045576   2.2933082827246085e-05   -0.00016428253029715322
-0.00033471577965045576   2.2933082827246085e-05   -0.00016428253029715322
-0.0002470049513366133   4.965832230693218e-05   1.1080113332866647e-05
-0.0002470049513366133   4.965832230693218e-05   1.1080113332866647e-05
-0.0002470049513366133   4.965832230693218e-05   1.1080113332866647e-05
-0.0002470049513366133   4.965832230693218e-05   1.1080113332866647e-05
-0.00043167745601066043   0.0   -0.0003265023878413721
-0.00043167745601066043   0.0   -0.0003265023878413721
-0.00043167745601066043   0.0   -0.0003265023878413721
-0.00043167745601066043   0.0   -0.0003265023878413721
-0.00041144160505135935   5.3580364805303274e-05   2.3459277484182313e-05
-0.00041144160505135935   5.3580364805303274e-05   2.3459277484182313e-05
-0.00041144160505135935   5.3580364805303274e-05   2.3459277484182313e-05
-0.00041144160505135935   5.3580364805303274e-05   2.3459277484182313e-05
-0.00023414564205182675   0.0   -0.0002398857752985233
-0.00023414564205182675   0.0   -0.0002398857752985233
-0.00023414564205182675   0.0   -0.0002398857752985233
-0.00023414564205182675   0.0   -0.0002398857752985233
-0.00031712181878607525   2.8320148660238714e-05   -0.00011858423660425174
-0.00031712181878607525   2.8320148660238714e-05   -0.00011858423660425174
-0.00031712181878607525   2.8320148660238714e-05   -0.00011858423660425174
-0.00031712181878607525   2.8320148660238714e-05   -0.00011858423660425174
0.00033645019992363555   -5.794149503064207e-05   0.00020114313926935037
0.00033645019992363555   -5.794149503064207e-05   0.00020114313926935037
0.00033645019992363555   -5.794149503064207e-05   0.00020114313926935037
0.00033645019992363555   -5.794149503064207e-05   0.00020114313926935037
0.00017476433755627525   -4.4492573067539745e-05   -6.026394483172118e-05
0.00017476433755627525   -4.4492573067539745e-05   -6.026394483172118e-05
0.00017476433755627525   -4.4492573067539745e-05   -6.026394483172118e-05
0.00017476433755627525   -4.4492573067539745e-05   -6.026394483172118e-05
0.00017032638382117086   -5.9390398710321146e-05   0.00017782860617695379
0.00017032638382117086   -5.9390398710321146e-05   0.00017782860617695379
0.00017032638382117086   -5.9390398710321146e-05   0.00017782860617695379
0.00017032638382117086   -5.9390398710321146e-05   0.00017782860617695379
0.0003327945228996933   -4.894710284913256e-05   -9.92176031372968e-05
0.0003327945228996933   -4.894710284913256e-05   -9.92176031372968e-05
0.0003327945228996933   -4.894710284913256e-05   -9.92176031372968e-05
0.0003327945228996933   -4.894710284913256e-05   -9.92176031372968e-05
0.00024321758717646256   -4.984276695875478e-05   5.061468820052764e-05
0.00024321758717646256   -4.984276695875478e-05   5.061468820052764e-05
0.00024321758717646256   -4.984276695875478e-05   5.061468820052764e-05
0.00024321758717646256   -4.984276695875478e-05   5.061468820052764e-05
0.0003327945228996933   -5.9390398710321146e-05   0.0001715626286602403
0.0003327945228996933   -5.9390398710321146e-05   0.0001715626286602403
0.0003327945228996933   -5.9390398710321146e-05   0.0001715626286602403
0.0003327945228996933   -5.9390398710321146e-05   0.0001715626286602403
0.00017032638382117086   -4.894710284913256e-05   -9.295162562058309e-05
0.00017032638382117086   -4.894710284913256e-05   -9.295162562058309e-05
0.00017032638382117086   -4.894710284913256e-05   -9.295162562058309e-05
0.00017032638382117086   -4.894710284913256e-05   -9.295162562058309e-05
0.0001663155647367464   -5.886314931514633e-05   0.00015975203300973642
0.0001663155647367464   -5.886314931514633e-05   0.00015975203300973642
0.0001663155647367464   -5.886314931514633e-05   0.00015975203300973642
0.0001663155647367464   -5.886314931514633e-05   0.00015975203300973642
0.0003285814668436205   -4.936869644505022e-05   -0.00011638780889044532
0.0003285814668436205   -4.936869644505022e-05   -0.00011638780889044532
0.0003285814668436205   -4.936869644505022e-05   -0.00011638780889044532
0.0003285814668436205   -4.936869644505022e-05   -0.00011638780889044532
0.00024298416800406312   -5.0716504237720283e-05   2.708304051775171e-05
0.00024298416800406312   -5.0716504237720283e-05   2.708304051775171e-05
0.00024298416800406312   -5.0716504237720283e-05   2.708304051775171e-05
0.00024298416800406312   -5.0716504237720283e-05   2.708304051775171e-05
0.00032858146684362104   -5.886314931514633e-05   0.00015405536128767962
0.00032858146684362104   -5.886314931514633e-05   0.00015405536128767962
0.00032858146684362104   -5.886314931514633e-05   0.00015405536128767962
0.00032858146684362104   -5.886314931514633e-05   0.00015405536128767962
0.0001663155647367464   -4.936869644505022e-05   -0.00011069113716838733
0.0001663155647367464   -4.936869644505022e-05   -0.00011069113716838733
0.0001663155647367464   -4.936869644505022e-05   -0.00011069113716838733
0.0001663155647367464   -4.936869644505022e-05   -0.00011069113716838733
0.00016142434290692239   -5.5619906225922236e-05   0.00013034354012728122
0.00016142434290692239   -5.5619906225922236e-05   0.00013034354012728122
0.00016142434290692239   -5.5619906225922236e-05   0.00013034354012728122
0.00016142434290692239   -5.5619906225922236e-05   0.00013034354012728122
0.0003219817151208428   -4.83783750280329e-05   -0.00014159699894798555
0.0003219817151208428   -4.83783750280329e-05   -0.00014159699894798555
0.0003219817151208428   -4.83783750280329e-05   -0.00014159699894798555
0.0003219817151208428   -4.83783750280329e-05   -0.00014159699894798555
0.00023464546618986602   -4.823071572251751e-05   3.874820353665922e-06
0.00023464546618986602   -4.823071572251751e-05   3.874820353665922e-06
0.00023464546618986602   -4.823071572251751e-05   3.874820353665922e-06
0.00023464546618986602   -4.823071572251751e-05   3.874820353665922e-06
0.00017476433755627525   -5.853925296346249e-05   0.0001505822156454709
0.00017476433755627525   -5.853925296346249e-05   0.0001505822156454709
0.00017476433755627525   -5.853925296346249e-05   0.0001505822156454709
0.00017476433755627525   -5.853925296346249e-05   0.0001505822156454709
3.7797710706803525e-05   -2.7689475365329577e-05   -5.9185629211437087e-05
3.7797710706803525e-05   -2.7689475365329577e-05   -5.9185629211437087e-05
3.7797710706803525e-05   -2.7689475365329577e-05   -5.9185629211437087e-05
3.7797710706803525e-05   -2.7689475365329577e-05   -5.9185629211437087e-05
3.077312714273785e-05   -5.825970076922711e-05   0.00017213062100211035
3.077312714273785e-05   -5.825970076922711e-05   0.00017213062100211035
3.077312714273785e-05   -5.825970076922711e-05   0.00017213062100211035
3.077312714273785e-05   -5.825970076922711e-05   0.00017213062100211035
0.00017032638382117086   -2.938102966999409e-05   -7.778534278815325e-05
0.00017032638382117086   -2.938102966999409e-05   -7.778534278815325e-05
0.00017032638382117086   -2.938102966999409e-05   -7.778534278815325e-05
0.00017032638382117086   -2.938102966999409e-05   -7.778534278815325e-05
0.00010327955434377288   -4.186142238655349e-05   4.144760863744514e-05
0.00010327955434377288   -4.186142238655349e-05   4.144760863744514e-05
0.00010327955434377288   -4.186142238655349e-05   4.144760863744514e-05
0.00010327955434377288   -4.186142238655349e-05   4.144760863744514e-05
0.00017032638382117108   -5.825970076922711e-05   0.00015480341834256828
0.00017032638382117108   -5.825970076922711e-05   0.00015480341834256828
0.00017032638382117108   -5.825970076922711e-05   0.00015480341834256828
0.00017032638382117108   -5.825970076922711e-05   0.00015480341834256828
3.077312714273785e-05   -2.938102966999409e-05   -6.045814012861292e-05
3.077312714273785e-05   -2.938102966999409e-05   -6.045814012861292e-05
3.077312714273785e-05   -2.938102966999409e-05   -6.045814012861292e-05
3.077312714273785e-05   -2.938102966999409e-05   -6.045814012861292e-05
2.577010988387776e-05   -5.75056376297331e-05   0.0001724597870803226
2.577010988387776e-05   -5.75056376297331e-05   0.0001724597870803226
2.577010988387776e-05   -5.75056376297331e-05   0.0001724597870803226
2.577010988387776e-05   -5.75056376297331e-05   0.0001724597870803226
0.0001663155647367464   -3.0148723974573674e-05   -7.819678586755375e-05
0.0001663155647367464   -3.0148723974573674e-05   -7.819678586755375e-05
0.0001663155647367464   -3.0148723974573674e-05   -7.819678586755375e-05
0.0001663155647367464   -3.0148723974573674e-05   -7.819678586755375e-05
9.727300915193088e-05   -4.1015590527479495e-05   4.339426003888624e-05
9.727300915193088e-05   -4.1015590527479495e-05   4.339426003888624e-05
9.727300915193088e-05   -4.1015590527479495e-05   4.339426003888624e-05
9.727300915193088e-05   -4.1015590527479495e-05   4.339426003888624e-05
0.00016631556473674673   -5.75056376297331e-05   0.00015604563888722833
0.00016631556473674673   -5.75056376297331e-05   0.00015604563888722833
0.00016631556473674673   -5.75056376297331e-05   0.00015604563888722833
0.00016631556473674673   -5.75056376297331e-05   0.00015604563888722833
2.577010988387776e-05   -3.0148723974573674e-05   -6.178263767445905e-05
2.577010988387776e-05   -3.0148723974573674e-05   -6.178263767445905e-05
2.577010988387776e-05   -3.0148723974573674e-05   -6.178263767445905e-05
2.577010988387776e-05   -3.0148723974573674e-05   -6.178263767445905e-05
2.0202143471094577e-05   -5.598101204162646e-05   0.00017814744368111878
2.0202143471094577e-05   -5.598101204162646e-05   0.00017814744368111878
2.0202143471094577e-05   -5.598101204162646e-05   0.00017814744368111878
2.0202143471094577e-05   -5.598101204162646e-05   0.00017814744368111878
0.00016142434290692228   -2.9496534171235406e-05   -7.311357543416275e-05
0.00016142434290692228   -2.9496534171235406e-05   -7.311357543416275e-05
0.00016142434290692228   -2.9496534171235406e-05   -7.311357543416275e-05
0.00016142434290692228   -2.9496534171235406e-05   -7.311357543416275e-05
9.358729870474839e-05   -3.9237500287515534e-05   4.579274457256139e-05
9.358729870474839e-05   -3.9237500287515534e-05   4.579274457256139e-05
9.358729870474839e-05   -3.9237500287515534e-05   4.579274457256139e-05
9.358729870474839e-05   -3.9237500287515534e-05   4.579274457256139e-05
3.7797710706803525e-05   -7.10548887984351e-05   0.00015516139610847503
3.7797710706803525e-05   -7.10548887984351e-05   0.00015516139610847503
3.7797710706803525e-05   -7.10548887984351e-05   0.00015516139610847503
3.7797710706803525e-05   -7.10548887984351e-05   0.00015516139610847503
-9.373505305162696e-05   -1.191933679948326e-05   -2.8578545622871127e-05
-9.373505305162696e-05   -1.191933679948326e-05   -2.8578545622871127e-05
-9.373505305162696e-05   -1.191933679948326e-05   -2.8578545622871127e-05
-9.373505305162696e-05   -1.191933679948326e-05   -2.8578545622871127e-05
-0.00010466733588762015   -7.265848083651272e-05   0.0001997729201664751
-0.00010466733588762015   -7.265848083651272e-05   0.0001997729201664751
-0.00010466733588762015   -7.265848083651272e-05   0.0001997729201664751
-0.00010466733588762015   -7.265848083651272e-05   0.0001997729201664751
3.077312714273785e-05   -1.259493331129749e-05   -6.19993133992501e-05
3.077312714273785e-05   -1.259493331129749e-05   -6.19993133992501e-05
3.077312714273785e-05   -1.259493331129749e-05   -6.19993133992501e-05
3.077312714273785e-05   -1.259493331129749e-05   -6.19993133992501e-05
-3.126353357260853e-05   -4.071174537413971e-05   5.826520836403181e-05
-3.126353357260853e-05   -4.071174537413971e-05   5.826520836403181e-05
-3.126353357260853e-05   -4.071174537413971e-05   5.826520836403181e-05
-3.126353357260853e-05   -4.071174537413971e-05   5.826520836403181e-05
3.077312714273785e-05   -7.265848083651272e-05   0.00016373479165134562
3.077312714273785e-05   -7.265848083651272e-05   0.00016373479165134562
3.077312714273785e-05   -7.265848083651272e-05   0.00016373479165134562
3.077312714273785e-05   -7.265848083651272e-05   0.00016373479165134562
-0.00010466733588762004   -1.259493331129749e-05   -2.596118488412246e-05
-0.00010466733588762004   -1.259493331129749e-05   -2.596118488412246e-05
-0.00010466733588762004   -1.259493331129749e-05   -2.596118488412246e-05
-0.00010466733588762004   -1.259493331129749e-05   -2.596118488412246e-05
-0.00011133880521967777   -7.235740761008663e-05   0.00020742222243907028
-0.00011133880521967777   -7.235740761008663e-05   0.00020742222243907028
-0.00011133880521967777   -7.235740761008663e-05   0.00020742222243907028
-0.00011133880521967777   -7.235740761008663e-05   0.00020742222243907028
2.577010988387776e-05   -1.3418225580688961e-05   -5.645614528449372e-05
2.577010988387776e-05   -1.3418225580688961e-05   -5.645614528449372e-05
2.577010988387776e-05   -1.3418225580688961e-05   -5.645614528449372e-05
2.577010988387776e-05   -1.3418225580688961e-05   -5.645614528449372e-05
-3.8659650091501976e-05   -4.061061008621761e-05   6.724221871112247e-05
-3.8659650091501976e-05   -4.061061008621761e-05   6.724221871112247e-05
-3.8659650091501976e-05   -4.061061008621761e-05   6.724221871112247e-05
-3.8659650091501976e-05   -4.061061008621761e-05   6.724221871112247e-05
2.577010988387776e-05   -7.23574076100849e-05   0.00017205871322143254
2.577010988387776e-05   -7.23574076100849e-05   0.00017205871322143254
2.577010988387776e-05   -7.23574076100849e-05   0.00017205871322143254
2.577010988387776e-05   -7.23574076100849e-05   0.00017205871322143254
-0.00011133880521967761   -1.3418225580688961e-05   -2.109263606685577e-05
-0.00011133880521967761   -1.3418225580688961e-05   -2.109263606685577e-05
-0.00011133880521967761   -1.3418225580688961e-05   -2.109263606685577e-05
-0.00011133880521967761   -1.3418225580688961e-05   -2.109263606685577e-05
-0.00011919776168482494   -6.986566350583069e-05   0.00021734367375722194
-0.00011919776168482494   -6.986566350583069e-05   0.00021734367375722194
-0.00011919776168482494   -6.986566350583069e-05   0.00021734367375722194
-0.00011919776168482494   -6.986566350583069e-05   0.00021734367375722194
2.020214347109447e-05   -1.3361368146799432e-05   -4.8892078718063025e-05
2.020214347109447e-05   -1.3361368146799432e-05   -4.8892078718063025e-05
2.020214347109447e-05   -1.3361368146799432e-05   -4.8892078718063025e-05
2.020214347109447e-05   -1.3361368146799432e-05   -4.8892078718063025e-05
-4.46769632837729e-05   -3.903202015785763e-05   7.464215708001792e-05
-4.46769632837729e-05   -3.903202015785763e-05   7.464215708001792e-05
-4.46769632837729e-05   -3.903202015785763e-05   7.464215708001792e-05
-4.46769632837729e-05   -3.903202015785763e-05   7.464215708001792e-05
-9.373505305162717e-05   -8.902048073453246e-05   0.00018834837268578292
-9.373505305162717e-05   -8.902048073453246e-05   0.00018834837268578292
-9.373505305162717e-05   -8.902048073453246e-05   0.00018834837268578292
-9.373505305162717e-05   -8.902048073453246e-05   0.00018834837268578292
-0.00024382485361257626   1.202948683222925e-05   -1.1713143757419164e-06
-0.00024382485361257626   1.202948683222925e-05   -1.1713143757419164e-06
-0.00024382485361257626   1.202948683222925e-05   -1.1713143757419164e-06
-0.00024382485361257626   1.202948683222925e-05   -1.1713143757419164e-06
-0.0002569233062703164   -9.922646745156964e-05   0.0002665544389358855
-0.0002569233062703164   -9.922646745156964e-05   0.0002665544389358855
-0.0002569233062703164   -9.922646745156964e-05   0.0002665544389358855
-0.0002569233062703164   -9.922646745156964e-05   0.0002665544389358855
-0.00010466733588762004   1.1239648992324852e-05   -5.3485181568278676e-05
-0.00010466733588762004   1.1239648992324852e-05   -5.3485181568278676e-05
-0.00010466733588762004   1.1239648992324852e-05   -5.3485181568278676e-05
-0.00010466733588762004   1.1239648992324852e-05   -5.3485181568278676e-05
-0.0001723190395856311   -3.7313252427246396e-05   8.839939878014873e-05
-0.0001723190395856311   -3.7313252427246396e-05   8.839939878014873e-05
-0.0001723190395856311   -3.7313252427246396e-05   8.839939878014873e-05
-0.0001723190395856311   -3.7313252427246396e-05   8.839939878014873e-05
-0.00010466733588762015   -9.922646745156964e-05   0.00020027476906954791
-0.00010466733588762015   -9.922646745156964e-05   0.00020027476906954791
-0.00010466733588762015   -9.922646745156964e-05   0.00020027476906954791
-0.00010466733588762015   -9.922646745156964e-05   0.00020027476906954791
-0.0002569233062703164   1.1239648992324852e-05   1.2794488298058238e-05
-0.0002569233062703164   1.1239648992324852e-05   1.2794488298058238e-05
-0.0002569233062703164   1.1239648992324852e-05   1.2794488298058238e-05
-0.0002569233062703164   1.1239648992324852e-05   1.2794488298058238e-05
-0.0002649146609554111   -9.981941684167502e-05   0.0002814262660701767
-0.0002649146609554111   -9.981941684167502e-05   0.0002814262660701767
-0.0002649146609554111   -9.981941684167502e-05   0.0002814262660701767
-0.0002649146609554111   -9.981941684167502e-05   0.0002814262660701767
-0.00011133880521967761   9.833398243539598e-06   -4.032518254050779e-05
-0.00011133880521967761   9.833398243539598e-06   -4.032518254050779e-05
-0.00011133880521967761   9.833398243539598e-06   -4.032518254050779e-05
-0.00011133880521967761   9.833398243539598e-06   -4.032518254050779e-05
-0.00018085465777147622   -4.28309742295397e-05   0.00010713319519633797
-0.00018085465777147622   -4.28309742295397e-05   0.00010713319519633797
-0.00018085465777147622   -4.28309742295397e-05   0.00010713319519633797
-0.00018085465777147622   -4.28309742295397e-05   0.00010713319519633797
-0.00011133880521967744   -9.981941684167502e-05   0.0002156345770190464
-0.00011133880521967744   -9.981941684167502e-05   0.0002156345770190464
-0.00011133880521967744   -9.981941684167502e-05   0.0002156345770190464
-0.00011133880521967744   -9.981941684167502e-05   0.0002156345770190464
-0.0002649146609554106   9.833398243539598e-06   2.5466506510619935e-05
-0.0002649146609554106   9.833398243539598e-06   2.5466506510619935e-05
-0.0002649146609554106   9.833398243539598e-06   2.5466506510619935e-05
-0.0002649146609554106   9.833398243539598e-06   2.5466506510619935e-05
-0.0002735160936348448   -9.133072776654205e-05   0.0002878816931320156
-0.0002735160936348448   -9.133072776654205e-05   0.0002878816931320156
-0.0002735160936348448   -9.133072776654205e-05   0.0002878816931320156
-0.0002735160936348448   -9.133072776654205e-05   0.0002878816931320156
-0.00011919776168482451   8.247665447323402e-06   -2.9062562713004394e-05
-0.00011919776168482451   8.247665447323402e-06   -2.9062562713004394e-05
-0.00011919776168482451   8.247665447323402e-06   -2.9062562713004394e-05
-0.00011919776168482451   8.247665447323402e-06   -2.9062562713004394e-05
-0.00018961699815061092   -4.3175951311771876e-05   0.00011915700145210162
-0.00018961699815061092   -4.3175951311771876e-05   0.00011915700145210162
-0.00018961699815061092   -4.3175951311771876e-05   0.00011915700145210162
-0.00018961699815061092   -4.3175951311771876e-05   0.00011915700145210162
-0.00024382485361257544   0.0   0.00020926750207730677
-0.00024382485361257544   0.0   0.00020926750207730677
-0.00024382485361257544   0.0   0.00020926750207730677
-0.00024382485361257544   0.0   0.00020926750207730677
-0.0004303481418635173   5.632159981839094e-05   -6.781168511656166e-05
-0.0004303481418635173   5.632159981839094e-05   -6.781168511656166e-05
-0.0004303481418635173   5.632159981839094e-05   -6.781168511656166e-05
-0.0004303481418635173   5.632159981839094e-05   -6.781168511656166e-05
-0.0004484853849061285   0.0   0.00030264377136733026
-0.0004484853849061285   0.0   0.00030264377136733026
-0.0004484853849061285   0.0   0.00030264377136733026
-0.0004484853849061285   0.0   0.00030264377136733026
-0.0002569233062703159   5.4272285481020074e-05   -4.918973098097003e-05
-0.0002569233062703159   5.4272285481020074e-05   -4.918973098097003e-05
-0.0002569233062703159   5.4272285481020074e-05   -4.918973098097003e-05
-0.0002569233062703159   5.4272285481020074e-05   -4.918973098097003e-05
-0.0003301739354966012   3.342138062293297e-05   8.540519397769132e-05
-0.0003301739354966012   3.342138062293297e-05   8.540519397769132e-05
-0.0003301739354966012   3.342138062293297e-05   8.540519397769132e-05
-0.0003301739354966012   3.342138062293297e-05   8.540519397769132e-05
-0.0002569233062703157   0.0   0.0002700804000787191
-0.0002569233062703157   0.0   0.0002700804000787191
-0.0002569233062703157   0.0   0.0002700804000787191
-0.0002569233062703157   0.0   0.0002700804000787191
-0.00044848538490612925   5.4272285481020074e-05   -1.6626359692357984e-05
-0.00044848538490612925   5.4272285481020074e-05   -1.6626359692357984e-05
-0.00044848538490612925   5.4272285481020074e-05   -1.6626359692357984e-05
-0.00044848538490612925   5.4272285481020074e-05   -1.6626359692357984e-05
-0.00045762886667930435   0.0   0.0003358782798954397
-0.00045762886667930435   0.0   0.0003358782798954397
-0.00045762886667930435   0.0   0.0003358782798954397
-0.00045762886667930435   0.0   0.0003358782798954397
-0.0002649146609554106   5.284814649702749e-05   -1.7020950875933517e-05
-0.0002649146609554106   5.284814649702749e-05   -1.7020950875933517e-05
-0.0002649146609554106   5.284814649702749e-05   -1.7020950875933517e-05
-0.0002649146609554106   5.284814649702749e-05   -1.7020950875933517e-05
-0.000347574596389507   2.7882982943646523e-05   0.0001357247063129255
-0.000347574596389507   2.7882982943646523e-05   0.0001357247063129255
-0.000347574596389507   2.7882982943646523e-05   0.0001357247063129255
-0.000347574596389507   2.7882982943646523e-05   0.0001357247063129255
-0.0002649146609554106   0.0   0.0003041693919972246
-0.0002649146609554106   0.0   0.0003041693919972246
-0.0002649146609554106   0.0   0.0003041693919972246
-0.0002649146609554106   0.0   0.0003041693919972246
-0.000457628866679306   5.284814649702749e-05   1.4687937022282889e-05
-0.000457628866679306   5.284814649702749e-05   1.4687937022282889e-05
-0.000457628866679306   5.284814649702749e-05   1.4687937022282889e-05
-0.000457628866679306   5.284814649702749e-05   1.4687937022282889e-05
-0.00046784511361725763   0.0   0.0003802139337202139
-0.00046784511361725763   0.0   0.0003802139337202139
-0.00046784511361725763   0.0   0.0003802139337202139
-0.00046784511361725763   0.0   0.0003802139337202139
-0.0002735160936348448   4.3874752387927304e-05   3.000738231676882e-05
-0.0002735160936348448   4.3874752387927304e-05   3.000738231676882e-05
-0.0002735160936348448   4.3874752387927304e-05   3.000738231676882e-05
-0.0002735160936348448   4.3874752387927304e-05   3.000738231676882e-05
-0.0003505901570411661   1.95100896436904e-05   0.00017308295230717948
-0.0003505901570411661   1.95100896436904e-05   0.00017308295230717948
-0.0003505901570411661   1.95100896436904e-05   0.00017308295230717948
-0.0003505901570411661   1.95100896436904e-05   0.00017308295230717948
0.00029524578696631977   -4.449257306753801e-05   0.0002102081876975935
0.00029524578696631977   -4.449257306753801e-05   0.0002102081876975935
0.00029524578696631977   -4.449257306753801e-05   0.0002102081876975935
0.00029524578696631977   -4.449257306753801e-05   0.0002102081876975935
0.0001494650284380013   -3.34283840474521e-05   -2.6121229770886822e-05
0.0001494650284380013   -3.34283840474521e-05   -2.6121229770886822e-05
0.0001494650284380013   -3.34283840474521e-05   -2.6121229770886822e-05
0.0001494650284380013   -3.34283840474521e-05   -2.6121229770886822e-05
0.0001454809734381159   -4.89471028491343e-05   0.00018361712987787718
0.0001454809734381159   -4.89471028491343e-05   0.00018361712987787718
0.0001454809734381159   -4.89471028491343e-05   0.00018361712987787718
0.0001454809734381159   -4.89471028491343e-05   0.00018361712987787718
0.0002881154340440143   -3.792147720348832e-05   -6.072234651934098e-05
0.0002881154340440143   -3.792147720348832e-05   -6.072234651934098e-05
0.0002881154340440143   -3.792147720348832e-05   -6.072234651934098e-05
0.0002881154340440143   -3.792147720348832e-05   -6.072234651934098e-05
0.0002098015371506962   -3.9540599887206984e-05   7.077228857975415e-05
0.0002098015371506962   -3.9540599887206984e-05   7.077228857975415e-05
0.0002098015371506962   -3.9540599887206984e-05   7.077228857975415e-05
0.0002098015371506962   -3.9540599887206984e-05   7.077228857975415e-05
0.00028811543404401387   -4.89471028491343e-05   0.0001770017544904896
0.00028811543404401387   -4.89471028491343e-05   0.0001770017544904896
0.00028811543404401387   -4.89471028491343e-05   0.0001770017544904896
0.00028811543404401387   -4.89471028491343e-05   0.0001770017544904896
0.0001454809734381161   -3.792147720348832e-05   -5.4106971131953445e-05
0.0001454809734381161   -3.792147720348832e-05   -5.4106971131953445e-05
0.0001454809734381161   -3.792147720348832e-05   -5.4106971131953445e-05
0.0001454809734381161   -3.792147720348832e-05   -5.4106971131953445e-05
0.00014034650203046143   -4.936869644505196e-05   0.00016489510270145495
0.00014034650203046143   -4.936869644505196e-05   0.00016489510270145495
0.00014034650203046143   -4.936869644505196e-05   0.00016489510270145495
0.00014034650203046143   -4.936869644505196e-05   0.00016489510270145495
0.00028091215767335486   -3.859762621625726e-05   -7.584363217397834e-05
0.00028091215767335486   -3.859762621625726e-05   -7.584363217397834e-05
0.00028091215767335486   -3.859762621625726e-05   -7.584363217397834e-05
0.00028091215767335486   -3.859762621625726e-05   -7.584363217397834e-05
0.00020776121070890496   -4.1275228003696124e-05   4.768117383923635e-05
0.00020776121070890496   -4.1275228003696124e-05   4.768117383923635e-05
0.00020776121070890496   -4.1275228003696124e-05   4.768117383923635e-05
0.00020776121070890496   -4.1275228003696124e-05   4.768117383923635e-05
0.00028091215767335486   -4.936869644505022e-05   0.00015843246056417796
0.00028091215767335486   -4.936869644505022e-05   0.00015843246056417796
0.00028091215767335486   -4.936869644505022e-05   0.00015843246056417796
0.00028091215767335486   -4.936869644505022e-05   0.00015843246056417796
0.00014034650203046143   -3.859762621625726e-05   -6.938099003670102e-05
0.00014034650203046143   -3.859762621625726e-05   -6.938099003670102e-05
0.00014034650203046143   -3.859762621625726e-05   -6.938099003670102e-05
0.00014034650203046143   -3.859762621625726e-05   -6.938099003670102e-05
0.00013496253838362888   -4.83783750280329e-05   0.00013715498137519596
0.00013496253838362888   -4.83783750280329e-05   0.00013715498137519596
0.00013496253838362888   -4.83783750280329e-05   0.00013715498137519596
0.00013496253838362888   -4.83783750280329e-05   0.00013715498137519596
0.00027189769574765513   -3.839034492925629e-05   -9.706309895744731e-05
0.00027189769574765513   -3.839034492925629e-05   -9.706309895744731e-05
0.00027189769574765513   -3.839034492925629e-05   -9.706309895744731e-05
0.00027189769574765513   -3.839034492925629e-05   -9.706309895744731e-05
0.0001984341742895637   -4.0207063563668655e-05   2.6466134653354385e-05
0.0001984341742895637   -4.0207063563668655e-05   2.6466134653354385e-05
0.0001984341742895637   -4.0207063563668655e-05   2.6466134653354385e-05
0.0001984341742895637   -4.0207063563668655e-05   2.6466134653354385e-05
0.0001494650284380015   -2.7689475365329577e-05   0.00019941515017104974
0.0001494650284380015   -2.7689475365329577e-05   0.00019941515017104974
0.0001494650284380015   -2.7689475365329577e-05   0.00019941515017104974
0.0001494650284380015   -2.7689475365329577e-05   0.00019941515017104974
1.6729989949591426e-05   -1.1839603341138802e-05   -1.2299990761785451e-05
1.6729989949591426e-05   -1.1839603341138802e-05   -1.2299990761785451e-05
1.6729989949591426e-05   -1.1839603341138802e-05   -1.2299990761785451e-05
1.6729989949591426e-05   -1.1839603341138802e-05   -1.2299990761785451e-05
1.277631667501427e-05   -2.9381029669992356e-05   0.0002078547763906622
1.277631667501427e-05   -2.9381029669992356e-05   0.0002078547763906622
1.277631667501427e-05   -2.9381029669992356e-05   0.0002078547763906622
1.277631667501427e-05   -2.9381029669992356e-05   0.0002078547763906622
0.0001454809734381161   -1.4262090202733432e-05   -2.239101522819606e-05
0.0001454809734381161   -1.4262090202733432e-05   -2.239101522819606e-05
0.0001454809734381161   -1.4262090202733432e-05   -2.239101522819606e-05
0.0001454809734381161   -1.4262090202733432e-05   -2.239101522819606e-05
8.033817963629336e-05   -1.932863922294442e-05   8.922023718696797e-05
8.033817963629336e-05   -1.932863922294442e-05   8.922023718696797e-05
8.033817963629336e-05   -1.932863922294442e-05   8.922023718696797e-05
8.033817963629336e-05   -1.932863922294442e-05   8.922023718696797e-05
0.000145480973438116   -2.9381029669992356e-05   0.00019878341271030615
0.000145480973438116   -2.9381029669992356e-05   0.00019878341271030615
0.000145480973438116   -2.9381029669992356e-05   0.00019878341271030615
0.000145480973438116   -2.9381029669992356e-05   0.00019878341271030615
1.277631667501427e-05   -1.4262090202733432e-05   -1.3319651547841205e-05
1.277631667501427e-05   -1.4262090202733432e-05   -1.3319651547841205e-05
1.277631667501427e-05   -1.4262090202733432e-05   -1.3319651547841205e-05
1.277631667501427e-05   -1.4262090202733432e-05   -1.3319651547841205e-05
7.724993744123742e-06   -3.014872397457194e-05   0.00020596170541702357
7.724993744123742e-06   -3.014872397457194e-05   0.00020596170541702357
7.724993744123742e-06   -3.014872397457194e-05   0.00020596170541702357
7.724993744123742e-06   -3.014872397457194e-05   0.00020596170541702357
0.00014034650203046143   -1.586163828334701e-05   -2.3646393141607807e-05
0.00014034650203046143   -1.586163828334701e-05   -2.3646393141607807e-05
0.00014034650203046143   -1.586163828334701e-05   -2.3646393141607807e-05
0.00014034650203046143   -1.586163828334701e-05   -2.3646393141607807e-05
7.533164680330868e-05   -2.0251475156097404e-05   8.734560102730026e-05
7.533164680330868e-05   -2.0251475156097404e-05   8.734560102730026e-05
7.533164680330868e-05   -2.0251475156097404e-05   8.734560102730026e-05
7.533164680330868e-05   -2.0251475156097404e-05   8.734560102730026e-05
0.00014034650203046127   -3.014872397457194e-05   0.00019738945400228896
0.00014034650203046127   -3.014872397457194e-05   0.00019738945400228896
0.00014034650203046127   -3.014872397457194e-05   0.00019738945400228896
0.00014034650203046127   -3.014872397457194e-05   0.00019738945400228896
7.724993744123742e-06   -1.586163828334701e-05   -1.5074141726871895e-05
7.724993744123742e-06   -1.586163828334701e-05   -1.5074141726871895e-05
7.724993744123742e-06   -1.586163828334701e-05   -1.5074141726871895e-05
7.724993744123742e-06   -1.586163828334701e-05   -1.5074141726871895e-05
2.1443712789807976e-06   -2.9496534171235406e-05   0.00020905362992364607
2.1443712789807976e-06   -2.9496534171235406e-05   0.00020905362992364607
2.1443712789807976e-06   -2.9496534171235406e-05   0.00020905362992364607
2.1443712789807976e-06   -2.9496534171235406e-05   0.00020905362992364607
0.00013496253838362883   -1.656296124896532e-05   -2.0070125670795563e-05
0.00013496253838362883   -1.656296124896532e-05   -2.0070125670795563e-05
0.00013496253838362883   -1.656296124896532e-05   -2.0070125670795563e-05
0.00013496253838362883   -1.656296124896532e-05   -2.0070125670795563e-05
7.123550896406941e-05   -2.0074905553290473e-05   8.824875661106913e-05
7.123550896406941e-05   -2.0074905553290473e-05   8.824875661106913e-05
7.123550896406941e-05   -2.0074905553290473e-05   8.824875661106913e-05
7.123550896406941e-05   -2.0074905553290473e-05   8.824875661106913e-05
1.6729989949591426e-05   -1.1919336799484995e-05   0.0002040508257747601
1.6729989949591426e-05   -1.1919336799484995e-05   0.0002040508257747601
1.6729989949591426e-05   -1.1919336799484995e-05   0.0002040508257747601
1.6729989949591426e-05   -1.1919336799484995e-05   0.0002040508257747601
-0.00011182811626197825   1.0425773896542007e-05   3.194381839758363e-06
-0.00011182811626197825   1.0425773896542007e-05   3.194381839758363e-06
-0.00011182811626197825   1.0425773896542007e-05   3.194381839758363e-06
-0.00011182811626197825   1.0425773896542007e-05   3.194381839758363e-06
-0.00011628114928452439   -1.259493331129749e-05   0.0002190049844302145
-0.00011628114928452439   -1.259493331129749e-05   0.0002190049844302145
-0.00011628114928452439   -1.259493331129749e-05   0.0002190049844302145
-0.00011628114928452439   -1.259493331129749e-05   0.0002190049844302145
1.277631667501427e-05   8.557368872352117e-06   -8.782173479205974e-06
1.277631667501427e-05   8.557368872352117e-06   -8.782173479205974e-06
1.277631667501427e-05   8.557368872352117e-06   -8.782173479205974e-06
1.277631667501427e-05   8.557368872352117e-06   -8.782173479205974e-06
-4.955815028563035e-05   -3.9930668094614874e-07   0.00010048261012051275
-4.955815028563035e-05   -3.9930668094614874e-07   0.00010048261012051275
-4.955815028563035e-05   -3.9930668094614874e-07   0.00010048261012051275
-4.955815028563035e-05   -3.9930668094614874e-07   0.00010048261012051275
1.277631667501427e-05   -1.259493331129749e-05   0.0002063136031200249
1.277631667501427e-05   -1.259493331129749e-05   0.0002063136031200249
1.277631667501427e-05   -1.259493331129749e-05   0.0002063136031200249
1.277631667501427e-05   -1.259493331129749e-05   0.0002063136031200249
-0.00011628114928452439   8.557368872352117e-06   3.90920783098405e-06
-0.00011628114928452439   8.557368872352117e-06   3.90920783098405e-06
-0.00011628114928452439   8.557368872352117e-06   3.90920783098405e-06
-0.00011628114928452439   8.557368872352117e-06   3.90920783098405e-06
-0.00012226083025352913   -1.3418225580690696e-05   0.00022342992196254085
-0.00012226083025352913   -1.3418225580690696e-05   0.00022342992196254085
-0.00012226083025352913   -1.3418225580690696e-05   0.00022342992196254085
-0.00012226083025352913   -1.3418225580690696e-05   0.00022342992196254085
7.724993744123742e-06   6.817981345230012e-06   -5.354842189098899e-06
7.724993744123742e-06   6.817981345230012e-06   -5.354842189098899e-06
7.724993744123742e-06   6.817981345230012e-06   -5.354842189098899e-06
7.724993744123742e-06   6.817981345230012e-06   -5.354842189098899e-06
-5.3953293878888106e-05   -9.345440504775898e-07   0.00010209381908667938
-5.3953293878888106e-05   -9.345440504775898e-07   0.00010209381908667938
-5.3953293878888106e-05   -9.345440504775898e-07   0.00010209381908667938
-5.3953293878888106e-05   -9.345440504775898e-07   0.00010209381908667938
7.724993744123742e-06   -1.3418225580688961e-05   0.00021128819780698912
7.724993744123742e-06   -1.3418225580688961e-05   0.00021128819780698912
7.724993744123742e-06   -1.3418225580688961e-05   0.00021128819780698912
7.724993744123742e-06   -1.3418225580688961e-05   0.00021128819780698912
-0.0001222608302535288   6.817981345230012e-06   6.78688196645294e-06
-0.0001222608302535288   6.817981345230012e-06   6.78688196645294e-06
-0.0001222608302535288   6.817981345230012e-06   6.78688196645294e-06
-0.0001222608302535288   6.817981345230012e-06   6.78688196645294e-06
-0.0001286319954267298   -1.3361368146801167e-05   0.00022873820076797866
-0.0001286319954267298   -1.3361368146801167e-05   0.00022873820076797866
-0.0001286319954267298   -1.3361368146801167e-05   0.00022873820076797866
-0.0001286319954267298   -1.3361368146801167e-05   0.00022873820076797866
2.144371278980689e-06   5.561566603976692e-06   -5.761712586710519e-07
2.144371278980689e-06   5.561566603976692e-06   -5.761712586710519e-07
2.144371278980689e-06   5.561566603976692e-06   -5.761712586710519e-07
2.144371278980689e-06   5.561566603976692e-06   -5.761712586710519e-07
-5.9562133250784305e-05   -1.3241488143571345e-06   0.00010639943220860665
-5.9562133250784305e-05   -1.3241488143571345e-06   0.00010639943220860665
-5.9562133250784305e-05   -1.3241488143571345e-06   0.00010639943220860665
-5.9562133250784305e-05   -1.3241488143571345e-06   0.00010639943220860665
-0.00011182811626197782   1.202948683222925e-05   0.0001842351428994471
-0.00011182811626197782   1.202948683222925e-05   0.0001842351428994471
-0.00011182811626197782   1.202948683222925e-05   0.0001842351428994471
-0.00011182811626197782   1.202948683222925e-05   0.0001842351428994471
-0.0002376607817429731   3.408976862967483e-05   -1.2249797157078829e-05
-0.0002376607817429731   3.408976862967483e-05   -1.2249797157078829e-05
-0.0002376607817429731   3.408976862967483e-05   -1.2249797157078829e-05
-0.0002376607817429731   3.408976862967483e-05   -1.2249797157078829e-05
-0.000244166903378738   1.1239648992323117e-05   0.00020406243385777227
-0.000244166903378738   1.1239648992323117e-05   0.00020406243385777227
-0.000244166903378738   1.1239648992323117e-05   0.00020406243385777227
-0.000244166903378738   1.1239648992323117e-05   0.00020406243385777227
-0.00011628114928452396   3.220872584518142e-05   -2.1661935744298096e-05
-0.00011628114928452396   3.220872584518142e-05   -2.1661935744298096e-05
-0.00011628114928452396   3.220872584518142e-05   -2.1661935744298096e-05
-0.00011628114928452396   3.220872584518142e-05   -2.1661935744298096e-05
-0.0001760704546558907   2.2804379365137795e-05   8.362951442933832e-05
-0.0001760704546558907   2.2804379365137795e-05   8.362951442933832e-05
-0.0001760704546558907   2.2804379365137795e-05   8.362951442933832e-05
-0.0001760704546558907   2.2804379365137795e-05   8.362951442933832e-05
-0.00011628114928452418   1.1239648992323117e-05   0.0001914809877460585
-0.00011628114928452418   1.1239648992323117e-05   0.0001914809877460585
-0.00011628114928452418   1.1239648992323117e-05   0.0001914809877460585
-0.00011628114928452418   1.1239648992323117e-05   0.0001914809877460585
-0.0002441669033787377   3.220872584518142e-05   -9.080489632583462e-06
-0.0002441669033787377   3.220872584518142e-05   -9.080489632583462e-06
-0.0002441669033787377   3.220872584518142e-05   -9.080489632583462e-06
-0.0002441669033787377   3.220872584518142e-05   -9.080489632583462e-06
-0.000252133120188042   9.833398243539598e-06   0.00021658314298341266
-0.000252133120188042   9.833398243539598e-06   0.00021658314298341266
-0.000252133120188042   9.833398243539598e-06   0.00021658314298341266
-0.000252133120188042   9.833398243539598e-06   0.00021658314298341266
-0.0001222608302535288   3.0476344067746283e-05   -1.2256441068633208e-05
-0.0001222608302535288   3.0476344067746283e-05   -1.2256441068633208e-05
-0.0001222608302535288   3.0476344067746283e-05   -1.2256441068633208e-05
-0.0001222608302535288   3.0476344067746283e-05   -1.2256441068633208e-05
-0.0001809307367627626   2.2353880833724665e-05   9.040021438716907e-05
-0.0001809307367627626   2.2353880833724665e-05   9.040021438716907e-05
-0.0001809307367627626   2.2353880833724665e-05   9.040021438716907e-05
-0.0001809307367627626   2.2353880833724665e-05   9.040021438716907e-05
-0.0001222608302535288   9.833398243539598e-06   0.0002041973754888871
-0.0001222608302535288   9.833398243539598e-06   0.0002041973754888871
-0.0001222608302535288   9.833398243539598e-06   0.0002041973754888871
-0.0001222608302535288   9.833398243539598e-06   0.0002041973754888871
-0.000252133120188042   3.0476344067746283e-05   1.293264258895449e-07
-0.000252133120188042   3.0476344067746283e-05   1.293264258895449e-07
-0.000252133120188042   3.0476344067746283e-05   1.293264258895449e-07
-0.000252133120188042   3.0476344067746283e-05   1.293264258895449e-07
-0.0002605699882571845   8.247665447323402e-06   0.00022661002994488286
-0.0002605699882571845   8.247665447323402e-06   0.00022661002994488286
-0.0002605699882571845   8.247665447323402e-06   0.00022661002994488286
-0.0002605699882571845   8.247665447323402e-06   0.00022661002994488286
-0.00012863199542672936   2.8155816092759536e-05   -5.231515159803777e-06
-0.00012863199542672936   2.8155816092759536e-05   -5.231515159803777e-06
-0.00012863199542672936   2.8155816092759536e-05   -5.231515159803777e-06
-0.00012863199542672936   2.8155816092759536e-05   -5.231515159803777e-06
-0.00018897619608584996   2.0942151754578878e-05   9.967035120831097e-05
-0.00018897619608584996   2.0942151754578878e-05   9.967035120831097e-05
-0.00018897619608584996   2.0942151754578878e-05   9.967035120831097e-05
-0.00018897619608584996   2.0942151754578878e-05   9.967035120831097e-05
-0.0002376607817429731   5.632159981839094e-05   9.70379813460577e-05
-0.0002376607817429731   5.632159981839094e-05   9.70379813460577e-05
-0.0002376607817429731   5.632159981839094e-05   9.70379813460577e-05
-0.0002376607817429731   5.632159981839094e-05   9.70379813460577e-05
-0.0003580333092097621   5.5440673650312966e-05   -0.00010411145346610282
-0.0003580333092097621   5.5440673650312966e-05   -0.00010411145346610282
-0.0003580333092097621   5.5440673650312966e-05   -0.00010411145346610282
-0.0003580333092097621   5.5440673650312966e-05   -0.00010411145346610282
-0.0003697007064381834   5.4272285481020074e-05   0.00014339523812090076
-0.0003697007064381834   5.4272285481020074e-05   0.00014339523812090076
-0.0003697007064381834   5.4272285481020074e-05   0.00014339523812090076
-0.0003697007064381834   5.4272285481020074e-05   0.00014339523812090076
-0.0002441669033787377   5.646732471794452e-05   -6.714479052033137e-05
-0.0002441669033787377   5.646732471794452e-05   -6.714479052033137e-05
-0.0002441669033787377   5.646732471794452e-05   -6.714479052033137e-05
-0.0002441669033787377   5.646732471794452e-05   -6.714479052033137e-05
-0.00029021895552026303   5.653413282230915e-05   9.568544852926611e-06
-0.00029021895552026303   5.653413282230915e-05   9.568544852926611e-06
-0.00029021895552026303   5.653413282230915e-05   9.568544852926611e-06
-0.00029021895552026303   5.653413282230915e-05   9.568544852926611e-06
-0.00024416690337873746   5.4272285481020074e-05   0.00014207821457874574
-0.00024416690337873746   5.4272285481020074e-05   0.00014207821457874574
-0.00024416690337873746   5.4272285481020074e-05   0.00014207821457874574
-0.00024416690337873746   5.4272285481020074e-05   0.00014207821457874574
-0.0003697007064381834   5.646732471794452e-05   -6.582776697817636e-05
-0.0003697007064381834   5.646732471794452e-05   -6.582776697817636e-05
-0.0003697007064381834   5.646732471794452e-05   -6.582776697817636e-05
-0.0003697007064381834   5.646732471794452e-05   -6.582776697817636e-05
-0.0003811431773884504   5.284814649702749e-05   0.00017601584646802313
-0.0003811431773884504   5.284814649702749e-05   0.00017601584646802313
-0.0003811431773884504   5.284814649702749e-05   0.00017601584646802313
-0.0003811431773884504   5.284814649702749e-05   0.00017601584646802313
-0.0002521331201880416   5.604841461563474e-05   -4.0921076403823775e-05
-0.0002521331201880416   5.604841461563474e-05   -4.0921076403823775e-05
-0.0002521331201880416   5.604841461563474e-05   -4.0921076403823775e-05
-0.0002521331201880416   5.604841461563474e-05   -4.0921076403823775e-05
-0.00030352961384233127   5.6493168837691565e-05   4.447289382009502e-05
-0.00030352961384233127   5.6493168837691565e-05   4.447289382009502e-05
-0.00030352961384233127   5.6493168837691565e-05   4.447289382009502e-05
-0.00030352961384233127   5.6493168837691565e-05   4.447289382009502e-05
-0.0002521331201880416   5.284814649702749e-05   0.0001740956855968579
-0.0002521331201880416   5.284814649702749e-05   0.0001740956855968579
-0.0002521331201880416   5.284814649702749e-05   0.0001740956855968579
-0.0002521331201880416   5.284814649702749e-05   0.0001740956855968579
-0.0003811431773884504   5.604841461563648e-05   -3.900091553265834e-05
-0.0003811431773884504   5.604841461563648e-05   -3.900091553265834e-05
-0.0003811431773884504   5.604841461563648e-05   -3.900091553265834e-05
-0.0003811431773884504   5.604841461563648e-05   -3.900091553265834e-05
-0.00039463168720993804   4.387475238792557e-05   0.0002305438109840019
-0.00039463168720993804   4.387475238792557e-05   0.0002305438109840019
-0.00039463168720993804   4.387475238792557e-05   0.0002305438109840019
-0.00039463168720993804   4.387475238792557e-05   0.0002305438109840019
-0.00026056998825718365   5.155953895070488e-05   2.496774125078545e-06
-0.00026056998825718365   5.155953895070488e-05   2.496774125078545e-06
-0.00026056998825718365   5.155953895070488e-05   2.496774125078545e-06
-0.00026056998825718365   5.155953895070488e-05   2.496774125078545e-06
-0.0003084000805830814   5.3783989720911085e-05   8.087892420612e-05
-0.0003084000805830814   5.3783989720911085e-05   8.087892420612e-05
-0.0003084000805830814   5.3783989720911085e-05   8.087892420612e-05
-0.0003084000805830814   5.3783989720911085e-05   8.087892420612e-05
0.000238701997583184   -3.342838404745384e-05   0.00018481078941984946
0.000238701997583184   -3.342838404745384e-05   0.00018481078941984946
0.000238701997583184   -3.342838404745384e-05   0.00018481078941984946
0.000238701997583184   -3.342838404745384e-05   0.00018481078941984946
0.00011829564327364115   -2.4409325480315852e-05   -1.0455032622439832e-05
0.00011829564327364115   -2.4409325480315852e-05   -1.0455032622439832e-05
0.00011829564327364115   -2.4409325480315852e-05   -1.0455032622439832e-05
0.00011829564327364115   -2.4409325480315852e-05   -1.0455032622439832e-05
0.00011370850344432422   -3.792147720348832e-05   0.00016080320024423889
0.00011370850344432422   -3.792147720348832e-05   0.00016080320024423889
0.00011370850344432422   -3.792147720348832e-05   0.00016080320024423889
0.00011370850344432422   -3.792147720348832e-05   0.00016080320024423889
0.0002302601868332119   -2.835254251200986e-05   -3.9190966218792336e-05
0.0002302601868332119   -2.835254251200986e-05   -3.9190966218792336e-05
0.0002302601868332119   -2.835254251200986e-05   -3.9190966218792336e-05
0.0002302601868332119   -2.835254251200986e-05   -3.9190966218792336e-05
0.0001672165564234424   -3.071266024316788e-05   6.729782176951844e-05
0.0001672165564234424   -3.071266024316788e-05   6.729782176951844e-05
0.0001672165564234424   -3.071266024316788e-05   6.729782176951844e-05
0.0001672165564234424   -3.071266024316788e-05   6.729782176951844e-05
0.0002302601868332115   -3.792147720348832e-05   0.00015506183942935303
0.0002302601868332115   -3.792147720348832e-05   0.00015506183942935303
0.0002302601868332115   -3.792147720348832e-05   0.00015506183942935303
0.0002302601868332115   -3.792147720348832e-05   0.00015506183942935303
0.0001137085034443246   -2.835254251200986e-05   -3.344960540390546e-05
0.0001137085034443246   -2.835254251200986e-05   -3.344960540390546e-05
0.0001137085034443246   -2.835254251200986e-05   -3.344960540390546e-05
0.0001137085034443246   -2.835254251200986e-05   -3.344960540390546e-05
0.00010861470882974283   -3.859762621625552e-05   0.0001441695735674162
0.00010861470882974283   -3.859762621625552e-05   0.0001441695735674162
0.00010861470882974283   -3.859762621625552e-05   0.0001441695735674162
0.00010861470882974283   -3.859762621625552e-05   0.0001441695735674162
0.0002226229437409856   -2.9150410595394846e-05   -5.1512480657170347e-05
0.0002226229437409856   -2.9150410595394846e-05   -5.1512480657170347e-05
0.0002226229437409856   -2.9150410595394846e-05   -5.1512480657170347e-05
0.0002226229437409856   -2.9150410595394846e-05   -5.1512480657170347e-05
0.000164002092984647   -3.2238232020292273e-05   4.8041630124996476e-05
0.000164002092984647   -3.2238232020292273e-05   4.8041630124996476e-05
0.000164002092984647   -3.2238232020292273e-05   4.8041630124996476e-05
0.000164002092984647   -3.2238232020292273e-05   4.8041630124996476e-05
0.00022262294374098479   -3.859762621625552e-05   0.00013850124419490135
0.00022262294374098479   -3.859762621625552e-05   0.00013850124419490135
0.00022262294374098479   -3.859762621625552e-05   0.00013850124419490135
0.00022262294374098479   -3.859762621625552e-05   0.00013850124419490135
0.00010861470882974299   -2.9150410595394846e-05   -4.5844151284652954e-05
0.00010861470882974299   -2.9150410595394846e-05   -4.5844151284652954e-05
0.00010861470882974299   -2.9150410595394846e-05   -4.5844151284652954e-05
0.00010861470882974299   -2.9150410595394846e-05   -4.5844151284652954e-05
0.00010371866515114931   -3.839034492925629e-05   0.00012102131413305878
0.00010371866515114931   -3.839034492925629e-05   0.00012102131413305878
0.00010371866515114931   -3.839034492925629e-05   0.00012102131413305878
0.00010371866515114931   -3.839034492925629e-05   0.00012102131413305878
0.0002139798083042098   -2.9501932763352154e-05   -6.808030508824984e-05
0.0002139798083042098   -2.9501932763352154e-05   -6.808030508824984e-05
0.0002139798083042098   -2.9501932763352154e-05   -6.808030508824984e-05
0.0002139798083042098   -2.9501932763352154e-05   -6.808030508824984e-05
0.00015548287984657252   -3.1705247847910525e-05   3.07365647252162e-05
0.00015548287984657252   -3.1705247847910525e-05   3.07365647252162e-05
0.00015548287984657252   -3.1705247847910525e-05   3.07365647252162e-05
0.00015548287984657252   -3.1705247847910525e-05   3.07365647252162e-05
0.00011829564327364115   -1.1839603341138802e-05   0.00019453354035471864
0.00011829564327364115   -1.1839603341138802e-05   0.00019453354035471864
0.00011829564327364115   -1.1839603341138802e-05   0.00019453354035471864
0.00011829564327364115   -1.1839603341138802e-05   0.00019453354035471864
5.281849005435825e-06   -4.657292459544354e-06   1.0486603103332555e-05
5.281849005435825e-06   -4.657292459544354e-06   1.0486603103332555e-05
5.281849005435825e-06   -4.657292459544354e-06   1.0486603103332555e-05
5.281849005435825e-06   -4.657292459544354e-06   1.0486603103332555e-05
8.819124811027153e-07   -1.4262090202733432e-05   0.00019660001228114562
8.819124811027153e-07   -1.4262090202733432e-05   0.00019660001228114562
8.819124811027153e-07   -1.4262090202733432e-05   0.00019660001228114562
8.819124811027153e-07   -1.4262090202733432e-05   0.00019660001228114562
0.0001137085034443246   -7.4606633141526685e-06   4.474837875961075e-06
0.0001137085034443246   -7.4606633141526685e-06   4.474837875961075e-06
0.0001137085034443246   -7.4606633141526685e-06   4.474837875961075e-06
0.0001137085034443246   -7.4606633141526685e-06   4.474837875961075e-06
5.8821475819811555e-05   -9.197392228911527e-06   9.699525459900432e-05
5.8821475819811555e-05   -9.197392228911527e-06   9.699525459900432e-05
5.8821475819811555e-05   -9.197392228911527e-06   9.699525459900432e-05
5.8821475819811555e-05   -9.197392228911527e-06   9.699525459900432e-05
0.00011370850344432455   -1.4262090202735167e-05   0.00019251915614799768
0.00011370850344432455   -1.4262090202735167e-05   0.00019251915614799768
0.00011370850344432455   -1.4262090202735167e-05   0.00019251915614799768
0.00011370850344432455   -1.4262090202735167e-05   0.00019251915614799768
8.819124811027153e-07   -7.4606633141526685e-06   8.555694009110097e-06
8.819124811027153e-07   -7.4606633141526685e-06   8.555694009110097e-06
8.819124811027153e-07   -7.4606633141526685e-06   8.555694009110097e-06
8.819124811027153e-07   -7.4606633141526685e-06   8.555694009110097e-06
-3.6912759267898826e-06   -1.586163828334701e-05   0.00019368976002336231
-3.6912759267898826e-06   -1.586163828334701e-05   0.00019368976002336231
-3.6912759267898826e-06   -1.586163828334701e-05   0.00019368976002336231
-3.6912759267898826e-06   -1.586163828334701e-05   0.00019368976002336231
0.00010861470882974299   -9.552322348593476e-06   2.7275292016230098e-06
0.00010861470882974299   -9.552322348593476e-06   2.7275292016230098e-06
0.00010861470882974299   -9.552322348593476e-06   2.7275292016230098e-06
0.00010861470882974299   -9.552322348593476e-06   2.7275292016230098e-06
5.377885120933811e-05   -1.0670353931820434e-05   9.479144418556994e-05
5.377885120933811e-05   -1.0670353931820434e-05   9.479144418556994e-05
5.377885120933811e-05   -1.0670353931820434e-05   9.479144418556994e-05
5.377885120933811e-05   -1.0670353931820434e-05   9.479144418556994e-05
0.00010861470882974283   -1.586163828334701e-05   0.00018990417046250985
0.00010861470882974283   -1.586163828334701e-05   0.00018990417046250985
0.00010861470882974283   -1.586163828334701e-05   0.00018990417046250985
0.00010861470882974283   -1.586163828334701e-05   0.00018990417046250985
-3.6912759267898826e-06   -9.552322348593476e-06   6.513118762475206e-06
-3.6912759267898826e-06   -9.552322348593476e-06   6.513118762475206e-06
-3.6912759267898826e-06   -9.552322348593476e-06   6.513118762475206e-06
-3.6912759267898826e-06   -9.552322348593476e-06   6.513118762475206e-06
-8.452184319916907e-06   -1.656296124896532e-05   0.00019523122252989526
-8.452184319916907e-06   -1.656296124896532e-05   0.00019523122252989526
-8.452184319916907e-06   -1.656296124896532e-05   0.00019523122252989526
-8.452184319916907e-06   -1.656296124896532e-05   0.00019523122252989526
0.00010371866515114956   -1.1213372633215452e-05   5.070053575333979e-06
0.00010371866515114956   -1.1213372633215452e-05   5.070053575333979e-06
0.00010371866515114956   -1.1213372633215452e-05   5.070053575333979e-06
0.00010371866515114956   -1.1213372633215452e-05   5.070053575333979e-06
4.9973005155105866e-05   -1.1472375543867055e-05   9.480155531513441e-05
4.9973005155105866e-05   -1.1472375543867055e-05   9.480155531513441e-05
4.9973005155105866e-05   -1.1472375543867055e-05   9.480155531513441e-05
4.9973005155105866e-05   -1.1472375543867055e-05   9.480155531513441e-05
5.281849005435825e-06   1.0425773896542007e-05   0.00020093023306760275
5.281849005435825e-06   1.0425773896542007e-05   0.00020093023306760275
5.281849005435825e-06   1.0425773896542007e-05   0.00020093023306760275
5.281849005435825e-06   1.0425773896542007e-05   0.00020093023306760275
-0.00010440617228163593   1.5207150736938277e-05   2.0985690360052385e-05
-0.00010440617228163593   1.5207150736938277e-05   2.0985690360052385e-05
-0.00010440617228163593   1.5207150736938277e-05   2.0985690360052385e-05
-0.00010440617228163593   1.5207150736938277e-05   2.0985690360052385e-05
-0.00010900132384477961   8.557368872352117e-06   0.00020372135629753273
-0.00010900132384477961   8.557368872352117e-06   0.00020372135629753273
-0.00010900132384477961   8.557368872352117e-06   0.00020372135629753273
-0.00010900132384477961   8.557368872352117e-06   0.00020372135629753273
8.819124811027153e-07   1.2863812118605114e-05   1.7998763139976748e-05
8.819124811027153e-07   1.2863812118605114e-05   1.7998763139976748e-05
8.819124811027153e-07   1.2863812118605114e-05   1.7998763139976748e-05
8.819124811027153e-07   1.2863812118605114e-05   1.7998763139976748e-05
-5.189198791182031e-05   1.1907092109800926e-05   0.0001065292958001313
-5.189198791182031e-05   1.1907092109800926e-05   0.0001065292958001313
-5.189198791182031e-05   1.1907092109800926e-05   0.0001065292958001313
-5.189198791182031e-05   1.1907092109800926e-05   0.0001065292958001313
8.819124811027153e-07   8.557368872352117e-06   0.00020113749034978128
8.819124811027153e-07   8.557368872352117e-06   0.00020113749034978128
8.819124811027153e-07   8.557368872352117e-06   0.00020113749034978128
8.819124811027153e-07   8.557368872352117e-06   0.00020113749034978128
-0.00010900132384477961   1.2863812118605114e-05   2.058262908772885e-05
-0.00010900132384477961   1.2863812118605114e-05   2.058262908772885e-05
-0.00010900132384477961   1.2863812118605114e-05   2.058262908772885e-05
-0.00010900132384477961   1.2863812118605114e-05   2.058262908772885e-05
-0.0001138564787796758   6.817981345228277e-06   0.00020567104285873494
-0.0001138564787796758   6.817981345228277e-06   0.00020567104285873494
-0.0001138564787796758   6.817981345228277e-06   0.00020567104285873494
-0.0001138564787796758   6.817981345228277e-06   0.00020567104285873494
-3.6912759267898826e-06   1.0587953507895306e-05   1.9800388139658916e-05
-3.6912759267898826e-06   1.0587953507895306e-05   1.9800388139658916e-05
-3.6912759267898826e-06   1.0587953507895306e-05   1.9800388139658916e-05
-3.6912759267898826e-06   1.0587953507895306e-05   1.9800388139658916e-05
-5.6162499257974435e-05   1.056345805705225e-05   0.00010726712429547222
-5.6162499257974435e-05   1.056345805705225e-05   0.00010726712429547222
-5.6162499257974435e-05   1.056345805705225e-05   0.00010726712429547222
-5.6162499257974435e-05   1.056345805705225e-05   0.00010726712429547222
-3.6912759267898826e-06   6.817981345230012e-06   0.00020340905956113542
-3.6912759267898826e-06   6.817981345230012e-06   0.00020340905956113542
-3.6912759267898826e-06   6.817981345230012e-06   0.00020340905956113542
-3.6912759267898826e-06   6.817981345230012e-06   0.00020340905956113542
-0.00011385647877967602   1.0587953507895306e-05   2.206237143725833e-05
-0.00011385647877967602   1.0587953507895306e-05   2.206237143725833e-05
-0.00011385647877967602   1.0587953507895306e-05   2.206237143725833e-05
-0.00011385647877967602   1.0587953507895306e-05   2.206237143725833e-05
-0.0001188681838266882   5.561566603976692e-06   0.00020876499457653935
-0.0001188681838266882   5.561566603976692e-06   0.00020876499457653935
-0.0001188681838266882   5.561566603976692e-06   0.00020876499457653935
-0.0001188681838266882   5.561566603976692e-06   0.00020876499457653935
-8.452184319916907e-06   8.561502250450242e-06   2.293836734403845e-05
-8.452184319916907e-06   8.561502250450242e-06   2.293836734403845e-05
-8.452184319916907e-06   8.561502250450242e-06   2.293836734403845e-05
-8.452184319916907e-06   8.561502250450242e-06   2.293836734403845e-05
-6.078363364024939e-05   9.27500805275247e-06   0.00010972934606321393
-6.078363364024939e-05   9.27500805275247e-06   0.00010972934606321393
-6.078363364024939e-05   9.27500805275247e-06   0.00010972934606321393
-6.078363364024939e-05   9.27500805275247e-06   0.00010972934606321393
-0.00010440617228163625   3.408976862967483e-05   0.00017511871109653684
-0.00010440617228163625   3.408976862967483e-05   0.00017511871109653684
-0.00010440617228163625   3.408976862967483e-05   0.00017511871109653684
-0.00010440617228163625   3.408976862967483e-05   0.00017511871109653684
-0.0002105313716125461   3.4518703704296966e-05   -1.4992600768735237e-06
-0.0002105313716125461   3.4518703704296966e-05   -1.4992600768735237e-06
-0.0002105313716125461   3.4518703704296966e-05   -1.4992600768735237e-06
-0.0002105313716125461   3.4518703704296966e-05   -1.4992600768735237e-06
-0.00021586741351088288   3.220872584518142e-05   0.0001781878910721837
-0.00021586741351088288   3.220872584518142e-05   0.0001781878910721837
-0.00021586741351088288   3.220872584518142e-05   0.0001781878910721837
-0.00021586741351088288   3.220872584518142e-05   0.0001781878910721837
-0.00010900132384477983   3.227152309506938e-05   4.0063278745720854e-08
-0.00010900132384477983   3.227152309506938e-05   4.0063278745720854e-08
-0.00010900132384477983   3.227152309506938e-05   4.0063278745720854e-08
-0.00010900132384477983   3.227152309506938e-05   4.0063278745720854e-08
-0.0001592362820384011   3.3205478167527835e-05   8.320462055797341e-05
-0.0001592362820384011   3.3205478167527835e-05   8.320462055797341e-05
-0.0001592362820384011   3.3205478167527835e-05   8.320462055797341e-05
-0.0001592362820384011   3.3205478167527835e-05   8.320462055797341e-05
-0.00010900132384477983   3.220872584518142e-05   0.00017815021272225146
-0.00010900132384477983   3.220872584518142e-05   0.00017815021272225146
-0.00010900132384477983   3.220872584518142e-05   0.00017815021272225146
-0.00010900132384477983   3.220872584518142e-05   0.00017815021272225146
-0.00021586741351088245   3.227152309506938e-05   7.774162867884432e-08
-0.00021586741351088245   3.227152309506938e-05   7.774162867884432e-08
-0.00021586741351088245   3.227152309506938e-05   7.774162867884432e-08
-0.00021586741351088245   3.227152309506938e-05   7.774162867884432e-08
-0.00022178665066836833   3.0476344067746283e-05   0.00018646672614727484
-0.00022178665066836833   3.0476344067746283e-05   0.00018646672614727484
-0.00022178665066836833   3.0476344067746283e-05   0.00018646672614727484
-0.00022178665066836833   3.0476344067746283e-05   0.00018646672614727484
-0.00011385647877967602   3.0208021273788604e-05   6.7441000091627776e-06
-0.00011385647877967602   3.0208021273788604e-05   6.7441000091627776e-06
-0.00011385647877967602   3.0208021273788604e-05   6.7441000091627776e-06
-0.00011385647877967602   3.0208021273788604e-05   6.7441000091627776e-06
-0.00016311085720320312   3.19309348846223e-05   8.780098254854173e-05
-0.00016311085720320312   3.19309348846223e-05   8.780098254854173e-05
-0.00016311085720320312   3.19309348846223e-05   8.780098254854173e-05
-0.00016311085720320312   3.19309348846223e-05   8.780098254854173e-05
-0.00011385647877967591   3.0476344067746283e-05   0.0001866277198236503
-0.00011385647877967591   3.0476344067746283e-05   0.0001866277198236503
-0.00011385647877967591   3.0476344067746283e-05   0.0001866277198236503
-0.00011385647877967591   3.0476344067746283e-05   0.0001866277198236503
-0.0002217866506683679   3.0208021273788604e-05   6.58310633278817e-06
-0.0002217866506683679   3.0208021273788604e-05   6.58310633278817e-06
-0.0002217866506683679   3.0208021273788604e-05   6.58310633278817e-06
-0.0002217866506683679   3.0208021273788604e-05   6.58310633278817e-06
-0.00022743105792227217   2.8155816092759536e-05   0.0001924796390344128
-0.00022743105792227217   2.8155816092759536e-05   0.0001924796390344128
-0.00022743105792227217   2.8155816092759536e-05   0.0001924796390344128
-0.00022743105792227217   2.8155816092759536e-05   0.0001924796390344128
-0.00011886818382668863   2.7695398108545585e-05   1.181776633230264e-05
-0.00011886818382668863   2.7695398108545585e-05   1.181776633230264e-05
-0.00011886818382668863   2.7695398108545585e-05   1.181776633230264e-05
-0.00011886818382668863   2.7695398108545585e-05   1.181776633230264e-05
-0.0001692374066294381   3.0286119084961538e-05   9.421203841770889e-05
-0.0001692374066294381   3.0286119084961538e-05   9.421203841770889e-05
-0.0001692374066294381   3.0286119084961538e-05   9.421203841770889e-05
-0.0001692374066294381   3.0286119084961538e-05   9.421203841770889e-05
-0.00021053137161254577   5.54406736503147e-05   8.404297153313204e-05
-0.00021053137161254577   5.54406736503147e-05   8.404297153313204e-05
-0.00021053137161254577   5.54406736503147e-05   8.404297153313204e-05
-0.00021053137161254577   5.54406736503147e-05   8.404297153313204e-05
-0.0003111802420651237   4.960517294157196e-05   -8.720644631307704e-05
-0.0003111802420651237   4.960517294157196e-05   -8.720644631307704e-05
-0.0003111802420651237   4.960517294157196e-05   -8.720644631307704e-05
-0.0003111802420651237   4.960517294157196e-05   -8.720644631307704e-05
-0.00031958103474867723   5.646732471794279e-05   0.0001163038730893802
-0.00031958103474867723   5.646732471794279e-05   0.0001163038730893802
-0.00031958103474867723   5.646732471794279e-05   0.0001163038730893802
-0.00031958103474867723   5.646732471794279e-05   0.0001163038730893802
-0.00021586741351088288   5.0101129559523144e-05   -5.273244521189057e-05
-0.00021586741351088288   5.0101129559523144e-05   -5.273244521189057e-05
-0.00021586741351088288   5.0101129559523144e-05   -5.273244521189057e-05
-0.00021586741351088288   5.0101129559523144e-05   -5.273244521189057e-05
-0.00025417505240662465   5.26126649977067e-05   9.606698351435601e-06
-0.00025417505240662465   5.26126649977067e-05   9.606698351435601e-06
-0.00025417505240662465   5.26126649977067e-05   9.606698351435601e-06
-0.00025417505240662465   5.26126649977067e-05   9.606698351435601e-06
-0.00021586741351088234   5.646732471794279e-05   0.00012012359018443407
-0.00021586741351088234   5.646732471794279e-05   0.00012012359018443407
-0.00021586741351088234   5.646732471794279e-05   0.00012012359018443407
-0.00021586741351088234   5.646732471794279e-05   0.00012012359018443407
-0.0003195810347486783   5.0101129559523144e-05   -5.655216230694357e-05
-0.0003195810347486783   5.0101129559523144e-05   -5.655216230694357e-05
-0.0003195810347486783   5.0101129559523144e-05   -5.655216230694357e-05
-0.0003195810347486783   5.0101129559523144e-05   -5.655216230694357e-05
-0.0003277917377769307   5.604841461563474e-05   0.00014151202067781005
-0.0003277917377769307   5.604841461563474e-05   0.00014151202067781005
-0.0003277917377769307   5.604841461563474e-05   0.00014151202067781005
-0.0003277917377769307   5.604841461563474e-05   0.00014151202067781005
-0.00022178665066836833   4.954124354938569e-05   -3.125882186337937e-05
-0.00022178665066836833   4.954124354938569e-05   -3.125882186337937e-05
-0.00022178665066836833   4.954124354938569e-05   -3.125882186337937e-05
-0.00022178665066836833   4.954124354938569e-05   -3.125882186337937e-05
-0.00026444227617312515   5.356128543687784e-05   3.742186217872527e-05
-0.00026444227617312515   5.356128543687784e-05   3.742186217872527e-05
-0.00026444227617312515   5.356128543687784e-05   3.742186217872527e-05
-0.00026444227617312515   5.356128543687784e-05   3.742186217872527e-05
-0.00022178665066836833   5.604841461563474e-05   0.00014541632331756
-0.00022178665066836833   5.604841461563474e-05   0.00014541632331756
-0.00022178665066836833   5.604841461563474e-05   0.00014541632331756
-0.00022178665066836833   5.604841461563474e-05   0.00014541632331756
-0.0003277917377769316   4.954124354938569e-05   -3.516312450312954e-05
-0.0003277917377769316   4.954124354938569e-05   -3.516312450312954e-05
-0.0003277917377769316   4.954124354938569e-05   -3.516312450312954e-05
-0.0003277917377769316   4.954124354938569e-05   -3.516312450312954e-05
-0.00033738866098129735   5.155953895070661e-05   0.00018474714196188569
-0.00033738866098129735   5.155953895070661e-05   0.00018474714196188569
-0.00033738866098129735   5.155953895070661e-05   0.00018474714196188569
-0.00033738866098129735   5.155953895070661e-05   0.00018474714196188569
-0.00022743105792227217   4.5699712333792386e-05   5.00036616698802e-06
-0.00022743105792227217   4.5699712333792386e-05   5.00036616698802e-06
-0.00022743105792227217   4.5699712333792386e-05   5.00036616698802e-06
-0.00022743105792227217   4.5699712333792386e-05   5.00036616698802e-06
-0.0002671311535850968   5.197826387640103e-05   6.74000613461363e-05
-0.0002671311535850968   5.197826387640103e-05   6.74000613461363e-05
-0.0002671311535850968   5.197826387640103e-05   6.74000613461363e-05
-0.0002671311535850968   5.197826387640103e-05   6.74000613461363e-05
0.00018048414568666736   -2.4409325480315852e-05   0.0001537819385124808
0.00018048414568666736   -2.4409325480315852e-05   0.0001537819385124808
0.00018048414568666736   -2.4409325480315852e-05   0.0001537819385124808
0.00018048414568666736   -2.4409325480315852e-05   0.0001537819385124808
8.503254280020425e-05   -1.6042114135738153e-05   -2.83739491545483e-07
8.503254280020425e-05   -1.6042114135738153e-05   -2.83739491545483e-07
8.503254280020425e-05   -1.6042114135738153e-05   -2.83739491545483e-07
8.503254280020425e-05   -1.6042114135738153e-05   -2.83739491545483e-07
8.094178479782819e-05   -2.835254251200986e-05   0.0001351994359666429
8.094178479782819e-05   -2.835254251200986e-05   0.0001351994359666429
8.094178479782819e-05   -2.835254251200986e-05   0.0001351994359666429
8.094178479782819e-05   -2.835254251200986e-05   0.0001351994359666429
0.00017257448585878579   -1.950370042439961e-05   -2.283103772085255e-05
0.00017257448585878579   -1.950370042439961e-05   -2.283103772085255e-05
0.00017257448585878579   -1.950370042439961e-05   -2.283103772085255e-05
0.00017257448585878579   -1.950370042439961e-05   -2.283103772085255e-05
0.00012365160661226401   -2.2251467701073224e-05   6.0355754722688236e-05
0.00012365160661226401   -2.2251467701073224e-05   6.0355754722688236e-05
0.00012365160661226401   -2.2251467701073224e-05   6.0355754722688236e-05
0.00012365160661226401   -2.2251467701073224e-05   6.0355754722688236e-05
0.00017257448585878579   -2.8352542512008125e-05   0.00012989013071407728
0.00017257448585878579   -2.8352542512008125e-05   0.00012989013071407728
0.00017257448585878579   -2.8352542512008125e-05   0.00012989013071407728
0.00017257448585878579   -2.8352542512008125e-05   0.00012989013071407728
8.094178479782832e-05   -1.950370042439961e-05   -1.7521732468286054e-05
8.094178479782832e-05   -1.950370042439961e-05   -1.7521732468286054e-05
8.094178479782832e-05   -1.950370042439961e-05   -1.7521732468286054e-05
8.094178479782832e-05   -1.950370042439961e-05   -1.7521732468286054e-05
7.64315996519862e-05   -2.9150410595394846e-05   0.00012212933052110735
7.64315996519862e-05   -2.9150410595394846e-05   0.00012212933052110735
7.64315996519862e-05   -2.9150410595394846e-05   0.00012212933052110735
7.64315996519862e-05   -2.9150410595394846e-05   0.00012212933052110735
0.00016564887135370144   -2.0433376279035964e-05   -3.179634290489838e-05
0.00016564887135370144   -2.0433376279035964e-05   -3.179634290489838e-05
0.00016564887135370144   -2.0433376279035964e-05   -3.179634290489838e-05
0.00016564887135370144   -2.0433376279035964e-05   -3.179634290489838e-05
0.00012033941214737802   -2.3653169470037178e-05   4.56512983535774e-05
0.00012033941214737802   -2.3653169470037178e-05   4.56512983535774e-05
0.00012033941214737802   -2.3653169470037178e-05   4.56512983535774e-05
0.00012033941214737802   -2.3653169470037178e-05   4.56512983535774e-05
0.00016564887135370112   -2.9150410595394846e-05   0.0001168991099312934
0.00016564887135370112   -2.9150410595394846e-05   0.0001168991099312934
0.00016564887135370112   -2.9150410595394846e-05   0.0001168991099312934
0.00016564887135370112   -2.9150410595394846e-05   0.0001168991099312934
7.643159965198634e-05   -2.0433376279035964e-05   -2.6566122315083845e-05
7.643159965198634e-05   -2.0433376279035964e-05   -2.6566122315083845e-05
7.643159965198634e-05   -2.0433376279035964e-05   -2.6566122315083845e-05
7.643159965198634e-05   -2.0433376279035964e-05   -2.6566122315083845e-05
7.226987874651579e-05   -2.9501932763352154e-05   0.00010447393626713142
7.226987874651579e-05   -2.9501932763352154e-05   0.00010447393626713142
7.226987874651579e-05   -2.9501932763352154e-05   0.00010447393626713142
7.226987874651579e-05   -2.9501932763352154e-05   0.00010447393626713142
0.00015792021906100646   -2.132502152634233e-05   -4.318277766589057e-05
0.00015792021906100646   -2.132502152634233e-05   -4.318277766589057e-05
0.00015792021906100646   -2.132502152634233e-05   -4.318277766589057e-05
0.00015792021906100646   -2.132502152634233e-05   -4.318277766589057e-05
0.00011314499632970484   -2.352943106504954e-05   3.276523927617082e-05
0.00011314499632970484   -2.352943106504954e-05   3.276523927617082e-05
0.00011314499632970484   -2.352943106504954e-05   3.276523927617082e-05
0.00011314499632970484   -2.352943106504954e-05   3.276523927617082e-05
8.503254280020392e-05   -4.657292459544354e-06   0.0001754345145160421
8.503254280020392e-05   -4.657292459544354e-06   0.0001754345145160421
8.503254280020392e-05   -4.657292459544354e-06   0.0001754345145160421
8.503254280020392e-05   -4.657292459544354e-06   0.0001754345145160421
-5.351148181917593e-06   -3.5048481544092125e-08   2.75683759326387e-05
-5.351148181917593e-06   -3.5048481544092125e-08   2.75683759326387e-05
-5.351148181917593e-06   -3.5048481544092125e-08   2.75683759326387e-05
-5.351148181917593e-06   -3.5048481544092125e-08   2.75683759326387e-05
-9.194226368744191e-06   -7.4606633141526685e-06   0.00017576747244711904
-9.194226368744191e-06   -7.4606633141526685e-06   0.00017576747244711904
-9.194226368744191e-06   -7.4606633141526685e-06   0.00017576747244711904
-9.194226368744191e-06   -7.4606633141526685e-06   0.00017576747244711904
8.094178479782832e-05   -3.0546746464677615e-06   2.2897193968888715e-05
8.094178479782832e-05   -3.0546746464677615e-06   2.2897193968888715e-05
8.094178479782832e-05   -3.0546746464677615e-06   2.2897193968888715e-05
8.094178479782832e-05   -3.0546746464677615e-06   2.2897193968888715e-05
3.7245457810661356e-05   -3.910122930203541e-06   9.623767458440764e-05
3.7245457810661356e-05   -3.910122930203541e-06   9.623767458440764e-05
3.7245457810661356e-05   -3.910122930203541e-06   9.623767458440764e-05
3.7245457810661356e-05   -3.910122930203541e-06   9.623767458440764e-05
8.094178479782813e-05   -7.4606633141526685e-06   0.0001731238792465088
8.094178479782813e-05   -7.4606633141526685e-06   0.0001731238792465088
8.094178479782813e-05   -7.4606633141526685e-06   0.0001731238792465088
8.094178479782813e-05   -7.4606633141526685e-06   0.0001731238792465088
-9.194226368744191e-06   -3.0546746464694963e-06   2.55407871694981e-05
-9.194226368744191e-06   -3.0546746464694963e-06   2.55407871694981e-05
-9.194226368744191e-06   -3.0546746464694963e-06   2.55407871694981e-05
-9.194226368744191e-06   -3.0546746464694963e-06   2.55407871694981e-05
-1.31179230985235e-05   -9.552322348593476e-06   0.00017316646538142588
-1.31179230985235e-05   -9.552322348593476e-06   0.00017316646538142588
-1.31179230985235e-05   -9.552322348593476e-06   0.00017316646538142588
-1.31179230985235e-05   -9.552322348593476e-06   0.00017316646538142588
7.643159965198634e-05   -5.443231725191927e-06   2.145180642320146e-05
7.643159965198634e-05   -5.443231725191927e-06   2.145180642320146e-05
7.643159965198634e-05   -5.443231725191927e-06   2.145180642320146e-05
7.643159965198634e-05   -5.443231725191927e-06   2.145180642320146e-05
3.294247140356768e-05   -5.7780614798122465e-06   9.413458469001109e-05
3.294247140356768e-05   -5.7780614798122465e-06   9.413458469001109e-05
3.294247140356768e-05   -5.7780614798122465e-06   9.413458469001109e-05
3.294247140356768e-05   -5.7780614798122465e-06   9.413458469001109e-05
7.64315996519862e-05   -9.552322348593476e-06   0.00017070101100738477
7.64315996519862e-05   -9.552322348593476e-06   0.00017070101100738477
7.64315996519862e-05   -9.552322348593476e-06   0.00017070101100738477
7.64315996519862e-05   -9.552322348593476e-06   0.00017070101100738477
-1.31179230985235e-05   -5.443231725191927e-06   2.3917260797242344e-05
-1.31179230985235e-05   -5.443231725191927e-06   2.3917260797242344e-05
-1.31179230985235e-05   -5.443231725191927e-06   2.3917260797242344e-05
-1.31179230985235e-05   -5.443231725191927e-06   2.3917260797242344e-05
-1.7062203971920063e-05   -1.1213372633215452e-05   0.00017441984553238574
-1.7062203971920063e-05   -1.1213372633215452e-05   0.00017441984553238574
-1.7062203971920063e-05   -1.1213372633215452e-05   0.00017441984553238574
-1.7062203971920063e-05   -1.1213372633215452e-05   0.00017441984553238574
7.226987874651584e-05   -7.665709464529241e-06   2.3404443100447428e-05
7.226987874651584e-05   -7.665709464529241e-06   2.3404443100447428e-05
7.226987874651584e-05   -7.665709464529241e-06   2.3404443100447428e-05
7.226987874651584e-05   -7.665709464529241e-06   2.3404443100447428e-05
2.9644008382959097e-05   -7.170792450416838e-06   9.415061016457673e-05
2.9644008382959097e-05   -7.170792450416838e-06   9.415061016457673e-05
2.9644008382959097e-05   -7.170792450416838e-06   9.415061016457673e-05
2.9644008382959097e-05   -7.170792450416838e-06   9.415061016457673e-05
-5.351148181917593e-06   1.5207150736938277e-05   0.00018583812205532572
-5.351148181917593e-06   1.5207150736938277e-05   0.00018583812205532572
-5.351148181917593e-06   1.5207150736938277e-05   0.00018583812205532572
-5.351148181917593e-06   1.5207150736938277e-05   0.00018583812205532572
-9.38396914387696e-05   1.563402883610586e-05   3.8613343486738894e-05
-9.38396914387696e-05   1.563402883610586e-05   3.8613343486738894e-05
-9.38396914387696e-05   1.563402883610586e-05   3.8613343486738894e-05
-9.38396914387696e-05   1.563402883610586e-05   3.8613343486738894e-05
-9.770063855111925e-05   1.2863812118605114e-05   0.00018527508540185263
-9.770063855111925e-05   1.2863812118605114e-05   0.00018527508540185263
-9.770063855111925e-05   1.2863812118605114e-05   0.00018527508540185263
-9.770063855111925e-05   1.2863812118605114e-05   0.00018527508540185263
-9.194226368744191e-06   1.2971385158379659e-05   3.769985460736131e-05
-9.194226368744191e-06   1.2971385158379659e-05   3.769985460736131e-05
-9.194226368744191e-06   1.2971385158379659e-05   3.769985460736131e-05
-9.194226368744191e-06   1.2971385158379659e-05   3.769985460736131e-05
-5.165575137807207e-05   1.392700091530294e-05   0.00010789569350208735
-5.165575137807207e-05   1.392700091530294e-05   0.00010789569350208735
-5.165575137807207e-05   1.392700091530294e-05   0.00010789569350208735
-5.165575137807207e-05   1.392700091530294e-05   0.00010789569350208735
-9.194226368744191e-06   1.2863812118605114e-05   0.0001852105415779872
-9.194226368744191e-06   1.2863812118605114e-05   0.0001852105415779872
-9.194226368744191e-06   1.2863812118605114e-05   0.0001852105415779872
-9.194226368744191e-06   1.2863812118605114e-05   0.0001852105415779872
-9.770063855111925e-05   1.2971385158381393e-05   3.7764398431227274e-05
-9.770063855111925e-05   1.2971385158381393e-05   3.7764398431227274e-05
-9.770063855111925e-05   1.2971385158381393e-05   3.7764398431227274e-05
-9.770063855111925e-05   1.2971385158381393e-05   3.7764398431227274e-05
-0.0001016595340043564   1.0587953507895306e-05   0.00018631130117724437
-0.0001016595340043564   1.0587953507895306e-05   0.00018631130117724437
-0.0001016595340043564   1.0587953507895306e-05   0.00018631130117724437
-0.0001016595340043564   1.0587953507895306e-05   0.00018631130117724437
-1.31179230985235e-05   1.0350564205622442e-05   3.8884383248888234e-05
-1.31179230985235e-05   1.0350564205622442e-05   3.8884383248888234e-05
-1.31179230985235e-05   1.0350564205622442e-05   3.8884383248888234e-05
-1.31179230985235e-05   1.0350564205622442e-05   3.8884383248888234e-05
-5.524307955873998e-05   1.2132625179831283e-05   0.00010802374076472675
-5.524307955873998e-05   1.2132625179831283e-05   0.00010802374076472675
-5.524307955873998e-05   1.2132625179831283e-05   0.00010802374076472675
-5.524307955873998e-05   1.2132625179831283e-05   0.00010802374076472675
-1.31179230985235e-05   1.0587953507895306e-05   0.00018645373475861034
-1.31179230985235e-05   1.0587953507895306e-05   0.00018645373475861034
-1.31179230985235e-05   1.0587953507895306e-05   0.00018645373475861034
-1.31179230985235e-05   1.0587953507895306e-05   0.00018645373475861034
-0.0001016595340043564   1.0350564205622442e-05   3.874194966752443e-05
-0.0001016595340043564   1.0350564205622442e-05   3.874194966752443e-05
-0.0001016595340043564   1.0350564205622442e-05   3.874194966752443e-05
-0.0001016595340043564   1.0350564205622442e-05   3.874194966752443e-05
-0.00010561825555044921   8.561502250450242e-06   0.00018865924585161759
-0.00010561825555044921   8.561502250450242e-06   0.00018865924585161759
-0.00010561825555044921   8.561502250450242e-06   0.00018865924585161759
-0.00010561825555044921   8.561502250450242e-06   0.00018865924585161759
-1.706220397192017e-05   7.862901783747475e-06   4.148498683409073e-05
-1.706220397192017e-05   7.862901783747475e-06   4.148498683409073e-05
-1.706220397192017e-05   7.862901783747475e-06   4.148498683409073e-05
-1.706220397192017e-05   7.862901783747475e-06   4.148498683409073e-05
-5.89973914149395e-05   1.0382937374609977e-05   0.00010986494455127583
-5.89973914149395e-05   1.0382937374609977e-05   0.00010986494455127583
-5.89973914149395e-05   1.0382937374609977e-05   0.00010986494455127583
-5.89973914149395e-05   1.0382937374609977e-05   0.00010986494455127583
-9.383969143876938e-05   3.4518703704296966e-05   0.00016335193743312586
-9.383969143876938e-05   3.4518703704296966e-05   0.00016335193743312586
-9.383969143876938e-05   3.4518703704296966e-05   0.00016335193743312586
-9.383969143876938e-05   3.4518703704296966e-05   0.00016335193743312586
-0.00018029387516197543   3.0699552553173706e-05   1.6970140537107825e-05
-0.00018029387516197543   3.0699552553173706e-05   1.6970140537107825e-05
-0.00018029387516197543   3.0699552553173706e-05   1.6970140537107825e-05
-0.00018029387516197543   3.0699552553173706e-05   1.6970140537107825e-05
-0.00018444594482737854   3.227152309506938e-05   0.0001622544531641578
-0.00018444594482737854   3.227152309506938e-05   0.0001622544531641578
-0.00018444594482737854   3.227152309506938e-05   0.0001622544531641578
-0.00018444594482737854   3.227152309506938e-05   0.0001622544531641578
-9.770063855111936e-05   2.8141412380552205e-05   2.0157009132437675e-05
-9.770063855111936e-05   2.8141412380552205e-05   2.0157009132437675e-05
-9.770063855111936e-05   2.8141412380552205e-05   2.0157009132437675e-05
-9.770063855111936e-05   2.8141412380552205e-05   2.0157009132437675e-05
-0.00013861275244281214   3.100813848037204e-05   8.662382995869929e-05
-0.00013861275244281214   3.100813848037204e-05   8.662382995869929e-05
-0.00013861275244281214   3.100813848037204e-05   8.662382995869929e-05
-0.00013861275244281214   3.100813848037204e-05   8.662382995869929e-05
-9.770063855111925e-05   3.227152309506938e-05   0.0001647325195928695
-9.770063855111925e-05   3.227152309506938e-05   0.0001647325195928695
-9.770063855111925e-05   3.227152309506938e-05   0.0001647325195928695
-9.770063855111925e-05   3.227152309506938e-05   0.0001647325195928695
-0.00018444594482737854   2.8141412380552205e-05   1.7678942703725983e-05
-0.00018444594482737854   2.8141412380552205e-05   1.7678942703725983e-05
-0.00018444594482737854   2.8141412380552205e-05   1.7678942703725983e-05
-0.00018444594482737854   2.8141412380552205e-05   1.7678942703725983e-05
-0.0001890205895048536   3.0208021273788604e-05   0.0001683275078714604
-0.0001890205895048536   3.0208021273788604e-05   0.0001683275078714604
-0.0001890205895048536   3.0208021273788604e-05   0.0001683275078714604
-0.0001890205895048536   3.0208021273788604e-05   0.0001683275078714604
-0.0001016595340043564   2.5765484810971392e-05   2.5391270581654997e-05
-0.0001016595340043564   2.5765484810971392e-05   2.5391270581654997e-05
-0.0001016595340043564   2.5765484810971392e-05   2.5391270581654997e-05
-0.0001016595340043564   2.5765484810971392e-05   2.5391270581654997e-05
-0.00014160952508591003   2.937145979971592e-05   8.981100405766932e-05
-0.00014160952508591003   2.937145979971592e-05   8.981100405766932e-05
-0.00014160952508591003   2.937145979971592e-05   8.981100405766932e-05
-0.00014160952508591003   2.937145979971592e-05   8.981100405766932e-05
-0.0001016595340043564   3.0208021273788604e-05   0.00017099302974914968
-0.0001016595340043564   3.0208021273788604e-05   0.00017099302974914968
-0.0001016595340043564   3.0208021273788604e-05   0.00017099302974914968
-0.0001016595340043564   3.0208021273788604e-05   0.00017099302974914968
-0.0001890205895048536   2.5765484810971392e-05   2.2725748703964627e-05
-0.0001890205895048536   2.5765484810971392e-05   2.2725748703964627e-05
-0.0001890205895048536   2.5765484810971392e-05   2.2725748703964627e-05
-0.0001890205895048536   2.5765484810971392e-05   2.2725748703964627e-05
-0.00019320801953174086   2.7695398108545585e-05   0.00017292486792195444
-0.00019320801953174086   2.7695398108545585e-05   0.00017292486792195444
-0.00019320801953174086   2.7695398108545585e-05   0.00017292486792195444
-0.00019320801953174086   2.7695398108545585e-05   0.00017292486792195444
-0.00010561825555044943   2.3005705558470577e-05   2.9755743483179118e-05
-0.00010561825555044943   2.3005705558470577e-05   2.9755743483179118e-05
-0.00010561825555044943   2.3005705558470577e-05   2.9755743483179118e-05
-0.00010561825555044943   2.3005705558470577e-05   2.9755743483179118e-05
-0.00014634376614995788   2.7533767562704092e-05   9.491475727982845e-05
-0.00014634376614995788   2.7533767562704092e-05   9.491475727982845e-05
-0.00014634376614995788   2.7533767562704092e-05   9.491475727982845e-05
-0.00014634376614995788   2.7533767562704092e-05   9.491475727982845e-05
-0.00018029387516197543   4.960517294157196e-05   7.885456093149282e-05
-0.00018029387516197543   4.960517294157196e-05   7.885456093149282e-05
-0.00018029387516197543   4.960517294157196e-05   7.885456093149282e-05
-0.00018029387516197543   4.960517294157196e-05   7.885456093149282e-05
-0.00026220644479194033   4.22084368220145e-05   -6.210443012351612e-05
-0.00026220644479194033   4.22084368220145e-05   -6.210443012351612e-05
-0.00026220644479194033   4.22084368220145e-05   -6.210443012351612e-05
-0.00026220644479194033   4.22084368220145e-05   -6.210443012351612e-05
-0.0002696593200462189   5.0101129559523144e-05   0.00010456425352354734
-0.0002696593200462189   5.0101129559523144e-05   0.00010456425352354734
-0.0002696593200462189   5.0101129559523144e-05   0.00010456425352354734
-0.0002696593200462189   5.0101129559523144e-05   0.00010456425352354734
-0.00018444594482737854   4.196777489278401e-05   -3.25780257078136e-05
-0.00018444594482737854   4.196777489278401e-05   -3.25780257078136e-05
-0.00018444594482737854   4.196777489278401e-05   -3.25780257078136e-05
-0.00018444594482737854   4.196777489278401e-05   -3.25780257078136e-05
-0.00021562782222271887   4.530907457342935e-05   1.7386990142701647e-05
-0.00021562782222271887   4.530907457342935e-05   1.7386990142701647e-05
-0.00021562782222271887   4.530907457342935e-05   1.7386990142701647e-05
-0.00021562782222271887   4.530907457342935e-05   1.7386990142701647e-05
-0.00018444594482737832   5.010112955952141e-05   0.00010944426632358926
-0.00018444594482737832   5.010112955952141e-05   0.00010944426632358926
-0.00018444594482737832   5.010112955952141e-05   0.00010944426632358926
-0.00018444594482737832   5.010112955952141e-05   0.00010944426632358926
-0.00026965932004621913   4.196777489278575e-05   -3.745803850785509e-05
-0.00026965932004621913   4.196777489278575e-05   -3.745803850785509e-05
-0.00026965932004621913   4.196777489278575e-05   -3.745803850785509e-05
-0.00026965932004621913   4.196777489278575e-05   -3.745803850785509e-05
-0.0002763407848851401   4.954124354938569e-05   0.00012542245674922788
-0.0002763407848851401   4.954124354938569e-05   0.00012542245674922788
-0.0002763407848851401   4.954124354938569e-05   0.00012542245674922788
-0.0002763407848851401   4.954124354938569e-05   0.00012542245674922788
-0.0001890205895048536   4.11027053392795e-05   -1.5048079291852309e-05
-0.0001890205895048536   4.11027053392795e-05   -1.5048079291852309e-05
-0.0001890205895048536   4.11027053392795e-05   -1.5048079291852309e-05
-0.0001890205895048536   4.11027053392795e-05   -1.5048079291852309e-05
-0.00022415179832086147   4.579866042194597e-05   4.0686362351903104e-05
-0.00022415179832086147   4.579866042194597e-05   4.0686362351903104e-05
-0.00022415179832086147   4.579866042194597e-05   4.0686362351903104e-05
-0.00022415179832086147   4.579866042194597e-05   4.0686362351903104e-05
-0.0001890205895048536   4.954124354938569e-05   0.00013048557967529437
-0.0001890205895048536   4.954124354938569e-05   0.00013048557967529437
-0.0001890205895048536   4.954124354938569e-05   0.00013048557967529437
-0.0001890205895048536   4.954124354938569e-05   0.00013048557967529437
-0.0002763407848851405   4.110270533927776e-05   -2.0111202217917064e-05
-0.0002763407848851405   4.110270533927776e-05   -2.0111202217917064e-05
-0.0002763407848851405   4.110270533927776e-05   -2.0111202217917064e-05
-0.0002763407848851405   4.110270533927776e-05   -2.0111202217917064e-05
-0.00028402628217245266   4.569971233379412e-05   0.0001613501195149693
-0.00028402628217245266   4.569971233379412e-05   0.0001613501195149693
-0.00028402628217245266   4.569971233379412e-05   0.0001613501195149693
-0.00028402628217245266   4.569971233379412e-05   0.0001613501195149693
-0.00019320801953174086   3.7310380613457886e-05   1.501994747931442e-05
-0.00019320801953174086   3.7310380613457886e-05   1.501994747931442e-05
-0.00019320801953174086   3.7310380613457886e-05   1.501994747931442e-05
-0.00019320801953174086   3.7310380613457886e-05   1.501994747931442e-05
-0.00022604319157414857   4.422913818436479e-05   6.559397967412142e-05
-0.00022604319157414857   4.422913818436479e-05   6.559397967412142e-05
-0.00022604319157414857   4.422913818436479e-05   6.559397967412142e-05
-0.00022604319157414857   4.422913818436479e-05   6.559397967412142e-05
0.00012365872907522057   -1.6042114135738153e-05   0.00012471895727248373
0.00012365872907522057   -1.6042114135738153e-05   0.00012471895727248373
0.00012365872907522057   -1.6042114135738153e-05   0.00012471895727248373
0.00012365872907522057   -1.6042114135738153e-05   0.00012471895727248373
5.126754227254998e-05   -7.786860474712394e-06   9.020131464647536e-06
5.126754227254998e-05   -7.786860474712394e-06   9.020131464647536e-06
5.126754227254998e-05   -7.786860474712394e-06   9.020131464647536e-06
5.126754227254998e-05   -7.786860474712394e-06   9.020131464647536e-06
4.798622132709456e-05   -1.950370042439961e-05   0.00011221342741590378
4.798622132709456e-05   -1.950370042439961e-05   0.00011221342741590378
4.798622132709456e-05   -1.950370042439961e-05   0.00011221342741590378
4.798622132709456e-05   -1.950370042439961e-05   0.00011221342741590378
0.00011668546870171527   -1.087195576186372e-05   -7.4643650059859346e-06
0.00011668546870171527   -1.087195576186372e-05   -7.4643650059859346e-06
0.00011668546870171527   -1.087195576186372e-05   -7.4643650059859346e-06
0.00011668546870171527   -1.087195576186372e-05   -7.4643650059859346e-06
8.067056748392666e-05   -1.388332739046122e-05   5.436729333415657e-05
8.067056748392666e-05   -1.388332739046122e-05   5.436729333415657e-05
8.067056748392666e-05   -1.388332739046122e-05   5.436729333415657e-05
8.067056748392666e-05   -1.388332739046122e-05   5.436729333415657e-05
0.00011668546870171546   -1.9503700424397877e-05   0.00010703438061838294
0.00011668546870171546   -1.9503700424397877e-05   0.00010703438061838294
0.00011668546870171546   -1.9503700424397877e-05   0.00010703438061838294
0.00011668546870171546   -1.9503700424397877e-05   0.00010703438061838294
4.7986221327094385e-05   -1.087195576186372e-05   -2.285318208465094e-06
4.7986221327094385e-05   -1.087195576186372e-05   -2.285318208465094e-06
4.7986221327094385e-05   -1.087195576186372e-05   -2.285318208465094e-06
4.7986221327094385e-05   -1.087195576186372e-05   -2.285318208465094e-06
4.430652811239746e-05   -2.04333762790377e-05   0.00010291586072199398
4.430652811239746e-05   -2.04333762790377e-05   0.00010291586072199398
4.430652811239746e-05   -2.04333762790377e-05   0.00010291586072199398
4.430652811239746e-05   -2.04333762790377e-05   0.00010291586072199398
0.0001107052564379402   -1.194004899730209e-05   -1.2844682856284024e-05
0.0001107052564379402   -1.194004899730209e-05   -1.2844682856284024e-05
0.0001107052564379402   -1.194004899730209e-05   -1.2844682856284024e-05
0.0001107052564379402   -1.194004899730209e-05   -1.2844682856284024e-05
7.754008247866983e-05   -1.5189760686519505e-05   4.438043408936564e-05
7.754008247866983e-05   -1.5189760686519505e-05   4.438043408936564e-05
7.754008247866983e-05   -1.5189760686519505e-05   4.438043408936564e-05
7.754008247866983e-05   -1.5189760686519505e-05   4.438043408936564e-05
0.00011070525643794039   -2.04333762790377e-05   9.781986435295365e-05
0.00011070525643794039   -2.04333762790377e-05   9.781986435295365e-05
0.00011070525643794039   -2.04333762790377e-05   9.781986435295365e-05
0.00011070525643794039   -2.04333762790377e-05   9.781986435295365e-05
4.4306528112397406e-05   -1.194004899730209e-05   -7.748686487243917e-06
4.4306528112397406e-05   -1.194004899730209e-05   -7.748686487243917e-06
4.4306528112397406e-05   -1.194004899730209e-05   -7.748686487243917e-06
4.4306528112397406e-05   -1.194004899730209e-05   -7.748686487243917e-06
4.1010478434071076e-05   -2.132502152634233e-05   9.088761095854374e-05
4.1010478434071076e-05   -2.132502152634233e-05   9.088761095854374e-05
4.1010478434071076e-05   -2.132502152634233e-05   9.088761095854374e-05
4.1010478434071076e-05   -2.132502152634233e-05   9.088761095854374e-05
0.00010393238602607378   -1.3371433995941484e-05   -1.875438754636886e-05
0.00010393238602607378   -1.3371433995941484e-05   -1.875438754636886e-05
0.00010393238602607378   -1.3371433995941484e-05   -1.875438754636886e-05
0.00010393238602607378   -1.3371433995941484e-05   -1.875438754636886e-05
7.182695440921434e-05   -1.5459096101389652e-05   3.600726241166581e-05
7.182695440921434e-05   -1.5459096101389652e-05   3.600726241166581e-05
7.182695440921434e-05   -1.5459096101389652e-05   3.600726241166581e-05
7.182695440921434e-05   -1.5459096101389652e-05   3.600726241166581e-05
5.126754227255017e-05   -3.5048481544092125e-08   0.00015475087850648234
5.126754227255017e-05   -3.5048481544092125e-08   0.00015475087850648234
5.126754227255017e-05   -3.5048481544092125e-08   0.00015475087850648234
5.126754227255017e-05   -3.5048481544092125e-08   0.00015475087850648234
-1.671645100528624e-05   4.139340983769224e-06   4.394885672261151e-05
-1.671645100528624e-05   4.139340983769224e-06   4.394885672261151e-05
-1.671645100528624e-05   4.139340983769224e-06   4.394885672261151e-05
-1.671645100528624e-05   4.139340983769224e-06   4.394885672261151e-05
-1.9729033439443936e-05   -3.0546746464694963e-06   0.0001550683949829608
-1.9729033439443936e-05   -3.0546746464694963e-06   0.0001550683949829608
-1.9729033439443936e-05   -3.0546746464694963e-06   0.0001550683949829608
-1.9729033439443936e-05   -3.0546746464694963e-06   0.0001550683949829608
4.7986221327094385e-05   1.0053939033371345e-06   3.977359590884701e-05
4.7986221327094385e-05   1.0053939033371345e-06   3.977359590884701e-05
4.7986221327094385e-05   1.0053939033371345e-06   3.977359590884701e-05
4.7986221327094385e-05   1.0053939033371345e-06   3.977359590884701e-05
1.5219393919259128e-05   2.4712576999000313e-07   9.483993580191707e-05
1.5219393919259128e-05   2.4712576999000313e-07   9.483993580191707e-05
1.5219393919259128e-05   2.4712576999000313e-07   9.483993580191707e-05
1.5219393919259128e-05   2.4712576999000313e-07   9.483993580191707e-05
4.7986221327094494e-05   -3.0546746464694963e-06   0.00015263235385307855
4.7986221327094494e-05   -3.0546746464694963e-06   0.00015263235385307855
4.7986221327094494e-05   -3.0546746464694963e-06   0.00015263235385307855
4.7986221327094494e-05   -3.0546746464694963e-06   0.00015263235385307855
-1.9729033439443936e-05   1.0053939033371345e-06   4.220963703873131e-05
-1.9729033439443936e-05   1.0053939033371345e-06   4.220963703873131e-05
-1.9729033439443936e-05   1.0053939033371345e-06   4.220963703873131e-05
-1.9729033439443936e-05   1.0053939033371345e-06   4.220963703873131e-05
-2.2807890363718314e-05   -5.443231725191927e-06   0.00015325952963577555
-2.2807890363718314e-05   -5.443231725191927e-06   0.00015325952963577555
-2.2807890363718314e-05   -5.443231725191927e-06   0.00015325952963577555
-2.2807890363718314e-05   -5.443231725191927e-06   0.00015325952963577555
4.4306528112397406e-05   -1.5669980993641627e-06   3.9076425333419963e-05
4.4306528112397406e-05   -1.5669980993641627e-06   3.9076425333419963e-05
4.4306528112397406e-05   -1.5669980993641627e-06   3.9076425333419963e-05
4.4306528112397406e-05   -1.5669980993641627e-06   3.9076425333419963e-05
1.1912950243634752e-05   -1.847931038984757e-06   9.323428154513484e-05
1.1912950243634752e-05   -1.847931038984757e-06   9.323428154513484e-05
1.1912950243634752e-05   -1.847931038984757e-06   9.323428154513484e-05
1.1912950243634752e-05   -1.847931038984757e-06   9.323428154513484e-05
4.430652811239754e-05   -5.443231725191927e-06   0.00015093378946027906
4.430652811239754e-05   -5.443231725191927e-06   0.00015093378946027906
4.430652811239754e-05   -5.443231725191927e-06   0.00015093378946027906
4.430652811239754e-05   -5.443231725191927e-06   0.00015093378946027906
-2.2807890363718423e-05   -1.5669980993641627e-06   4.140216550891675e-05
-2.2807890363718423e-05   -1.5669980993641627e-06   4.140216550891675e-05
-2.2807890363718423e-05   -1.5669980993641627e-06   4.140216550891675e-05
-2.2807890363718423e-05   -1.5669980993641627e-06   4.140216550891675e-05
-2.585989913068715e-05   -7.665709464529241e-06   0.00015470084773924492
-2.585989913068715e-05   -7.665709464529241e-06   0.00015470084773924492
-2.585989913068715e-05   -7.665709464529241e-06   0.00015470084773924492
-2.585989913068715e-05   -7.665709464529241e-06   0.00015470084773924492
4.1010478434070887e-05   -4.112104870247595e-06   4.111805570807938e-05
4.1010478434070887e-05   -4.112104870247595e-06   4.111805570807938e-05
4.1010478434070887e-05   -4.112104870247595e-06   4.111805570807938e-05
4.1010478434070887e-05   -4.112104870247595e-06   4.111805570807938e-05
9.29134504981808e-06   -3.6042291372863355e-06   9.367855257538999e-05
9.29134504981808e-06   -3.6042291372863355e-06   9.367855257538999e-05
9.29134504981808e-06   -3.6042291372863355e-06   9.367855257538999e-05
9.29134504981808e-06   -3.6042291372863355e-06   9.367855257538999e-05
-1.671645100528624e-05   1.563402883610586e-05   0.00016804435288027102
-1.671645100528624e-05   1.563402883610586e-05   0.00016804435288027102
-1.671645100528624e-05   1.563402883610586e-05   0.00016804435288027102
-1.671645100528624e-05   1.563402883610586e-05   0.00016804435288027102
-8.360062860103773e-05   1.5358018596214884e-05   5.6405117410085383e-05
-8.360062860103773e-05   1.5358018596214884e-05   5.6405117410085383e-05
-8.360062860103773e-05   1.5358018596214884e-05   5.6405117410085383e-05
-8.360062860103773e-05   1.5358018596214884e-05   5.6405117410085383e-05
-8.656997064552174e-05   1.2971385158379659e-05   0.00016694542169855015
-8.656997064552174e-05   1.2971385158379659e-05   0.00016694542169855015
-8.656997064552174e-05   1.2971385158379659e-05   0.00016694542169855015
-8.656997064552174e-05   1.2971385158379659e-05   0.00016694542169855015
-1.9729033439443936e-05   1.2501317287923197e-05   5.582590041069524e-05
-1.9729033439443936e-05   1.2501317287923197e-05   5.582590041069524e-05
-1.9729033439443936e-05   1.2501317287923197e-05   5.582590041069524e-05
-1.9729033439443936e-05   1.2501317287923197e-05   5.582590041069524e-05
-5.178200329971917e-05   1.37724656633538e-05   0.0001084848278192314
-5.178200329971917e-05   1.37724656633538e-05   0.0001084848278192314
-5.178200329971917e-05   1.37724656633538e-05   0.0001084848278192314
-5.178200329971917e-05   1.37724656633538e-05   0.0001084848278192314
-1.9729033439443936e-05   1.2971385158379659e-05   0.00016722746242082455
-1.9729033439443936e-05   1.2971385158379659e-05   0.00016722746242082455
-1.9729033439443936e-05   1.2971385158379659e-05   0.00016722746242082455
-1.9729033439443936e-05   1.2971385158379659e-05   0.00016722746242082455
-8.656997064552174e-05   1.2501317287923197e-05   5.5543859688421925e-05
-8.656997064552174e-05   1.2501317287923197e-05   5.5543859688421925e-05
-8.656997064552174e-05   1.2501317287923197e-05   5.5543859688421925e-05
-8.656997064552174e-05   1.2501317287923197e-05   5.5543859688421925e-05
-8.961187717092896e-05   1.0350564205622442e-05   0.0001678225757134888
-8.961187717092896e-05   1.0350564205622442e-05   0.0001678225757134888
-8.961187717092896e-05   1.0350564205622442e-05   0.0001678225757134888
-8.961187717092896e-05   1.0350564205622442e-05   0.0001678225757134888
-2.2807890363718314e-05   9.677103582400072e-06   5.688667407540424e-05
-2.2807890363718314e-05   9.677103582400072e-06   5.688667407540424e-05
-2.2807890363718314e-05   9.677103582400072e-06   5.688667407540424e-05
-2.2807890363718314e-05   9.677103582400072e-06   5.688667407540424e-05
-5.450425403910494e-05   1.1695232242333806e-05   0.00010850306967175906
-5.450425403910494e-05   1.1695232242333806e-05   0.00010850306967175906
-5.450425403910494e-05   1.1695232242333806e-05   0.00010850306967175906
-5.450425403910494e-05   1.1695232242333806e-05   0.00010850306967175906
-2.2807890363718314e-05   1.0350564205622442e-05   0.000168226652087421
-2.2807890363718314e-05   1.0350564205622442e-05   0.000168226652087421
-2.2807890363718314e-05   1.0350564205622442e-05   0.000168226652087421
-2.2807890363718314e-05   1.0350564205622442e-05   0.000168226652087421
-8.961187717092896e-05   9.677103582400072e-06   5.6482597701471276e-05
-8.961187717092896e-05   9.677103582400072e-06   5.6482597701471276e-05
-8.961187717092896e-05   9.677103582400072e-06   5.6482597701471276e-05
-8.961187717092896e-05   9.677103582400072e-06   5.6482597701471276e-05
-9.261951925416164e-05   7.862901783747475e-06   0.00017010916856078674
-9.261951925416164e-05   7.862901783747475e-06   0.00017010916856078674
-9.261951925416164e-05   7.862901783747475e-06   0.00017010916856078674
-9.261951925416164e-05   7.862901783747475e-06   0.00017010916856078674
-2.585989913068715e-05   6.9568600989285134e-06   5.938676003255374e-05
-2.585989913068715e-05   6.9568600989285134e-06   5.938676003255374e-05
-2.585989913068715e-05   6.9568600989285134e-06   5.938676003255374e-05
-2.585989913068715e-05   6.9568600989285134e-06   5.938676003255374e-05
-5.7350227235741086e-05   9.665836796938013e-06   0.00011024525418883917
-5.7350227235741086e-05   9.665836796938013e-06   0.00011024525418883917
-5.7350227235741086e-05   9.665836796938013e-06   0.00011024525418883917
-5.7350227235741086e-05   9.665836796938013e-06   0.00011024525418883917
-8.360062860103773e-05   3.0699552553173706e-05   0.00014852703447738088
-8.360062860103773e-05   3.0699552553173706e-05   0.00014852703447738088
-8.360062860103773e-05   3.0699552553173706e-05   0.00014852703447738088
-8.360062860103773e-05   3.0699552553173706e-05   0.00014852703447738088
-0.00014930089912745456   2.6265110235513568e-05   3.636591820942257e-05
-0.00014930089912745456   2.6265110235513568e-05   3.636591820942257e-05
-0.00014930089912745456   2.6265110235513568e-05   3.636591820942257e-05
-0.00014930089912745456   2.6265110235513568e-05   3.636591820942257e-05
-0.00015248266304923727   2.8141412380552205e-05   0.00014653406396210236
-0.00015248266304923727   2.8141412380552205e-05   0.00014653406396210236
-0.00015248266304923727   2.8141412380552205e-05   0.00014653406396210236
-0.00015248266304923727   2.8141412380552205e-05   0.00014653406396210236
-8.656997064552141e-05   2.3468131651119273e-05   3.948354506023619e-05
-8.656997064552141e-05   2.3468131651119273e-05   3.948354506023619e-05
-8.656997064552141e-05   2.3468131651119273e-05   3.948354506023619e-05
-8.656997064552141e-05   2.3468131651119273e-05   3.948354506023619e-05
-0.00011765714141140219   2.6691605888204753e-05   8.936141179445556e-05
-0.00011765714141140219   2.6691605888204753e-05   8.936141179445556e-05
-0.00011765714141140219   2.6691605888204753e-05   8.936141179445556e-05
-0.00011765714141140219   2.6691605888204753e-05   8.936141179445556e-05
-8.656997064552174e-05   2.8141412380552205e-05   0.00014933803239976142
-8.656997064552174e-05   2.8141412380552205e-05   0.00014933803239976142
-8.656997064552174e-05   2.8141412380552205e-05   0.00014933803239976142
-8.656997064552174e-05   2.8141412380552205e-05   0.00014933803239976142
-0.00015248266304923705   2.3468131651119273e-05   3.667957662257604e-05
-0.00015248266304923705   2.3468131651119273e-05   3.667957662257604e-05
-0.00015248266304923705   2.3468131651119273e-05   3.667957662257604e-05
-0.00015248266304923705   2.3468131651119273e-05   3.667957662257604e-05
-0.0001560666395835947   2.5765484810971392e-05   0.00015154469453410816
-0.0001560666395835947   2.5765484810971392e-05   0.00015154469453410816
-0.0001560666395835947   2.5765484810971392e-05   0.00015154469453410816
-0.0001560666395835947   2.5765484810971392e-05   0.00015154469453410816
-8.961187717092863e-05   2.088681465512148e-05   4.37139592731773e-05
-8.961187717092863e-05   2.088681465512148e-05   4.37139592731773e-05
-8.961187717092863e-05   2.088681465512148e-05   4.37139592731773e-05
-8.961187717092863e-05   2.088681465512148e-05   4.37139592731773e-05
-0.00011987509078460068   2.478340501339653e-05   9.181469441433545e-05
-0.00011987509078460068   2.478340501339653e-05   9.181469441433545e-05
-0.00011987509078460068   2.478340501339653e-05   9.181469441433545e-05
-0.00011987509078460068   2.478340501339653e-05   9.181469441433545e-05
-8.961187717092885e-05   2.5765484810971392e-05   0.00015447189662761828
-8.961187717092885e-05   2.5765484810971392e-05   0.00015447189662761828
-8.961187717092885e-05   2.5765484810971392e-05   0.00015447189662761828
-8.961187717092885e-05   2.5765484810971392e-05   0.00015447189662761828
-0.00015606663958359426   2.088681465512148e-05   4.078675717966674e-05
-0.00015606663958359426   2.088681465512148e-05   4.078675717966674e-05
-0.00015606663958359426   2.088681465512148e-05   4.078675717966674e-05
-0.00015606663958359426   2.088681465512148e-05   4.078675717966674e-05
-0.00015925811685115225   2.3005705558470577e-05   0.00015580038047853084
-0.00015925811685115225   2.3005705558470577e-05   0.00015580038047853084
-0.00015925811685115225   2.3005705558470577e-05   0.00015580038047853084
-0.00015925811685115225   2.3005705558470577e-05   0.00015580038047853084
-9.261951925416132e-05   1.8007863872861705e-05   4.773475616157933e-05
-9.261951925416132e-05   1.8007863872861705e-05   4.773475616157933e-05
-9.261951925416132e-05   1.8007863872861705e-05   4.773475616157933e-05
-9.261951925416132e-05   1.8007863872861705e-05   4.773475616157933e-05
-0.00012345934063334686   2.278250845577992e-05   9.626967171047431e-05
-0.00012345934063334686   2.278250845577992e-05   9.626967171047431e-05
-0.00012345934063334686   2.278250845577992e-05   9.626967171047431e-05
-0.00012345934063334686   2.278250845577992e-05   9.626967171047431e-05
-0.00014930089912745456   4.22084368220145e-05   7.122984009789394e-05
-0.00014930089912745456   4.22084368220145e-05   7.122984009789394e-05
-0.00014930089912745456   4.22084368220145e-05   7.122984009789394e-05
-0.00014930089912745456   4.22084368220145e-05   7.122984009789394e-05
-0.00021072523032390658   3.4353478545294525e-05   -3.585702019555902e-05
-0.00021072523032390658   3.4353478545294525e-05   -3.585702019555902e-05
-0.00021072523032390658   3.4353478545294525e-05   -3.585702019555902e-05
-0.00021072523032390658   3.4353478545294525e-05   -3.585702019555902e-05
-0.00021736483469405525   4.196777489278575e-05   9.115977114285394e-05
-0.00021736483469405525   4.196777489278575e-05   9.115977114285394e-05
-0.00021736483469405525   4.196777489278575e-05   9.115977114285394e-05
-0.00021736483469405525   4.196777489278575e-05   9.115977114285394e-05
-0.00015248266304923683   3.3438900879938574e-05   -1.1859857190801761e-05
-0.00015248266304923683   3.3438900879938574e-05   -1.1859857190801761e-05
-0.00015248266304923683   3.3438900879938574e-05   -1.1859857190801761e-05
-0.00015248266304923683   3.3438900879938574e-05   -1.1859857190801761e-05
-0.00017563449432381477   3.7312013431146235e-05   2.440266073610621e-05
-0.00017563449432381477   3.7312013431146235e-05   2.440266073610621e-05
-0.00017563449432381477   3.7312013431146235e-05   2.440266073610621e-05
-0.00017563449432381477   3.7312013431146235e-05   2.440266073610621e-05
-0.00015248266304923705   4.196777489278575e-05   9.62770955505619e-05
-0.00015248266304923705   4.196777489278575e-05   9.62770955505619e-05
-0.00015248266304923705   4.196777489278575e-05   9.62770955505619e-05
-0.00015248266304923705   4.196777489278575e-05   9.62770955505619e-05
-0.00021736483469405568   3.3438900879938574e-05   -1.6977181598509285e-05
-0.00021736483469405568   3.3438900879938574e-05   -1.6977181598509285e-05
-0.00021736483469405568   3.3438900879938574e-05   -1.6977181598509285e-05
-0.00021736483469405568   3.3438900879938574e-05   -1.6977181598509285e-05
-0.00022316644321911995   4.110270533927776e-05   0.00010851690117935978
-0.00022316644321911995   4.110270533927776e-05   0.00010851690117935978
-0.00022316644321911995   4.110270533927776e-05   0.00010851690117935978
-0.00022316644321911995   4.110270533927776e-05   0.00010851690117935978
-0.00015606663958359405   3.234609640772636e-05   1.9378604790816836e-06
-0.00015606663958359405   3.234609640772636e-05   1.9378604790816836e-06
-0.00015606663958359405   3.234609640772636e-05   1.9378604790816836e-06
-0.00015606663958359405   3.234609640772636e-05   1.9378604790816836e-06
-0.00018263639667950393   3.732353243260725e-05   4.323432735734269e-05
-0.00018263639667950393   3.732353243260725e-05   4.323432735734269e-05
-0.00018263639667950393   3.732353243260725e-05   4.323432735734269e-05
-0.00018263639667950393   3.732353243260725e-05   4.323432735734269e-05
-0.0001560666395835947   4.11027053392795e-05   0.00011377086653829079
-0.0001560666395835947   4.11027053392795e-05   0.00011377086653829079
-0.0001560666395835947   4.11027053392795e-05   0.00011377086653829079
-0.0001560666395835947   4.11027053392795e-05   0.00011377086653829079
-0.00022316644321911995   3.234609640772636e-05   -3.3161048798493326e-06
-0.00022316644321911995   3.234609640772636e-05   -3.3161048798493326e-06
-0.00022316644321911995   3.234609640772636e-05   -3.3161048798493326e-06
-0.00022316644321911995   3.234609640772636e-05   -3.3161048798493326e-06
-0.00022990385996034344   3.731038061345962e-05   0.00013871126518720696
-0.00022990385996034344   3.731038061345962e-05   0.00013871126518720696
-0.00022990385996034344   3.731038061345962e-05   0.00013871126518720696
-0.00022990385996034344   3.731038061345962e-05   0.00013871126518720696
-0.0001592581168511516   2.869848925095373e-05   2.613549482272451e-05
-0.0001592581168511516   2.869848925095373e-05   2.613549482272451e-05
-0.0001592581168511516   2.869848925095373e-05   2.613549482272451e-05
-0.0001592581168511516   2.869848925095373e-05   2.613549482272451e-05
-0.00018425403913767727   3.57368456440979e-05   6.357235146437889e-05
-0.00018425403913767727   3.57368456440979e-05   6.357235146437889e-05
-0.00018425403913767727   3.57368456440979e-05   6.357235146437889e-05
-0.00018425403913767727   3.57368456440979e-05   6.357235146437889e-05
6.792025032406997e-05   -7.786860474712394e-06   9.770402946386852e-05
6.792025032406997e-05   -7.786860474712394e-06   9.770402946386852e-05
6.792025032406997e-05   -7.786860474712394e-06   9.770402946386852e-05
6.792025032406997e-05   -7.786860474712394e-06   9.770402946386852e-05
1.7467409135814055e-05   3.499505065738054e-07   1.8498047405546975e-05
1.7467409135814055e-05   3.499505065738054e-07   1.8498047405546975e-05
1.7467409135814055e-05   3.499505065738054e-07   1.8498047405546975e-05
1.7467409135814055e-05   3.499505065738054e-07   1.8498047405546975e-05
1.502511903412144e-05   -1.087195576186372e-05   9.11961197438459e-05
1.502511903412144e-05   -1.087195576186372e-05   9.11961197438459e-05
1.502511903412144e-05   -1.087195576186372e-05   9.11961197438459e-05
1.502511903412144e-05   -1.087195576186372e-05   9.11961197438459e-05
6.189203897138203e-05   -2.4072394063092903e-06   8.005756701746566e-06
6.189203897138203e-05   -2.4072394063092903e-06   8.005756701746566e-06
6.189203897138203e-05   -2.4072394063092903e-06   8.005756701746566e-06
6.189203897138203e-05   -2.4072394063092903e-06   8.005756701746566e-06
3.816674667588967e-05   -5.569505098283918e-06   4.944526994275482e-05
3.816674667588967e-05   -5.569505098283918e-06   4.944526994275482e-05
3.816674667588967e-05   -5.569505098283918e-06   4.944526994275482e-05
3.816674667588967e-05   -5.569505098283918e-06   4.944526994275482e-05
6.189203897138213e-05   -1.0871955761862853e-05   8.611728993051376e-05
6.189203897138213e-05   -1.0871955761862853e-05   8.611728993051376e-05
6.189203897138213e-05   -1.0871955761862853e-05   8.611728993051376e-05
6.189203897138213e-05   -1.0871955761862853e-05   8.611728993051376e-05
1.5025119034121399e-05   -2.4072394063092903e-06   1.3084586515078704e-05
1.5025119034121399e-05   -2.4072394063092903e-06   1.3084586515078704e-05
1.5025119034121399e-05   -2.4072394063092903e-06   1.3084586515078704e-05
1.5025119034121399e-05   -2.4072394063092903e-06   1.3084586515078704e-05
1.2184378997259253e-05   -1.194004899730209e-05   8.565902441620785e-05
1.2184378997259253e-05   -1.194004899730209e-05   8.565902441620785e-05
1.2184378997259253e-05   -1.194004899730209e-05   8.565902441620785e-05
1.2184378997259253e-05   -1.194004899730209e-05   8.565902441620785e-05
5.679442872031417e-05   -3.6046806909653326e-06   6.307720560647383e-06
5.679442872031417e-05   -3.6046806909653326e-06   6.307720560647383e-06
5.679442872031417e-05   -3.6046806909653326e-06   6.307720560647383e-06
5.679442872031417e-05   -3.6046806909653326e-06   6.307720560647383e-06
3.523255258047309e-05   -6.772178075261509e-06   4.4144679224292997e-05
3.523255258047309e-05   -6.772178075261509e-06   4.4144679224292997e-05
3.523255258047309e-05   -6.772178075261509e-06   4.4144679224292997e-05
3.523255258047309e-05   -6.772178075261509e-06   4.4144679224292997e-05
5.679442872031428e-05   -1.194004899730209e-05   8.065780343240441e-05
5.679442872031428e-05   -1.194004899730209e-05   8.065780343240441e-05
5.679442872031428e-05   -1.194004899730209e-05   8.065780343240441e-05
5.679442872031428e-05   -1.194004899730209e-05   8.065780343240441e-05
1.2184378997259212e-05   -3.6046806909653326e-06   1.130894154444985e-05
1.2184378997259212e-05   -3.6046806909653326e-06   1.130894154444985e-05
1.2184378997259212e-05   -3.6046806909653326e-06   1.130894154444985e-05
1.2184378997259212e-05   -3.6046806909653326e-06   1.130894154444985e-05
9.726014867022105e-06   -1.3371433995940617e-05   7.931290682047353e-05
9.726014867022105e-06   -1.3371433995940617e-05   7.931290682047353e-05
9.726014867022105e-06   -1.3371433995940617e-05   7.931290682047353e-05
9.726014867022105e-06   -1.3371433995940617e-05   7.931290682047353e-05
5.0834327414149e-05   -5.6156503186414325e-06   6.145582368884172e-06
5.0834327414149e-05   -5.6156503186414325e-06   6.145582368884172e-06
5.0834327414149e-05   -5.6156503186414325e-06   6.145582368884172e-06
5.0834327414149e-05   -5.6156503186414325e-06   6.145582368884172e-06
3.096771913364683e-05   -7.408425728723522e-06   4.0332261415771076e-05
3.096771913364683e-05   -7.408425728723522e-06   4.0332261415771076e-05
3.096771913364683e-05   -7.408425728723522e-06   4.0332261415771076e-05
3.096771913364683e-05   -7.408425728723522e-06   4.0332261415771076e-05
1.7467409135814082e-05   4.139340983769224e-06   0.00013501020763141604
1.7467409135814082e-05   4.139340983769224e-06   0.00013501020763141604
1.7467409135814082e-05   4.139340983769224e-06   0.00013501020763141604
1.7467409135814082e-05   4.139340983769224e-06   0.00013501020763141604
-2.854665520282782e-05   7.80596097572396e-06   6.0520072395519806e-05
-2.854665520282782e-05   7.80596097572396e-06   6.0520072395519806e-05
-2.854665520282782e-05   7.80596097572396e-06   6.0520072395519806e-05
-2.854665520282782e-05   7.80596097572396e-06   6.0520072395519806e-05
-3.068909240767979e-05   1.0053939033371345e-06   0.00013545908089683447
-3.068909240767979e-05   1.0053939033371345e-06   0.00013545908089683447
-3.068909240767979e-05   1.0053939033371345e-06   0.00013545908089683447
-3.068909240767979e-05   1.0053939033371345e-06   0.00013545908089683447
1.5025119034121399e-05   4.678805629463462e-06   5.706468145815727e-05
1.5025119034121399e-05   4.678805629463462e-06   5.706468145815727e-05
1.5025119034121399e-05   4.678805629463462e-06   5.706468145815727e-05
1.5025119034121399e-05   4.678805629463462e-06   5.706468145815727e-05
-7.026332877577841e-06   4.100570835977382e-06   9.416404218708443e-05
-7.026332877577841e-06   4.100570835977382e-06   9.416404218708443e-05
-7.026332877577841e-06   4.100570835977382e-06   9.416404218708443e-05
-7.026332877577841e-06   4.100570835977382e-06   9.416404218708443e-05
1.5025119034121413e-05   1.0053939033362672e-06   0.00013325503386115746
1.5025119034121413e-05   1.0053939033362672e-06   0.00013325503386115746
1.5025119034121413e-05   1.0053939033362672e-06   0.00013325503386115746
1.5025119034121413e-05   1.0053939033362672e-06   0.00013325503386115746
-3.068909240767979e-05   4.678805629462594e-06   5.926872849383374e-05
-3.068909240767979e-05   4.678805629462594e-06   5.926872849383374e-05
-3.068909240767979e-05   4.678805629462594e-06   5.926872849383374e-05
-3.068909240767979e-05   4.678805629462594e-06   5.926872849383374e-05
-3.289280801044097e-05   -1.56699809936503e-06   0.00013463635498606272
-3.289280801044097e-05   -1.56699809936503e-06   0.00013463635498606272
-3.289280801044097e-05   -1.56699809936503e-06   0.00013463635498606272
-3.289280801044097e-05   -1.56699809936503e-06   0.00013463635498606272
1.2184378997259212e-05   2.020033149290751e-06   5.735549122403734e-05
1.2184378997259212e-05   2.020033149290751e-06   5.735549122403734e-05
1.2184378997259212e-05   2.020033149290751e-06   5.735549122403734e-05
1.2184378997259212e-05   2.020033149290751e-06   5.735549122403734e-05
-9.30964158100172e-06   1.9141796528572563e-06   9.324237095233363e-05
-9.30964158100172e-06   1.9141796528572563e-06   9.324237095233363e-05
-9.30964158100172e-06   1.9141796528572563e-06   9.324237095233363e-05
-9.30964158100172e-06   1.9141796528572563e-06   9.324237095233363e-05
1.2184378997259253e-05   -1.56699809936503e-06   0.00013248413623687116
1.2184378997259253e-05   -1.56699809936503e-06   0.00013248413623687116
1.2184378997259253e-05   -1.56699809936503e-06   0.00013248413623687116
1.2184378997259253e-05   -1.56699809936503e-06   0.00013248413623687116
-3.289280801044097e-05   2.020033149290751e-06   5.950770997323112e-05
-3.289280801044097e-05   2.020033149290751e-06   5.950770997323112e-05
-3.289280801044097e-05   2.020033149290751e-06   5.950770997323112e-05
-3.289280801044097e-05   2.020033149290751e-06   5.950770997323112e-05
-3.506218023607811e-05   -4.112104870248462e-06   0.0001364559954533948
-3.506218023607811e-05   -4.112104870248462e-06   0.0001364559954533948
-3.506218023607811e-05   -4.112104870248462e-06   0.0001364559954533948
-3.506218023607811e-05   -4.112104870248462e-06   0.0001364559954533948
9.726014867022091e-06   -7.07441709057316e-07   5.976620571818115e-05
9.726014867022091e-06   -7.07441709057316e-07   5.976620571818115e-05
9.726014867022091e-06   -7.07441709057316e-07   5.976620571818115e-05
9.726014867022091e-06   -7.07441709057316e-07   5.976620571818115e-05
-1.1248849604767647e-05   -5.7588289482587984e-08   9.433440111942084e-05
-1.1248849604767647e-05   -5.7588289482587984e-08   9.433440111942084e-05
-1.1248849604767647e-05   -5.7588289482587984e-08   9.433440111942084e-05
-1.1248849604767647e-05   -5.7588289482587984e-08   9.433440111942084e-05
-2.854665520282782e-05   1.5358018596214884e-05   0.00014983204645799796
-2.854665520282782e-05   1.5358018596214884e-05   0.00014983204645799796
-2.854665520282782e-05   1.5358018596214884e-05   0.00014983204645799796
-2.854665520282782e-05   1.5358018596214884e-05   0.00014983204645799796
-7.381446103377556e-05   1.4450478972980255e-05   7.384117963247713e-05
-7.381446103377556e-05   1.4450478972980255e-05   7.384117963247713e-05
-7.381446103377556e-05   1.4450478972980255e-05   7.384117963247713e-05
-7.381446103377556e-05   1.4450478972980255e-05   7.384117963247713e-05
-7.586737199497331e-05   1.2501317287924064e-05   0.00014850981266834908
-7.586737199497331e-05   1.2501317287924064e-05   0.00014850981266834908
-7.586737199497331e-05   1.2501317287924064e-05   0.00014850981266834908
-7.586737199497331e-05   1.2501317287924064e-05   0.00014850981266834908
-3.0689092407679684e-05   1.1558764620508456e-05   7.377821162330963e-05
-3.0689092407679684e-05   1.1558764620508456e-05   7.377821162330963e-05
-3.0689092407679684e-05   1.1558764620508456e-05   7.377821162330963e-05
-3.0689092407679684e-05   1.1558764620508456e-05   7.377821162330963e-05
-5.232418587837879e-05   1.3153285004808939e-05   0.00010887998851056603
-5.232418587837879e-05   1.3153285004808939e-05   0.00010887998851056603
-5.232418587837879e-05   1.3153285004808939e-05   0.00010887998851056603
-5.232418587837879e-05   1.3153285004808939e-05   0.00010887998851056603
-3.068909240767979e-05   1.2501317287923197e-05   0.00014907534426879861
-3.068909240767979e-05   1.2501317287923197e-05   0.00014907534426879861
-3.068909240767979e-05   1.2501317287923197e-05   0.00014907534426879861
-3.068909240767979e-05   1.2501317287923197e-05   0.00014907534426879861
-7.58673719949731e-05   1.1558764620509324e-05   7.321268002286095e-05
-7.58673719949731e-05   1.1558764620509324e-05   7.321268002286095e-05
-7.58673719949731e-05   1.1558764620509324e-05   7.321268002286095e-05
-7.58673719949731e-05   1.1558764620509324e-05   7.321268002286095e-05
-7.798865021288741e-05   9.67710358240094e-06   0.00014952356167046744
-7.798865021288741e-05   9.67710358240094e-06   0.00014952356167046744
-7.798865021288741e-05   9.67710358240094e-06   0.00014952356167046744
-7.798865021288741e-05   9.67710358240094e-06   0.00014952356167046744
-3.289280801044086e-05   8.681600445594254e-06   7.496112654847473e-05
-3.289280801044086e-05   8.681600445594254e-06   7.496112654847473e-05
-3.289280801044086e-05   8.681600445594254e-06   7.496112654847473e-05
-3.289280801044086e-05   8.681600445594254e-06   7.496112654847473e-05
-5.4154194844768626e-05   1.0949734754567633e-05   0.00010903589068696987
-5.4154194844768626e-05   1.0949734754567633e-05   0.00010903589068696987
-5.4154194844768626e-05   1.0949734754567633e-05   0.00010903589068696987
-5.4154194844768626e-05   1.0949734754567633e-05   0.00010903589068696987
-3.289280801044097e-05   9.67710358240094e-06   0.00015012086355255163
-3.289280801044097e-05   9.67710358240094e-06   0.00015012086355255163
-3.289280801044097e-05   9.67710358240094e-06   0.00015012086355255163
-3.289280801044097e-05   9.67710358240094e-06   0.00015012086355255163
-7.798865021288741e-05   8.681600445594254e-06   7.43638246663912e-05
-7.798865021288741e-05   8.681600445594254e-06   7.43638246663912e-05
-7.798865021288741e-05   8.681600445594254e-06   7.43638246663912e-05
-7.798865021288741e-05   8.681600445594254e-06   7.43638246663912e-05
-8.00775189050201e-05   6.9568600989285134e-06   0.00015197303228458962
-8.00775189050201e-05   6.9568600989285134e-06   0.00015197303228458962
-8.00775189050201e-05   6.9568600989285134e-06   0.00015197303228458962
-8.00775189050201e-05   6.9568600989285134e-06   0.00015197303228458962
-3.5062180236078e-05   5.92435220441237e-06   7.756697257306489e-05
-3.5062180236078e-05   5.92435220441237e-06   7.756697257306489e-05
-3.5062180236078e-05   5.92435220441237e-06   7.756697257306489e-05
-3.5062180236078e-05   5.92435220441237e-06   7.756697257306489e-05
-5.609950254266356e-05   8.789175464402922e-06   0.0001109102824613812
-5.609950254266356e-05   8.789175464402922e-06   0.0001109102824613812
-5.609950254266356e-05   8.789175464402922e-06   0.0001109102824613812
-5.609950254266356e-05   8.789175464402922e-06   0.0001109102824613812
-7.381446103377556e-05   2.6265110235513568e-05   0.00013190898887399053
-7.381446103377556e-05   2.6265110235513568e-05   0.00013190898887399053
-7.381446103377556e-05   2.6265110235513568e-05   0.00013190898887399053
-7.381446103377556e-05   2.6265110235513568e-05   0.00013190898887399053
-0.00011821132516594886   2.1404722389176296e-05   5.4997982612565305e-05
-0.00011821132516594886   2.1404722389176296e-05   5.4997982612565305e-05
-0.00011821132516594886   2.1404722389176296e-05   5.4997982612565305e-05
-0.00011821132516594886   2.1404722389176296e-05   5.4997982612565305e-05
-0.0001204459156226704   2.3468131651119273e-05   0.000129459282949336
-0.0001204459156226704   2.3468131651119273e-05   0.000129459282949336
-0.0001204459156226704   2.3468131651119273e-05   0.000129459282949336
-0.0001204459156226704   2.3468131651119273e-05   0.000129459282949336
-7.586737199497288e-05   1.848443983307451e-05   5.81519253273358e-05
-7.586737199497288e-05   1.848443983307451e-05   5.81519253273358e-05
-7.586737199497288e-05   1.848443983307451e-05   5.81519253273358e-05
-7.586737199497288e-05   1.848443983307451e-05   5.81519253273358e-05
-9.685189485313713e-05   2.2052161908651252e-05   9.098549684560201e-05
-9.685189485313713e-05   2.2052161908651252e-05   9.098549684560201e-05
-9.685189485313713e-05   2.2052161908651252e-05   9.098549684560201e-05
-9.685189485313713e-05   2.2052161908651252e-05   9.098549684560201e-05
-7.586737199497331e-05   2.3468131651119273e-05   0.0001324494980401627
-7.586737199497331e-05   2.3468131651119273e-05   0.0001324494980401627
-7.586737199497331e-05   2.3468131651119273e-05   0.0001324494980401627
-7.586737199497331e-05   2.3468131651119273e-05   0.0001324494980401627
-0.0001204459156226704   1.848443983307451e-05   5.516171023650868e-05
-0.0001204459156226704   1.848443983307451e-05   5.516171023650868e-05
-0.0001204459156226704   1.848443983307451e-05   5.516171023650868e-05
-0.0001204459156226704   1.848443983307451e-05   5.516171023650868e-05
-0.00012309594980358055   2.088681465512148e-05   0.00013372399191840037
-0.00012309594980358055   2.088681465512148e-05   0.00013372399191840037
-0.00012309594980358055   2.088681465512148e-05   0.00013372399191840037
-0.00012309594980358055   2.088681465512148e-05   0.00013372399191840037
-7.79886502128872e-05   1.5835262448833133e-05   6.157609059101801e-05
-7.79886502128872e-05   1.5835262448833133e-05   6.157609059101801e-05
-7.79886502128872e-05   1.5835262448833133e-05   6.157609059101801e-05
-7.79886502128872e-05   1.5835262448833133e-05   6.157609059101801e-05
-9.83094815737946e-05   1.998349770308914e-05   9.295520170664361e-05
-9.83094815737946e-05   1.998349770308914e-05   9.295520170664361e-05
-9.83094815737946e-05   1.998349770308914e-05   9.295520170664361e-05
-9.83094815737946e-05   1.998349770308914e-05   9.295520170664361e-05
-7.798865021288741e-05   2.088681465512148e-05   0.00013675492324217216
-7.798865021288741e-05   2.088681465512148e-05   0.00013675492324217216
-7.798865021288741e-05   2.088681465512148e-05   0.00013675492324217216
-7.798865021288741e-05   2.088681465512148e-05   0.00013675492324217216
-0.00012309594980358034   1.5835262448833133e-05   5.854515926724535e-05
-0.00012309594980358034   1.5835262448833133e-05   5.854515926724535e-05
-0.00012309594980358034   1.5835262448833133e-05   5.854515926724535e-05
-0.00012309594980358034   1.5835262448833133e-05   5.854515926724535e-05
-0.00012537461285544818   1.8007863872861705e-05   0.00013786615818405824
-0.00012537461285544818   1.8007863872861705e-05   0.00013786615818405824
-0.00012537461285544818   1.8007863872861705e-05   0.00013786615818405824
-0.00012537461285544818   1.8007863872861705e-05   0.00013786615818405824
-8.007751890501988e-05   1.3010371805447472e-05   6.536949684046224e-05
-8.007751890501988e-05   1.3010371805447472e-05   6.536949684046224e-05
-8.007751890501988e-05   1.3010371805447472e-05   6.536949684046224e-05
-8.007751890501988e-05   1.3010371805447472e-05   6.536949684046224e-05
-0.00010079789274863664   1.7918538422426883e-05   9.695855327630657e-05
-0.00010079789274863664   1.7918538422426883e-05   9.695855327630657e-05
-0.00010079789274863664   1.7918538422426883e-05   9.695855327630657e-05
-0.00010079789274863664   1.7918538422426883e-05   9.695855327630657e-05
-0.0001182113251659493   3.435347854529366e-05   6.148279272723874e-05
-0.0001182113251659493   3.435347854529366e-05   6.148279272723874e-05
-0.0001182113251659493   3.435347854529366e-05   6.148279272723874e-05
-0.0001182113251659493   3.435347854529366e-05   6.148279272723874e-05
-0.0001580629784765045   2.6238263299368896e-05   -9.805758604575308e-06
-0.0001580629784765045   2.6238263299368896e-05   -9.805758604575308e-06
-0.0001580629784765045   2.6238263299368896e-05   -9.805758604575308e-06
-0.0001580629784765045   2.6238263299368896e-05   -9.805758604575308e-06
-0.00016378339033723457   3.3438900879938574e-05   7.569542173526712e-05
-0.00016378339033723457   3.3438900879938574e-05   7.569542173526712e-05
-0.00016378339033723457   3.3438900879938574e-05   7.569542173526712e-05
-0.00016378339033723457   3.3438900879938574e-05   7.569542173526712e-05
-0.00012044591562266997   2.4731521878786772e-05   8.690724611685324e-06
-0.00012044591562266997   2.4731521878786772e-05   8.690724611685324e-06
-0.00012044591562266997   2.4731521878786772e-05   8.690724611685324e-06
-0.00012044591562266997   2.4731521878786772e-05   8.690724611685324e-06
-0.00013502790538883478   2.9158235100543682e-05   3.0338012955577996e-05
-0.00013502790538883478   2.9158235100543682e-05   3.0338012955577996e-05
-0.00013502790538883478   2.9158235100543682e-05   3.0338012955577996e-05
-0.00013502790538883478   2.9158235100543682e-05   3.0338012955577996e-05
-0.00012044591562266997   3.3438900879938574e-05   8.091984913595734e-05
-0.00012044591562266997   3.3438900879938574e-05   8.091984913595734e-05
-0.00012044591562266997   3.3438900879938574e-05   8.091984913595734e-05
-0.00012044591562266997   3.3438900879938574e-05   8.091984913595734e-05
-0.00016378339033723457   2.4731521878786772e-05   3.4662972109938094e-06
-0.00016378339033723457   2.4731521878786772e-05   3.4662972109938094e-06
-0.00016378339033723457   2.4731521878786772e-05   3.4662972109938094e-06
-0.00016378339033723457   2.4731521878786772e-05   3.4662972109938094e-06
-0.00016871686272420714   3.234609640772549e-05   8.955821475020893e-05
-0.00016871686272420714   3.234609640772549e-05   8.955821475020893e-05
-0.00016871686272420714   3.234609640772549e-05   8.955821475020893e-05
-0.00016871686272420714   3.234609640772549e-05   8.955821475020893e-05
-0.00012309594980358034   2.348462896171674e-05   1.8840240350104405e-05
-0.00012309594980358034   2.348462896171674e-05   1.8840240350104405e-05
-0.00012309594980358034   2.348462896171674e-05   1.8840240350104405e-05
-0.00012309594980358034   2.348462896171674e-05   1.8840240350104405e-05
-0.00014050204871411773   2.87596353798188e-05   4.468540135014109e-05
-0.00014050204871411773   2.87596353798188e-05   4.468540135014109e-05
-0.00014050204871411773   2.87596353798188e-05   4.468540135014109e-05
-0.00014050204871411773   2.87596353798188e-05   4.468540135014109e-05
-0.00012309594980358055   3.234609640772636e-05   9.487509521781488e-05
-0.00012309594980358055   3.234609640772636e-05   9.487509521781488e-05
-0.00012309594980358055   3.234609640772636e-05   9.487509521781488e-05
-0.00012309594980358055   3.234609640772636e-05   9.487509521781488e-05
-0.00016871686272420714   2.348462896171674e-05   1.3523359882498896e-05
-0.00016871686272420714   2.348462896171674e-05   1.3523359882498896e-05
-0.00016871686272420714   2.348462896171674e-05   1.3523359882498896e-05
-0.00016871686272420714   2.348462896171674e-05   1.3523359882498896e-05
-0.00017463063212931227   2.869848925095373e-05   0.00011411417821517288
-0.00017463063212931227   2.869848925095373e-05   0.00011411417821517288
-0.00017463063212931227   2.869848925095373e-05   0.00011411417821517288
-0.00017463063212931227   2.869848925095373e-05   0.00011411417821517288
-0.00012537461285544796   2.0112783181960338e-05   3.717223640013019e-05
-0.00012537461285544796   2.0112783181960338e-05   3.717223640013019e-05
-0.00012537461285544796   2.0112783181960338e-05   3.717223640013019e-05
-0.00012537461285544796   2.0112783181960338e-05   3.717223640013019e-05
-0.00014190505006898748   2.7226415056423245e-05   6.045478596468758e-05
-0.00014190505006898748   2.7226415056423245e-05   6.045478596468758e-05
-0.00014190505006898748   2.7226415056423245e-05   6.045478596468758e-05
-0.00014190505006898748   2.7226415056423245e-05   6.045478596468758e-05
1.2440535073616121e-05   3.499505065738054e-07   7.250180028307851e-05
1.2440535073616121e-05   3.499505065738054e-07   7.250180028307851e-05
1.2440535073616121e-05   3.499505065738054e-07   7.250180028307851e-05
1.2440535073616121e-05   3.499505065738054e-07   7.250180028307851e-05
-1.6079288327020225e-05   8.132842688019296e-06   2.96384965908854e-05
-1.6079288327020225e-05   8.132842688019296e-06   2.96384965908854e-05
-1.6079288327020225e-05   8.132842688019296e-06   2.96384965908854e-05
-1.6079288327020225e-05   8.132842688019296e-06   2.96384965908854e-05
-1.7791077658872788e-05   -2.4072394063092903e-06   7.166125440601946e-05
-1.7791077658872788e-05   -2.4072394063092903e-06   7.166125440601946e-05
-1.7791077658872788e-05   -2.4072394063092903e-06   7.166125440601946e-05
-1.7791077658872788e-05   -2.4072394063092903e-06   7.166125440601946e-05
7.216184899443731e-06   5.561956811618064e-06   2.5200965744735446e-05
7.216184899443731e-06   5.561956811618064e-06   2.5200965744735446e-05
7.216184899443731e-06   5.561956811618064e-06   2.5200965744735446e-05
7.216184899443731e-06   5.561956811618064e-06   2.5200965744735446e-05
-4.1882486703367715e-06   2.4736155906611434e-06   4.606135976027687e-05
-4.1882486703367715e-06   2.4736155906611434e-06   4.606135976027687e-05
-4.1882486703367715e-06   2.4736155906611434e-06   4.606135976027687e-05
-4.1882486703367715e-06   2.4736155906611434e-06   4.606135976027687e-05
7.216184899443731e-06   -2.4072394063092903e-06   6.687973667526305e-05
7.216184899443731e-06   -2.4072394063092903e-06   6.687973667526305e-05
7.216184899443731e-06   -2.4072394063092903e-06   6.687973667526305e-05
7.216184899443731e-06   -2.4072394063092903e-06   6.687973667526305e-05
-1.7791077658872788e-05   5.561956811618064e-06   2.998248347549186e-05
-1.7791077658872788e-05   5.561956811618064e-06   2.998248347549186e-05
-1.7791077658872788e-05   5.561956811618064e-06   2.998248347549186e-05
-1.7791077658872788e-05   5.561956811618064e-06   2.998248347549186e-05
-1.990267886854936e-05   -3.6046806909653326e-06   6.988214122681958e-05
-1.990267886854936e-05   -3.6046806909653326e-06   6.988214122681958e-05
-1.990267886854936e-05   -3.6046806909653326e-06   6.988214122681958e-05
-1.990267886854936e-05   -3.6046806909653326e-06   6.988214122681958e-05
2.6906400098327993e-06   4.134447117534225e-06   2.7583133077748877e-05
2.6906400098327993e-06   4.134447117534225e-06   2.7583133077748877e-05
2.6906400098327993e-06   4.134447117534225e-06   2.7583133077748877e-05
2.6906400098327993e-06   4.134447117534225e-06   2.7583133077748877e-05
-7.020468281297579e-06   1.3772140130628024e-06   4.542265342565011e-05
-7.020468281297579e-06   1.3772140130628024e-06   4.542265342565011e-05
-7.020468281297579e-06   1.3772140130628024e-06   4.542265342565011e-05
-7.020468281297579e-06   1.3772140130628024e-06   4.542265342565011e-05
2.690640009832745e-06   -3.6046806909653326e-06   6.523866454171854e-05
2.690640009832745e-06   -3.6046806909653326e-06   6.523866454171854e-05
2.690640009832745e-06   -3.6046806909653326e-06   6.523866454171854e-05
2.690640009832745e-06   -3.6046806909653326e-06   6.523866454171854e-05
-1.9902678868549347e-05   4.134447117534225e-06   3.2226609762848937e-05
-1.9902678868549347e-05   4.134447117534225e-06   3.2226609762848937e-05
-1.9902678868549347e-05   4.134447117534225e-06   3.2226609762848937e-05
-1.9902678868549347e-05   4.134447117534225e-06   3.2226609762848937e-05
-2.166238594742491e-05   -5.6156503186423e-06   6.93903582526926e-05
-2.166238594742491e-05   -5.6156503186423e-06   6.93903582526926e-05
-2.166238594742491e-05   -5.6156503186423e-06   6.93903582526926e-05
-2.166238594742491e-05   -5.6156503186423e-06   6.93903582526926e-05
-2.9807556764928182e-06   1.094820768807181e-06   3.422802514867023e-05
-2.9807556764928182e-06   1.094820768807181e-06   3.422802514867023e-05
-2.9807556764928182e-06   1.094820768807181e-06   3.422802514867023e-05
-2.9807556764928182e-06   1.094820768807181e-06   3.422802514867023e-05
-1.002750704085342e-05   3.5411834338906073e-07   4.641703221118862e-05
-1.002750704085342e-05   3.5411834338906073e-07   4.641703221118862e-05
-1.002750704085342e-05   3.5411834338906073e-07   4.641703221118862e-05
-1.002750704085342e-05   3.5411834338906073e-07   4.641703221118862e-05
-1.6079288327020225e-05   7.805960975724828e-06   0.00011699358858674415
-1.6079288327020225e-05   7.805960975724828e-06   0.00011699358858674415
-1.6079288327020225e-05   7.805960975724828e-06   0.00011699358858674415
-1.6079288327020225e-05   7.805960975724828e-06   0.00011699358858674415
-3.9975148588605866e-05   9.31799753396776e-06   7.807437675238062e-05
-3.9975148588605866e-05   9.31799753396776e-06   7.807437675238062e-05
-3.9975148588605866e-05   9.31799753396776e-06   7.807437675238062e-05
-3.9975148588605866e-05   9.31799753396776e-06   7.807437675238062e-05
-4.1259789551854106e-05   4.678805629462594e-06   0.00011669825986207602
-4.1259789551854106e-05   4.678805629462594e-06   0.00011669825986207602
-4.1259789551854106e-05   4.678805629462594e-06   0.00011669825986207602
-4.1259789551854106e-05   4.678805629462594e-06   0.00011669825986207602
-1.7791077658872788e-05   6.440323151094343e-06   7.652682952746152e-05
-1.7791077658872788e-05   6.440323151094343e-06   7.652682952746152e-05
-1.7791077658872788e-05   6.440323151094343e-06   7.652682952746152e-05
-1.7791077658872788e-05   6.440323151094343e-06   7.652682952746152e-05
-2.893510373266171e-05   6.733956013216594e-06   9.492402659983651e-05
-2.893510373266171e-05   6.733956013216594e-06   9.492402659983651e-05
-2.893510373266171e-05   6.733956013216594e-06   9.492402659983651e-05
-2.893510373266171e-05   6.733956013216594e-06   9.492402659983651e-05
-1.77910776588728e-05   4.678805629462594e-06   0.00011564134934909619
-1.77910776588728e-05   4.678805629462594e-06   0.00011564134934909619
-1.77910776588728e-05   4.678805629462594e-06   0.00011564134934909619
-1.77910776588728e-05   4.678805629462594e-06   0.00011564134934909619
-4.125978955185389e-05   6.440323151094343e-06   7.758374004043994e-05
-4.125978955185389e-05   6.440323151094343e-06   7.758374004043994e-05
-4.125978955185389e-05   6.440323151094343e-06   7.758374004043994e-05
-4.125978955185389e-05   6.440323151094343e-06   7.758374004043994e-05
-4.2583918425363114e-05   2.0200331492898835e-06   0.00011698034814572843
-4.2583918425363114e-05   2.0200331492898835e-06   0.00011698034814572843
-4.2583918425363114e-05   2.0200331492898835e-06   0.00011698034814572843
-4.2583918425363114e-05   2.0200331492898835e-06   0.00011698034814572843
-1.9902678868549347e-05   3.7727952148245217e-06   7.812662497838456e-05
-1.9902678868549347e-05   3.7727952148245217e-06   7.812662497838456e-05
-1.9902678868549347e-05   3.7727952148245217e-06   7.812662497838456e-05
-1.9902678868549347e-05   3.7727952148245217e-06   7.812662497838456e-05
-3.0244782917909394e-05   4.624376374879127e-06   9.485251636461999e-05
-3.0244782917909394e-05   4.624376374879127e-06   9.485251636461999e-05
-3.0244782917909394e-05   4.624376374879127e-06   9.485251636461999e-05
-3.0244782917909394e-05   4.624376374879127e-06   9.485251636461999e-05
-1.990267886854936e-05   2.020033149290751e-06   0.00011592869090640669
-1.990267886854936e-05   2.020033149290751e-06   0.00011592869090640669
-1.990267886854936e-05   2.020033149290751e-06   0.00011592869090640669
-1.990267886854936e-05   2.020033149290751e-06   0.00011592869090640669
-4.2583918425363114e-05   3.7727952148245217e-06   7.917828221770456e-05
-4.2583918425363114e-05   3.7727952148245217e-06   7.917828221770456e-05
-4.2583918425363114e-05   3.7727952148245217e-06   7.917828221770456e-05
-4.2583918425363114e-05   3.7727952148245217e-06   7.917828221770456e-05
-4.3880426852299106e-05   -7.07441709057316e-07   0.00011930456492934916
-4.3880426852299106e-05   -7.07441709057316e-07   0.00011930456492934916
-4.3880426852299106e-05   -7.07441709057316e-07   0.00011930456492934916
-4.3880426852299106e-05   -7.07441709057316e-07   0.00011930456492934916
-2.166238594742491e-05   8.709808471743519e-07   8.132744322082136e-05
-2.166238594742491e-05   8.709808471743519e-07   8.132744322082136e-05
-2.166238594742491e-05   8.709808471743519e-07   8.132744322082136e-05
-2.166238594742491e-05   8.709808471743519e-07   8.132744322082136e-05
-3.155700589348255e-05   2.5402269421756496e-06   9.681692880724932e-05
-3.155700589348255e-05   2.5402269421756496e-06   9.681692880724932e-05
-3.155700589348255e-05   2.5402269421756496e-06   9.681692880724932e-05
-3.155700589348255e-05   2.5402269421756496e-06   9.681692880724932e-05
-3.997514858860576e-05   1.4450478972980255e-05   0.0001317664415325893
-3.997514858860576e-05   1.4450478972980255e-05   0.0001317664415325893
-3.997514858860576e-05   1.4450478972980255e-05   0.0001317664415325893
-3.997514858860576e-05   1.4450478972980255e-05   0.0001317664415325893
-6.385149884193257e-05   1.110030553539039e-05   8.996242038115747e-05
-6.385149884193257e-05   1.110030553539039e-05   8.996242038115747e-05
-6.385149884193257e-05   1.110030553539039e-05   8.996242038115747e-05
-6.385149884193257e-05   1.110030553539039e-05   8.996242038115747e-05
-6.49345813619486e-05   1.1558764620508456e-05   0.00012932731616728966
-6.49345813619486e-05   1.1558764620508456e-05   0.00012932731616728966
-6.49345813619486e-05   1.1558764620508456e-05   0.00012932731616728966
-6.49345813619486e-05   1.1558764620508456e-05   0.00012932731616728966
-4.125978955185389e-05   8.424719913403128e-06   9.174975664139485e-05
-4.125978955185389e-05   8.424719913403128e-06   9.174975664139485e-05
-4.125978955185389e-05   8.424719913403128e-06   9.174975664139485e-05
-4.125978955185389e-05   8.424719913403128e-06   9.174975664139485e-05
-5.2527274132928346e-05   1.117315387469224e-05   0.00010887983723307897
-5.2527274132928346e-05   1.117315387469224e-05   0.00010887983723307897
-5.2527274132928346e-05   1.117315387469224e-05   0.00010887983723307897
-5.2527274132928346e-05   1.117315387469224e-05   0.00010887983723307897
-4.125978955185389e-05   1.1558764620508456e-05   0.00013120774299155277
-4.125978955185389e-05   1.1558764620508456e-05   0.00013120774299155277
-4.125978955185389e-05   1.1558764620508456e-05   0.00013120774299155277
-4.125978955185389e-05   1.1558764620508456e-05   0.00013120774299155277
-6.49345813619486e-05   8.424719913403128e-06   8.986932981713174e-05
-6.49345813619486e-05   8.424719913403128e-06   8.986932981713174e-05
-6.49345813619486e-05   8.424719913403128e-06   8.986932981713174e-05
-6.49345813619486e-05   8.424719913403128e-06   8.986932981713174e-05
-6.609679233432887e-05   8.681600445594254e-06   0.00013064748753123783
-6.609679233432887e-05   8.681600445594254e-06   0.00013064748753123783
-6.609679233432887e-05   8.681600445594254e-06   0.00013064748753123783
-6.609679233432887e-05   8.681600445594254e-06   0.00013064748753123783
-4.2583918425363114e-05   5.704471796038474e-06   9.324564153936226e-05
-4.2583918425363114e-05   5.704471796038474e-06   9.324564153936226e-05
-4.2583918425363114e-05   5.704471796038474e-06   9.324564153936226e-05
-4.2583918425363114e-05   5.704471796038474e-06   9.324564153936226e-05
-5.345239578515297e-05   9.025816432960479e-06   0.00010936696369019216
-5.345239578515297e-05   9.025816432960479e-06   0.00010936696369019216
-5.345239578515297e-05   9.025816432960479e-06   0.00010936696369019216
-5.345239578515297e-05   9.025816432960479e-06   0.00010936696369019216
-4.2583918425363114e-05   8.681600445594254e-06   0.00013243376472097139
-4.2583918425363114e-05   8.681600445594254e-06   0.00013243376472097139
-4.2583918425363114e-05   8.681600445594254e-06   0.00013243376472097139
-4.2583918425363114e-05   8.681600445594254e-06   0.00013243376472097139
-6.609679233432887e-05   5.704471796038474e-06   9.145936434962849e-05
-6.609679233432887e-05   5.704471796038474e-06   9.145936434962849e-05
-6.609679233432887e-05   5.704471796038474e-06   9.145936434962849e-05
-6.609679233432887e-05   5.704471796038474e-06   9.145936434962849e-05
-6.723490606177856e-05   5.924352204413237e-06   0.00013338067980059234
-6.723490606177856e-05   5.924352204413237e-06   0.00013338067980059234
-6.723490606177856e-05   5.924352204413237e-06   0.00013338067980059234
-6.723490606177856e-05   5.924352204413237e-06   0.00013338067980059234
-4.3880426852299106e-05   3.1212620595355567e-06   9.61384018717201e-05
-4.3880426852299106e-05   3.1212620595355567e-06   9.61384018717201e-05
-4.3880426852299106e-05   3.1212620595355567e-06   9.61384018717201e-05
-4.3880426852299106e-05   3.1212620595355567e-06   9.61384018717201e-05
-5.448349956175169e-05   6.908981441856518e-06   0.00011153755809141476
-5.448349956175169e-05   6.908981441856518e-06   0.00011153755809141476
-5.448349956175169e-05   6.908981441856518e-06   0.00011153755809141476
-5.448349956175169e-05   6.908981441856518e-06   0.00011153755809141476
-6.385149884193279e-05   2.1404722389176296e-05   0.00011382937315792662
-6.385149884193279e-05   2.1404722389176296e-05   0.00011382937315792662
-6.385149884193279e-05   2.1404722389176296e-05   0.00011382937315792662
-6.385149884193279e-05   2.1404722389176296e-05   0.00011382937315792662
-8.730529667763925e-05   1.4958671246039466e-05   7.087207941253323e-05
-8.730529667763925e-05   1.4958671246039466e-05   7.087207941253323e-05
-8.730529667763925e-05   1.4958671246039466e-05   7.087207941253323e-05
-8.730529667763925e-05   1.4958671246039466e-05   7.087207941253323e-05
-8.849393913185652e-05   1.8484439833075378e-05   0.00011046148893040578
-8.849393913185652e-05   1.8484439833075378e-05   0.00011046148893040578
-8.849393913185652e-05   1.8484439833075378e-05   0.00011046148893040578
-8.849393913185652e-05   1.8484439833075378e-05   0.00011046148893040578
-6.49345813619486e-05   1.2142652264143447e-05   7.500096518858507e-05
-6.49345813619486e-05   1.2142652264143447e-05   7.500096518858507e-05
-6.49345813619486e-05   1.2142652264143447e-05   7.500096518858507e-05
-6.49345813619486e-05   1.2142652264143447e-05   7.500096518858507e-05
-7.598526525957026e-05   1.661730612340269e-05   9.073397936906584e-05
-7.598526525957026e-05   1.661730612340269e-05   9.073397936906584e-05
-7.598526525957026e-05   1.661730612340269e-05   9.073397936906584e-05
-7.598526525957026e-05   1.661730612340269e-05   9.073397936906584e-05
-6.49345813619486e-05   1.8484439833075378e-05   0.0001142665614717645
-6.49345813619486e-05   1.8484439833075378e-05   0.0001142665614717645
-6.49345813619486e-05   1.8484439833075378e-05   0.0001142665614717645
-6.49345813619486e-05   1.8484439833075378e-05   0.0001142665614717645
-8.849393913185608e-05   1.2142652264144314e-05   7.119589264722613e-05
-8.849393913185608e-05   1.2142652264144314e-05   7.119589264722613e-05
-8.849393913185608e-05   1.2142652264144314e-05   7.119589264722613e-05
-8.849393913185608e-05   1.2142652264144314e-05   7.119589264722613e-05
-9.014508953524036e-05   1.5835262448833133e-05   0.00011414376537257926
-9.014508953524036e-05   1.5835262448833133e-05   0.00011414376537257926
-9.014508953524036e-05   1.5835262448833133e-05   0.00011414376537257926
-9.014508953524036e-05   1.5835262448833133e-05   0.00011414376537257926
-6.609679233432887e-05   9.641948976688366e-06   7.777925812101419e-05
-6.609679233432887e-05   9.641948976688366e-06   7.777925812101419e-05
-6.609679233432887e-05   9.641948976688366e-06   7.777925812101419e-05
-6.609679233432887e-05   9.641948976688366e-06   7.777925812101419e-05
-7.663203410461028e-05   1.453585065834366e-05   9.240165339582289e-05
-7.663203410461028e-05   1.453585065834366e-05   9.240165339582289e-05
-7.663203410461028e-05   1.453585065834366e-05   9.240165339582289e-05
-7.663203410461028e-05   1.453585065834366e-05   9.240165339582289e-05
-6.609679233432909e-05   1.5835262448833133e-05   0.00011785975345586378
-6.609679233432909e-05   1.5835262448833133e-05   0.00011785975345586378
-6.609679233432909e-05   1.5835262448833133e-05   0.00011785975345586378
-6.609679233432909e-05   1.5835262448833133e-05   0.00011785975345586378
-9.014508953523992e-05   9.641948976688366e-06   7.406327003772707e-05
-9.014508953523992e-05   9.641948976688366e-06   7.406327003772707e-05
-9.014508953523992e-05   9.641948976688366e-06   7.406327003772707e-05
-9.014508953523992e-05   9.641948976688366e-06   7.406327003772707e-05
-9.147074765530438e-05   1.3010371805446605e-05   0.00011825606697358701
-9.147074765530438e-05   1.3010371805446605e-05   0.00011825606697358701
-9.147074765530438e-05   1.3010371805446605e-05   0.00011825606697358701
-9.147074765530438e-05   1.3010371805446605e-05   0.00011825606697358701
-6.723490606177856e-05   7.0993020869275156e-06   8.140963948215663e-05
-6.723490606177856e-05   7.0993020869275156e-06   8.140963948215663e-05
-6.723490606177856e-05   7.0993020869275156e-06   8.140963948215663e-05
-6.723490606177856e-05   7.0993020869275156e-06   8.140963948215663e-05
-7.799492838915316e-05   1.2561851709512288e-05   9.606548025423286e-05
-7.799492838915316e-05   1.2561851709512288e-05   9.606548025423286e-05
-7.799492838915316e-05   1.2561851709512288e-05   9.606548025423286e-05
-7.799492838915316e-05   1.2561851709512288e-05   9.606548025423286e-05
-8.730529667763925e-05   2.6238263299368896e-05   5.002713040245903e-05
-8.730529667763925e-05   2.6238263299368896e-05   5.002713040245903e-05
-8.730529667763925e-05   2.6238263299368896e-05   5.002713040245903e-05
-8.730529667763925e-05   2.6238263299368896e-05   5.002713040245903e-05
-0.00010549546409976051   1.7590155179801788e-05   1.4521319827184246e-05
-0.00010549546409976051   1.7590155179801788e-05   1.4521319827184246e-05
-0.00010549546409976051   1.7590155179801788e-05   1.4521319827184246e-05
-0.00010549546409976051   1.7590155179801788e-05   1.4521319827184246e-05
-0.00011003437505657278   2.4731521878786772e-05   5.858061673187989e-05
-0.00011003437505657278   2.4731521878786772e-05   5.858061673187989e-05
-0.00011003437505657278   2.4731521878786772e-05   5.858061673187989e-05
-0.00011003437505657278   2.4731521878786772e-05   5.858061673187989e-05
-8.849393913185608e-05   1.5715044255949946e-05   2.808977676438699e-05
-8.849393913185608e-05   1.5715044255949946e-05   2.808977676438699e-05
-8.849393913185608e-05   1.5715044255949946e-05   2.808977676438699e-05
-8.849393913185608e-05   1.5715044255949946e-05   2.808977676438699e-05
-9.444329420635355e-05   2.0872404361504254e-05   3.4910952491883085e-05
-9.444329420635355e-05   2.0872404361504254e-05   3.4910952491883085e-05
-9.444329420635355e-05   2.0872404361504254e-05   3.4910952491883085e-05
-9.444329420635355e-05   2.0872404361504254e-05   3.4910952491883085e-05
-8.84939391318563e-05   2.4731521878785905e-05   6.399050330558112e-05
-8.84939391318563e-05   2.4731521878785905e-05   6.399050330558112e-05
-8.84939391318563e-05   2.4731521878785905e-05   6.399050330558112e-05
-8.84939391318563e-05   2.4731521878785905e-05   6.399050330558112e-05
-0.00011003437505657321   1.5715044255949946e-05   2.2679890190684462e-05
-0.00011003437505657321   1.5715044255949946e-05   2.2679890190684462e-05
-0.00011003437505657321   1.5715044255949946e-05   2.2679890190684462e-05
-0.00011003437505657321   1.5715044255949946e-05   2.2679890190684462e-05
-0.00011393764991085098   2.348462896171674e-05   6.900701870399522e-05
-0.00011393764991085098   2.348462896171674e-05   6.900701870399522e-05
-0.00011393764991085098   2.348462896171674e-05   6.900701870399522e-05
-0.00011393764991085098   2.348462896171674e-05   6.900701870399522e-05
-9.014508953523992e-05   1.4431582709312739e-05   3.478457916275199e-05
-9.014508953523992e-05   1.4431582709312739e-05   3.478457916275199e-05
-9.014508953523992e-05   1.4431582709312739e-05   3.478457916275199e-05
-9.014508953523992e-05   1.4431582709312739e-05   3.478457916275199e-05
-9.82781731650636e-05   2.0128445595904258e-05   4.49216008138395e-05
-9.82781731650636e-05   2.0128445595904258e-05   4.49216008138395e-05
-9.82781731650636e-05   2.0128445595904258e-05   4.49216008138395e-05
-9.82781731650636e-05   2.0128445595904258e-05   4.49216008138395e-05
-9.014508953523992e-05   2.348462896171674e-05   7.443884645543615e-05
-9.014508953523992e-05   2.348462896171674e-05   7.443884645543615e-05
-9.014508953523992e-05   2.348462896171674e-05   7.443884645543615e-05
-9.014508953523992e-05   2.348462896171674e-05   7.443884645543615e-05
-0.00011393764991085098   1.4431582709313606e-05   2.9352751411310194e-05
-0.00011393764991085098   1.4431582709313606e-05   2.9352751411310194e-05
-0.00011393764991085098   1.4431582709313606e-05   2.9352751411310194e-05
-0.00011393764991085098   1.4431582709313606e-05   2.9352751411310194e-05
-0.00011892202666192531   2.0112783181960338e-05   8.789301801427098e-05
-0.00011892202666192531   2.0112783181960338e-05   8.789301801427098e-05
-0.00011892202666192531   2.0112783181960338e-05   8.789301801427098e-05
-0.00011892202666192531   2.0112783181960338e-05   8.789301801427098e-05
-9.147074765530417e-05   1.1505643582906781e-05   4.730517009600291e-05
-9.147074765530417e-05   1.1505643582906781e-05   4.730517009600291e-05
-9.147074765530417e-05   1.1505643582906781e-05   4.730517009600291e-05
-9.147074765530417e-05   1.1505643582906781e-05   4.730517009600291e-05
-9.939287037774277e-05   1.8730827590755263e-05   5.617359756202294e-05
-9.939287037774277e-05   1.8730827590755263e-05   5.617359756202294e-05
-9.939287037774277e-05   1.8730827590755263e-05   5.617359756202294e-05
-9.939287037774277e-05   1.8730827590755263e-05   5.617359756202294e-05
-4.523670550672063e-05   8.132842688019296e-06   5.13327428313076e-05
-4.523670550672063e-05   8.132842688019296e-06   5.13327428313076e-05
-4.523670550672063e-05   8.132842688019296e-06   5.13327428313076e-05
-4.523670550672063e-05   8.132842688019296e-06   5.13327428313076e-05
-4.8576025155261246e-05   1.5198336081930636e-05   5.000650612008682e-05
-4.8576025155261246e-05   1.5198336081930636e-05   5.000650612008682e-05
-4.8576025155261246e-05   1.5198336081930636e-05   5.000650612008682e-05
-4.8576025155261246e-05   1.5198336081930636e-05   5.000650612008682e-05
-4.9780335522524235e-05   5.561956811618064e-06   5.538754954226939e-05
-4.9780335522524235e-05   5.561956811618064e-06   5.538754954226939e-05
-4.9780335522524235e-05   5.561956811618064e-06   5.538754954226939e-05
-4.9780335522524235e-05   5.561956811618064e-06   5.538754954226939e-05
-5.039342200122902e-05   1.1906425258663682e-05   5.2602679271883434e-05
-5.039342200122902e-05   1.1906425258663682e-05   5.2602679271883434e-05
-5.039342200122902e-05   1.1906425258663682e-05   5.2602679271883434e-05
-5.039342200122902e-05   1.1906425258663682e-05   5.2602679271883434e-05
-4.7265217471170956e-05   9.550563554921142e-06   4.880252207736525e-05
-4.7265217471170956e-05   9.550563554921142e-06   4.880252207736525e-05
-4.7265217471170956e-05   9.550563554921142e-06   4.880252207736525e-05
-4.7265217471170956e-05   9.550563554921142e-06   4.880252207736525e-05
-5.0393422001229077e-05   5.561956811618932e-06   5.158086847404167e-05
-5.0393422001229077e-05   5.561956811618932e-06   5.158086847404167e-05
-5.0393422001229077e-05   5.561956811618932e-06   5.158086847404167e-05
-5.0393422001229077e-05   5.561956811618932e-06   5.158086847404167e-05
-4.9780335522524235e-05   1.1906425258663682e-05   5.64093603401105e-05
-4.9780335522524235e-05   1.1906425258663682e-05   5.64093603401105e-05
-4.9780335522524235e-05   1.1906425258663682e-05   5.64093603401105e-05
-4.9780335522524235e-05   1.1906425258663682e-05   5.64093603401105e-05
-5.134513922515634e-05   4.134447117535092e-06   5.728109498493372e-05
-5.134513922515634e-05   4.134447117535092e-06   5.728109498493372e-05
-5.134513922515634e-05   4.134447117535092e-06   5.728109498493372e-05
-5.134513922515634e-05   4.134447117535092e-06   5.728109498493372e-05
-5.539842117874532e-05   9.6179246363696e-06   6.074647839628014e-05
-5.539842117874532e-05   9.6179246363696e-06   6.074647839628014e-05
-5.539842117874532e-05   9.6179246363696e-06   6.074647839628014e-05
-5.539842117874532e-05   9.6179246363696e-06   6.074647839628014e-05
-5.033953006997033e-05   8.126861436919854e-06   5.3209631134656606e-05
-5.033953006997033e-05   8.126861436919854e-06   5.3209631134656606e-05
-5.033953006997033e-05   8.126861436919854e-06   5.3209631134656606e-05
-5.033953006997033e-05   8.126861436919854e-06   5.3209631134656606e-05
-5.539842117874543e-05   4.134447117534225e-06   5.399100847363128e-05
-5.539842117874543e-05   4.134447117534225e-06   5.399100847363128e-05
-5.539842117874543e-05   4.134447117534225e-06   5.399100847363128e-05
-5.539842117874543e-05   4.134447117534225e-06   5.399100847363128e-05
-5.134513922515634e-05   9.6179246363696e-06   6.403656490758074e-05
-5.134513922515634e-05   9.6179246363696e-06   6.403656490758074e-05
-5.134513922515634e-05   9.6179246363696e-06   6.403656490758074e-05
-5.134513922515634e-05   9.6179246363696e-06   6.403656490758074e-05
-5.232476449975671e-05   1.094820768807181e-06   6.320361916304284e-05
-5.232476449975671e-05   1.094820768807181e-06   6.320361916304284e-05
-5.232476449975671e-05   1.094820768807181e-06   6.320361916304284e-05
-5.232476449975671e-05   1.094820768807181e-06   6.320361916304284e-05
-6.0720802937599115e-05   3.982062248147206e-06   7.546467167184241e-05
-6.0720802937599115e-05   3.982062248147206e-06   7.546467167184241e-05
-6.0720802937599115e-05   3.982062248147206e-06   7.546467167184241e-05
-6.0720802937599115e-05   3.982062248147206e-06   7.546467167184241e-05
-5.244738260758333e-05   6.3634477630442055e-06   6.024680647954289e-05
-5.244738260758333e-05   6.3634477630442055e-06   6.024680647954289e-05
-5.244738260758333e-05   6.3634477630442055e-06   6.024680647954289e-05
-5.244738260758333e-05   6.3634477630442055e-06   6.024680647954289e-05
-4.857602515526115e-05   9.31799753396776e-06   0.00010310069709420448
-4.857602515526115e-05   9.31799753396776e-06   0.00010310069709420448
-4.857602515526115e-05   9.31799753396776e-06   0.00010310069709420448
-4.857602515526115e-05   9.31799753396776e-06   0.00010310069709420448
-4.8691287633045107e-05   3.9256505763784685e-06   9.967318479001076e-05
-4.8691287633045107e-05   3.9256505763784685e-06   9.967318479001076e-05
-4.8691287633045107e-05   3.9256505763784685e-06   9.967318479001076e-05
-4.8691287633045107e-05   3.9256505763784685e-06   9.967318479001076e-05
-4.903938969134979e-05   6.440323151094343e-06   9.921132708045136e-05
-4.903938969134979e-05   6.440323151094343e-06   9.921132708045136e-05
-4.903938969134979e-05   6.440323151094343e-06   9.921132708045136e-05
-4.903938969134979e-05   6.440323151094343e-06   9.921132708045136e-05
-4.9780335522524235e-05   1.906042294779961e-06   0.00010316680531286345
-4.9780335522524235e-05   1.906042294779961e-06   0.00010316680531286345
-4.9780335522524235e-05   1.906042294779961e-06   0.00010316680531286345
-4.9780335522524235e-05   1.906042294779961e-06   0.00010316680531286345
-4.8859698032227995e-05   4.78243702252152e-06   9.990657265905871e-05
-4.8859698032227995e-05   4.78243702252152e-06   9.990657265905871e-05
-4.8859698032227995e-05   4.78243702252152e-06   9.990657265905871e-05
-4.8859698032227995e-05   4.78243702252152e-06   9.990657265905871e-05
-4.978033552252418e-05   6.440323151093476e-06   0.00010193189559423764
-4.978033552252418e-05   6.440323151093476e-06   0.00010193189559423764
-4.978033552252418e-05   6.440323151093476e-06   0.00010193189559423764
-4.978033552252418e-05   6.440323151093476e-06   0.00010193189559423764
-4.903938969134979e-05   1.906042294779961e-06   0.00010044623679907549
-4.903938969134979e-05   1.906042294779961e-06   0.00010044623679907549
-4.903938969134979e-05   1.906042294779961e-06   0.00010044623679907549
-4.903938969134979e-05   1.906042294779961e-06   0.00010044623679907549
-4.9475415291087865e-05   3.7727952148245217e-06   0.00010064296903653912
-4.9475415291087865e-05   3.7727952148245217e-06   0.00010064296903653912
-4.9475415291087865e-05   3.7727952148245217e-06   0.00010064296903653912
-4.9475415291087865e-05   3.7727952148245217e-06   0.00010064296903653912
-5.134513922515634e-05   -4.574400583922181e-07   0.00010629731675724895
-5.134513922515634e-05   -4.574400583922181e-07   0.00010629731675724895
-5.134513922515634e-05   -4.574400583922181e-07   0.00010629731675724895
-5.134513922515634e-05   -4.574400583922181e-07   0.00010629731675724895
-4.929142411451377e-05   3.0978667951717456e-06   0.00010074127412737174
-4.929142411451377e-05   3.0978667951717456e-06   0.00010074127412737174
-4.929142411451377e-05   3.0978667951717456e-06   0.00010074127412737174
-4.929142411451377e-05   3.0978667951717456e-06   0.00010074127412737174
-5.134513922515634e-05   3.7727952148245217e-06   0.00010318111020046761
-5.134513922515634e-05   3.7727952148245217e-06   0.00010318111020046761
-5.134513922515634e-05   3.7727952148245217e-06   0.00010318111020046761
-5.134513922515634e-05   3.7727952148245217e-06   0.00010318111020046761
-4.9475415291087756e-05   -4.574400583922181e-07   0.00010375917559331911
-4.9475415291087756e-05   -4.574400583922181e-07   0.00010375917559331911
-4.9475415291087756e-05   -4.574400583922181e-07   0.00010375917559331911
-4.9475415291087756e-05   -4.574400583922181e-07   0.00010375917559331911
-4.977889285257442e-05   8.709808471743519e-07   0.00010360823839187724
-4.977889285257442e-05   8.709808471743519e-07   0.00010360823839187724
-4.977889285257442e-05   8.709808471743519e-07   0.00010360823839187724
-4.977889285257442e-05   8.709808471743519e-07   0.00010360823839187724
-5.2324764499756655e-05   -3.5765461375717247e-06   0.00011051987399469406
-5.2324764499756655e-05   -3.5765461375717247e-06   0.00011051987399469406
-5.2324764499756655e-05   -3.5765461375717247e-06   0.00011051987399469406
-5.2324764499756655e-05   -3.5765461375717247e-06   0.00011051987399469406
-4.999586974595391e-05   1.105199599083298e-06   0.00010382933529636137
-4.999586974595391e-05   1.105199599083298e-06   0.00010382933529636137
-4.999586974595391e-05   1.105199599083298e-06   0.00010382933529636137
-4.999586974595391e-05   1.105199599083298e-06   0.00010382933529636137
-4.8691287633045215e-05   1.110030553539039e-05   0.00011376343661098154
-4.8691287633045215e-05   1.110030553539039e-05   0.00011376343661098154
-4.8691287633045215e-05   1.110030553539039e-05   0.00011376343661098154
-4.8691287633045215e-05   1.110030553539039e-05   0.00011376343661098154
-5.1995010379799226e-05   1.080403399376928e-06   0.00010224529075144955
-5.1995010379799226e-05   1.080403399376928e-06   0.00010224529075144955
-5.1995010379799226e-05   1.080403399376928e-06   0.00010224529075144955
-5.1995010379799226e-05   1.080403399376928e-06   0.00010224529075144955
-5.208772274441567e-05   8.424719913403128e-06   0.00010793914328442386
-5.208772274441567e-05   8.424719913403128e-06   0.00010793914328442386
-5.208772274441567e-05   8.424719913403128e-06   0.00010793914328442386
-5.208772274441567e-05   8.424719913403128e-06   0.00010793914328442386
-4.903938969134979e-05   -6.38947414900292e-07   0.00010829678859296276
-4.903938969134979e-05   -6.38947414900292e-07   0.00010829678859296276
-4.903938969134979e-05   -6.38947414900292e-07   0.00010829678859296276
-4.903938969134979e-05   -6.38947414900292e-07   0.00010829678859296276
-5.036113512476556e-05   4.83012921903038e-06   0.00010721825166829738
-5.036113512476556e-05   4.83012921903038e-06   0.00010721825166829738
-5.036113512476556e-05   4.83012921903038e-06   0.00010721825166829738
-5.036113512476556e-05   4.83012921903038e-06   0.00010721825166829738
-4.903938969134979e-05   8.424719913403128e-06   0.00011337734368140539
-4.903938969134979e-05   8.424719913403128e-06   0.00011337734368140539
-4.903938969134979e-05   8.424719913403128e-06   0.00011337734368140539
-4.903938969134979e-05   8.424719913403128e-06   0.00011337734368140539
-5.208772274441567e-05   -6.38947414900292e-07   0.00010285858819598015
-5.208772274441567e-05   -6.38947414900292e-07   0.00010285858819598015
-5.208772274441567e-05   -6.38947414900292e-07   0.00010285858819598015
-5.208772274441567e-05   -6.38947414900292e-07   0.00010285858819598015
-5.228421788929481e-05   5.704471796038474e-06   0.00010966834931410135
-5.228421788929481e-05   5.704471796038474e-06   0.00010966834931410135
-5.228421788929481e-05   5.704471796038474e-06   0.00010966834931410135
-5.228421788929481e-05   5.704471796038474e-06   0.00010966834931410135
-4.9475415291087865e-05   -2.6988266107869606e-06   0.00011002899069451717
-4.9475415291087865e-05   -2.6988266107869606e-06   0.00011002899069451717
-4.9475415291087865e-05   -2.6988266107869606e-06   0.00011002899069451717
-4.9475415291087865e-05   -2.6988266107869606e-06   0.00011002899069451717
-5.0354949681819525e-05   3.1213946916769375e-06   0.00010800274856425426
-5.0354949681819525e-05   3.1213946916769375e-06   0.00010800274856425426
-5.0354949681819525e-05   3.1213946916769375e-06   0.00010800274856425426
-5.0354949681819525e-05   3.1213946916769375e-06   0.00010800274856425426
-4.9475415291087865e-05   5.7044717960376065e-06   0.00011471032835819487
-4.9475415291087865e-05   5.7044717960376065e-06   0.00011471032835819487
-4.9475415291087865e-05   5.7044717960376065e-06   0.00011471032835819487
-4.9475415291087865e-05   5.7044717960376065e-06   0.00011471032835819487
-5.228421788929481e-05   -2.6988266107873943e-06   0.00010498701165042148
-5.228421788929481e-05   -2.6988266107873943e-06   0.00010498701165042148
-5.228421788929481e-05   -2.6988266107873943e-06   0.00010498701165042148
-5.228421788929481e-05   -2.6988266107873943e-06   0.00010498701165042148
-5.2395977327003834e-05   3.1212620595355567e-06   0.00011273399293108138
-5.2395977327003834e-05   3.1212620595355567e-06   0.00011273399293108138
-5.2395977327003834e-05   3.1212620595355567e-06   0.00011273399293108138
-5.2395977327003834e-05   3.1212620595355567e-06   0.00011273399293108138
-4.9778892852574315e-05   -4.775655570392074e-06   0.00011311033605165442
-4.9778892852574315e-05   -4.775655570392074e-06   0.00011311033605165442
-4.9778892852574315e-05   -4.775655570392074e-06   0.00011311033605165442
-4.9778892852574315e-05   -4.775655570392074e-06   0.00011311033605165442
-5.0430586277483446e-05   1.3628373175143468e-06   0.00011051339602708896
-5.0430586277483446e-05   1.3628373175143468e-06   0.00011051339602708896
-5.0430586277483446e-05   1.3628373175143468e-06   0.00011051339602708896
-5.0430586277483446e-05   1.3628373175143468e-06   0.00011051339602708896
-5.1995010379799226e-05   1.4958671246039466e-05   9.252878504663027e-05
-5.1995010379799226e-05   1.4958671246039466e-05   9.252878504663027e-05
-5.1995010379799226e-05   1.4958671246039466e-05   9.252878504663027e-05
-5.1995010379799226e-05   1.4958671246039466e-05   9.252878504663027e-05
-5.69619753480635e-05   4.889169326510387e-06   7.820880894780628e-05
-5.69619753480635e-05   4.889169326510387e-06   7.820880894780628e-05
-5.69619753480635e-05   4.889169326510387e-06   7.820880894780628e-05
-5.69619753480635e-05   4.889169326510387e-06   7.820880894780628e-05
-5.701919529705018e-05   1.2142652264143447e-05   8.736230828681069e-05
-5.701919529705018e-05   1.2142652264143447e-05   8.736230828681069e-05
-5.701919529705018e-05   1.2142652264143447e-05   8.736230828681069e-05
-5.701919529705018e-05   1.2142652264143447e-05   8.736230828681069e-05
-5.208772274441567e-05   2.6285349823663116e-06   8.48516577348188e-05
-5.208772274441567e-05   2.6285349823663116e-06   8.48516577348188e-05
-5.208772274441567e-05   2.6285349823663116e-06   8.48516577348188e-05
-5.208772274441567e-05   2.6285349823663116e-06   8.48516577348188e-05
-5.437242907820115e-05   8.871170676843024e-06   8.491392020777526e-05
-5.437242907820115e-05   8.871170676843024e-06   8.491392020777526e-05
-5.437242907820115e-05   8.871170676843024e-06   8.491392020777526e-05
-5.437242907820115e-05   8.871170676843024e-06   8.491392020777526e-05
-5.208772274441567e-05   1.2142652264143447e-05   9.30707786558761e-05
-5.208772274441567e-05   1.2142652264143447e-05   9.30707786558761e-05
-5.208772274441567e-05   1.2142652264143447e-05   9.30707786558761e-05
-5.208772274441567e-05   1.2142652264143447e-05   9.30707786558761e-05
-5.701919529705018e-05   2.6285349823663116e-06   7.914318736575252e-05
-5.701919529705018e-05   2.6285349823663116e-06   7.914318736575252e-05
-5.701919529705018e-05   2.6285349823663116e-06   7.914318736575252e-05
-5.701919529705018e-05   2.6285349823663116e-06   7.914318736575252e-05
-5.7608004403406684e-05   9.641948976687499e-06   9.062030502789836e-05
-5.7608004403406684e-05   9.641948976687499e-06   9.062030502789836e-05
-5.7608004403406684e-05   9.641948976687499e-06   9.062030502789836e-05
-5.7608004403406684e-05   9.641948976687499e-06   9.062030502789836e-05
-5.228421788929503e-05   6.953855473741839e-07   8.711526556196589e-05
-5.228421788929503e-05   6.953855473741839e-07   8.711526556196589e-05
-5.228421788929503e-05   6.953855473741839e-07   8.711526556196589e-05
-5.228421788929503e-05   6.953855473741839e-07   8.711526556196589e-05
-5.418453194542866e-05   7.007651406867529e-06   8.649509613982247e-05
-5.418453194542866e-05   7.007651406867529e-06   8.649509613982247e-05
-5.418453194542866e-05   7.007651406867529e-06   8.649509613982247e-05
-5.418453194542866e-05   7.007651406867529e-06   8.649509613982247e-05
-5.228421788929481e-05   9.641948976688366e-06   9.598824308548444e-05
-5.228421788929481e-05   9.641948976688366e-06   9.598824308548444e-05
-5.228421788929481e-05   9.641948976688366e-06   9.598824308548444e-05
-5.228421788929481e-05   9.641948976688366e-06   9.598824308548444e-05
-5.7608004403406684e-05   6.953855473741839e-07   8.174732750437807e-05
-5.7608004403406684e-05   6.953855473741839e-07   8.174732750437807e-05
-5.7608004403406684e-05   6.953855473741839e-07   8.174732750437807e-05
-5.7608004403406684e-05   6.953855473741839e-07   8.174732750437807e-05
-5.794909255415516e-05   7.0993020869275156e-06   9.467650937970955e-05
-5.794909255415516e-05   7.0993020869275156e-06   9.467650937970955e-05
-5.794909255415516e-05   7.0993020869275156e-06   9.467650937970955e-05
-5.794909255415516e-05   7.0993020869275156e-06   9.467650937970955e-05
-5.239597732700362e-05   -1.251656660962875e-06   9.043189258319071e-05
-5.239597732700362e-05   -1.251656660962875e-06   9.043189258319071e-05
-5.239597732700362e-05   -1.251656660962875e-06   9.043189258319071e-05
-5.239597732700362e-05   -1.251656660962875e-06   9.043189258319071e-05
-5.442158581236869e-05   5.346765751003228e-06   8.984885327828441e-05
-5.442158581236869e-05   5.346765751003228e-06   8.984885327828441e-05
-5.442158581236869e-05   5.346765751003228e-06   8.984885327828441e-05
-5.442158581236869e-05   5.346765751003228e-06   8.984885327828441e-05
-5.6961975348063286e-05   1.7590155179801788e-05   3.532518918130355e-05
-5.6961975348063286e-05   1.7590155179801788e-05   3.532518918130355e-05
-5.6961975348063286e-05   1.7590155179801788e-05   3.532518918130355e-05
-5.6961975348063286e-05   1.7590155179801788e-05   3.532518918130355e-05
-5.574518423331551e-05   7.997714255110824e-06   3.1597709817734933e-05
-5.574518423331551e-05   7.997714255110824e-06   3.1597709817734933e-05
-5.574518423331551e-05   7.997714255110824e-06   3.1597709817734933e-05
-5.574518423331551e-05   7.997714255110824e-06   3.1597709817734933e-05
-5.8609186610609175e-05   1.571504425594908e-05   3.867048509518384e-05
-5.8609186610609175e-05   1.571504425594908e-05   3.867048509518384e-05
-5.8609186610609175e-05   1.571504425594908e-05   3.867048509518384e-05
-5.8609186610609175e-05   1.571504425594908e-05   3.867048509518384e-05
-5.70191952970504e-05   6.405532074636212e-06   4.16062068813736e-05
-5.70191952970504e-05   6.405532074636212e-06   4.16062068813736e-05
-5.70191952970504e-05   6.405532074636212e-06   4.16062068813736e-05
-5.70191952970504e-05   6.405532074636212e-06   4.16062068813736e-05
-5.52341735698817e-05   1.2353103508735107e-05   3.506262780896604e-05
-5.52341735698817e-05   1.2353103508735107e-05   3.506262780896604e-05
-5.52341735698817e-05   1.2353103508735107e-05   3.506262780896604e-05
-5.52341735698817e-05   1.2353103508735107e-05   3.506262780896604e-05
-5.701919529705018e-05   1.571504425594908e-05   4.425619240396939e-05
-5.701919529705018e-05   1.571504425594908e-05   4.425619240396939e-05
-5.701919529705018e-05   1.571504425594908e-05   4.425619240396939e-05
-5.701919529705018e-05   1.571504425594908e-05   4.425619240396939e-05
-5.8609186610609175e-05   6.405532074636212e-06   3.602049957258566e-05
-5.8609186610609175e-05   6.405532074636212e-06   3.602049957258566e-05
-5.8609186610609175e-05   6.405532074636212e-06   3.602049957258566e-05
-5.8609186610609175e-05   6.405532074636212e-06   3.602049957258566e-05
-6.112792773289594e-05   1.4431582709313606e-05   4.590017269126643e-05
-6.112792773289594e-05   1.4431582709313606e-05   4.590017269126643e-05
-6.112792773289594e-05   1.4431582709313606e-05   4.590017269126643e-05
-6.112792773289594e-05   1.4431582709313606e-05   4.590017269126643e-05
-5.7608004403406684e-05   5.362513606551895e-06   4.5475075270440604e-05
-5.7608004403406684e-05   5.362513606551895e-06   4.5475075270440604e-05
-5.7608004403406684e-05   5.362513606551895e-06   4.5475075270440604e-05
-5.7608004403406684e-05   5.362513606551895e-06   4.5475075270440604e-05
-5.72620023841302e-05   1.1411188358590243e-05   4.126920038708803e-05
-5.72620023841302e-05   1.1411188358590243e-05   4.126920038708803e-05
-5.72620023841302e-05   1.1411188358590243e-05   4.126920038708803e-05
-5.72620023841302e-05   1.1411188358590243e-05   4.126920038708803e-05
-5.760800440340647e-05   1.4431582709313606e-05   5.134161415292198e-05
-5.760800440340647e-05   1.4431582709313606e-05   5.134161415292198e-05
-5.760800440340647e-05   1.4431582709313606e-05   5.134161415292198e-05
-5.760800440340647e-05   1.4431582709313606e-05   5.134161415292198e-05
-6.112792773289638e-05   5.362513606551895e-06   4.00336338087844e-05
-6.112792773289638e-05   5.362513606551895e-06   4.00336338087844e-05
-6.112792773289638e-05   5.362513606551895e-06   4.00336338087844e-05
-6.112792773289638e-05   5.362513606551895e-06   4.00336338087844e-05
-6.490377150160072e-05   1.1505643582905914e-05   5.918753854723506e-05
-6.490377150160072e-05   1.1505643582905914e-05   5.918753854723506e-05
-6.490377150160072e-05   1.1505643582905914e-05   5.918753854723506e-05
-6.490377150160072e-05   1.1505643582905914e-05   5.918753854723506e-05
-5.794909255415516e-05   3.287071453854807e-06   5.252755024558967e-05
-5.794909255415516e-05   3.287071453854807e-06   5.252755024558967e-05
-5.794909255415516e-05   3.287071453854807e-06   5.252755024558967e-05
-5.794909255415516e-05   3.287071453854807e-06   5.252755024558967e-05
-5.7944559547168785e-05   1.0308749015437019e-05   4.830698869699203e-05
-5.7944559547168785e-05   1.0308749015437019e-05   4.830698869699203e-05
-5.7944559547168785e-05   1.0308749015437019e-05   4.830698869699203e-05
-5.7944559547168785e-05   1.0308749015437019e-05   4.830698869699203e-05
-0.00011485953438486414   1.5198336081930636e-05   4.260836927362337e-05
-0.00011485953438486414   1.5198336081930636e-05   4.260836927362337e-05
-0.00011485953438486414   1.5198336081930636e-05   4.260836927362337e-05
-0.00011485953438486414   1.5198336081930636e-05   4.260836927362337e-05
-7.711305800571613e-05   2.1097716753349684e-05   0.00010905879164172156
-7.711305800571613e-05   2.1097716753349684e-05   0.00010905879164172156
-7.711305800571613e-05   2.1097716753349684e-05   0.00010905879164172156
-7.711305800571613e-05   2.1097716753349684e-05   0.00010905879164172156
-7.704612203391733e-05   1.1906425258663682e-05   4.880685210054657e-05
-7.704612203391733e-05   1.1906425258663682e-05   4.880685210054657e-05
-7.704612203391733e-05   1.1906425258663682e-05   4.880685210054657e-05
-7.704612203391733e-05   1.1906425258663682e-05   4.880685210054657e-05
-0.00012627665618642573   8.763517724193768e-06   0.00013274348687540967
-0.00012627665618642573   8.763517724193768e-06   0.00013274348687540967
-0.00012627665618642573   8.763517724193768e-06   0.00013274348687540967
-0.00012627665618642573   8.763517724193768e-06   0.00013274348687540967
-9.373332210231673e-05   1.255248828419507e-05   7.623121439922725e-05
-9.373332210231673e-05   1.255248828419507e-05   7.623121439922725e-05
-9.373332210231673e-05   1.255248828419507e-05   7.623121439922725e-05
-9.373332210231673e-05   1.255248828419507e-05   7.623121439922725e-05
-0.00012627665618642595   1.1906425258663249e-05   5.0692596621228084e-05
-0.00012627665618642595   1.1906425258663249e-05   5.0692596621228084e-05
-0.00012627665618642595   1.1906425258663249e-05   5.0692596621228084e-05
-0.00012627665618642595   1.1906425258663249e-05   5.0692596621228084e-05
-7.704612203391733e-05   8.763517724193768e-06   0.0001308577423547281
-7.704612203391733e-05   8.763517724193768e-06   0.0001308577423547281
-7.704612203391733e-05   8.763517724193768e-06   0.0001308577423547281
-7.704612203391733e-05   8.763517724193768e-06   0.0001308577423547281
-7.80207776727545e-05   9.6179246363696e-06   5.478366888405435e-05
-7.80207776727545e-05   9.6179246363696e-06   5.478366888405435e-05
-7.80207776727545e-05   9.6179246363696e-06   5.478366888405435e-05
-7.80207776727545e-05   9.6179246363696e-06   5.478366888405435e-05
-0.00012665184915564926   6.365444372069019e-06   0.0001377869428474589
-0.00012665184915564926   6.365444372069019e-06   0.0001377869428474589
-0.00012665184915564926   6.365444372069019e-06   0.0001377869428474589
-0.00012665184915564926   6.365444372069019e-06   0.0001377869428474589
-9.989886864892571e-05   7.921823275801407e-06   9.226481466067946e-05
-9.989886864892571e-05   7.921823275801407e-06   9.226481466067946e-05
-9.989886864892571e-05   7.921823275801407e-06   9.226481466067946e-05
-9.989886864892571e-05   7.921823275801407e-06   9.226481466067946e-05
-0.0001266518491556495   9.6179246363696e-06   5.673515704263479e-05
-0.0001266518491556495   9.6179246363696e-06   5.673515704263479e-05
-0.0001266518491556495   9.6179246363696e-06   5.673515704263479e-05
-0.0001266518491556495   9.6179246363696e-06   5.673515704263479e-05
-7.802077767275433e-05   6.365444372069019e-06   0.00013583545468887873
-7.802077767275433e-05   6.365444372069019e-06   0.00013583545468887873
-7.802077767275433e-05   6.365444372069019e-06   0.00013583545468887873
-7.802077767275433e-05   6.365444372069019e-06   0.00013583545468887873
-7.711270115799492e-05   3.982062248147206e-06   6.525251044954875e-05
-7.711270115799492e-05   3.982062248147206e-06   6.525251044954875e-05
-7.711270115799492e-05   3.982062248147206e-06   6.525251044954875e-05
-7.711270115799492e-05   3.982062248147206e-06   6.525251044954875e-05
-0.00012790314371316413   -3.787202973066627e-06   0.00015456480717422508
-0.00012790314371316413   -3.787202973066627e-06   0.00015456480717422508
-0.00012790314371316413   -3.787202973066627e-06   0.00015456480717422508
-0.00012790314371316413   -3.787202973066627e-06   0.00015456480717422508
-9.829668668302782e-05   3.937819965257883e-06   0.00010058569836100353
-9.829668668302782e-05   3.937819965257883e-06   0.00010058569836100353
-9.829668668302782e-05   3.937819965257883e-06   0.00010058569836100353
-9.829668668302782e-05   3.937819965257883e-06   0.00010058569836100353
-7.711305800571627e-05   3.9256505763784685e-06   9.905008452095214e-05
-7.711305800571627e-05   3.9256505763784685e-06   9.905008452095214e-05
-7.711305800571627e-05   3.9256505763784685e-06   9.905008452095214e-05
-7.711305800571627e-05   3.9256505763784685e-06   9.905008452095214e-05
-4.710897790272941e-05   -2.312705408812673e-05   0.00013282526189389398
-4.710897790272941e-05   -2.312705408812673e-05   0.00013282526189389398
-4.710897790272941e-05   -2.312705408812673e-05   0.00013282526189389398
-4.710897790272941e-05   -2.312705408812673e-05   0.00013282526189389398
-4.715585825169953e-05   1.9060422947803947e-06   8.309696344980773e-05
-4.715585825169953e-05   1.9060422947803947e-06   8.309696344980773e-05
-4.715585825169953e-05   1.9060422947803947e-06   8.309696344980773e-05
-4.715585825169953e-05   1.9060422947803947e-06   8.309696344980773e-05
-7.704612203391733e-05   -1.8872847077705578e-05   0.000145381403376997
-7.704612203391733e-05   -1.8872847077705578e-05   0.000145381403376997
-7.704612203391733e-05   -1.8872847077705578e-05   0.000145381403376997
-7.704612203391733e-05   -1.8872847077705578e-05   0.000145381403376997
-6.175834458315108e-05   -1.1423180972474842e-05   0.00011543197462924855
-6.175834458315108e-05   -1.1423180972474842e-05   0.00011543197462924855
-6.175834458315108e-05   -1.1423180972474842e-05   0.00011543197462924855
-6.175834458315108e-05   -1.1423180972474842e-05   0.00011543197462924855
-7.704612203391742e-05   1.9060422947803947e-06   9.556429707329871e-05
-7.704612203391742e-05   1.9060422947803947e-06   9.556429707329871e-05
-7.704612203391742e-05   1.9060422947803947e-06   9.556429707329871e-05
-7.704612203391742e-05   1.9060422947803947e-06   9.556429707329871e-05
-4.7155858251699424e-05   -1.8872847077705578e-05   0.00013291406975350552
-4.7155858251699424e-05   -1.8872847077705578e-05   0.00013291406975350552
-4.7155858251699424e-05   -1.8872847077705578e-05   0.00013291406975350552
-4.7155858251699424e-05   -1.8872847077705578e-05   0.00013291406975350552
-4.7272012338834385e-05   -4.574400583922181e-07   8.572547179586023e-05
-4.7272012338834385e-05   -4.574400583922181e-07   8.572547179586023e-05
-4.7272012338834385e-05   -4.574400583922181e-07   8.572547179586023e-05
-4.7272012338834385e-05   -4.574400583922181e-07   8.572547179586023e-05
-7.802077767275433e-05   -1.9322354954829203e-05   0.0001482923629569218
-7.802077767275433e-05   -1.9322354954829203e-05   0.0001482923629569218
-7.802077767275433e-05   -1.9322354954829203e-05   0.0001482923629569218
-7.802077767275433e-05   -1.9322354954829203e-05   0.0001482923629569218
-6.125822684263664e-05   -9.977054234505331e-06   0.00011474759780786376
-6.125822684263664e-05   -9.977054234505331e-06   0.00011474759780786376
-6.125822684263664e-05   -9.977054234505331e-06   0.00011474759780786376
-6.125822684263664e-05   -9.977054234505331e-06   0.00011474759780786376
-7.80207776727545e-05   -4.574400583922181e-07   9.704442073372251e-05
-7.80207776727545e-05   -4.574400583922181e-07   9.704442073372251e-05
-7.80207776727545e-05   -4.574400583922181e-07   9.704442073372251e-05
-7.80207776727545e-05   -4.574400583922181e-07   9.704442073372251e-05
-4.727201233883428e-05   -1.9322354954829203e-05   0.00013697341401905957
-4.727201233883428e-05   -1.9322354954829203e-05   0.00013697341401905957
-4.727201233883428e-05   -1.9322354954829203e-05   0.00013697341401905957
-4.727201233883428e-05   -1.9322354954829203e-05   0.00013697341401905957
-4.672771271243821e-05   -3.5765461375717247e-06   8.898653462892196e-05
-4.672771271243821e-05   -3.5765461375717247e-06   8.898653462892196e-05
-4.672771271243821e-05   -3.5765461375717247e-06   8.898653462892196e-05
-4.672771271243821e-05   -3.5765461375717247e-06   8.898653462892196e-05
-7.71127011579947e-05   -1.9557934897363426e-05   0.00014921701529405697
-7.71127011579947e-05   -1.9557934897363426e-05   0.00014921701529405697
-7.71127011579947e-05   -1.9557934897363426e-05   0.00014921701529405697
-7.71127011579947e-05   -1.9557934897363426e-05   0.00014921701529405697
-6.147002504312792e-05   -1.1243620822728485e-05   0.00011815729999116475
-6.147002504312792e-05   -1.1243620822728485e-05   0.00011815729999116475
-6.147002504312792e-05   -1.1243620822728485e-05   0.00011815729999116475
-6.147002504312792e-05   -1.1243620822728485e-05   0.00011815729999116475
-4.710897790272941e-05   1.080403399376928e-06   9.14025089652961e-05
-4.710897790272941e-05   1.080403399376928e-06   9.14025089652961e-05
-4.710897790272941e-05   1.080403399376928e-06   9.14025089652961e-05
-4.710897790272941e-05   1.080403399376928e-06   9.14025089652961e-05
-3.442502396243819e-05   -1.805970135772706e-05   0.000101058369344853
-3.442502396243819e-05   -1.805970135772706e-05   0.000101058369344853
-3.442502396243819e-05   -1.805970135772706e-05   0.000101058369344853
-3.442502396243819e-05   -1.805970135772706e-05   0.000101058369344853
-3.4063255999666536e-05   -6.38947414900292e-07   8.06890216398814e-05
-3.4063255999666536e-05   -6.38947414900292e-07   8.06890216398814e-05
-3.4063255999666536e-05   -6.38947414900292e-07   8.06890216398814e-05
-3.4063255999666536e-05   -6.38947414900292e-07   8.06890216398814e-05
-4.7155858251699424e-05   -1.7736436754590143e-05   0.00011276851899708366
-4.7155858251699424e-05   -1.7736436754590143e-05   0.00011276851899708366
-4.7155858251699424e-05   -1.7736436754590143e-05   0.00011276851899708366
-4.7155858251699424e-05   -1.7736436754590143e-05   0.00011276851899708366
-4.043005204038913e-05   -9.140691753408824e-06   9.640139497752538e-05
-4.043005204038913e-05   -9.140691753408824e-06   9.640139497752538e-05
-4.043005204038913e-05   -9.140691753408824e-06   9.640139497752538e-05
-4.043005204038913e-05   -9.140691753408824e-06   9.640139497752538e-05
-4.7155858251699424e-05   -6.38947414900292e-07   9.094751524369523e-05
-4.7155858251699424e-05   -6.38947414900292e-07   9.094751524369523e-05
-4.7155858251699424e-05   -6.38947414900292e-07   9.094751524369523e-05
-4.7155858251699424e-05   -6.38947414900292e-07   9.094751524369523e-05
-3.406325599966675e-05   -1.773643675459036e-05   0.00010251002539327027
-3.406325599966675e-05   -1.773643675459036e-05   0.00010251002539327027
-3.406325599966675e-05   -1.773643675459036e-05   0.00010251002539327027
-3.406325599966675e-05   -1.773643675459036e-05   0.00010251002539327027
-3.373467727489903e-05   -2.6988266107869606e-06   8.264033635838747e-05
-3.373467727489903e-05   -2.6988266107869606e-06   8.264033635838747e-05
-3.373467727489903e-05   -2.6988266107869606e-06   8.264033635838747e-05
-3.373467727489903e-05   -2.6988266107869606e-06   8.264033635838747e-05
-4.727201233883428e-05   -1.829041084190565e-05   0.00011455751200361631
-4.727201233883428e-05   -1.829041084190565e-05   0.00011455751200361631
-4.727201233883428e-05   -1.829041084190565e-05   0.00011455751200361631
-4.727201233883428e-05   -1.829041084190565e-05   0.00011455751200361631
-4.001864842736704e-05   -9.776589794859188e-06   9.736027952294093e-05
-4.001864842736704e-05   -9.776589794859188e-06   9.736027952294093e-05
-4.001864842736704e-05   -9.776589794859188e-06   9.736027952294093e-05
-4.001864842736704e-05   -9.776589794859188e-06   9.736027952294093e-05
-4.727201233883428e-05   -2.6988266107873943e-06   9.199528689705807e-05
-4.727201233883428e-05   -2.6988266107873943e-06   9.199528689705807e-05
-4.727201233883428e-05   -2.6988266107873943e-06   9.199528689705807e-05
-4.727201233883428e-05   -2.6988266107873943e-06   9.199528689705807e-05
-3.373467727489925e-05   -1.829041084190565e-05   0.00010520256146494581
-3.373467727489925e-05   -1.829041084190565e-05   0.00010520256146494581
-3.373467727489925e-05   -1.829041084190565e-05   0.00010520256146494581
-3.373467727489925e-05   -1.829041084190565e-05   0.00010520256146494581
-3.2997145554612304e-05   -4.77565557039164e-06   8.565362174986404e-05
-3.2997145554612304e-05   -4.77565557039164e-06   8.565362174986404e-05
-3.2997145554612304e-05   -4.77565557039164e-06   8.565362174986404e-05
-3.2997145554612304e-05   -4.77565557039164e-06   8.565362174986404e-05
-4.672771271243821e-05   -1.9095474115166837e-05   0.00011712979147310482
-4.672771271243821e-05   -1.9095474115166837e-05   0.00011712979147310482
-4.672771271243821e-05   -1.9095474115166837e-05   0.00011712979147310482
-4.672771271243821e-05   -1.9095474115166837e-05   0.00011712979147310482
-3.953360985327212e-05   -1.0691320639504703e-05   0.00010009712795576485
-3.953360985327212e-05   -1.0691320639504703e-05   0.00010009712795576485
-3.953360985327212e-05   -1.0691320639504703e-05   0.00010009712795576485
-3.953360985327212e-05   -1.0691320639504703e-05   0.00010009712795576485
-3.4425023962437974e-05   4.889169326510387e-06   6.192366545910728e-05
-3.4425023962437974e-05   4.889169326510387e-06   6.192366545910728e-05
-3.4425023962437974e-05   4.889169326510387e-06   6.192366545910728e-05
-3.4425023962437974e-05   4.889169326510387e-06   6.192366545910728e-05
-2.842788019188241e-05   -7.387011190353307e-06   6.455319676658216e-05
-2.842788019188241e-05   -7.387011190353307e-06   6.455319676658216e-05
-2.842788019188241e-05   -7.387011190353307e-06   6.455319676658216e-05
-2.842788019188241e-05   -7.387011190353307e-06   6.455319676658216e-05
-2.775490094054575e-05   2.6285349823663116e-06   5.590345407707016e-05
-2.775490094054575e-05   2.6285349823663116e-06   5.590345407707016e-05
-2.775490094054575e-05   2.6285349823663116e-06   5.590345407707016e-05
-2.775490094054575e-05   2.6285349823663116e-06   5.590345407707016e-05
-3.4063255999666536e-05   -8.66919352038309e-06   7.319601627725578e-05
-3.4063255999666536e-05   -8.66919352038309e-06   7.319601627725578e-05
-3.4063255999666536e-05   -8.66919352038309e-06   7.319601627725578e-05
-3.4063255999666536e-05   -8.66919352038309e-06   7.319601627725578e-05
-3.0937542483453536e-05   -1.6813794640312824e-06   6.379380531642328e-05
-3.0937542483453536e-05   -1.6813794640312824e-06   6.379380531642328e-05
-3.0937542483453536e-05   -1.6813794640312824e-06   6.379380531642328e-05
-3.0937542483453536e-05   -1.6813794640312824e-06   6.379380531642328e-05
-3.4063255999666536e-05   2.6285349823663116e-06   6.268209117871984e-05
-3.4063255999666536e-05   2.6285349823663116e-06   6.268209117871984e-05
-3.4063255999666536e-05   2.6285349823663116e-06   6.268209117871984e-05
-3.4063255999666536e-05   2.6285349823663116e-06   6.268209117871984e-05
-2.775490094054575e-05   -8.66919352038309e-06   6.641737917560632e-05
-2.775490094054575e-05   -8.66919352038309e-06   6.641737917560632e-05
-2.775490094054575e-05   -8.66919352038309e-06   6.641737917560632e-05
-2.775490094054575e-05   -8.66919352038309e-06   6.641737917560632e-05
-2.7415598809763528e-05   6.953855473741839e-07   5.8563804973454404e-05
-2.7415598809763528e-05   6.953855473741839e-07   5.8563804973454404e-05
-2.7415598809763528e-05   6.953855473741839e-07   5.8563804973454404e-05
-2.7415598809763528e-05   6.953855473741839e-07   5.8563804973454404e-05
-3.373467727489903e-05   -9.645923280088634e-06   7.530038771182352e-05
-3.373467727489903e-05   -9.645923280088634e-06   7.530038771182352e-05
-3.373467727489903e-05   -9.645923280088634e-06   7.530038771182352e-05
-3.373467727489903e-05   -9.645923280088634e-06   7.530038771182352e-05
-3.0272252756971085e-05   -3.067652261031905e-06   6.558271757050628e-05
-3.0272252756971085e-05   -3.067652261031905e-06   6.558271757050628e-05
-3.0272252756971085e-05   -3.067652261031905e-06   6.558271757050628e-05
-3.0272252756971085e-05   -3.067652261031905e-06   6.558271757050628e-05
-3.373467727489903e-05   6.953855473741839e-07   6.47685902699308e-05
-3.373467727489903e-05   6.953855473741839e-07   6.47685902699308e-05
-3.373467727489903e-05   6.953855473741839e-07   6.47685902699308e-05
-3.373467727489903e-05   6.953855473741839e-07   6.47685902699308e-05
-2.7415598809763528e-05   -9.64592328008885e-06   6.909560241534583e-05
-2.7415598809763528e-05   -9.64592328008885e-06   6.909560241534583e-05
-2.7415598809763528e-05   -9.64592328008885e-06   6.909560241534583e-05
-2.7415598809763528e-05   -9.64592328008885e-06   6.909560241534583e-05
-2.689472853421751e-05   -1.251656660962875e-06   6.190486067991514e-05
-2.689472853421751e-05   -1.251656660962875e-06   6.190486067991514e-05
-2.689472853421751e-05   -1.251656660962875e-06   6.190486067991514e-05
-2.689472853421751e-05   -1.251656660962875e-06   6.190486067991514e-05
-3.2997145554612304e-05   -1.0932436960033216e-05   7.788402389334766e-05
-3.2997145554612304e-05   -1.0932436960033216e-05   7.788402389334766e-05
-3.2997145554612304e-05   -1.0932436960033216e-05   7.788402389334766e-05
-3.2997145554612304e-05   -1.0932436960033216e-05   7.788402389334766e-05
-2.9734297851721813e-05   -4.276813139685899e-06   6.845257009632354e-05
-2.9734297851721813e-05   -4.276813139685899e-06   6.845257009632354e-05
-2.9734297851721813e-05   -4.276813139685899e-06   6.845257009632354e-05
-2.9734297851721813e-05   -4.276813139685899e-06   6.845257009632354e-05
-2.842788019188241e-05   7.997714255110824e-06   1.3702322573733551e-05
-2.842788019188241e-05   7.997714255110824e-06   1.3702322573733551e-05
-2.842788019188241e-05   7.997714255110824e-06   1.3702322573733551e-05
-2.842788019188241e-05   7.997714255110824e-06   1.3702322573733551e-05
-1.6017171628093362e-05   -8.648475470075627e-07   2.9069299765443644e-05
-1.6017171628093362e-05   -8.648475470075627e-07   2.9069299765443644e-05
-1.6017171628093362e-05   -8.648475470075627e-07   2.9069299765443644e-05
-1.6017171628093362e-05   -8.648475470075627e-07   2.9069299765443644e-05
-1.6877956264702183e-05   6.405532074636212e-06   1.3809270771755755e-05
-1.6877956264702183e-05   6.405532074636212e-06   1.3809270771755755e-05
-1.6877956264702183e-05   6.405532074636212e-06   1.3809270771755755e-05
-1.6877956264702183e-05   6.405532074636212e-06   1.3809270771755755e-05
-2.775490094054575e-05   -1.1898059602557468e-06   3.6494714719097904e-05
-2.775490094054575e-05   -1.1898059602557468e-06   3.6494714719097904e-05
-2.775490094054575e-05   -1.1898059602557468e-06   3.6494714719097904e-05
-2.775490094054575e-05   -1.1898059602557468e-06   3.6494714719097904e-05
-2.1504902032991042e-05   4.101812787389754e-06   2.290307862458721e-05
-2.1504902032991042e-05   4.101812787389754e-06   2.290307862458721e-05
-2.1504902032991042e-05   4.101812787389754e-06   2.290307862458721e-05
-2.1504902032991042e-05   4.101812787389754e-06   2.290307862458721e-05
-2.775490094054575e-05   6.405532074636212e-06   1.8366473592690367e-05
-2.775490094054575e-05   6.405532074636212e-06   1.8366473592690367e-05
-2.775490094054575e-05   6.405532074636212e-06   1.8366473592690367e-05
-2.775490094054575e-05   6.405532074636212e-06   1.8366473592690367e-05
-1.6877956264702183e-05   -1.1898059602559637e-06   3.193751189816286e-05
-1.6877956264702183e-05   -1.1898059602559637e-06   3.193751189816286e-05
-1.6877956264702183e-05   -1.1898059602559637e-06   3.193751189816286e-05
-1.6877956264702183e-05   -1.1898059602559637e-06   3.193751189816286e-05
-1.7576416072378857e-05   5.362513606551895e-06   1.8093025916276345e-05
-1.7576416072378857e-05   5.362513606551895e-06   1.8093025916276345e-05
-1.7576416072378857e-05   5.362513606551895e-06   1.8093025916276345e-05
-1.7576416072378857e-05   5.362513606551895e-06   1.8093025916276345e-05
-2.7415598809763528e-05   -1.6350310988485876e-06   3.8690190635157044e-05
-2.7415598809763528e-05   -1.6350310988485876e-06   3.8690190635157044e-05
-2.7415598809763528e-05   -1.6350310988485876e-06   3.8690190635157044e-05
-2.7415598809763528e-05   -1.6350310988485876e-06   3.8690190635157044e-05
-2.1819065383584576e-05   3.30450221336636e-06   2.6398914937528044e-05
-2.1819065383584576e-05   3.30450221336636e-06   2.6398914937528044e-05
-2.1819065383584576e-05   3.30450221336636e-06   2.6398914937528044e-05
-2.1819065383584576e-05   3.30450221336636e-06   2.6398914937528044e-05
-2.7415598809763528e-05   5.3625136065523285e-06   2.2291552739516938e-05
-2.7415598809763528e-05   5.3625136065523285e-06   2.2291552739516938e-05
-2.7415598809763528e-05   5.3625136065523285e-06   2.2291552739516938e-05
-2.7415598809763528e-05   5.3625136065523285e-06   2.2291552739516938e-05
-1.7576416072378857e-05   -1.6350310988485876e-06   3.4491663811916885e-05
-1.7576416072378857e-05   -1.6350310988485876e-06   3.4491663811916885e-05
-1.7576416072378857e-05   -1.6350310988485876e-06   3.4491663811916885e-05
-1.7576416072378857e-05   -1.6350310988485876e-06   3.4491663811916885e-05
-1.9402082512898818e-05   3.287071453854807e-06   2.5744490197404657e-05
-1.9402082512898818e-05   3.287071453854807e-06   2.5744490197404657e-05
-1.9402082512898818e-05   3.287071453854807e-06   2.5744490197404657e-05
-1.9402082512898818e-05   3.287071453854807e-06   2.5744490197404657e-05
-2.689472853421751e-05   -2.1572675355521157e-06   4.149883695991202e-05
-2.689472853421751e-05   -2.1572675355521157e-06   4.149883695991202e-05
-2.689472853421751e-05   -2.1572675355521157e-06   4.149883695991202e-05
-2.689472853421751e-05   -2.1572675355521157e-06   4.149883695991202e-05
-2.181489006497419e-05   2.774599866340287e-06   3.0073319070038438e-05
-2.181489006497419e-05   2.774599866340287e-06   3.0073319070038438e-05
-2.181489006497419e-05   2.774599866340287e-06   3.0073319070038438e-05
-2.181489006497419e-05   2.774599866340287e-06   3.0073319070038438e-05
-0.00026664501851053445   2.1097716753349684e-05   0.00011139822811210328
-0.00026664501851053445   2.1097716753349684e-05   0.00011139822811210328
-0.00026664501851053445   2.1097716753349684e-05   0.00011139822811210328
-0.00026664501851053445   2.1097716753349684e-05   0.00011139822811210328
-6.301560086096792e-05   -0.00012678204938479934   0.00036205273117849164
-6.301560086096792e-05   -0.00012678204938479934   0.00036205273117849164
-6.301560086096792e-05   -0.00012678204938479934   0.00036205273117849164
-6.301560086096792e-05   -0.00012678204938479934   0.00036205273117849164
-7.373830957613584e-05   8.763517724193984e-06   6.14383302585097e-05
-7.373830957613584e-05   8.763517724193984e-06   6.14383302585097e-05
-7.373830957613584e-05   8.763517724193984e-06   6.14383302585097e-05
-7.373830957613584e-05   8.763517724193984e-06   6.14383302585097e-05
-0.00024318565514513366   -9.801037679895826e-05   0.00040791490958739683
-0.00024318565514513366   -9.801037679895826e-05   0.00040791490958739683
-0.00024318565514513366   -9.801037679895826e-05   0.00040791490958739683
-0.00024318565514513366   -9.801037679895826e-05   0.00040791490958739683
-0.0001622301290495805   -4.8818005955207524e-05   0.00024347361025522455
-0.0001622301290495805   -4.8818005955207524e-05   0.00024347361025522455
-0.0001622301290495805   -4.8818005955207524e-05   0.00024347361025522455
-0.0001622301290495805   -4.8818005955207524e-05   0.00024347361025522455
-0.00024318565514513325   8.763517724193984e-06   0.0001255026669724009
-0.00024318565514513325   8.763517724193984e-06   0.0001255026669724009
-0.00024318565514513325   8.763517724193984e-06   0.0001255026669724009
-0.00024318565514513325   8.763517724193984e-06   0.0001255026669724009
-7.3738309576136e-05   -9.801037679895826e-05   0.00034385057287350556
-7.3738309576136e-05   -9.801037679895826e-05   0.00034385057287350556
-7.3738309576136e-05   -9.801037679895826e-05   0.00034385057287350556
-7.3738309576136e-05   -9.801037679895826e-05   0.00034385057287350556
-7.529275553978928e-05   6.365444372069019e-06   6.749316132831584e-05
-7.529275553978928e-05   6.365444372069019e-06   6.749316132831584e-05
-7.529275553978928e-05   6.365444372069019e-06   6.749316132831584e-05
-7.529275553978928e-05   6.365444372069019e-06   6.749316132831584e-05
-0.0002294275056920221   -8.407577407849207e-05   0.0003786491426523733
-0.0002294275056920221   -8.407577407849207e-05   0.0003786491426523733
-0.0002294275056920221   -8.407577407849207e-05   0.0003786491426523733
-0.0002294275056920221   -8.407577407849207e-05   0.0003786491426523733
-0.00015728908839660348   -4.6193765171544544e-05   0.00023568924181584057
-0.00015728908839660348   -4.6193765171544544e-05   0.00023568924181584057
-0.00015728908839660348   -4.6193765171544544e-05   0.00023568924181584057
-0.00015728908839660348   -4.6193765171544544e-05   0.00023568924181584057
-0.0002294275056920217   6.365444372069019e-06   0.00012175789239865238
-0.0002294275056920217   6.365444372069019e-06   0.00012175789239865238
-0.0002294275056920217   6.365444372069019e-06   0.00012175789239865238
-0.0002294275056920217   6.365444372069019e-06   0.00012175789239865238
-7.529275553978945e-05   -8.407577407849207e-05   0.00032438441158203667
-7.529275553978945e-05   -8.407577407849207e-05   0.00032438441158203667
-7.529275553978945e-05   -8.407577407849207e-05   0.00032438441158203667
-7.529275553978945e-05   -8.407577407849207e-05   0.00032438441158203667
-8.22444079109429e-05   -3.787202973066627e-06   8.462272546569535e-05
-8.22444079109429e-05   -3.787202973066627e-06   8.462272546569535e-05
-8.22444079109429e-05   -3.787202973066627e-06   8.462272546569535e-05
-8.22444079109429e-05   -3.787202973066627e-06   8.462272546569535e-05
-0.00021182956572709627   -6.561613127433998e-05   0.0003376953454733812
-0.00021182956572709627   -6.561613127433998e-05   0.0003376953454733812
-0.00021182956572709627   -6.561613127433998e-05   0.0003376953454733812
-0.00021182956572709627   -6.561613127433998e-05   0.0003376953454733812
-0.00015117068279155068   -4.261594621666174e-05   0.00022279709621286515
-0.00015117068279155068   -4.261594621666174e-05   0.00022279709621286515
-0.00015117068279155068   -4.261594621666174e-05   0.00022279709621286515
-0.00015117068279155068   -4.261594621666174e-05   0.00022279709621286515
-6.301560086096778e-05   -2.312705408812673e-05   6.266846148008938e-05
-6.301560086096778e-05   -2.312705408812673e-05   6.266846148008938e-05
-6.301560086096778e-05   -2.312705408812673e-05   6.266846148008938e-05
-6.301560086096778e-05   -2.312705408812673e-05   6.266846148008938e-05
-2.2047535796658533e-05   -3.83312400768544e-05   0.00012182605832736855
-2.2047535796658533e-05   -3.83312400768544e-05   0.00012182605832736855
-2.2047535796658533e-05   -3.83312400768544e-05   0.00012182605832736855
-2.2047535796658533e-05   -3.83312400768544e-05   0.00012182605832736855
-2.4496544057044903e-05   -1.8872847077705578e-05   5.6549866985963195e-05
-2.4496544057044903e-05   -1.8872847077705578e-05   5.6549866985963195e-05
-2.4496544057044903e-05   -1.8872847077705578e-05   5.6549866985963195e-05
-2.4496544057044903e-05   -1.8872847077705578e-05   5.6549866985963195e-05
-7.3738309576136e-05   -5.1226387569064895e-05   0.00015803160047926304
-7.3738309576136e-05   -5.1226387569064895e-05   0.00015803160047926304
-7.3738309576136e-05   -5.1226387569064895e-05   0.00015803160047926304
-7.3738309576136e-05   -5.1226387569064895e-05   0.00015803160047926304
-4.343686707383398e-05   -2.6985460953500725e-05   9.298464033942098e-05
-4.343686707383398e-05   -2.6985460953500725e-05   9.298464033942098e-05
-4.343686707383398e-05   -2.6985460953500725e-05   9.298464033942098e-05
-4.343686707383398e-05   -2.6985460953500725e-05   9.298464033942098e-05
-7.373830957613578e-05   -1.8872847077705578e-05   7.596199128077788e-05
-7.373830957613578e-05   -1.8872847077705578e-05   7.596199128077788e-05
-7.373830957613578e-05   -1.8872847077705578e-05   7.596199128077788e-05
-7.373830957613578e-05   -1.8872847077705578e-05   7.596199128077788e-05
-2.4496544057044903e-05   -5.1226387569064895e-05   0.0001386194761844475
-2.4496544057044903e-05   -5.1226387569064895e-05   0.0001386194761844475
-2.4496544057044903e-05   -5.1226387569064895e-05   0.0001386194761844475
-2.4496544057044903e-05   -5.1226387569064895e-05   0.0001386194761844475
-2.6584535305510817e-05   -1.9322354954829203e-05   6.35682890342121e-05
-2.6584535305510817e-05   -1.9322354954829203e-05   6.35682890342121e-05
-2.6584535305510817e-05   -1.9322354954829203e-05   6.35682890342121e-05
-2.6584535305510817e-05   -1.9322354954829203e-05   6.35682890342121e-05
-7.529275553978945e-05   -4.6625322558407225e-05   0.00016113043665348935
-7.529275553978945e-05   -4.6625322558407225e-05   0.00016113043665348935
-7.529275553978945e-05   -4.6625322558407225e-05   0.00016113043665348935
-7.529275553978945e-05   -4.6625322558407225e-05   0.00016113043665348935
-4.883133132123295e-05   -3.3120383776156235e-05   0.00010892509968654543
-4.883133132123295e-05   -3.3120383776156235e-05   0.00010892509968654543
-4.883133132123295e-05   -3.3120383776156235e-05   0.00010892509968654543
-4.883133132123295e-05   -3.3120383776156235e-05   0.00010892509968654543
-7.529275553978928e-05   -1.9322354954829203e-05   7.99500695963588e-05
-7.529275553978928e-05   -1.9322354954829203e-05   7.99500695963588e-05
-7.529275553978928e-05   -1.9322354954829203e-05   7.99500695963588e-05
-7.529275553978928e-05   -1.9322354954829203e-05   7.99500695963588e-05
-2.6584535305510817e-05   -4.6625322558407225e-05   0.0001447486560913426
-2.6584535305510817e-05   -4.6625322558407225e-05   0.0001447486560913426
-2.6584535305510817e-05   -4.6625322558407225e-05   0.0001447486560913426
-2.6584535305510817e-05   -4.6625322558407225e-05   0.0001447486560913426
-2.9958792623747195e-05   -1.9557934897363643e-05   6.942296213272134e-05
-2.9958792623747195e-05   -1.9557934897363643e-05   6.942296213272134e-05
-2.9958792623747195e-05   -1.9557934897363643e-05   6.942296213272134e-05
-2.9958792623747195e-05   -1.9557934897363643e-05   6.942296213272134e-05
-8.224440791094296e-05   -4.374715253992095e-05   0.00017107918486358124
-8.224440791094296e-05   -4.374715253992095e-05   0.00017107918486358124
-8.224440791094296e-05   -4.374715253992095e-05   0.00017107918486358124
-8.224440791094296e-05   -4.374715253992095e-05   0.00017107918486358124
-5.1903442376481456e-05   -3.0219211438257476e-05   0.00011239414431181438
-5.1903442376481456e-05   -3.0219211438257476e-05   0.00011239414431181438
-5.1903442376481456e-05   -3.0219211438257476e-05   0.00011239414431181438
-5.1903442376481456e-05   -3.0219211438257476e-05   0.00011239414431181438
-2.2047535796658533e-05   -1.805970135772706e-05   3.326312019207402e-05
-2.2047535796658533e-05   -1.805970135772706e-05   3.326312019207402e-05
-2.2047535796658533e-05   -1.805970135772706e-05   3.326312019207402e-05
-2.2047535796658533e-05   -1.805970135772706e-05   3.326312019207402e-05
-1.224110843553298e-05   -1.0159983613746505e-05   5.4346996440337615e-05
-1.224110843553298e-05   -1.0159983613746505e-05   5.4346996440337615e-05
-1.224110843553298e-05   -1.0159983613746505e-05   5.4346996440337615e-05
-1.224110843553298e-05   -1.0159983613746505e-05   5.4346996440337615e-05
-1.1697368961542491e-05   -1.773643675459036e-05   3.895858715811896e-05
-1.1697368961542491e-05   -1.773643675459036e-05   3.895858715811896e-05
-1.1697368961542491e-05   -1.773643675459036e-05   3.895858715811896e-05
-1.1697368961542491e-05   -1.773643675459036e-05   3.895858715811896e-05
-2.4496544057044903e-05   -1.3479318540295077e-05   5.77362747220451e-05
-2.4496544057044903e-05   -1.3479318540295077e-05   5.77362747220451e-05
-2.4496544057044903e-05   -1.3479318540295077e-05   5.77362747220451e-05
-2.4496544057044903e-05   -1.3479318540295077e-05   5.77362747220451e-05
-1.6512063312420892e-05   -1.4152927325231817e-05   4.483297208529948e-05
-1.6512063312420892e-05   -1.4152927325231817e-05   4.483297208529948e-05
-1.6512063312420892e-05   -1.4152927325231817e-05   4.483297208529948e-05
-1.6512063312420892e-05   -1.4152927325231817e-05   4.483297208529948e-05
-2.4496544057044903e-05   -1.773643675459036e-05   3.640431622954155e-05
-2.4496544057044903e-05   -1.773643675459036e-05   3.640431622954155e-05
-2.4496544057044903e-05   -1.773643675459036e-05   3.640431622954155e-05
-2.4496544057044903e-05   -1.773643675459036e-05   3.640431622954155e-05
-1.1697368961542491e-05   -1.3479318540295077e-05   6.029054565062251e-05
-1.1697368961542491e-05   -1.3479318540295077e-05   6.029054565062251e-05
-1.1697368961542491e-05   -1.3479318540295077e-05   6.029054565062251e-05
-1.1697368961542491e-05   -1.3479318540295077e-05   6.029054565062251e-05
-1.1648451677448868e-05   -1.8290410841905434e-05   4.160948676395094e-05
-1.1648451677448868e-05   -1.8290410841905434e-05   4.160948676395094e-05
-1.1648451677448868e-05   -1.8290410841905434e-05   4.160948676395094e-05
-1.1648451677448868e-05   -1.8290410841905434e-05   4.160948676395094e-05
-2.6584535305510817e-05   -1.752857793326922e-05   6.604585973220517e-05
-2.6584535305510817e-05   -1.752857793326922e-05   6.604585973220517e-05
-2.6584535305510817e-05   -1.752857793326922e-05   6.604585973220517e-05
-2.6584535305510817e-05   -1.752857793326922e-05   6.604585973220517e-05
-1.7423512125363356e-05   -1.5478519858139043e-05   4.954745292021462e-05
-1.7423512125363356e-05   -1.5478519858139043e-05   4.954745292021462e-05
-1.7423512125363356e-05   -1.5478519858139043e-05   4.954745292021462e-05
-1.7423512125363356e-05   -1.5478519858139043e-05   4.954745292021462e-05
-2.6584535305510817e-05   -1.829041084190565e-05   4.115238701876895e-05
-2.6584535305510817e-05   -1.829041084190565e-05   4.115238701876895e-05
-2.6584535305510817e-05   -1.829041084190565e-05   4.115238701876895e-05
-2.6584535305510817e-05   -1.829041084190565e-05   4.115238701876895e-05
-1.1648451677448868e-05   -1.752857793326922e-05   6.650295947738683e-05
-1.1648451677448868e-05   -1.752857793326922e-05   6.650295947738683e-05
-1.1648451677448868e-05   -1.752857793326922e-05   6.650295947738683e-05
-1.1648451677448868e-05   -1.752857793326922e-05   6.650295947738683e-05
-1.1701632656134107e-05   -1.9095474115166837e-05   4.5549527118453684e-05
-1.1701632656134107e-05   -1.9095474115166837e-05   4.5549527118453684e-05
-1.1701632656134107e-05   -1.9095474115166837e-05   4.5549527118453684e-05
-1.1701632656134107e-05   -1.9095474115166837e-05   4.5549527118453684e-05
-2.9958792623747304e-05   -2.1387214863817375e-05   7.735317151366574e-05
-2.9958792623747304e-05   -2.1387214863817375e-05   7.735317151366574e-05
-2.9958792623747304e-05   -2.1387214863817375e-05   7.735317151366574e-05
-2.9958792623747304e-05   -2.1387214863817375e-05   7.735317151366574e-05
-1.8445498840425907e-05   -1.696639556323363e-05   5.551185696111346e-05
-1.8445498840425907e-05   -1.696639556323363e-05   5.551185696111346e-05
-1.8445498840425907e-05   -1.696639556323363e-05   5.551185696111346e-05
-1.8445498840425907e-05   -1.696639556323363e-05   5.551185696111346e-05
-1.224110843553298e-05   -7.38701119035309e-06   8.863486570309556e-06
-1.224110843553298e-05   -7.38701119035309e-06   8.863486570309556e-06
-1.224110843553298e-05   -7.38701119035309e-06   8.863486570309556e-06
-1.224110843553298e-05   -7.38701119035309e-06   8.863486570309556e-06
-8.959379329171596e-06   2.3752369348073216e-06   2.0190383956008705e-05
-8.959379329171596e-06   2.3752369348073216e-06   2.0190383956008705e-05
-8.959379329171596e-06   2.3752369348073216e-06   2.0190383956008705e-05
-8.959379329171596e-06   2.3752369348073216e-06   2.0190383956008705e-05
-7.19339974055138e-06   -8.66919352038309e-06   1.5586578154151882e-05
-7.19339974055138e-06   -8.66919352038309e-06   1.5586578154151882e-05
-7.19339974055138e-06   -8.66919352038309e-06   1.5586578154151882e-05
-7.19339974055138e-06   -8.66919352038309e-06   1.5586578154151882e-05
-1.1697368961542491e-05   1.2341399996959406e-06   1.7151193410422198e-05
-1.1697368961542491e-05   1.2341399996959406e-06   1.7151193410422198e-05
-1.1697368961542491e-05   1.2341399996959406e-06   1.7151193410422198e-05
-1.1697368961542491e-05   1.2341399996959406e-06   1.7151193410422198e-05
-9.409228475721243e-06   -3.281152736392054e-06   1.6046801575705146e-05
-9.409228475721243e-06   -3.281152736392054e-06   1.6046801575705146e-05
-9.409228475721243e-06   -3.281152736392054e-06   1.6046801575705146e-05
-9.409228475721243e-06   -3.281152736392054e-06   1.6046801575705146e-05
-1.1697368961542491e-05   -8.66919352038309e-06   9.644578042104258e-06
-1.1697368961542491e-05   -8.66919352038309e-06   9.644578042104258e-06
-1.1697368961542491e-05   -8.66919352038309e-06   9.644578042104258e-06
-1.1697368961542491e-05   -8.66919352038309e-06   9.644578042104258e-06
-7.19339974055138e-06   1.2341399996959406e-06   2.3093193522469822e-05
-7.19339974055138e-06   1.2341399996959406e-06   2.3093193522469822e-05
-7.19339974055138e-06   1.2341399996959406e-06   2.3093193522469822e-05
-7.19339974055138e-06   1.2341399996959406e-06   2.3093193522469822e-05
-6.200384964573933e-06   -9.64592328008885e-06   1.7116590691442553e-05
-6.200384964573933e-06   -9.64592328008885e-06   1.7116590691442553e-05
-6.200384964573933e-06   -9.64592328008885e-06   1.7116590691442553e-05
-6.200384964573933e-06   -9.64592328008885e-06   1.7116590691442553e-05
-1.1648451677448868e-05   -6.304604790669313e-07   2.0787424198953283e-05
-1.1648451677448868e-05   -6.304604790669313e-07   2.0787424198953283e-05
-1.1648451677448868e-05   -6.304604790669313e-07   2.0787424198953283e-05
-1.1648451677448868e-05   -6.304604790669313e-07   2.0787424198953283e-05
-8.476340612306905e-06   -4.243482166763676e-06   1.7668385436334956e-05
-8.476340612306905e-06   -4.243482166763676e-06   1.7668385436334956e-05
-8.476340612306905e-06   -4.243482166763676e-06   1.7668385436334956e-05
-8.476340612306905e-06   -4.243482166763676e-06   1.7668385436334956e-05
-1.1648451677448868e-05   -9.64592328008885e-06   1.1707313010828535e-05
-1.1648451677448868e-05   -9.64592328008885e-06   1.1707313010828535e-05
-1.1648451677448868e-05   -9.64592328008885e-06   1.1707313010828535e-05
-1.1648451677448868e-05   -9.64592328008885e-06   1.1707313010828535e-05
-6.200384964573933e-06   -6.304604790669313e-07   2.619670187956665e-05
-6.200384964573933e-06   -6.304604790669313e-07   2.619670187956665e-05
-6.200384964573933e-06   -6.304604790669313e-07   2.619670187956665e-05
-6.200384964573933e-06   -6.304604790669313e-07   2.619670187956665e-05
-4.673760280016204e-06   -1.0932436960033216e-05   1.873722252569059e-05
-4.673760280016204e-06   -1.0932436960033216e-05   1.873722252569059e-05
-4.673760280016204e-06   -1.0932436960033216e-05   1.873722252569059e-05
-4.673760280016204e-06   -1.0932436960033216e-05   1.873722252569059e-05
-1.1701632656134107e-05   -4.529817193151822e-06   2.660877129242404e-05
-1.1701632656134107e-05   -4.529817193151822e-06   2.660877129242404e-05
-1.1701632656134107e-05   -4.529817193151822e-06   2.660877129242404e-05
-1.1701632656134107e-05   -4.529817193151822e-06   2.660877129242404e-05
-7.689031648266433e-06   -5.742239775635965e-06   2.0648556495469345e-05
-7.689031648266433e-06   -5.742239775635965e-06   2.0648556495469345e-05
-7.689031648266433e-06   -5.742239775635965e-06   2.0648556495469345e-05
-7.689031648266433e-06   -5.742239775635965e-06   2.0648556495469345e-05
-8.959379329171596e-06   -8.648475470075627e-07   -1.5445524474461472e-05
-8.959379329171596e-06   -8.648475470075627e-07   -1.5445524474461472e-05
-8.959379329171596e-06   -8.648475470075627e-07   -1.5445524474461472e-05
-8.959379329171596e-06   -8.648475470075627e-07   -1.5445524474461472e-05
-1.5282254596962579e-06   1.3384929365154244e-06   -1.7382637352227233e-06
-1.5282254596962579e-06   1.3384929365154244e-06   -1.7382637352227233e-06
-1.5282254596962579e-06   1.3384929365154244e-06   -1.7382637352227233e-06
-1.5282254596962579e-06   1.3384929365154244e-06   -1.7382637352227233e-06
2.110181064668079e-07   -1.1898059602557468e-06   -1.2219632919805486e-05
2.110181064668079e-07   -1.1898059602557468e-06   -1.2219632919805486e-05
2.110181064668079e-07   -1.1898059602557468e-06   -1.2219632919805486e-05
2.110181064668079e-07   -1.1898059602557468e-06   -1.2219632919805486e-05
-7.19339974055138e-06   2.337616343996282e-06   -1.9953898906612845e-06
-7.19339974055138e-06   2.337616343996282e-06   -1.9953898906612845e-06
-7.19339974055138e-06   2.337616343996282e-06   -1.9953898906612845e-06
-7.19339974055138e-06   2.337616343996282e-06   -1.9953898906612845e-06
-3.99304636002388e-06   6.022099548902166e-07   -6.288068358077572e-06
-3.99304636002388e-06   6.022099548902166e-07   -6.288068358077572e-06
-3.99304636002388e-06   6.022099548902166e-07   -6.288068358077572e-06
-3.99304636002388e-06   6.022099548902166e-07   -6.288068358077572e-06
-7.19339974055138e-06   -1.1898059602557468e-06   -1.4336086302357614e-05
-7.19339974055138e-06   -1.1898059602557468e-06   -1.4336086302357614e-05
-7.19339974055138e-06   -1.1898059602557468e-06   -1.4336086302357614e-05
-7.19339974055138e-06   -1.1898059602557468e-06   -1.4336086302357614e-05
2.1101810646637423e-07   2.337616343996282e-06   1.210634918901929e-07
2.1101810646637423e-07   2.337616343996282e-06   1.210634918901929e-07
2.1101810646637423e-07   2.337616343996282e-06   1.210634918901929e-07
2.1101810646637423e-07   2.337616343996282e-06   1.210634918901929e-07
1.147148786217675e-06   -1.6350310988485876e-06   -1.107099418179219e-05
1.147148786217675e-06   -1.6350310988485876e-06   -1.107099418179219e-05
1.147148786217675e-06   -1.6350310988485876e-06   -1.107099418179219e-05
1.147148786217675e-06   -1.6350310988485876e-06   -1.107099418179219e-05
-6.200384964573933e-06   2.0613470794093544e-06   -1.0429315040944888e-06
-6.200384964573933e-06   2.0613470794093544e-06   -1.0429315040944888e-06
-6.200384964573933e-06   2.0613470794093544e-06   -1.0429315040944888e-06
-6.200384964573933e-06   2.0613470794093544e-06   -1.0429315040944888e-06
-2.695413323518573e-06   3.9818003300952885e-07   -5.886650678011123e-06
-2.695413323518573e-06   3.9818003300952885e-07   -5.886650678011123e-06
-2.695413323518573e-06   3.9818003300952885e-07   -5.886650678011123e-06
-2.695413323518573e-06   3.9818003300952885e-07   -5.886650678011123e-06
-6.200384964573933e-06   -1.6350310988485876e-06   -1.3288821088746662e-05
-6.200384964573933e-06   -1.6350310988485876e-06   -1.3288821088746662e-05
-6.200384964573933e-06   -1.6350310988485876e-06   -1.3288821088746662e-05
-6.200384964573933e-06   -1.6350310988485876e-06   -1.3288821088746662e-05
1.147148786217675e-06   2.0613470794093544e-06   1.1748954028599837e-06
1.147148786217675e-06   2.0613470794093544e-06   1.1748954028599837e-06
1.147148786217675e-06   2.0613470794093544e-06   1.1748954028599837e-06
1.147148786217675e-06   2.0613470794093544e-06   1.1748954028599837e-06
2.3285790013037252e-06   -2.1572675355521157e-06   -9.41582887129368e-06
2.3285790013037252e-06   -2.1572675355521157e-06   -9.41582887129368e-06
2.3285790013037252e-06   -2.1572675355521157e-06   -9.41582887129368e-06
2.3285790013037252e-06   -2.1572675355521157e-06   -9.41582887129368e-06
-4.673760280016204e-06   1.882178059463502e-06   -1.689307594378818e-07
-4.673760280016204e-06   1.882178059463502e-06   -1.689307594378818e-07
-4.673760280016204e-06   1.882178059463502e-06   -1.689307594378818e-07
-4.673760280016204e-06   1.882178059463502e-06   -1.689307594378818e-07
-1.5152207433113268e-06   1.6278242422160683e-07   -4.401525939467122e-06
-1.5152207433113268e-06   1.6278242422160683e-07   -4.401525939467122e-06
-1.5152207433113268e-06   1.6278242422160683e-07   -4.401525939467122e-06
-1.5152207433113268e-06   1.6278242422160683e-07   -4.401525939467122e-06
              </DataArray>   
             <DataArray type="Float64" NumberOfComponents="3" Name="Stress" format="ascii">   
-13.791408276408514   -3.4478520691021286   -3.4478520691021286
-13.791408276408514   -3.4478520691021286   -3.4478520691021286
-13.791408276408514   -3.4478520691021286   -3.4478520691021286
-13.791408276408514   -3.4478520691021286   -3.4478520691021286
-7.982514480994419   -0.2496341762113834   -0.15876251939396802
-7.982514480994419   -0.2496341762113834   -0.15876251939396802
-7.982514480994419   -0.2496341762113834   -0.15876251939396802
-7.982514480994419   -0.2496341762113834   -0.15876251939396802
-8.607168061976084   -2.151792015494021   -2.151792015494021
-8.607168061976084   -2.151792015494021   -2.151792015494021
-8.607168061976084   -2.151792015494021   -2.151792015494021
-8.607168061976084   -2.151792015494021   -2.151792015494021
-13.293292756287766   -1.089089246816519   -0.41569150015573136
-13.293292756287766   -1.089089246816519   -0.41569150015573136
-13.293292756287766   -1.089089246816519   -0.41569150015573136
-13.293292756287766   -1.089089246816519   -0.41569150015573136
-10.42665403404368   -1.707860773257643   -0.02861263559550062
-10.42665403404368   -1.707860773257643   -0.02861263559550062
-10.42665403404368   -1.707860773257643   -0.02861263559550062
-10.42665403404368   -1.707860773257643   -0.02861263559550062
-14.435929563214819   -3.6089823908037046   -3.6089823908037046
-14.435929563214819   -3.6089823908037046   -3.6089823908037046
-14.435929563214819   -3.6089823908037046   -3.6089823908037046
-14.435929563214819   -3.6089823908037046   -3.6089823908037046
-7.735244972624143   0.09738741091807368   -0.041355995146405644
-7.735244972624143   0.09738741091807368   -0.041355995146405644
-7.735244972624143   0.09738741091807368   -0.041355995146405644
-7.735244972624143   0.09738741091807368   -0.041355995146405644
-8.633687434907479   -2.1584218587268698   -2.1584218587268698
-8.633687434907479   -2.1584218587268698   -2.1584218587268698
-8.633687434907479   -2.1584218587268698   -2.1584218587268698
-8.633687434907479   -2.1584218587268698   -2.1584218587268698
-13.742576941745316   -1.1002410121335406   -0.6094370610278756
-13.742576941745316   -1.1002410121335406   -0.6094370610278756
-13.742576941745316   -1.1002410121335406   -0.6094370610278756
-13.742576941745316   -1.1002410121335406   -0.6094370610278756
-10.817953735798577   -1.6087877669064108   -0.5743426663113944
-10.817953735798577   -1.6087877669064108   -0.5743426663113944
-10.817953735798577   -1.6087877669064108   -0.5743426663113944
-10.817953735798577   -1.6087877669064108   -0.5743426663113944
-14.889601474570064   -3.722400368642516   -3.722400368642516
-14.889601474570064   -3.722400368642516   -3.722400368642516
-14.889601474570064   -3.722400368642516   -3.722400368642516
-14.889601474570064   -3.722400368642516   -3.722400368642516
-7.714856805093685   0.2355435947711757   0.041765836844058046
-7.714856805093685   0.2355435947711757   0.041765836844058046
-7.714856805093685   0.2355435947711757   0.041765836844058046
-7.714856805093685   0.2355435947711757   0.041765836844058046
-8.631680836977186   -2.1579202092442964   -2.1579202092442964
-8.631680836977186   -2.1579202092442964   -2.1579202092442964
-8.631680836977186   -2.1579202092442964   -2.1579202092442964
-8.631680836977186   -2.1579202092442964   -2.1579202092442964
-14.54445719924775   -0.9666567701484188   -0.3644467963322727
-14.54445719924775   -0.9666567701484188   -0.3644467963322727
-14.54445719924775   -0.9666567701484188   -0.3644467963322727
-14.54445719924775   -0.9666567701484188   -0.3644467963322727
-11.109157270035375   -1.5844385866654198   -1.038462562530226
-11.109157270035375   -1.5844385866654198   -1.038462562530226
-11.109157270035375   -1.5844385866654198   -1.038462562530226
-11.109157270035375   -1.5844385866654198   -1.038462562530226
-8.778705713192624   -2.194676428298156   -2.194676428298156
-8.778705713192624   -2.194676428298156   -2.194676428298156
-8.778705713192624   -2.194676428298156   -2.194676428298156
-8.778705713192624   -2.194676428298156   -2.194676428298156
-3.6597459858034402   -0.24136213588586697   -0.07863866691548035
-3.6597459858034402   -0.24136213588586697   -0.07863866691548035
-3.6597459858034402   -0.24136213588586697   -0.07863866691548035
-3.6597459858034402   -0.24136213588586697   -0.07863866691548035
-3.844785865981261   -0.9611964664953152   -0.9611964664953152
-3.844785865981261   -0.9611964664953152   -0.9611964664953152
-3.844785865981261   -0.9611964664953152   -0.9611964664953152
-3.844785865981261   -0.9611964664953152   -0.9611964664953152
-7.994022703850721   -0.9389332596985648   -0.2989239806626618
-7.994022703850721   -0.9389332596985648   -0.2989239806626618
-7.994022703850721   -0.9389332596985648   -0.2989239806626618
-7.994022703850721   -0.9389332596985648   -0.2989239806626618
-5.894463177849897   -1.1158955128771135   0.04643567676882063
-5.894463177849897   -1.1158955128771135   0.04643567676882063
-5.894463177849897   -1.1158955128771135   0.04643567676882063
-5.894463177849897   -1.1158955128771135   0.04643567676882063
-8.607168061976077   -2.1517920154940193   -2.1517920154940193
-8.607168061976077   -2.1517920154940193   -2.1517920154940193
-8.607168061976077   -2.1517920154940193   -2.1517920154940193
-8.607168061976077   -2.1517920154940193   -2.1517920154940193
-3.4548973874041984   0.02840540975184036   -0.001355949857158728
-3.4548973874041984   0.02840540975184036   -0.001355949857158728
-3.4548973874041984   0.02840540975184036   -0.001355949857158728
-3.4548973874041984   0.02840540975184036   -0.001355949857158728
-3.7611855393985216   -0.9402963848496304   -0.9402963848496304
-3.7611855393985216   -0.9402963848496304   -0.9402963848496304
-3.7611855393985216   -0.9402963848496304   -0.9402963848496304
-3.7611855393985216   -0.9402963848496304   -0.9402963848496304
-7.97609576212392   -0.7665680985883049   -0.2623172549476368
-7.97609576212392   -0.7665680985883049   -0.2623172549476368
-7.97609576212392   -0.7665680985883049   -0.2623172549476368
-7.97609576212392   -0.7665680985883049   -0.2623172549476368
-5.814587913070685   -0.9398928428114707   -0.30425111944914796
-5.814587913070685   -0.9398928428114707   -0.30425111944914796
-5.814587913070685   -0.9398928428114707   -0.30425111944914796
-5.814587913070685   -0.9398928428114707   -0.30425111944914796
-8.633687434907479   -2.1584218587268698   -2.1584218587268698
-8.633687434907479   -2.1584218587268698   -2.1584218587268698
-8.633687434907479   -2.1584218587268698   -2.1584218587268698
-8.633687434907479   -2.1584218587268698   -2.1584218587268698
-3.3198252315638657   0.23532601034003098   0.09088275913398827
-3.3198252315638657   0.23532601034003098   0.09088275913398827
-3.3198252315638657   0.23532601034003098   0.09088275913398827
-3.3198252315638657   0.23532601034003098   0.09088275913398827
-3.685431860206421   -0.9213579650516053   -0.9213579650516053
-3.685431860206421   -0.9213579650516053   -0.9213579650516053
-3.685431860206421   -0.9213579650516053   -0.9213579650516053
-3.685431860206421   -0.9213579650516053   -0.9213579650516053
-7.9198951023611475   -0.5921343365373566   -0.1647774088711435
-7.9198951023611475   -0.5921343365373566   -0.1647774088711435
-7.9198951023611475   -0.5921343365373566   -0.1647774088711435
-7.9198951023611475   -0.5921343365373566   -0.1647774088711435
-5.845717107748348   -0.8323768983375516   -0.6781902263979207
-5.845717107748348   -0.8323768983375516   -0.6781902263979207
-5.845717107748348   -0.8323768983375516   -0.6781902263979207
-5.845717107748348   -0.8323768983375516   -0.6781902263979207
-3.995273139159085   -0.9988182847897713   -0.9988182847897713
-3.995273139159085   -0.9988182847897713   -0.9988182847897713
-3.995273139159085   -0.9988182847897713   -0.9988182847897713
-3.995273139159085   -0.9988182847897713   -0.9988182847897713
0.4807654031365533   0.032574903945573705   0.0038415162754574066
0.4807654031365533   0.032574903945573705   0.0038415162754574066
0.4807654031365533   0.032574903945573705   0.0038415162754574066
0.4807654031365533   0.032574903945573705   0.0038415162754574066
0.6211060439026216   0.1552765109756554   0.1552765109756554
0.6211060439026216   0.1552765109756554   0.1552765109756554
0.6211060439026216   0.1552765109756554   0.1552765109756554
0.6211060439026216   0.1552765109756554   0.1552765109756554
-3.614524888875138   -0.6248050225894769   -0.14628302487053962
-3.614524888875138   -0.6248050225894769   -0.14628302487053962
-3.614524888875138   -0.6248050225894769   -0.14628302487053962
-3.614524888875138   -0.6248050225894769   -0.14628302487053962
-1.5439869556903723   -0.3918152365608911   0.2637564224360548
-1.5439869556903723   -0.3918152365608911   0.2637564224360548
-1.5439869556903723   -0.3918152365608911   0.2637564224360548
-1.5439869556903723   -0.3918152365608911   0.2637564224360548
-3.844785865981261   -0.9611964664953152   -0.9611964664953152
-3.844785865981261   -0.9611964664953152   -0.9611964664953152
-3.844785865981261   -0.9611964664953152   -0.9611964664953152
-3.844785865981261   -0.9611964664953152   -0.9611964664953152
0.6318489358866952   0.2721498697594438   0.09211761211223057
0.6318489358866952   0.2721498697594438   0.09211761211223057
0.6318489358866952   0.2721498697594438   0.09211761211223057
0.6318489358866952   0.2721498697594438   0.09211761211223057
0.6958009317447803   0.17395023293619508   0.17395023293619508
0.6958009317447803   0.17395023293619508   0.17395023293619508
0.6958009317447803   0.17395023293619508   0.17395023293619508
0.6958009317447803   0.17395023293619508   0.17395023293619508
-3.488963908961067   -0.4213619011609328   -0.09812271635108781
-3.488963908961067   -0.4213619011609328   -0.09812271635108781
-3.488963908961067   -0.4213619011609328   -0.09812271635108781
-3.488963908961067   -0.4213619011609328   -0.09812271635108781
-1.4834205380327377   -0.2424889901597334   -0.08939759797187519
-1.4834205380327377   -0.2424889901597334   -0.08939759797187519
-1.4834205380327377   -0.2424889901597334   -0.08939759797187519
-1.4834205380327377   -0.2424889901597334   -0.08939759797187519
-3.7611855393985216   -0.9402963848496304   -0.9402963848496304
-3.7611855393985216   -0.9402963848496304   -0.9402963848496304
-3.7611855393985216   -0.9402963848496304   -0.9402963848496304
-3.7611855393985216   -0.9402963848496304   -0.9402963848496304
0.7529176260978964   0.47777978054055875   0.15570415709740631
0.7529176260978964   0.47777978054055875   0.15570415709740631
0.7529176260978964   0.47777978054055875   0.15570415709740631
0.7529176260978964   0.47777978054055875   0.15570415709740631
0.7970487127626316   0.1992621781906579   0.1992621781906579
0.7970487127626316   0.1992621781906579   0.1992621781906579
0.7970487127626316   0.1992621781906579   0.1992621781906579
0.7970487127626316   0.1992621781906579   0.1992621781906579
-3.3522778402184987   -0.1785607212488881   0.0016148910852763765
-3.3522778402184987   -0.1785607212488881   0.0016148910852763765
-3.3522778402184987   -0.1785607212488881   0.0016148910852763765
-3.3522778402184987   -0.1785607212488881   0.0016148910852763765
-1.4414493374617205   -0.098536985500284   -0.4394018418775811
-1.4414493374617205   -0.098536985500284   -0.4394018418775811
-1.4414493374617205   -0.098536985500284   -0.4394018418775811
-1.4414493374617205   -0.098536985500284   -0.4394018418775811
0.5260912434359419   0.13152281085898548   0.13152281085898548
0.5260912434359419   0.13152281085898548   0.13152281085898548
0.5260912434359419   0.13152281085898548   0.13152281085898548
0.5260912434359419   0.13152281085898548   0.13152281085898548
5.011391483658637   0.45951707488379323   0.1532003244360435
5.011391483658637   0.45951707488379323   0.1532003244360435
5.011391483658637   0.45951707488379323   0.1532003244360435
5.011391483658637   0.45951707488379323   0.1532003244360435
5.438808479821137   1.3597021199552843   1.3597021199552843
5.438808479821137   1.3597021199552843   1.3597021199552843
5.438808479821137   1.3597021199552843   1.3597021199552843
5.438808479821137   1.3597021199552843   1.3597021199552843
0.4734213445947685   -0.35310683197162446   -0.07476364261633996
0.4734213445947685   -0.35310683197162446   -0.07476364261633996
0.4734213445947685   -0.35310683197162446   -0.07476364261633996
0.4734213445947685   -0.35310683197162446   -0.07476364261633996
2.8593710409382234   0.3558544146124283   0.5199764127502604
2.8593710409382234   0.3558544146124283   0.5199764127502604
2.8593710409382234   0.3558544146124283   0.5199764127502604
2.8593710409382234   0.3558544146124283   0.5199764127502604
0.6211060439026237   0.15527651097565592   0.15527651097565592
0.6211060439026237   0.15527651097565592   0.15527651097565592
0.6211060439026237   0.15527651097565592   0.15527651097565592
0.6211060439026237   0.15527651097565592   0.15527651097565592
5.068048619993579   0.6282436164883015   0.2373613242844783
5.068048619993579   0.6282436164883015   0.2373613242844783
5.068048619993579   0.6282436164883015   0.2373613242844783
5.068048619993579   0.6282436164883015   0.2373613242844783
5.413012272188772   1.353253068047193   1.353253068047193
5.413012272188772   1.353253068047193   1.353253068047193
5.413012272188772   1.353253068047193   1.353253068047193
5.413012272188772   1.353253068047193   1.353253068047193
0.5952709827527723   -0.15426777218434348   -0.00048150690331145996
0.5952709827527723   -0.15426777218434348   -0.00048150690331145996
0.5952709827527723   -0.15426777218434348   -0.00048150690331145996
0.5952709827527723   -0.15426777218434348   -0.00048150690331145996
2.8357201458203942   0.46607871335632245   0.1357558045400081
2.8357201458203942   0.46607871335632245   0.1357558045400081
2.8357201458203942   0.46607871335632245   0.1357558045400081
2.8357201458203942   0.46607871335632245   0.1357558045400081
0.695800931744781   0.17395023293619524   0.17395023293619524
0.695800931744781   0.17395023293619524   0.17395023293619524
0.695800931744781   0.17395023293619524   0.17395023293619524
0.695800931744781   0.17395023293619524   0.17395023293619524
5.091536791531609   0.8040895312614997   0.29503920154706864
5.091536791531609   0.8040895312614997   0.29503920154706864
5.091536791531609   0.8040895312614997   0.29503920154706864
5.091536791531609   0.8040895312614997   0.29503920154706864
5.515441385158274   1.3788603462895686   1.3788603462895686
5.515441385158274   1.3788603462895686   1.3788603462895686
5.515441385158274   1.3788603462895686   1.3788603462895686
5.515441385158274   1.3788603462895686   1.3788603462895686
0.7556487400836635   0.10902505766668384   0.08249943531978475
0.7556487400836635   0.10902505766668384   0.08249943531978475
0.7556487400836635   0.10902505766668384   0.08249943531978475
0.7556487400836635   0.10902505766668384   0.08249943531978475
2.877287082178529   0.6316572547647397   -0.22051705690395978
2.877287082178529   0.6316572547647397   -0.22051705690395978
2.877287082178529   0.6316572547647397   -0.22051705690395978
2.877287082178529   0.6316572547647397   -0.22051705690395978
5.432053337549633   1.3580133343874083   1.3580133343874083
5.432053337549633   1.3580133343874083   1.3580133343874083
5.432053337549633   1.3580133343874083   1.3580133343874083
5.432053337549633   1.3580133343874083   1.3580133343874083
11.25303031570588   0.8569762207121556   0.29090763199210556
11.25303031570588   0.8569762207121556   0.29090763199210556
11.25303031570588   0.8569762207121556   0.29090763199210556
11.25303031570588   0.8569762207121556   0.29090763199210556
11.499341105807964   2.874835276451991   2.874835276451991
11.499341105807964   2.874835276451991   2.874835276451991
11.499341105807964   2.874835276451991   2.874835276451991
11.499341105807964   2.874835276451991   2.874835276451991
4.833913408279187   -0.27572701015214696   -0.029344107647035378
4.833913408279187   -0.27572701015214696   -0.029344107647035378
4.833913408279187   -0.27572701015214696   -0.029344107647035378
4.833913408279187   -0.27572701015214696   -0.029344107647035378
8.027625218408726   1.1353232455688071   0.9071653489202388
8.027625218408726   1.1353232455688071   0.9071653489202388
8.027625218408726   1.1353232455688071   0.9071653489202388
8.027625218408726   1.1353232455688071   0.9071653489202388
5.438808479821132   1.359702119955283   1.359702119955283
5.438808479821132   1.359702119955283   1.359702119955283
5.438808479821132   1.359702119955283   1.359702119955283
5.438808479821132   1.359702119955283   1.359702119955283
10.655419445562773   1.0003795576413514   0.5296826940368567
10.655419445562773   1.0003795576413514   0.5296826940368567
10.655419445562773   1.0003795576413514   0.5296826940368567
10.655419445562773   1.0003795576413514   0.5296826940368567
11.152844254063607   2.788211063515902   2.788211063515902
11.152844254063607   2.788211063515902   2.788211063515902
11.152844254063607   2.788211063515902   2.788211063515902
11.152844254063607   2.788211063515902   2.788211063515902
4.848457225083272   -0.1533861845315616   0.037117085098443414
4.848457225083272   -0.1533861845315616   0.037117085098443414
4.848457225083272   -0.1533861845315616   0.037117085098443414
4.848457225083272   -0.1533861845315616   0.037117085098443414
7.7867374732320656   1.167327853178577   0.4351408617410951
7.7867374732320656   1.167327853178577   0.4351408617410951
7.7867374732320656   1.167327853178577   0.4351408617410951
7.7867374732320656   1.167327853178577   0.4351408617410951
5.413012272188772   1.353253068047193   1.353253068047193
5.413012272188772   1.353253068047193   1.353253068047193
5.413012272188772   1.353253068047193   1.353253068047193
5.413012272188772   1.353253068047193   1.353253068047193
10.30966321206281   1.0029458160418838   0.3575711009861072
10.30966321206281   1.0029458160418838   0.3575711009861072
10.30966321206281   1.0029458160418838   0.3575711009861072
10.30966321206281   1.0029458160418838   0.3575711009861072
10.638757066434808   2.659689266608702   2.659689266608702
10.638757066434808   2.659689266608702   2.659689266608702
10.638757066434808   2.659689266608702   2.659689266608702
10.638757066434808   2.659689266608702   2.659689266608702
5.025341034472253   0.15519732938844322   0.15202160976058615
5.025341034472253   0.15519732938844322   0.15202160976058615
5.025341034472253   0.15519732938844322   0.15202160976058615
5.025341034472253   0.15519732938844322   0.15202160976058615
7.453545638563294   1.2647808729610108   -0.11353369204764283
7.453545638563294   1.2647808729610108   -0.11353369204764283
7.453545638563294   1.2647808729610108   -0.11353369204764283
7.453545638563294   1.2647808729610108   -0.11353369204764283
-10.921698017114084   -0.7816972084875662   0.12010585534479079
-10.921698017114084   -0.7816972084875662   0.12010585534479079
-10.921698017114084   -0.7816972084875662   0.12010585534479079
-10.921698017114084   -0.7816972084875662   0.12010585534479079
-6.949025096756666   -0.15761394020134634   -0.04394318288735266
-6.949025096756666   -0.15761394020134634   -0.04394318288735266
-6.949025096756666   -0.15761394020134634   -0.04394318288735266
-6.949025096756666   -0.15761394020134634   -0.04394318288735266
-6.9984039190078295   0.281900110749727   0.14436645039557033
-6.9984039190078295   0.281900110749727   0.14436645039557033
-6.9984039190078295   0.281900110749727   0.14436645039557033
-6.9984039190078295   0.281900110749727   0.14436645039557033
-11.085464922766542   -0.7547370502036321   -0.13000718121902738
-11.085464922766542   -0.7547370502036321   -0.13000718121902738
-11.085464922766542   -0.7547370502036321   -0.13000718121902738
-11.085464922766542   -0.7547370502036321   -0.13000718121902738
-8.63465024565293   -0.2940240163229284   -0.03276737818699432
-8.63465024565293   -0.2940240163229284   -0.03276737818699432
-8.63465024565293   -0.2940240163229284   -0.03276737818699432
-8.63465024565293   -0.2940240163229284   -0.03276737818699432
-11.006175047696658   -0.5384886469015002   0.0501937908282612
-11.006175047696658   -0.5384886469015002   0.0501937908282612
-11.006175047696658   -0.5384886469015002   0.0501937908282612
-11.006175047696658   -0.5384886469015002   0.0501937908282612
-7.089462241785283   0.053883259740056255   -0.08290831248190433
-7.089462241785283   0.053883259740056255   -0.08290831248190433
-7.089462241785283   0.053883259740056255   -0.08290831248190433
-7.089462241785283   0.053883259740056255   -0.08290831248190433
-7.008216073282635   0.4014927440335676   0.16487085134499146
-7.008216073282635   0.4014927440335676   0.16487085134499146
-7.008216073282635   0.4014927440335676   0.16487085134499146
-7.008216073282635   0.4014927440335676   0.16487085134499146
-11.154728094740827   -0.6653367334261031   -0.17177120324421996
-11.154728094740827   -0.6653367334261031   -0.17177120324421996
-11.154728094740827   -0.6653367334261031   -0.17177120324421996
-11.154728094740827   -0.6653367334261031   -0.17177120324421996
-8.878969226822905   -0.19743133036435845   -0.08349584310286062
-8.878969226822905   -0.19743133036435845   -0.08349584310286062
-8.878969226822905   -0.19743133036435845   -0.08349584310286062
-8.878969226822905   -0.19743133036435845   -0.08349584310286062
-10.955913401016367   -0.3246898211598337   0.4816553531117165
-10.955913401016367   -0.3246898211598337   0.4816553531117165
-10.955913401016367   -0.3246898211598337   0.4816553531117165
-10.955913401016367   -0.3246898211598337   0.4816553531117165
-7.123858954156536   0.1440176446178505   -0.15586845360874174
-7.123858954156536   0.1440176446178505   -0.15586845360874174
-7.123858954156536   0.1440176446178505   -0.15586845360874174
-7.123858954156536   0.1440176446178505   -0.15586845360874174
-6.882394229557476   0.69882823922448   0.3009152808419565
-6.882394229557476   0.69882823922448   0.3009152808419565
-6.882394229557476   0.69882823922448   0.3009152808419565
-6.882394229557476   0.69882823922448   0.3009152808419565
-10.849538891096135   -0.5381246777545161   -0.2816758724066825
-10.849538891096135   -0.5381246777545161   -0.2816758724066825
-10.849538891096135   -0.5381246777545161   -0.2816758724066825
-10.849538891096135   -0.5381246777545161   -0.2816758724066825
-8.54170295876454   0.07829427205738715   0.18881179412415355
-8.54170295876454   0.07829427205738715   0.18881179412415355
-8.54170295876454   0.07829427205738715   0.18881179412415355
-8.54170295876454   0.07829427205738715   0.18881179412415355
-7.122464633847388   -0.94327424485002   -0.12548056369229071
-7.122464633847388   -0.94327424485002   -0.12548056369229071
-7.122464633847388   -0.94327424485002   -0.12548056369229071
-7.122464633847388   -0.94327424485002   -0.12548056369229071
-3.2777104074842174   -0.07109030202601052   0.03521376917680699
-3.2777104074842174   -0.07109030202601052   0.03521376917680699
-3.2777104074842174   -0.07109030202601052   0.03521376917680699
-3.2777104074842174   -0.07109030202601052   0.03521376917680699
-3.3272832627469944   0.06398404753052755   0.04892311437908847
-3.3272832627469944   0.06398404753052755   0.04892311437908847
-3.3272832627469944   0.06398404753052755   0.04892311437908847
-3.3272832627469944   0.06398404753052755   0.04892311437908847
-7.2645359915457535   -0.6907260231161846   -0.21366777842813792
-7.2645359915457535   -0.6907260231161846   -0.21366777842813792
-7.2645359915457535   -0.6907260231161846   -0.21366777842813792
-7.2645359915457535   -0.6907260231161846   -0.21366777842813792
-5.247720898853171   -0.42522717813246325   -0.11956804737662213
-5.247720898853171   -0.42522717813246325   -0.11956804737662213
-5.247720898853171   -0.42522717813246325   -0.11956804737662213
-5.247720898853171   -0.42522717813246325   -0.11956804737662213
-7.257988147374615   -0.7552270570071229   -0.11642752368154263
-7.257988147374615   -0.7552270570071229   -0.11642752368154263
-7.257988147374615   -0.7552270570071229   -0.11642752368154263
-7.257988147374615   -0.7552270570071229   -0.11642752368154263
-3.320853627657867   0.1414625606817307   0.0035927766735524835
-3.320853627657867   0.1414625606817307   0.0035927766735524835
-3.320853627657867   0.1414625606817307   0.0035927766735524835
-3.320853627657867   0.1414625606817307   0.0035927766735524835
-3.3160795379370542   0.23129573422476324   0.06698568493085394
-3.3160795379370542   0.23129573422476324   0.06698568493085394
-3.3160795379370542   0.23129573422476324   0.06698568493085394
-3.3160795379370542   0.23129573422476324   0.06698568493085394
-7.269070800330479   -0.5069194697680834   -0.23099057009257606
-7.269070800330479   -0.5069194697680834   -0.23099057009257606
-7.269070800330479   -0.5069194697680834   -0.23099057009257606
-7.269070800330479   -0.5069194697680834   -0.23099057009257606
-5.238892519811642   -0.2369598476491409   -0.05678944280317741
-5.238892519811642   -0.2369598476491409   -0.05678944280317741
-5.238892519811642   -0.2369598476491409   -0.05678944280317741
-5.238892519811642   -0.2369598476491409   -0.05678944280317741
-7.240892273805231   -0.5720561928182717   -0.024961214416144684
-7.240892273805231   -0.5720561928182717   -0.024961214416144684
-7.240892273805231   -0.5720561928182717   -0.024961214416144684
-7.240892273805231   -0.5720561928182717   -0.024961214416144684
-3.320178774934997   0.32051174680227223   -0.042726512636311276
-3.320178774934997   0.32051174680227223   -0.042726512636311276
-3.320178774934997   0.32051174680227223   -0.042726512636311276
-3.320178774934997   0.32051174680227223   -0.042726512636311276
-3.2618169598907287   0.3995006416782043   0.13531933973624888
-3.2618169598907287   0.3995006416782043   0.13531933973624888
-3.2618169598907287   0.3995006416782043   0.13531933973624888
-3.2618169598907287   0.3995006416782043   0.13531933973624888
-7.192728342454848   -0.2945676535237236   -0.25735939089672216
-7.192728342454848   -0.2945676535237236   -0.25735939089672216
-7.192728342454848   -0.2945676535237236   -0.25735939089672216
-7.192728342454848   -0.2945676535237236   -0.25735939089672216
-5.218461075708898   -0.05882789729165072   0.02626595723803965
-5.218461075708898   -0.05882789729165072   0.02626595723803965
-5.218461075708898   -0.05882789729165072   0.02626595723803965
-5.218461075708898   -0.05882789729165072   0.02626595723803965
-3.456917757269981   -0.785093906455362   -0.14681937532268682
-3.456917757269981   -0.785093906455362   -0.14681937532268682
-3.456917757269981   -0.785093906455362   -0.14681937532268682
-3.456917757269981   -0.785093906455362   -0.14681937532268682
0.36552271818277055   0.08316174260603816   0.13468023360377493
0.36552271818277055   0.08316174260603816   0.13468023360377493
0.36552271818277055   0.08316174260603816   0.13468023360377493
0.36552271818277055   0.08316174260603816   0.13468023360377493
0.34787045920404164   0.19904183472961967   0.010555913645763505
0.34787045920404164   0.19904183472961967   0.010555913645763505
0.34787045920404164   0.19904183472961967   0.010555913645763505
0.34787045920404164   0.19904183472961967   0.010555913645763505
-3.472725528412387   -0.5206108098447683   -0.09369335657257846
-3.472725528412387   -0.5206108098447683   -0.09369335657257846
-3.472725528412387   -0.5206108098447683   -0.09369335657257846
-3.472725528412387   -0.5206108098447683   -0.09369335657257846
-1.5690682855633025   -0.2598049424682032   -0.049262943284719085
-1.5690682855633025   -0.2598049424682032   -0.049262943284719085
-1.5690682855633025   -0.2598049424682032   -0.049262943284719085
-1.5690682855633025   -0.2598049424682032   -0.049262943284719085
-3.496711048522972   -0.5990266691158255   -0.13520509785444818
-3.496711048522972   -0.5990266691158255   -0.13520509785444818
-3.496711048522972   -0.5990266691158255   -0.13520509785444818
-3.496711048522972   -0.5990266691158255   -0.13520509785444818
0.3852887328068182   0.2908904474928681   0.10579866889639775
0.3852887328068182   0.2908904474928681   0.10579866889639775
0.3852887328068182   0.2908904474928681   0.10579866889639775
0.3852887328068182   0.2908904474928681   0.10579866889639775
0.3737170739150343   0.38334488733094496   0.06273024323219938
0.3737170739150343   0.38334488733094496   0.06273024323219938
0.3737170739150343   0.38334488733094496   0.06273024323219938
0.3737170739150343   0.38334488733094496   0.06273024323219938
-3.462803516394224   -0.31854063326680515   -0.11679783986342604
-3.462803516394224   -0.31854063326680515   -0.11679783986342604
-3.462803516394224   -0.31854063326680515   -0.11679783986342604
-3.462803516394224   -0.31854063326680515   -0.11679783986342604
-1.5457039999124518   -0.0638550022539226   0.018778858174253163
-1.5457039999124518   -0.0638550022539226   0.018778858174253163
-1.5457039999124518   -0.0638550022539226   0.018778858174253163
-1.5457039999124518   -0.0638550022539226   0.018778858174253163
-3.4719736832756833   -0.41214764521762   -0.06904166231990781
-3.4719736832756833   -0.41214764521762   -0.06904166231990781
-3.4719736832756833   -0.41214764521762   -0.06904166231990781
-3.4719736832756833   -0.41214764521762   -0.06904166231990781
0.39732839043376966   0.4913930489190355   0.07273866423778316
0.39732839043376966   0.4913930489190355   0.07273866423778316
0.39732839043376966   0.4913930489190355   0.07273866423778316
0.39732839043376966   0.4913930489190355   0.07273866423778316
0.3811197159899862   0.5884932662180152   0.10348727221131558
0.3811197159899862   0.5884932662180152   0.10348727221131558
0.3811197159899862   0.5884932662180152   0.10348727221131558
0.3811197159899862   0.5884932662180152   0.10348727221131558
-3.4186678822438976   -0.1024232890773572   -0.1470113412740188
-3.4186678822438976   -0.1024232890773572   -0.1470113412740188
-3.4186678822438976   -0.1024232890773572   -0.1470113412740188
-3.4186678822438976   -0.1024232890773572   -0.1470113412740188
-1.508167134592658   0.14106819212734545   0.09326493946156211
-1.508167134592658   0.14106819212734545   0.09326493946156211
-1.508167134592658   0.14106819212734545   0.09326493946156211
-1.508167134592658   0.14106819212734545   0.09326493946156211
0.1709970721908671   -0.5751326025390907   -0.17965365121061347
0.1709970721908671   -0.5751326025390907   -0.17965365121061347
0.1709970721908671   -0.5751326025390907   -0.17965365121061347
0.1709970721908671   -0.5751326025390907   -0.17965365121061347
4.130649063954166   0.2858655540574008   0.24674670191339798
4.130649063954166   0.2858655540574008   0.24674670191339798
4.130649063954166   0.2858655540574008   0.24674670191339798
4.130649063954166   0.2858655540574008   0.24674670191339798
4.1246448305192684   0.38425011406544535   -0.03920239835549903
4.1246448305192684   0.38425011406544535   -0.03920239835549903
4.1246448305192684   0.38425011406544535   -0.03920239835549903
4.1246448305192684   0.38425011406544535   -0.03920239835549903
0.24147592051426053   -0.346344558851991   0.023969613778468637
0.24147592051426053   -0.346344558851991   0.023969613778468637
0.24147592051426053   -0.346344558851991   0.023969613778468637
0.24147592051426053   -0.346344558851991   0.023969613778468637
2.140317794773228   -0.04874302864081137   0.004942207650866781
2.140317794773228   -0.04874302864081137   0.004942207650866781
2.140317794773228   -0.04874302864081137   0.004942207650866781
2.140317794773228   -0.04874302864081137   0.004942207650866781
0.1950786435365423   -0.4205790913770185   -0.1337822385850917
0.1950786435365423   -0.4205790913770185   -0.1337822385850917
0.1950786435365423   -0.4205790913770185   -0.1337822385850917
0.1950786435365423   -0.4205790913770185   -0.1337822385850917
4.19510833983303   0.48255087892651155   0.21481438335221137
4.19510833983303   0.48255087892651155   0.21481438335221137
4.19510833983303   0.48255087892651155   0.21481438335221137
4.19510833983303   0.48255087892651155   0.21481438335221137
4.1558392823917005   0.5664545164764513   0.04256163676173408
4.1558392823917005   0.5664545164764513   0.04256163676173408
4.1558392823917005   0.5664545164764513   0.04256163676173408
4.1558392823917005   0.5664545164764513   0.04256163676173408
0.2487679646729719   -0.1658223678485201   -0.012848047798647594
0.2487679646729719   -0.1658223678485201   -0.012848047798647594
0.2487679646729719   -0.1658223678485201   -0.012848047798647594
0.2487679646729719   -0.1658223678485201   -0.012848047798647594
2.167577747803526   0.12547023205229768   0.08855606860041519
2.167577747803526   0.12547023205229768   0.08855606860041519
2.167577747803526   0.12547023205229768   0.08855606860041519
2.167577747803526   0.12547023205229768   0.08855606860041519
0.21509644434030578   -0.24967665162356167   -0.09735136568693588
0.21509644434030578   -0.24967665162356167   -0.09735136568693588
0.21509644434030578   -0.24967665162356167   -0.09735136568693588
0.21509644434030578   -0.24967665162356167   -0.09735136568693588
4.2069136263729945   0.6677116239001079   0.19667624924446958
4.2069136263729945   0.6677116239001079   0.19667624924446958
4.2069136263729945   0.6677116239001079   0.19667624924446958
4.2069136263729945   0.6677116239001079   0.19667624924446958
4.088046232729145   0.7767805269152916   0.08887928891733492
4.088046232729145   0.7767805269152916   0.08887928891733492
4.088046232729145   0.7767805269152916   0.08887928891733492
4.088046232729145   0.7767805269152916   0.08887928891733492
0.24545576573123443   0.0579793813517525   -0.04431859421618049
0.24545576573123443   0.0579793813517525   -0.04431859421618049
0.24545576573123443   0.0579793813517525   -0.04431859421618049
0.24545576573123443   0.0579793813517525   -0.04431859421618049
2.1983518347664908   0.3246820511488395   0.16587833237981792
2.1983518347664908   0.3246820511488395   0.16587833237981792
2.1983518347664908   0.3246820511488395   0.16587833237981792
2.1983518347664908   0.3246820511488395   0.16587833237981792
3.806587137483373   -0.7566945138394998   -0.3310028625436663
3.806587137483373   -0.7566945138394998   -0.3310028625436663
3.806587137483373   -0.7566945138394998   -0.3310028625436663
3.806587137483373   -0.7566945138394998   -0.3310028625436663
7.831864309648755   0.5172332988991073   0.23911899132705894
7.831864309648755   0.5172332988991073   0.23911899132705894
7.831864309648755   0.5172332988991073   0.23911899132705894
7.831864309648755   0.5172332988991073   0.23911899132705894
7.9190200222028535   0.2476095833247982   -0.4977677541859758
7.9190200222028535   0.2476095833247982   -0.4977677541859758
7.9190200222028535   0.2476095833247982   -0.4977677541859758
7.9190200222028535   0.2476095833247982   -0.4977677541859758
4.052709602357396   -0.15717843656837838   0.14255001146888657
4.052709602357396   -0.15717843656837838   0.14255001146888657
4.052709602357396   -0.15717843656837838   0.14255001146888657
4.052709602357396   -0.15717843656837838   0.14255001146888657
5.609359136578051   -0.09657082428935526   -0.1392637207025354
5.609359136578051   -0.09657082428935526   -0.1392637207025354
5.609359136578051   -0.09657082428935526   -0.1392637207025354
5.609359136578051   -0.09657082428935526   -0.1392637207025354
3.912223098949629   -0.4980070324302527   -0.2190539097080203
3.912223098949629   -0.4980070324302527   -0.2190539097080203
3.912223098949629   -0.4980070324302527   -0.2190539097080203
3.912223098949629   -0.4980070324302527   -0.2190539097080203
8.131131377666916   0.6600630312429789   0.15033557521615293
8.131131377666916   0.6600630312429789   0.15033557521615293
8.131131377666916   0.6600630312429789   0.15033557521615293
8.131131377666916   0.6600630312429789   0.15033557521615293
8.004158104401792   0.44812653871638797   -0.11102017798033553
8.004158104401792   0.44812653871638797   -0.11102017798033553
8.004158104401792   0.44812653871638797   -0.11102017798033553
8.004158104401792   0.44812653871638797   -0.11102017798033553
4.035141608887838   -0.06731922971589699   0.0728470154346911
4.035141608887838   -0.06731922971589699   0.0728470154346911
4.035141608887838   -0.06731922971589699   0.0728470154346911
4.035141608887838   -0.06731922971589699   0.0728470154346911
5.900661292577116   0.14726417000117098   0.09668844305673369
5.900661292577116   0.14726417000117098   0.09668844305673369
5.900661292577116   0.14726417000117098   0.09668844305673369
5.900661292577116   0.14726417000117098   0.09668844305673369
3.9226547492768997   -0.3811261659830776   -0.17578034635278716
3.9226547492768997   -0.3811261659830776   -0.17578034635278716
3.9226547492768997   -0.3811261659830776   -0.17578034635278716
3.9226547492768997   -0.3811261659830776   -0.17578034635278716
8.107010627189663   0.7522991381605112   0.09906983651490567
8.107010627189663   0.7522991381605112   0.09906983651490567
8.107010627189663   0.7522991381605112   0.09906983651490567
8.107010627189663   0.7522991381605112   0.09906983651490567
7.988386261646694   0.6832785025105366   -0.1706177518033885
7.988386261646694   0.6832785025105366   -0.1706177518033885
7.988386261646694   0.6832785025105366   -0.1706177518033885
7.988386261646694   0.6832785025105366   -0.1706177518033885
3.9509785513871583   0.14031208304611342   0.040009326076503426
3.9509785513871583   0.14031208304611342   0.040009326076503426
3.9509785513871583   0.14031208304611342   0.040009326076503426
3.9509785513871583   0.14031208304611342   0.040009326076503426
5.748127983947877   0.2572408724275175   0.07083531553464972
5.748127983947877   0.2572408724275175   0.07083531553464972
5.748127983947877   0.2572408724275175   0.07083531553464972
5.748127983947877   0.2572408724275175   0.07083531553464972
-8.601550098518393   -0.39144340129371025   0.4394345134125866
-8.601550098518393   -0.39144340129371025   0.4394345134125866
-8.601550098518393   -0.39144340129371025   0.4394345134125866
-8.601550098518393   -0.39144340129371025   0.4394345134125866
-5.707226949388075   -0.2146569722777203   -0.11434427609133185
-5.707226949388075   -0.2146569722777203   -0.11434427609133185
-5.707226949388075   -0.2146569722777203   -0.11434427609133185
-5.707226949388075   -0.2146569722777203   -0.11434427609133185
-5.503289434770693   0.4615050324472558   0.3690277440395639
-5.503289434770693   0.4615050324472558   0.3690277440395639
-5.503289434770693   0.4615050324472558   0.3690277440395639
-5.503289434770693   0.4615050324472558   0.3690277440395639
-8.641819816705706   -0.6161969691981153   -0.17937593612944558
-8.641819816705706   -0.6161969691981153   -0.17937593612944558
-8.641819816705706   -0.6161969691981153   -0.17937593612944558
-8.641819816705706   -0.6161969691981153   -0.17937593612944558
-6.824276387281417   -0.1055614841004262   -0.011074212578725373
-6.824276387281417   -0.1055614841004262   -0.011074212578725373
-6.824276387281417   -0.1055614841004262   -0.011074212578725373
-6.824276387281417   -0.1055614841004262   -0.011074212578725373
-8.402839391549481   -0.09362055302141692   0.49294977347498653
-8.402839391549481   -0.09362055302141692   0.49294977347498653
-8.402839391549481   -0.09362055302141692   0.49294977347498653
-8.402839391549481   -0.09362055302141692   0.49294977347498653
-5.704596809011798   -0.023398332814322798   -0.1526057619043899
-5.704596809011798   -0.023398332814322798   -0.1526057619043899
-5.704596809011798   -0.023398332814322798   -0.1526057619043899
-5.704596809011798   -0.023398332814322798   -0.1526057619043899
-5.481501252206116   0.5721295025279847   0.34233313399151016
-5.481501252206116   0.5721295025279847   0.34233313399151016
-5.481501252206116   0.5721295025279847   0.34233313399151016
-5.481501252206116   0.5721295025279847   0.34233313399151016
-8.50948391735624   -0.5159934003906679   -0.24583544484369407
-8.50948391735624   -0.5159934003906679   -0.24583544484369407
-8.50948391735624   -0.5159934003906679   -0.24583544484369407
-8.50948391735624   -0.5159934003906679   -0.24583544484369407
-6.84004865889418   0.024432279897294684   0.07958157754548029
-6.84004865889418   0.024432279897294684   0.07958157754548029
-6.84004865889418   0.024432279897294684   0.07958157754548029
-6.84004865889418   0.024432279897294684   0.07958157754548029
-8.286847951584202   0.010719777149361454   0.3406312064764772
-8.286847951584202   0.010719777149361454   0.3406312064764772
-8.286847951584202   0.010719777149361454   0.3406312064764772
-8.286847951584202   0.010719777149361454   0.3406312064764772
-5.691712449099493   0.05784109386662384   -0.19443444181398312
-5.691712449099493   0.05784109386662384   -0.19443444181398312
-5.691712449099493   0.05784109386662384   -0.19443444181398312
-5.691712449099493   0.05784109386662384   -0.19443444181398312
-5.4873990932415575   0.6449608898207007   0.27161216761482093
-5.4873990932415575   0.6449608898207007   0.27161216761482093
-5.4873990932415575   0.6449608898207007   0.27161216761482093
-5.4873990932415575   0.6449608898207007   0.27161216761482093
-8.337298517894162   -0.40990681669661355   -0.31370301674975104
-8.337298517894162   -0.40990681669661355   -0.31370301674975104
-8.337298517894162   -0.40990681669661355   -0.31370301674975104
-8.337298517894162   -0.40990681669661355   -0.31370301674975104
-6.644515374462254   0.1406569369153301   0.16429774981707806
-6.644515374462254   0.1406569369153301   0.16429774981707806
-6.644515374462254   0.1406569369153301   0.16429774981707806
-6.644515374462254   0.1406569369153301   0.16429774981707806
-5.7252536524214825   -0.5428905479633687   0.12375578442728111
-5.7252536524214825   -0.5428905479633687   0.12375578442728111
-5.7252536524214825   -0.5428905479633687   0.12375578442728111
-5.7252536524214825   -0.5428905479633687   0.12375578442728111
-2.8864469111599216   -0.10314536443180422   0.005767277011011651
-2.8864469111599216   -0.10314536443180422   0.005767277011011651
-2.8864469111599216   -0.10314536443180422   0.005767277011011651
-2.8864469111599216   -0.10314536443180422   0.005767277011011651
-2.805447400221352   0.28396055941795795   0.2006765429181737
-2.805447400221352   0.28396055941795795   0.2006765429181737
-2.805447400221352   0.28396055941795795   0.2006765429181737
-2.805447400221352   0.28396055941795795   0.2006765429181737
-5.816545966144768   -0.5353943294970765   -0.20035555088654175
-5.816545966144768   -0.5353943294970765   -0.20035555088654175
-5.816545966144768   -0.5353943294970765   -0.20035555088654175
-5.816545966144768   -0.5353943294970765   -0.20035555088654175
-4.292949489923459   -0.2106451050774294   -0.08627010515418798
-4.292949489923459   -0.2106451050774294   -0.08627010515418798
-4.292949489923459   -0.2106451050774294   -0.08627010515418798
-4.292949489923459   -0.2106451050774294   -0.08627010515418798
-5.707906040407354   -0.3126471062851498   0.1200968545886357
-5.707906040407354   -0.3126471062851498   0.1200968545886357
-5.707906040407354   -0.3126471062851498   0.1200968545886357
-5.707906040407354   -0.3126471062851498   0.1200968545886357
-2.8920150061846863   0.08328565598012128   -0.031486583460633905
-2.8920150061846863   0.08328565598012128   -0.031486583460633905
-2.8920150061846863   0.08328565598012128   -0.031486583460633905
-2.8920150061846863   0.08328565598012128   -0.031486583460633905
-2.797103426062793   0.46841893757834696   0.17373409237188897
-2.797103426062793   0.46841893757834696   0.17373409237188897
-2.797103426062793   0.46841893757834696   0.17373409237188897
-2.797103426062793   0.46841893757834696   0.17373409237188897
-5.784313246575626   -0.3631066270614731   -0.2364907082665822
-5.784313246575626   -0.3631066270614731   -0.2364907082665822
-5.784313246575626   -0.3631066270614731   -0.2364907082665822
-5.784313246575626   -0.3631066270614731   -0.2364907082665822
-4.246677010256303   -0.023811661233061554   8.125514148413227e-05
-4.246677010256303   -0.023811661233061554   8.125514148413227e-05
-4.246677010256303   -0.023811661233061554   8.125514148413227e-05
-4.246677010256303   -0.023811661233061554   8.125514148413227e-05
-5.673439584840149   -0.1255340983180242   0.08030507166735762
-5.673439584840149   -0.1255340983180242   0.08030507166735762
-5.673439584840149   -0.1255340983180242   0.08030507166735762
-5.673439584840149   -0.1255340983180242   0.08030507166735762
-2.889999739165236   0.24882375746795715   -0.07115229302988232
-2.889999739165236   0.24882375746795715   -0.07115229302988232
-2.889999739165236   0.24882375746795715   -0.07115229302988232
-2.889999739165236   0.24882375746795715   -0.07115229302988232
-2.7968018402016366   0.6621446146835943   0.13027544788662515
-2.7968018402016366   0.6621446146835943   0.13027544788662515
-2.7968018402016366   0.6621446146835943   0.13027544788662515
-2.7968018402016366   0.6621446146835943   0.13027544788662515
-5.757093960490392   -0.1773519299526618   -0.2545493488560201
-5.757093960490392   -0.1773519299526618   -0.2545493488560201
-5.757093960490392   -0.1773519299526618   -0.2545493488560201
-5.757093960490392   -0.1773519299526618   -0.2545493488560201
-4.250088175312242   0.14732014352509437   0.06598461062140171
-4.250088175312242   0.14732014352509437   0.06598461062140171
-4.250088175312242   0.14732014352509437   0.06598461062140171
-4.250088175312242   0.14732014352509437   0.06598461062140171
-2.994386142048736   -0.6193091037783304   -0.01776513808656074
-2.994386142048736   -0.6193091037783304   -0.01776513808656074
-2.994386142048736   -0.6193091037783304   -0.01776513808656074
-2.994386142048736   -0.6193091037783304   -0.01776513808656074
-0.09214552435759255   0.03223241971168986   0.12792469479217883
-0.09214552435759255   0.03223241971168986   0.12792469479217883
-0.09214552435759255   0.03223241971168986   0.12792469479217883
-0.09214552435759255   0.03223241971168986   0.12792469479217883
-0.10361449234681319   0.18416058049811704   0.061052559076273966
-0.10361449234681319   0.18416058049811704   0.061052559076273966
-0.10361449234681319   0.18416058049811704   0.061052559076273966
-0.10361449234681319   0.18416058049811704   0.061052559076273966
-2.9969297050985046   -0.397561844299404   -0.07521257775022494
-2.9969297050985046   -0.397561844299404   -0.07521257775022494
-2.9969297050985046   -0.397561844299404   -0.07521257775022494
-2.9969297050985046   -0.397561844299404   -0.07521257775022494
-1.551477524421649   -0.1936827087160396   -0.04813626695526842
-1.551477524421649   -0.1936827087160396   -0.04813626695526842
-1.551477524421649   -0.1936827087160396   -0.04813626695526842
-1.551477524421649   -0.1936827087160396   -0.04813626695526842
-2.9937098126481416   -0.41450332278080537   -0.04217163701700962
-2.9937098126481416   -0.41450332278080537   -0.04217163701700962
-2.9937098126481416   -0.41450332278080537   -0.04217163701700962
-2.9937098126481416   -0.41450332278080537   -0.04217163701700962
-0.09036837767026545   0.21756806610642918   0.09387564685070192
-0.09036837767026545   0.21756806610642918   0.09387564685070192
-0.09036837767026545   0.21756806610642918   0.09387564685070192
-0.09036837767026545   0.21756806610642918   0.09387564685070192
-0.09050375879310416   0.3851784400434087   0.02949776908652295
-0.09050375879310416   0.3851784400434087   0.02949776908652295
-0.09050375879310416   0.3851784400434087   0.02949776908652295
-0.09050375879310416   0.3851784400434087   0.02949776908652295
-2.9899465623683987   -0.21194385473697192   -0.11011879684079502
-2.9899465623683987   -0.21194385473697192   -0.11011879684079502
-2.9899465623683987   -0.21194385473697192   -0.11011879684079502
-2.9899465623683987   -0.21194385473697192   -0.11011879684079502
-1.5369275325601923   -0.007725517196585374   0.02160398254935403
-1.5369275325601923   -0.007725517196585374   0.02160398254935403
-1.5369275325601923   -0.007725517196585374   0.02160398254935403
-1.5369275325601923   -0.007725517196585374   0.02160398254935403
-2.9854304436767847   -0.21633571864547596   -0.08314633947421998
-2.9854304436767847   -0.21633571864547596   -0.08314633947421998
-2.9854304436767847   -0.21633571864547596   -0.08314633947421998
-2.9854304436767847   -0.21633571864547596   -0.08314633947421998
-0.0814187104696225   0.4031714709670089   0.05692997978033247
-0.0814187104696225   0.4031714709670089   0.05692997978033247
-0.0814187104696225   0.4031714709670089   0.05692997978033247
-0.0814187104696225   0.4031714709670089   0.05692997978033247
-0.08814784831673791   0.5922457784413055   -0.004186037607864346
-0.08814784831673791   0.5922457784413055   -0.004186037607864346
-0.08814784831673791   0.5922457784413055   -0.004186037607864346
-0.08814784831673791   0.5922457784413055   -0.004186037607864346
-2.9889796511117295   -0.023129970889575135   -0.14533902109068747
-2.9889796511117295   -0.023129970889575135   -0.14533902109068747
-2.9889796511117295   -0.023129970889575135   -0.14533902109068747
-2.9889796511117295   -0.023129970889575135   -0.14533902109068747
-1.5257507394832448   0.1784048852644825   0.08554752228412943
-1.5257507394832448   0.1784048852644825   0.08554752228412943
-1.5257507394832448   0.1784048852644825   0.08554752228412943
-1.5257507394832448   0.1784048852644825   0.08554752228412943
-0.28927167963987876   -0.677135556188   -0.14833810571956102
-0.28927167963987876   -0.677135556188   -0.14833810571956102
-0.28927167963987876   -0.677135556188   -0.14833810571956102
-0.28927167963987876   -0.677135556188   -0.14833810571956102
2.6926375037762655   0.19088346640309278   0.24311393363871103
2.6926375037762655   0.19088346640309278   0.24311393363871103
2.6926375037762655   0.19088346640309278   0.24311393363871103
2.6926375037762655   0.19088346640309278   0.24311393363871103
2.604735802186279   0.10249133591290288   -0.09511079406908053
2.604735802186279   0.10249133591290288   -0.09511079406908053
2.604735802186279   0.10249133591290288   -0.09511079406908053
2.604735802186279   0.10249133591290288   -0.09511079406908053
-0.19205719946642474   -0.24874689320978052   0.051746497186115244
-0.19205719946642474   -0.24874689320978052   0.051746497186115244
-0.19205719946642474   -0.24874689320978052   0.051746497186115244
-0.19205719946642474   -0.24874689320978052   0.051746497186115244
1.187024719568812   -0.15577900865649436   -0.02700024903096318
1.187024719568812   -0.15577900865649436   -0.02700024903096318
1.187024719568812   -0.15577900865649436   -0.02700024903096318
1.187024719568812   -0.15577900865649436   -0.02700024903096318
-0.2887498094224559   -0.4943969306298269   -0.18606651517399453
-0.2887498094224559   -0.4943969306298269   -0.18606651517399453
-0.2887498094224559   -0.4943969306298269   -0.18606651517399453
-0.2887498094224559   -0.4943969306298269   -0.18606651517399453
2.7201511138059   0.36686407499653884   0.21759302494538757
2.7201511138059   0.36686407499653884   0.21759302494538757
2.7201511138059   0.36686407499653884   0.21759302494538757
2.7201511138059   0.36686407499653884   0.21759302494538757
2.645871401686993   0.2894367636474522   -0.1336558273328079
2.645871401686993   0.2894367636474522   -0.1336558273328079
2.645871401686993   0.2894367636474522   -0.1336558273328079
2.645871401686993   0.2894367636474522   -0.1336558273328079
-0.1870242392285577   -0.08246421197090863   0.014538018923575913
-0.1870242392285577   -0.08246421197090863   0.014538018923575913
-0.1870242392285577   -0.08246421197090863   0.014538018923575913
-0.1870242392285577   -0.08246421197090863   0.014538018923575913
1.1966385253628145   0.012290928449062655   0.04223736254340768
1.1966385253628145   0.012290928449062655   0.04223736254340768
1.1966385253628145   0.012290928449062655   0.04223736254340768
1.1966385253628145   0.012290928449062655   0.04223736254340768
-0.2810466603701463   -0.31401945254039165   -0.224018846214887
-0.2810466603701463   -0.31401945254039165   -0.224018846214887
-0.2810466603701463   -0.31401945254039165   -0.224018846214887
-0.2810466603701463   -0.31401945254039165   -0.224018846214887
2.7602921217610796   0.541390303149422   0.1864942335356536
2.7602921217610796   0.541390303149422   0.1864942335356536
2.7602921217610796   0.541390303149422   0.1864942335356536
2.7602921217610796   0.541390303149422   0.1864942335356536
2.670950197426039   0.5240939940301682   -0.13923996251890627
2.670950197426039   0.5240939940301682   -0.13923996251890627
2.670950197426039   0.5240939940301682   -0.13923996251890627
2.670950197426039   0.5240939940301682   -0.13923996251890627
-0.1878571318936302   0.11208776803904358   -0.022574445090062144
-0.1878571318936302   0.11208776803904358   -0.022574445090062144
-0.1878571318936302   0.11208776803904358   -0.022574445090062144
-0.1878571318936302   0.11208776803904358   -0.022574445090062144
1.2370353920723651   0.19995904636899167   0.12456729754780518
1.2370353920723651   0.19995904636899167   0.12456729754780518
1.2370353920723651   0.19995904636899167   0.12456729754780518
1.2370353920723651   0.19995904636899167   0.12456729754780518
2.4138423644685094   -0.6718254564181149   -0.2881528400788365
2.4138423644685094   -0.6718254564181149   -0.2881528400788365
2.4138423644685094   -0.6718254564181149   -0.2881528400788365
2.4138423644685094   -0.6718254564181149   -0.2881528400788365
5.2989575596800975   0.3935763391361792   0.26931723321342715
5.2989575596800975   0.3935763391361792   0.26931723321342715
5.2989575596800975   0.3935763391361792   0.26931723321342715
5.2989575596800975   0.3935763391361792   0.26931723321342715
5.257425927612018   -0.021446086232547845   -0.3835045621066133
5.257425927612018   -0.021446086232547845   -0.3835045621066133
5.257425927612018   -0.021446086232547845   -0.3835045621066133
5.257425927612018   -0.021446086232547845   -0.3835045621066133
2.627835920166471   -0.05757982657610805   0.18046095832091202
2.627835920166471   -0.05757982657610805   0.18046095832091202
2.627835920166471   -0.05757982657610805   0.18046095832091202
2.627835920166471   -0.05757982657610805   0.18046095832091202
3.710282878722322   -0.13019500274730567   -0.12108318669055809
3.710282878722322   -0.13019500274730567   -0.12108318669055809
3.710282878722322   -0.13019500274730567   -0.12108318669055809
3.710282878722322   -0.13019500274730567   -0.12108318669055809
2.415580820982419   -0.5839942233102018   -0.3544001408652535
2.415580820982419   -0.5839942233102018   -0.3544001408652535
2.415580820982419   -0.5839942233102018   -0.3544001408652535
2.415580820982419   -0.5839942233102018   -0.3544001408652535
5.484953857618022   0.5202411413234933   0.21244786036736696
5.484953857618022   0.5202411413234933   0.21244786036736696
5.484953857618022   0.5202411413234933   0.21244786036736696
5.484953857618022   0.5202411413234933   0.21244786036736696
5.384480875124178   0.08518520222524517   -0.5139700910959382
5.384480875124178   0.08518520222524517   -0.5139700910959382
5.384480875124178   0.08518520222524517   -0.5139700910959382
5.384480875124178   0.08518520222524517   -0.5139700910959382
2.6463016675887245   0.023734954267251696   0.13419731155609507
2.6463016675887245   0.023734954267251696   0.13419731155609507
2.6463016675887245   0.023734954267251696   0.13419731155609507
2.6463016675887245   0.023734954267251696   0.13419731155609507
3.876599109182806   -0.015077546529831731   -0.037305353875446645
3.876599109182806   -0.015077546529831731   -0.037305353875446645
3.876599109182806   -0.015077546529831731   -0.037305353875446645
3.876599109182806   -0.015077546529831731   -0.037305353875446645
2.442137528418247   -0.47755594575213844   -0.385332484276926
2.442137528418247   -0.47755594575213844   -0.385332484276926
2.442137528418247   -0.47755594575213844   -0.385332484276926
2.442137528418247   -0.47755594575213844   -0.385332484276926
5.622353076284639   0.6201841642346223   0.14039195269703345
5.622353076284639   0.6201841642346223   0.14039195269703345
5.622353076284639   0.6201841642346223   0.14039195269703345
5.622353076284639   0.6201841642346223   0.14039195269703345
5.586327623063751   0.36278616018505816   -0.48296935990536594
5.586327623063751   0.36278616018505816   -0.48296935990536594
5.586327623063751   0.36278616018505816   -0.48296935990536594
5.586327623063751   0.36278616018505816   -0.48296935990536594
2.6543337800982103   0.2039562002491374   0.0978157446230257
2.6543337800982103   0.2039562002491374   0.0978157446230257
2.6543337800982103   0.2039562002491374   0.0978157446230257
2.6543337800982103   0.2039562002491374   0.0978157446230257
3.903617575295783   0.11680403785829674   0.055149167806752525
3.903617575295783   0.11680403785829674   0.055149167806752525
3.903617575295783   0.11680403785829674   0.055149167806752525
3.903617575295783   0.11680403785829674   0.055149167806752525
-6.162692751449375   -0.2030661492910677   0.3990756409032303
-6.162692751449375   -0.2030661492910677   0.3990756409032303
-6.162692751449375   -0.2030661492910677   0.3990756409032303
-6.162692751449375   -0.2030661492910677   0.3990756409032303
-4.3049102157692065   -0.28578205380853905   -0.15114836138104132
-4.3049102157692065   -0.28578205380853905   -0.15114836138104132
-4.3049102157692065   -0.28578205380853905   -0.15114836138104132
-4.3049102157692065   -0.28578205380853905   -0.15114836138104132
-4.053064820342193   0.4055345063907856   0.34052644545154576
-4.053064820342193   0.4055345063907856   0.34052644545154576
-4.053064820342193   0.4055345063907856   0.34052644545154576
-4.053064820342193   0.4055345063907856   0.34052644545154576
-6.163252463967687   -0.5069130790898947   -0.22100466362919705
-6.163252463967687   -0.5069130790898947   -0.22100466362919705
-6.163252463967687   -0.5069130790898947   -0.22100466362919705
-6.163252463967687   -0.5069130790898947   -0.22100466362919705
-4.958756278368242   -0.07943315963524711   -0.009502679658083768
-4.958756278368242   -0.07943315963524711   -0.009502679658083768
-4.958756278368242   -0.07943315963524711   -0.009502679658083768
-4.958756278368242   -0.07943315963524711   -0.009502679658083768
-5.934270406005798   0.03715550798818845   0.3798370391021657
-5.934270406005798   0.03715550798818845   0.3798370391021657
-5.934270406005798   0.03715550798818845   0.3798370391021657
-5.934270406005798   0.03715550798818845   0.3798370391021657
-4.263450337916968   -0.1199375403001881   -0.18592909573132332
-4.263450337916968   -0.1199375403001881   -0.18592909573132332
-4.263450337916968   -0.1199375403001881   -0.18592909573132332
-4.263450337916968   -0.1199375403001881   -0.18592909573132332
-4.014958701001567   0.4896656636469894   0.2879346589899188
-4.014958701001567   0.4896656636469894   0.2879346589899188
-4.014958701001567   0.4896656636469894   0.2879346589899188
-4.014958701001567   0.4896656636469894   0.2879346589899188
-6.018288144471185   -0.4131714476193824   -0.2796073146324373
-6.018288144471185   -0.4131714476193824   -0.2796073146324373
-6.018288144471185   -0.4131714476193824   -0.2796073146324373
-6.018288144471185   -0.4131714476193824   -0.2796073146324373
-4.924746278131378   0.03162491056845296   0.05298470712685649
-4.924746278131378   0.03162491056845296   0.05298470712685649
-4.924746278131378   0.03162491056845296   0.05298470712685649
-4.924746278131378   0.03162491056845296   0.05298470712685649
-5.791144734962657   0.13785765176245968   0.3050806335283612
-5.791144734962657   0.13785765176245968   0.3050806335283612
-5.791144734962657   0.13785765176245968   0.3050806335283612
-5.791144734962657   0.13785765176245968   0.3050806335283612
-4.225259322174297   -0.044520647399046265   -0.22938213582764538
-4.225259322174297   -0.044520647399046265   -0.22938213582764538
-4.225259322174297   -0.044520647399046265   -0.22938213582764538
-4.225259322174297   -0.044520647399046265   -0.22938213582764538
-3.9938288690454216   0.5710859661539439   0.2477912486542952
-3.9938288690454216   0.5710859661539439   0.2477912486542952
-3.9938288690454216   0.5710859661539439   0.2477912486542952
-3.9938288690454216   0.5710859661539439   0.2477912486542952
-5.823868490639481   -0.28946394830082833   -0.3349040611842679
-5.823868490639481   -0.28946394830082833   -0.3349040611842679
-5.823868490639481   -0.28946394830082833   -0.3349040611842679
-5.823868490639481   -0.28946394830082833   -0.3349040611842679
-4.740410228746017   0.135460328917838   0.14093601967825642
-4.740410228746017   0.135460328917838   0.14093601967825642
-4.740410228746017   0.135460328917838   0.14093601967825642
-4.740410228746017   0.135460328917838   0.14093601967825642
-4.257520405634808   -0.34875815969374824   0.14877679517611606
-4.257520405634808   -0.34875815969374824   0.14877679517611606
-4.257520405634808   -0.34875815969374824   0.14877679517611606
-4.257520405634808   -0.34875815969374824   0.14877679517611606
-2.462450929322657   -0.1852255689373224   -0.024368321916888383
-2.462450929322657   -0.1852255689373224   -0.024368321916888383
-2.462450929322657   -0.1852255689373224   -0.024368321916888383
-2.462450929322657   -0.1852255689373224   -0.024368321916888383
-2.3374873605095328   0.23721474355496697   0.18363120873844055
-2.3374873605095328   0.23721474355496697   0.18363120873844055
-2.3374873605095328   0.23721474355496697   0.18363120873844055
-2.3374873605095328   0.23721474355496697   0.18363120873844055
-4.32122957876872   -0.41458918089255214   -0.18017365939774976
-4.32122957876872   -0.41458918089255214   -0.18017365939774976
-4.32122957876872   -0.41458918089255214   -0.18017365939774976
-4.32122957876872   -0.41458918089255214   -0.18017365939774976
-3.331024970342222   -0.16286090959295507   -0.06739820284325665
-3.331024970342222   -0.16286090959295507   -0.06739820284325665
-3.331024970342222   -0.16286090959295507   -0.06739820284325665
-3.331024970342222   -0.16286090959295507   -0.06739820284325665
-4.207813556242393   -0.14926106905918968   0.12157834140051785
-4.207813556242393   -0.14926106905918968   0.12157834140051785
-4.207813556242393   -0.14926106905918968   0.12157834140051785
-4.207813556242393   -0.14926106905918968   0.12157834140051785
-2.436365934579349   -0.013575919821885551   -0.05997099823378732
-2.436365934579349   -0.013575919821885551   -0.05997099823378732
-2.436365934579349   -0.013575919821885551   -0.05997099823378732
-2.436365934579349   -0.013575919821885551   -0.05997099823378732
-2.307732137522302   0.40963573772674144   0.150640006621167
-2.307732137522302   0.40963573772674144   0.150640006621167
-2.307732137522302   0.40963573772674144   0.150640006621167
-2.307732137522302   0.40963573772674144   0.150640006621167
-4.2632591058213   -0.25166530017466693   -0.21223640128708887
-4.2632591058213   -0.25166530017466693   -0.21223640128708887
-4.2632591058213   -0.25166530017466693   -0.21223640128708887
-4.2632591058213   -0.25166530017466693   -0.21223640128708887
-3.26710722957952   0.006860670918847345   0.005497068633360441
-3.26710722957952   0.006860670918847345   0.005497068633360441
-3.26710722957952   0.006860670918847345   0.005497068633360441
-3.26710722957952   0.006860670918847345   0.005497068633360441
-4.1412558524934   0.035021588703198714   0.11109297647455046
-4.1412558524934   0.035021588703198714   0.11109297647455046
-4.1412558524934   0.035021588703198714   0.11109297647455046
-4.1412558524934   0.035021588703198714   0.11109297647455046
-2.411681604116077   0.14100263558301618   -0.10047422420395796
-2.411681604116077   0.14100263558301618   -0.10047422420395796
-2.411681604116077   0.14100263558301618   -0.10047422420395796
-2.411681604116077   0.14100263558301618   -0.10047422420395796
-2.2789906389604244   0.5931620408625347   0.11991718368999404
-2.2789906389604244   0.5931620408625347   0.11991718368999404
-2.2789906389604244   0.5931620408625347   0.11991718368999404
-2.2789906389604244   0.5931620408625347   0.11991718368999404
-4.2197918955778695   -0.07629449735452798   -0.23464342049945605
-4.2197918955778695   -0.07629449735452798   -0.23464342049945605
-4.2197918955778695   -0.07629449735452798   -0.23464342049945605
-4.2197918955778695   -0.07629449735452798   -0.23464342049945605
-3.242444545810388   0.16630199656404043   0.07481468663765459
-3.242444545810388   0.16630199656404043   0.07481468663765459
-3.242444545810388   0.16630199656404043   0.07481468663765459
-3.242444545810388   0.16630199656404043   0.07481468663765459
-2.5148239685703118   -0.4768166879231578   0.0053576008306598115
-2.5148239685703118   -0.4768166879231578   0.0053576008306598115
-2.5148239685703118   -0.4768166879231578   0.0053576008306598115
-2.5148239685703118   -0.4768166879231578   0.0053576008306598115
-0.6396131550234321   -0.05419082277994663   0.10267590470652084
-0.6396131550234321   -0.05419082277994663   0.10267590470652084
-0.6396131550234321   -0.05419082277994663   0.10267590470652084
-0.6396131550234321   -0.05419082277994663   0.10267590470652084
-0.6236251933321554   0.09914378022385045   0.03501103309969838
-0.6236251933321554   0.09914378022385045   0.03501103309969838
-0.6236251933321554   0.09914378022385045   0.03501103309969838
-0.6236251933321554   0.09914378022385045   0.03501103309969838
-2.4872098069682416   -0.27957608028467823   -0.04819019971547643
-2.4872098069682416   -0.27957608028467823   -0.04819019971547643
-2.4872098069682416   -0.27957608028467823   -0.04819019971547643
-2.4872098069682416   -0.27957608028467823   -0.04819019971547643
-1.5689576184382596   -0.1703044103874666   -0.047823687362564364
-1.5689576184382596   -0.1703044103874666   -0.047823687362564364
-1.5689576184382596   -0.1703044103874666   -0.047823687362564364
-1.5689576184382596   -0.1703044103874666   -0.047823687362564364
-2.4831945291728394   -0.28442522647404567   -0.02326466454909793
-2.4831945291728394   -0.28442522647404567   -0.02326466454909793
-2.4831945291728394   -0.28442522647404567   -0.02326466454909793
-2.4831945291728394   -0.28442522647404567   -0.02326466454909793
-0.6130676494134932   0.11856574812728238   0.06837678478957772
-0.6130676494134932   0.11856574812728238   0.06837678478957772
-0.6130676494134932   0.11856574812728238   0.06837678478957772
-0.6130676494134932   0.11856574812728238   0.06837678478957772
-0.5877115740588016   0.29240164704525873   0.009373723760760622
-0.5877115740588016   0.29240164704525873   0.009373723760760622
-0.5877115740588016   0.29240164704525873   0.009373723760760622
-0.5877115740588016   0.29240164704525873   0.009373723760760622
-2.457435076526391   -0.10564109001143057   -0.08259786066110476
-2.457435076526391   -0.10564109001143057   -0.08259786066110476
-2.457435076526391   -0.10564109001143057   -0.08259786066110476
-2.457435076526391   -0.10564109001143057   -0.08259786066110476
-1.5306086822638973   0.00347064415277204   0.0208321898656718
-1.5306086822638973   0.00347064415277204   0.0208321898656718
-1.5306086822638973   0.00347064415277204   0.0208321898656718
-1.5306086822638973   0.00347064415277204   0.0208321898656718
-2.448332506986971   -0.09178542073967849   -0.05094068223575639
-2.448332506986971   -0.09178542073967849   -0.05094068223575639
-2.448332506986971   -0.09178542073967849   -0.05094068223575639
-2.448332506986971   -0.09178542073967849   -0.05094068223575639
-0.583360265542377   0.2919998558293523   0.03153205755879546
-0.583360265542377   0.2919998558293523   0.03153205755879546
-0.583360265542377   0.2919998558293523   0.03153205755879546
-0.583360265542377   0.2919998558293523   0.03153205755879546
-0.5555275945334182   0.4884614858323527   -0.02083379405935945
-0.5555275945334182   0.4884614858323527   -0.02083379405935945
-0.5555275945334182   0.4884614858323527   -0.02083379405935945
-0.5555275945334182   0.4884614858323527   -0.02083379405935945
-2.4312444179669233   0.07033136967563058   -0.11852104015560433
-2.4312444179669233   0.07033136967563058   -0.11852104015560433
-2.4312444179669233   0.07033136967563058   -0.11852104015560433
-2.4312444179669233   0.07033136967563058   -0.11852104015560433
-1.495588804681791   0.17807664947220875   0.08697434694650152
-1.495588804681791   0.17807664947220875   0.08697434694650152
-1.495588804681791   0.17807664947220875   0.08697434694650152
-1.495588804681791   0.17807664947220875   0.08697434694650152
-0.7926667197204249   -0.5817972611130555   -0.13498548044533976
-0.7926667197204249   -0.5817972611130555   -0.13498548044533976
-0.7926667197204249   -0.5817972611130555   -0.13498548044533976
-0.7926667197204249   -0.5817972611130555   -0.13498548044533976
1.1604877774283213   0.09287554633084766   0.22273694235789482
1.1604877774283213   0.09287554633084766   0.22273694235789482
1.1604877774283213   0.09287554633084766   0.22273694235789482
1.1604877774283213   0.09287554633084766   0.22273694235789482
1.0812246712768214   -0.029071753881993373   -0.12315967691819502
1.0812246712768214   -0.029071753881993373   -0.12315967691819502
1.0812246712768214   -0.029071753881993373   -0.12315967691819502
1.0812246712768214   -0.029071753881993373   -0.12315967691819502
-0.6611575502607816   -0.13559346794551846   0.08208649662593658
-0.6611575502607816   -0.13559346794551846   0.08208649662593658
-0.6611575502607816   -0.13559346794551846   0.08208649662593658
-0.6611575502607816   -0.13559346794551846   0.08208649662593658
0.18959759040145963   -0.15888017669910137   -0.03398443312988381
0.18959759040145963   -0.15888017669910137   -0.03398443312988381
0.18959759040145963   -0.15888017669910137   -0.03398443312988381
0.18959759040145963   -0.15888017669910137   -0.03398443312988381
-0.7650204632160307   -0.40687762718007514   -0.16594390891575198
-0.7650204632160307   -0.40687762718007514   -0.16594390891575198
-0.7650204632160307   -0.40687762718007514   -0.16594390891575198
-0.7650204632160307   -0.40687762718007514   -0.16594390891575198
1.2024370499446428   0.25956187106513184   0.194268591473764
1.2024370499446428   0.25956187106513184   0.194268591473764
1.2024370499446428   0.25956187106513184   0.194268591473764
1.2024370499446428   0.25956187106513184   0.194268591473764
1.1479273791933458   0.1537225005556858   -0.13948003686529392
1.1479273791933458   0.1537225005556858   -0.13948003686529392
1.1479273791933458   0.1537225005556858   -0.13948003686529392
1.1479273791933458   0.1537225005556858   -0.13948003686529392
-0.6352301788531556   0.01995934796505472   0.044222998869199705
-0.6352301788531556   0.01995934796505472   0.044222998869199705
-0.6352301788531556   0.01995934796505472   0.044222998869199705
-0.6352301788531556   0.01995934796505472   0.044222998869199705
0.2250039040965396   -0.0014598431003651213   0.035809934611500525
0.2250039040965396   -0.0014598431003651213   0.035809934611500525
0.2250039040965396   -0.0014598431003651213   0.035809934611500525
0.2250039040965396   -0.0014598431003651213   0.035809934611500525
-0.7354594814191926   -0.23537641449412472   -0.20158775150180824
-0.7354594814191926   -0.23537641449412472   -0.20158775150180824
-0.7354594814191926   -0.23537641449412472   -0.20158775150180824
-0.7354594814191926   -0.23537641449412472   -0.20158775150180824
1.2631982169594056   0.4240997982148954   0.1664968543057806
1.2631982169594056   0.4240997982148954   0.1664968543057806
1.2631982169594056   0.4240997982148954   0.1664968543057806
1.2631982169594056   0.4240997982148954   0.1664968543057806
1.2015931940010016   0.36227916636118096   -0.16106777937400726
1.2015931940010016   0.36227916636118096   -0.16106777937400726
1.2015931940010016   0.36227916636118096   -0.16106777937400726
1.2015931940010016   0.36227916636118096   -0.16106777937400726
-0.6075082034642959   0.19951845692504816   0.008206190193550844
-0.6075082034642959   0.19951845692504816   0.008206190193550844
-0.6075082034642959   0.19951845692504816   0.008206190193550844
-0.6075082034642959   0.19951845692504816   0.008206190193550844
0.2799472044943307   0.1700816277067964   0.10818165221251749
0.2799472044943307   0.1700816277067964   0.10818165221251749
0.2799472044943307   0.1700816277067964   0.10818165221251749
0.2799472044943307   0.1700816277067964   0.10818165221251749
0.9266089552562716   -0.5879276273546513   -0.265853994816838
0.9266089552562716   -0.5879276273546513   -0.265853994816838
0.9266089552562716   -0.5879276273546513   -0.265853994816838
0.9266089552562716   -0.5879276273546513   -0.265853994816838
2.765113280995502   0.2717579120903883   0.2875528191659768
2.765113280995502   0.2717579120903883   0.2875528191659768
2.765113280995502   0.2717579120903883   0.2875528191659768
2.765113280995502   0.2717579120903883   0.2875528191659768
2.7381221206366964   -0.14159146107369114   -0.3498834146372286
2.7381221206366964   -0.14159146107369114   -0.3498834146372286
2.7381221206366964   -0.14159146107369114   -0.3498834146372286
2.7381221206366964   -0.14159146107369114   -0.3498834146372286
1.164111419690057   0.04776312476825789   0.214439186497724
1.164111419690057   0.04776312476825789   0.214439186497724
1.164111419690057   0.04776312476825789   0.214439186497724
1.164111419690057   0.04776312476825789   0.214439186497724
1.7996249730638336   -0.12070750672788322   -0.09421980210683076
1.7996249730638336   -0.12070750672788322   -0.09421980210683076
1.7996249730638336   -0.12070750672788322   -0.09421980210683076
1.7996249730638336   -0.12070750672788322   -0.09421980210683076
0.9521207262940976   -0.49030440679793885   -0.3074467489158685
0.9521207262940976   -0.49030440679793885   -0.3074467489158685
0.9521207262940976   -0.49030440679793885   -0.3074467489158685
0.9521207262940976   -0.49030440679793885   -0.3074467489158685
2.9678024487865646   0.41416570524641333   0.2427610597920546
2.9678024487865646   0.41416570524641333   0.2427610597920546
2.9678024487865646   0.41416570524641333   0.2427610597920546
2.9678024487865646   0.41416570524641333   0.2427610597920546
2.885520374403808   -0.03912310373852723   -0.4193116852878831
2.885520374403808   -0.03912310373852723   -0.4193116852878831
2.885520374403808   -0.03912310373852723   -0.4193116852878831
2.885520374403808   -0.03912310373852723   -0.4193116852878831
1.2030468660611842   0.12280143128793536   0.16703846674163295
1.2030468660611842   0.12280143128793536   0.16703846674163295
1.2030468660611842   0.12280143128793536   0.16703846674163295
1.2030468660611842   0.12280143128793536   0.16703846674163295
1.9490716452976888   -0.017533450773751236   -0.011854313912171205
1.9490716452976888   -0.017533450773751236   -0.011854313912171205
1.9490716452976888   -0.017533450773751236   -0.011854313912171205
1.9490716452976888   -0.017533450773751236   -0.011854313912171205
0.9928079035591442   -0.40506186978833997   -0.35629304469228296
0.9928079035591442   -0.40506186978833997   -0.35629304469228296
0.9928079035591442   -0.40506186978833997   -0.35629304469228296
0.9928079035591442   -0.40506186978833997   -0.35629304469228296
3.1141648900254637   0.5071457504573728   0.17764203862454028
3.1141648900254637   0.5071457504573728   0.17764203862454028
3.1141648900254637   0.5071457504573728   0.17764203862454028
3.1141648900254637   0.5071457504573728   0.17764203862454028
3.1115396596825886   0.18611741098681978   -0.44858408127294047
3.1115396596825886   0.18611741098681978   -0.44858408127294047
3.1115396596825886   0.18611741098681978   -0.44858408127294047
3.1115396596825886   0.18611741098681978   -0.44858408127294047
1.242911870369828   0.27515428623867744   0.1326504825926215
1.242911870369828   0.27515428623867744   0.1326504825926215
1.242911870369828   0.27515428623867744   0.1326504825926215
1.242911870369828   0.27515428623867744   0.1326504825926215
2.0227199893067374   0.09643053718971129   0.05879814809765921
2.0227199893067374   0.09643053718971129   0.05879814809765921
2.0227199893067374   0.09643053718971129   0.05879814809765921
2.0227199893067374   0.09643053718971129   0.05879814809765921
-3.707241004508076   -0.06427342756661636   0.35872555856738075
-3.707241004508076   -0.06427342756661636   0.35872555856738075
-3.707241004508076   -0.06427342756661636   0.35872555856738075
-3.707241004508076   -0.06427342756661636   0.35872555856738075
-2.8825253212065123   -0.3643324004642269   -0.17818711241715554
-2.8825253212065123   -0.3643324004642269   -0.17818711241715554
-2.8825253212065123   -0.3643324004642269   -0.17818711241715554
-2.8825253212065123   -0.3643324004642269   -0.17818711241715554
-2.6095680839515607   0.30941669248748727   0.3069598142417084
-2.6095680839515607   0.30941669248748727   0.3069598142417084
-2.6095680839515607   0.30941669248748727   0.3069598142417084
-2.6095680839515607   0.30941669248748727   0.3069598142417084
-3.6911270565325665   -0.401732937691414   -0.24224750911763848
-3.6911270565325665   -0.401732937691414   -0.24224750911763848
-3.6911270565325665   -0.401732937691414   -0.24224750911763848
-3.6911270565325665   -0.401732937691414   -0.24224750911763848
-3.098846057936256   -0.08576114133270352   -0.04416917617445554
-3.098846057936256   -0.08576114133270352   -0.04416917617445554
-3.098846057936256   -0.08576114133270352   -0.04416917617445554
-3.098846057936256   -0.08576114133270352   -0.04416917617445554
-3.4646391440188586   0.14558528398131976   0.34287383177816855
-3.4646391440188586   0.14558528398131976   0.34287383177816855
-3.4646391440188586   0.14558528398131976   0.34287383177816855
-3.4646391440188586   0.14558528398131976   0.34287383177816855
-2.8204038319064653   -0.2222493646264152   -0.21555286841886773
-2.8204038319064653   -0.2222493646264152   -0.21555286841886773
-2.8204038319064653   -0.2222493646264152   -0.21555286841886773
-2.8204038319064653   -0.2222493646264152   -0.21555286841886773
-2.5443329982532266   0.38949731312811653   0.2597813428870978
-2.5443329982532266   0.38949731312811653   0.2597813428870978
-2.5443329982532266   0.38949731312811653   0.2597813428870978
-2.5443329982532266   0.38949731312811653   0.2597813428870978
-3.522213082763411   -0.31100882557225484   -0.3029152304795255
-3.522213082763411   -0.31100882557225484   -0.3029152304795255
-3.522213082763411   -0.31100882557225484   -0.3029152304795255
-3.522213082763411   -0.31100882557225484   -0.3029152304795255
-3.0105600943739503   0.019168441842402073   0.022647829378889428
-3.0105600943739503   0.019168441842402073   0.022647829378889428
-3.0105600943739503   0.019168441842402073   0.022647829378889428
-3.0105600943739503   0.019168441842402073   0.022647829378889428
-3.2954286153908496   0.24276798107114284   0.27723029973985264
-3.2954286153908496   0.24276798107114284   0.27723029973985264
-3.2954286153908496   0.24276798107114284   0.27723029973985264
-3.2954286153908496   0.24276798107114284   0.27723029973985264
-2.756270034555426   -0.14943206244492158   -0.2609744630508445
-2.756270034555426   -0.14943206244492158   -0.2609744630508445
-2.756270034555426   -0.14943206244492158   -0.2609744630508445
-2.756270034555426   -0.14943206244492158   -0.2609744630508445
-2.491342228204327   0.4888366655336108   0.22407274555289547
-2.491342228204327   0.4888366655336108   0.22407274555289547
-2.491342228204327   0.4888366655336108   0.22407274555289547
-2.491342228204327   0.4888366655336108   0.22407274555289547
-3.29521126788108   -0.16584188751941997   -0.35065195990241455
-3.29521126788108   -0.16584188751941997   -0.35065195990241455
-3.29521126788108   -0.16584188751941997   -0.35065195990241455
-3.29521126788108   -0.16584188751941997   -0.35065195990241455
-2.832001448545915   0.12240485229343745   0.10573221656135534
-2.832001448545915   0.12240485229343745   0.10573221656135534
-2.832001448545915   0.12240485229343745   0.10573221656135534
-2.832001448545915   0.12240485229343745   0.10573221656135534
-2.7824881390766296   -0.21068838912595383   0.16835478689398792
-2.7824881390766296   -0.21068838912595383   0.16835478689398792
-2.7824881390766296   -0.21068838912595383   0.16835478689398792
-2.7824881390766296   -0.21068838912595383   0.16835478689398792
-2.0345804421270297   -0.27634447397782336   -0.0528080040154422
-2.0345804421270297   -0.27634447397782336   -0.0528080040154422
-2.0345804421270297   -0.27634447397782336   -0.0528080040154422
-2.0345804421270297   -0.27634447397782336   -0.0528080040154422
-1.8820154408395084   0.14066787133987618   0.1568974638351811
-1.8820154408395084   0.14066787133987618   0.1568974638351811
-1.8820154408395084   0.14066787133987618   0.1568974638351811
-1.8820154408395084   0.14066787133987618   0.1568974638351811
-2.822757826519102   -0.296837560601354   -0.15273464550709576
-2.822757826519102   -0.296837560601354   -0.15273464550709576
-2.822757826519102   -0.296837560601354   -0.15273464550709576
-2.822757826519102   -0.296837560601354   -0.15273464550709576
-2.3736838290046207   -0.14825813993975723   -0.06344335420275105
-2.3736838290046207   -0.14825813993975723   -0.06344335420275105
-2.3736838290046207   -0.14825813993975723   -0.06344335420275105
-2.3736838290046207   -0.14825813993975723   -0.06344335420275105
-2.709703776260209   -0.027591399561757934   0.14328944474771121
-2.709703776260209   -0.027591399561757934   0.14328944474771121
-2.709703776260209   -0.027591399561757934   0.14328944474771121
-2.709703776260209   -0.027591399561757934   0.14328944474771121
-1.9824425916278083   -0.11595139022913731   -0.08861902853730574
-1.9824425916278083   -0.11595139022913731   -0.08861902853730574
-1.9824425916278083   -0.11595139022913731   -0.08861902853730574
-1.9824425916278083   -0.11595139022913731   -0.08861902853730574
-1.8257084512819775   0.30340338277982115   0.1255563589460283
-1.8257084512819775   0.30340338277982115   0.1255563589460283
-1.8257084512819775   0.30340338277982115   0.1255563589460283
-1.8257084512819775   0.30340338277982115   0.1255563589460283
-2.73877483125034   -0.14012776133995797   -0.18280274763034818
-2.73877483125034   -0.14012776133995797   -0.18280274763034818
-2.73877483125034   -0.14012776133995797   -0.18280274763034818
-2.73877483125034   -0.14012776133995797   -0.18280274763034818
-2.2925119146032165   0.008903674824748298   0.006951810677475023
-2.2925119146032165   0.008903674824748298   0.006951810677475023
-2.2925119146032165   0.008903674824748298   0.006951810677475023
-2.2925119146032165   0.008903674824748298   0.006951810677475023
-2.6190964606919565   0.14558898156077704   0.12987236226078736
-2.6190964606919565   0.14558898156077704   0.12987236226078736
-2.6190964606919565   0.14558898156077704   0.12987236226078736
-2.6190964606919565   0.14558898156077704   0.12987236226078736
-1.9308082894636311   0.03226517225580561   -0.12880462143823943
-1.9308082894636311   0.03226517225580561   -0.12880462143823943
-1.9308082894636311   0.03226517225580561   -0.12880462143823943
-1.9308082894636311   0.03226517225580561   -0.12880462143823943
-1.769590251160936   0.4798158536279489   0.09570668999605675
-1.769590251160936   0.4798158536279489   0.09570668999605675
-1.769590251160936   0.4798158536279489   0.09570668999605675
-1.769590251160936   0.4798158536279489   0.09570668999605675
-2.66926846508989   0.0308049694395629   -0.2075267427808404
-2.66926846508989   0.0308049694395629   -0.2075267427808404
-2.66926846508989   0.0308049694395629   -0.2075267427808404
-2.66926846508989   0.0308049694395629   -0.2075267427808404
-2.233732385979781   0.16269905833089066   0.07570815138147649
-2.233732385979781   0.16269905833089066   0.07570815138147649
-2.233732385979781   0.16269905833089066   0.07570815138147649
-2.233732385979781   0.16269905833089066   0.07570815138147649
-2.032398939193037   -0.3474434610165331   0.029198497693193506
-2.032398939193037   -0.3474434610165331   0.029198497693193506
-2.032398939193037   -0.3474434610165331   0.029198497693193506
-2.032398939193037   -0.3474434610165331   0.029198497693193506
-1.1986989400316126   -0.14462486585671386   0.07491788426597601
-1.1986989400316126   -0.14462486585671386   0.07491788426597601
-1.1986989400316126   -0.14462486585671386   0.07491788426597601
-1.1986989400316126   -0.14462486585671386   0.07491788426597601
-1.1565901330126245   -0.0018649696016014294   0.009745679744351407
-1.1565901330126245   -0.0018649696016014294   0.009745679744351407
-1.1565901330126245   -0.0018649696016014294   0.009745679744351407
-1.1565901330126245   -0.0018649696016014294   0.009745679744351407
-1.9768797900967237   -0.15896452691433283   -0.01779188419668594
-1.9768797900967237   -0.15896452691433283   -0.01779188419668594
-1.9768797900967237   -0.15896452691433283   -0.01779188419668594
-1.9768797900967237   -0.15896452691433283   -0.01779188419668594
-1.5936556694163246   -0.15561823457927965   -0.046126370079589474
-1.5936556694163246   -0.15561823457927965   -0.046126370079589474
-1.5936556694163246   -0.15561823457927965   -0.046126370079589474
-1.5936556694163246   -0.15561823457927965   -0.046126370079589474
-1.9746090938332062   -0.16708206972772094   0.0016791399342741126
-1.9746090938332062   -0.16708206972772094   0.0016791399342741126
-1.9746090938332062   -0.16708206972772094   0.0016791399342741126
-1.9746090938332062   -0.16708206972772094   0.0016791399342741126
-1.1463101077144053   0.018803294773530987   0.0404775418603147
-1.1463101077144053   0.018803294773530987   0.0404775418603147
-1.1463101077144053   0.018803294773530987   0.0404775418603147
-1.1463101077144053   0.018803294773530987   0.0404775418603147
-1.0955000902559051   0.180105113306266   -0.015801830343107934
-1.0955000902559051   0.180105113306266   -0.015801830343107934
-1.0955000902559051   0.180105113306266   -0.015801830343107934
-1.0955000902559051   0.180105113306266   -0.015801830343107934
-1.9204789425237894   0.006786088489540376   -0.05167880297276642
-1.9204789425237894   0.006786088489540376   -0.05167880297276642
-1.9204789425237894   0.006786088489540376   -0.05167880297276642
-1.9204789425237894   0.006786088489540376   -0.05167880297276642
-1.5292555011120577   0.008095551087647535   0.022087719525761343
-1.5292555011120577   0.008095551087647535   0.022087719525761343
-1.5292555011120577   0.008095551087647535   0.022087719525761343
-1.5292555011120577   0.008095551087647535   0.022087719525761343
-1.9138818143277356   0.014339766549940458   -0.026246840052904855
-1.9138818143277356   0.014339766549940458   -0.026246840052904855
-1.9138818143277356   0.014339766549940458   -0.026246840052904855
-1.9138818143277356   0.014339766549940458   -0.026246840052904855
-1.0907509960257822   0.1838976576720427   0.004151096441738
-1.0907509960257822   0.1838976576720427   0.004151096441738
-1.0907509960257822   0.1838976576720427   0.004151096441738
-1.0907509960257822   0.1838976576720427   0.004151096441738
-1.0378093584423607   0.36371983663984264   -0.0450137648591063
-1.0378093584423607   0.36371983663984264   -0.0450137648591063
-1.0378093584423607   0.36371983663984264   -0.0450137648591063
-1.0378093584423607   0.36371983663984264   -0.0450137648591063
-1.8674962909560198   0.1738230006970709   -0.0878306560484671
-1.8674962909560198   0.1738230006970709   -0.0878306560484671
-1.8674962909560198   0.1738230006970709   -0.0878306560484671
-1.8674962909560198   0.1738230006970709   -0.0878306560484671
-1.4682966938249336   0.172393817005844   0.0875623345339423
-1.4682966938249336   0.172393817005844   0.0875623345339423
-1.4682966938249336   0.172393817005844   0.0875623345339423
-1.4682966938249336   0.172393817005844   0.0875623345339423
-1.3003785756147341   -0.46622178720884627   -0.1118833722975195
-1.3003785756147341   -0.46622178720884627   -0.1118833722975195
-1.3003785756147341   -0.46622178720884627   -0.1118833722975195
-1.3003785756147341   -0.46622178720884627   -0.1118833722975195
-0.3847027304882366   -0.004733882125592434   0.1965563436929996
-0.3847027304882366   -0.004733882125592434   0.1965563436929996
-0.3847027304882366   -0.004733882125592434   0.1965563436929996
-0.3847027304882366   -0.004733882125592434   0.1965563436929996
-0.43948046316007   -0.13629345089141048   -0.14309050520423502
-0.43948046316007   -0.13629345089141048   -0.14309050520423502
-0.43948046316007   -0.13629345089141048   -0.14309050520423502
-0.43948046316007   -0.13629345089141048   -0.14309050520423502
-1.1393086817865565   -0.017860785677709268   0.11214875195078816
-1.1393086817865565   -0.017860785677709268   0.11214875195078816
-1.1393086817865565   -0.017860785677709268   0.11214875195078816
-1.1393086817865565   -0.017860785677709268   0.11214875195078816
-0.8160045500265108   -0.1494328010398562   -0.03326666255871077
-0.8160045500265108   -0.1494328010398562   -0.03326666255871077
-0.8160045500265108   -0.1494328010398562   -0.03326666255871077
-0.8160045500265108   -0.1494328010398562   -0.03326666255871077
-1.2458797756490032   -0.2972239274634857   -0.1413435755756779
-1.2458797756490032   -0.2972239274634857   -0.1413435755756779
-1.2458797756490032   -0.2972239274634857   -0.1413435755756779
-1.2458797756490032   -0.2972239274634857   -0.1413435755756779
-0.3188359018799831   0.1571431583120059   0.16669569199279058
-0.3188359018799831   0.1571431583120059   0.16669569199279058
-0.3188359018799831   0.1571431583120059   0.16669569199279058
-0.3188359018799831   0.1571431583120059   0.16669569199279058
-0.3504870862494606   0.03585171324618455   -0.16105826732884618
-0.3504870862494606   0.03585171324618455   -0.16105826732884618
-0.3504870862494606   0.03585171324618455   -0.16105826732884618
-0.3504870862494606   0.03585171324618455   -0.16105826732884618
-1.0872170646827326   0.13098576609756463   0.074732644731456
-1.0872170646827326   0.13098576609756463   0.074732644731456
-1.0872170646827326   0.13098576609756463   0.074732644731456
-1.0872170646827326   0.13098576609756463   0.074732644731456
-0.7476474933455636   0.0029253776590028313   0.03620862586900382
-0.7476474933455636   0.0029253776590028313   0.03620862586900382
-0.7476474933455636   0.0029253776590028313   0.03620862586900382
-0.7476474933455636   0.0029253776590028313   0.03620862586900382
-1.1904105733141357   -0.134975964305486   -0.17527316802252396
-1.1904105733141357   -0.134975964305486   -0.17527316802252396
-1.1904105733141357   -0.134975964305486   -0.17527316802252396
-1.1904105733141357   -0.134975964305486   -0.17527316802252396
-0.23419638633425757   0.31491063493303256   0.1413363105603208
-0.23419638633425757   0.31491063493303256   0.1413363105603208
-0.23419638633425757   0.31491063493303256   0.1413363105603208
-0.23419638633425757   0.31491063493303256   0.1413363105603208
-0.27518032416629695   0.22827399170153184   -0.18034401522202953
-0.27518032416629695   0.22827399170153184   -0.18034401522202953
-0.27518032416629695   0.22827399170153184   -0.18034401522202953
-0.27518032416629695   0.22827399170153184   -0.18034401522202953
-1.0338933971452617   0.2996189946523341   0.03866688361389731
-1.0338933971452617   0.2996189946523341   0.03866688361389731
-1.0338933971452617   0.2996189946523341   0.03866688361389731
-1.0338933971452617   0.2996189946523341   0.03866688361389731
-0.6767214645325554   0.16201523672434637   0.10578674775550488
-0.6767214645325554   0.16201523672434637   0.10578674775550488
-0.6767214645325554   0.16201523672434637   0.10578674775550488
-0.6767214645325554   0.16201523672434637   0.10578674775550488
-0.5719388670951997   -0.5016956047120369   -0.24266261675538625
-0.5719388670951997   -0.5016956047120369   -0.24266261675538625
-0.5719388670951997   -0.5016956047120369   -0.24266261675538625
-0.5719388670951997   -0.5016956047120369   -0.24266261675538625
0.23586401813236801   0.15103718428339927   0.29882088211382263
0.23586401813236801   0.15103718428339927   0.29882088211382263
0.23586401813236801   0.15103718428339927   0.29882088211382263
0.23586401813236801   0.15103718428339927   0.29882088211382263
0.2381820764257809   -0.24452873126807406   -0.32109075041965984
0.2381820764257809   -0.24452873126807406   -0.32109075041965984
0.2381820764257809   -0.24452873126807406   -0.32109075041965984
0.2381820764257809   -0.24452873126807406   -0.32109075041965984
-0.3038358649695744   0.15430211802915406   0.2445369168276783
-0.3038358649695744   0.15430211802915406   0.2445369168276783
-0.3038358649695744   0.15430211802915406   0.2445369168276783
-0.3038358649695744   0.15430211802915406   0.2445369168276783
-0.10835104430013223   -0.10561112046137174   -0.05748791964446766
-0.10835104430013223   -0.10561112046137174   -0.05748791964446766
-0.10835104430013223   -0.10561112046137174   -0.05748791964446766
-0.10835104430013223   -0.10561112046137174   -0.05748791964446766
-0.5168035769336813   -0.38708968070731253   -0.27890984425638976
-0.5168035769336813   -0.38708968070731253   -0.27890984425638976
-0.5168035769336813   -0.38708968070731253   -0.27890984425638976
-0.5168035769336813   -0.38708968070731253   -0.27890984425638976
0.4662091434001442   0.31192242247864876   0.26259343070543345
0.4662091434001442   0.31192242247864876   0.26259343070543345
0.4662091434001442   0.31192242247864876   0.26259343070543345
0.4662091434001442   0.31192242247864876   0.26259343070543345
0.4080251365556088   -0.1458501215647814   -0.3811975680163755
0.4080251365556088   -0.1458501215647814   -0.3811975680163755
0.4080251365556088   -0.1458501215647814   -0.3811975680163755
0.4080251365556088   -0.1458501215647814   -0.3811975680163755
-0.24106646428018114   0.2258963399278216   0.19600021583591415
-0.24106646428018114   0.2258963399278216   0.19600021583591415
-0.24106646428018114   0.2258963399278216   0.19600021583591415
-0.24106646428018114   0.2258963399278216   0.19600021583591415
0.031862955961565596   -0.004210588022521089   0.017941825914100352
0.031862955961565596   -0.004210588022521089   0.017941825914100352
0.031862955961565596   -0.004210588022521089   0.017941825914100352
0.031862955961565596   -0.004210588022521089   0.017941825914100352
-0.45110041270372714   -0.3059086292368103   -0.32236455711718404
-0.45110041270372714   -0.3059086292368103   -0.32236455711718404
-0.45110041270372714   -0.3059086292368103   -0.32236455711718404
-0.45110041270372714   -0.3059086292368103   -0.32236455711718404
0.6331100022461704   0.4010057648668457   0.1973708740048055
0.6331100022461704   0.4010057648668457   0.1973708740048055
0.6331100022461704   0.4010057648668457   0.1973708740048055
0.6331100022461704   0.4010057648668457   0.1973708740048055
0.6455168782380438   0.04754359221760452   -0.40800799538089727
0.6455168782380438   0.04754359221760452   -0.40800799538089727
0.6455168782380438   0.04754359221760452   -0.40800799538089727
0.6455168782380438   0.04754359221760452   -0.40800799538089727
-0.1823827984834968   0.3526672531246973   0.15925035176880592
-0.1823827984834968   0.3526672531246973   0.15925035176880592
-0.1823827984834968   0.3526672531246973   0.15925035176880592
-0.1823827984834968   0.3526672531246973   0.15925035176880592
0.1572838779161061   0.10256167731771837   0.09147211445369671
0.1572838779161061   0.10256167731771837   0.09147211445369671
0.1572838779161061   0.10256167731771837   0.09147211445369671
0.1572838779161061   0.10256167731771837   0.09147211445369671
-1.2427628462212432   0.06751239699254163   0.3412743998814174
-1.2427628462212432   0.06751239699254163   0.3412743998814174
-1.2427628462212432   0.06751239699254163   0.3412743998814174
-1.2427628462212432   0.06751239699254163   0.3412743998814174
-1.4598550720315984   -0.4457876891183084   -0.2019529915370665
-1.4598550720315984   -0.4457876891183084   -0.2019529915370665
-1.4598550720315984   -0.4457876891183084   -0.2019529915370665
-1.4598550720315984   -0.4457876891183084   -0.2019529915370665
-1.1654921952536699   0.20777159891788458   0.2796403126498353
-1.1654921952536699   0.20777159891788458   0.2796403126498353
-1.1654921952536699   0.20777159891788458   0.2796403126498353
-1.1654921952536699   0.20777159891788458   0.2796403126498353
-1.206318052027451   -0.2954923545627646   -0.2598662815723579
-1.206318052027451   -0.2954923545627646   -0.2598662815723579
-1.206318052027451   -0.2954923545627646   -0.2598662815723579
-1.206318052027451   -0.2954923545627646   -0.2598662815723579
-1.2359740499418568   -0.09516821308760054   -0.09254607104194691
-1.2359740499418568   -0.09516821308760054   -0.09254607104194691
-1.2359740499418568   -0.09516821308760054   -0.09254607104194691
-1.2359740499418568   -0.09516821308760054   -0.09254607104194691
-0.9811983812709582   0.2522918689282734   0.31794784871906767
-0.9811983812709582   0.2522918689282734   0.31794784871906767
-0.9811983812709582   0.2522918689282734   0.31794784871906767
-0.9811983812709582   0.2522918689282734   0.31794784871906767
-1.3766253880601607   -0.3260261466231513   -0.24222790584158202
-1.3766253880601607   -0.3260261466231513   -0.24222790584158202
-1.3766253880601607   -0.3260261466231513   -0.24222790584158202
-1.3766253880601607   -0.3260261466231513   -0.24222790584158202
-1.0738168262711119   0.28635036765500826   0.23548447916449075
-1.0738168262711119   0.28635036765500826   0.23548447916449075
-1.0738168262711119   0.28635036765500826   0.23548447916449075
-1.0738168262711119   0.28635036765500826   0.23548447916449075
-1.011380749740588   -0.2066881539897594   -0.3240044689796434
-1.011380749740588   -0.2066881539897594   -0.3240044689796434
-1.011380749740588   -0.2066881539897594   -0.3240044689796434
-1.011380749740588   -0.2066881539897594   -0.3240044689796434
-1.0921319927453972   0.005351079168025241   -0.018498140841526123
-1.0921319927453972   0.005351079168025241   -0.018498140841526123
-1.0921319927453972   0.005351079168025241   -0.018498140841526123
-1.0921319927453972   0.005351079168025241   -0.018498140841526123
-0.7848314978702187   0.3478843873156428   0.2541692490667702
-0.7848314978702187   0.3478843873156428   0.2541692490667702
-0.7848314978702187   0.3478843873156428   0.2541692490667702
-0.7848314978702187   0.3478843873156428   0.2541692490667702
-1.2871380420290792   -0.2549941375379743   -0.28977709443234934
-1.2871380420290792   -0.2549941375379743   -0.28977709443234934
-1.2871380420290792   -0.2549941375379743   -0.28977709443234934
-1.2871380420290792   -0.2549941375379743   -0.28977709443234934
-0.9898212267474835   0.4060488071746904   0.2034114724346633
-0.9898212267474835   0.4060488071746904   0.2034114724346633
-0.9898212267474835   0.4060488071746904   0.2034114724346633
-0.9898212267474835   0.4060488071746904   0.2034114724346633
-0.7512374057803038   -0.03785231370436376   -0.3650910498399431
-0.7512374057803038   -0.03785231370436376   -0.3650910498399431
-0.7512374057803038   -0.03785231370436376   -0.3650910498399431
-0.7512374057803038   -0.03785231370436376   -0.3650910498399431
-0.9188381743071617   0.110156889951178   0.06093225000505767
-0.9188381743071617   0.110156889951178   0.06093225000505767
-0.9188381743071617   0.110156889951178   0.06093225000505767
-0.9188381743071617   0.110156889951178   0.06093225000505767
-1.308030582342894   -0.08183045638356767   0.19321222417170006
-1.308030582342894   -0.08183045638356767   0.19321222417170006
-1.308030582342894   -0.08183045638356767   0.19321222417170006
-1.308030582342894   -0.08183045638356767   0.19321222417170006
-1.611972264097538   -0.36354577679164596   -0.07892853287713884
-1.611972264097538   -0.36354577679164596   -0.07892853287713884
-1.611972264097538   -0.36354577679164596   -0.07892853287713884
-1.611972264097538   -0.36354577679164596   -0.07892853287713884
-1.43544261951775   0.037114688500760995   0.12971139300212753
-1.43544261951775   0.037114688500760995   0.12971139300212753
-1.43544261951775   0.037114688500760995   0.12971139300212753
-1.43544261951775   0.037114688500760995   0.12971139300212753
-1.3216604761224142   -0.17356079853699188   -0.11986869423896326
-1.3216604761224142   -0.17356079853699188   -0.11986869423896326
-1.3216604761224142   -0.17356079853699188   -0.11986869423896326
-1.3216604761224142   -0.17356079853699188   -0.11986869423896326
-1.420096915355322   -0.1344125510988491   -0.06555077506448245
-1.420096915355322   -0.1344125510988491   -0.06555077506448245
-1.420096915355322   -0.1344125510988491   -0.06555077506448245
-1.420096915355322   -0.1344125510988491   -0.06555077506448245
-1.2112943348825684   0.08973525792667852   0.16866595549653346
-1.2112943348825684   0.08973525792667852   0.16866595549653346
-1.2112943348825684   0.08973525792667852   0.16866595549653346
-1.2112943348825684   0.08973525792667852   0.16866595549653346
-1.5348680782526642   -0.21524068545799044   -0.11506052671370609
-1.5348680782526642   -0.21524068545799044   -0.11506052671370609
-1.5348680782526642   -0.21524068545799044   -0.11506052671370609
-1.5348680782526642   -0.21524068545799044   -0.11506052671370609
-1.353511818798772   0.19328840780340273   0.09901508563500959
-1.353511818798772   0.19328840780340273   0.09901508563500959
-1.353511818798772   0.19328840780340273   0.09901508563500959
-1.353511818798772   0.19328840780340273   0.09901508563500959
-1.2124869359764399   -0.02276726300576548   -0.1487484387013607
-1.2124869359764399   -0.02276726300576548   -0.1487484387013607
-1.2124869359764399   -0.02276726300576548   -0.1487484387013607
-1.2124869359764399   -0.02276726300576548   -0.1487484387013607
-1.3224112809415896   0.011559339642219502   0.00287395847532268
-1.3224112809415896   0.011559339642219502   0.00287395847532268
-1.3224112809415896   0.011559339642219502   0.00287395847532268
-1.3224112809415896   0.011559339642219502   0.00287395847532268
-1.0967726310429569   0.2552036606830359   0.15185216227723772
-1.0967726310429569   0.2552036606830359   0.15185216227723772
-1.0967726310429569   0.2552036606830359   0.15185216227723772
-1.0967726310429569   0.2552036606830359   0.15185216227723772
-1.45756914746702   -0.07302553962017388   -0.15495761028269983
-1.45756914746702   -0.07302553962017388   -0.15495761028269983
-1.45756914746702   -0.07302553962017388   -0.15495761028269983
-1.45756914746702   -0.07302553962017388   -0.15495761028269983
-1.2712042759931288   0.36589144289171627   0.06984143538304316
-1.2712042759931288   0.36589144289171627   0.06984143538304316
-1.2712042759931288   0.36589144289171627   0.06984143538304316
-1.2712042759931288   0.36589144289171627   0.06984143538304316
-1.1180656557433584   0.14433493691467147   -0.17609680228467597
-1.1180656557433584   0.14433493691467147   -0.17609680228467597
-1.1180656557433584   0.14433493691467147   -0.17609680228467597
-1.1180656557433584   0.14433493691467147   -0.17609680228467597
-1.2300813443752838   0.1620226047359335   0.07241515608472668
-1.2300813443752838   0.1620226047359335   0.07241515608472668
-1.2300813443752838   0.1620226047359335   0.07241515608472668
-1.2300813443752838   0.1620226047359335   0.07241515608472668
-1.5567781344869958   -0.2204375116035261   0.05393384998742097
-1.5567781344869958   -0.2204375116035261   0.05393384998742097
-1.5567781344869958   -0.2204375116035261   0.05393384998742097
-1.5567781344869958   -0.2204375116035261   0.05393384998742097
-1.7642110810179747   -0.22817574331827262   0.047895305731379845
-1.7642110810179747   -0.22817574331827262   0.047895305731379845
-1.7642110810179747   -0.22817574331827262   0.047895305731379845
-1.7642110810179747   -0.22817574331827262   0.047895305731379845
-1.6983076389270184   -0.10302864198896572   -0.01668461073955553
-1.6983076389270184   -0.10302864198896572   -0.01668461073955553
-1.6983076389270184   -0.10302864198896572   -0.01668461073955553
-1.6983076389270184   -0.10302864198896572   -0.01668461073955553
-1.4720444596247901   -0.03162441867337318   0.015441299641062209
-1.4720444596247901   -0.03162441867337318   0.015441299641062209
-1.4720444596247901   -0.03162441867337318   0.015441299641062209
-1.4720444596247901   -0.03162441867337318   0.015441299641062209
-1.6252659691250297   -0.13754261407962737   -0.04336264173000928
-1.6252659691250297   -0.13754261407962737   -0.04336264173000928
-1.6252659691250297   -0.13754261407962737   -0.04336264173000928
-1.6252659691250297   -0.13754261407962737   -0.04336264173000928
-1.473389379859682   -0.0494080100574561   0.02650028985065582
-1.473389379859682   -0.0494080100574561   0.02650028985065582
-1.473389379859682   -0.0494080100574561   0.02650028985065582
-1.473389379859682   -0.0494080100574561   0.02650028985065582
-1.6866643398620118   -0.07494667177477027   0.013449914371298263
-1.6866643398620118   -0.07494667177477027   0.013449914371298263
-1.6866643398620118   -0.07494667177477027   0.013449914371298263
-1.6866643398620118   -0.07494667177477027   0.013449914371298263
-1.612317241965299   0.07026800042383163   -0.04243094385980081
-1.612317241965299   0.07026800042383163   -0.04243094385980081
-1.612317241965299   0.07026800042383163   -0.04243094385980081
-1.612317241965299   0.07026800042383163   -0.04243094385980081
-1.390392229507021   0.12584888314178577   -0.01794744324461918
-1.390392229507021   0.12584888314178577   -0.01794744324461918
-1.390392229507021   0.12584888314178577   -0.01794744324461918
-1.390392229507021   0.12584888314178577   -0.01794744324461918
-1.5354834363950256   0.017473883952283054   0.024134246316577596
-1.5354834363950256   0.017473883952283054   0.024134246316577596
-1.5354834363950256   0.017473883952283054   0.024134246316577596
-1.5354834363950256   0.017473883952283054   0.024134246316577596
-1.3877134528760018   0.12327834302007878   -0.0019830199678619598
-1.3877134528760018   0.12327834302007878   -0.0019830199678619598
-1.3877134528760018   0.12327834302007878   -0.0019830199678619598
-1.3877134528760018   0.12327834302007878   -0.0019830199678619598
-1.6060240004862292   0.08181055865561998   -0.022507294696240146
-1.6060240004862292   0.08181055865561998   -0.022507294696240146
-1.6060240004862292   0.08181055865561998   -0.022507294696240146
-1.6060240004862292   0.08181055865561998   -0.022507294696240146
-1.5299875627188995   0.24457888319575938   -0.07155997179214516
-1.5299875627188995   0.24457888319575938   -0.07155997179214516
-1.5299875627188995   0.24457888319575938   -0.07155997179214516
-1.5299875627188995   0.24457888319575938   -0.07155997179214516
-1.3124652285062706   0.283966528562985   -0.05453841285391817
-1.3124652285062706   0.283966528562985   -0.05453841285391817
-1.3124652285062706   0.283966528562985   -0.05453841285391817
-1.3124652285062706   0.283966528562985   -0.05453841285391817
-1.4497934001382253   0.17276366664767867   0.0884798427051602
-1.4497934001382253   0.17276366664767867   0.0884798427051602
-1.4497934001382253   0.17276366664767867   0.0884798427051602
-1.4497934001382253   0.17276366664767867   0.0884798427051602
-1.815594981479234   -0.3480529908675094   -0.08914694902571044
-1.815594981479234   -0.3480529908675094   -0.08914694902571044
-1.815594981479234   -0.3480529908675094   -0.08914694902571044
-1.815594981479234   -0.3480529908675094   -0.08914694902571044
-1.9286714819708493   -0.09564693756858311   0.16924345200618135
-1.9286714819708493   -0.09564693756858311   0.16924345200618135
-1.9286714819708493   -0.09564693756858311   0.16924345200618135
-1.9286714819708493   -0.09564693756858311   0.16924345200618135
-1.9588747651591927   -0.23715626052670133   -0.1647625389214134
-1.9588747651591927   -0.23715626052670133   -0.1647625389214134
-1.9588747651591927   -0.23715626052670133   -0.1647625389214134
-1.9588747651591927   -0.23715626052670133   -0.1647625389214134
-1.6249614397994923   0.10469780022531827   0.1423199426837915
-1.6249614397994923   0.10469780022531827   0.1423199426837915
-1.6249614397994923   0.10469780022531827   0.1423199426837915
-1.6249614397994923   0.10469780022531827   0.1423199426837915
-1.8245366607656195   -0.1346315328813899   -0.027197232094526666
-1.8245366607656195   -0.1346315328813899   -0.027197232094526666
-1.8245366607656195   -0.1346315328813899   -0.027197232094526666
-1.8245366607656195   -0.1346315328813899   -0.027197232094526666
-1.7344194024409203   -0.1828059118819568   -0.11746615841608582
-1.7344194024409203   -0.1828059118819568   -0.11746615841608582
-1.7344194024409203   -0.1828059118819568   -0.11746615841608582
-1.7344194024409203   -0.1828059118819568   -0.11746615841608582
-1.8386152196450098   0.06114903445334702   0.1382298936694527
-1.8386152196450098   0.06114903445334702   0.1382298936694527
-1.8386152196450098   0.06114903445334702   0.1382298936694527
-1.8386152196450098   0.06114903445334702   0.1382298936694527
-1.8465730529230802   -0.07280003590879386   -0.18484037705998876
-1.8465730529230802   -0.07280003590879386   -0.18484037705998876
-1.8465730529230802   -0.07280003590879386   -0.18484037705998876
-1.8465730529230802   -0.07280003590879386   -0.18484037705998876
-1.5474039530549526   0.24676014585673645   0.10564335525901142
-1.5474039530549526   0.24676014585673645   0.10564335525901142
-1.5474039530549526   0.24676014585673645   0.10564335525901142
-1.5474039530549526   0.24676014585673645   0.10564335525901142
-1.7228001307990606   0.014554530347847927   0.04243013571557423
-1.7228001307990606   0.014554530347847927   0.04243013571557423
-1.7228001307990606   0.014554530347847927   0.04243013571557423
-1.7228001307990606   0.014554530347847927   0.04243013571557423
-1.653481721920024   -0.02734230244842567   -0.150643040761204
-1.653481721920024   -0.02734230244842567   -0.150643040761204
-1.653481721920024   -0.02734230244842567   -0.150643040761204
-1.653481721920024   -0.02734230244842567   -0.150643040761204
-1.7295781007937139   0.21221959566066229   0.1151147520174019
-1.7295781007937139   0.21221959566066229   0.1151147520174019
-1.7295781007937139   0.21221959566066229   0.1151147520174019
-1.7295781007937139   0.21221959566066229   0.1151147520174019
-1.748242589365994   0.10846330008214267   -0.20276239701620447
-1.748242589365994   0.10846330008214267   -0.20276239701620447
-1.748242589365994   0.10846330008214267   -0.20276239701620447
-1.748242589365994   0.10846330008214267   -0.20276239701620447
-1.4696286904631206   0.40533634758771153   0.0694769250947968
-1.4696286904631206   0.40533634758771153   0.0694769250947968
-1.4696286904631206   0.40533634758771153   0.0694769250947968
-1.4696286904631206   0.40533634758771153   0.0694769250947968
-1.6360252667973436   0.16286294033203985   0.10909772038848323
-1.6360252667973436   0.16286294033203985   0.10909772038848323
-1.6360252667973436   0.16286294033203985   0.10909772038848323
-1.6360252667973436   0.16286294033203985   0.10909772038848323
-2.0708386858287566   -0.4145961949183202   -0.22264330993365
-2.0708386858287566   -0.4145961949183202   -0.22264330993365
-2.0708386858287566   -0.4145961949183202   -0.22264330993365
-2.0708386858287566   -0.4145961949183202   -0.22264330993365
-2.2781012719016576   0.03482098689361374   0.3033469785947919
-2.2781012719016576   0.03482098689361374   0.3033469785947919
-2.2781012719016576   0.03482098689361374   0.3033469785947919
-2.2781012719016576   0.03482098689361374   0.3033469785947919
-2.2456147463988936   -0.3421848991167368   -0.29611928747245686
-2.2456147463988936   -0.3421848991167368   -0.29611928747245686
-2.2456147463988936   -0.3421848991167368   -0.29611928747245686
-2.2456147463988936   -0.3421848991167368   -0.29611928747245686
-1.7718956069422052   0.2610408142593188   0.27193617737749054
-1.7718956069422052   0.2610408142593188   0.27193617737749054
-1.7718956069422052   0.2610408142593188   0.27193617737749054
-1.7718956069422052   0.2610408142593188   0.27193617737749054
-2.0080557828063768   -0.08811852177167356   -0.014420643736880415
-2.0080557828063768   -0.08811852177167356   -0.014420643736880415
-2.0080557828063768   -0.08811852177167356   -0.014420643736880415
-2.0080557828063768   -0.08811852177167356   -0.014420643736880415
-1.985768853531759   -0.28189142609251283   -0.25449781521847137
-1.985768853531759   -0.28189142609251283   -0.25449781521847137
-1.985768853531759   -0.28189142609251283   -0.25449781521847137
-1.985768853531759   -0.28189142609251283   -0.25449781521847137
-2.0203171768320214   0.21217166421238354   0.2760119970327527
-2.0203171768320214   0.21217166421238354   0.2760119970327527
-2.0203171768320214   0.21217166421238354   0.2760119970327527
-2.0203171768320214   0.21217166421238354   0.2760119970327527
-2.05246277161939   -0.24613338756879538   -0.35275211430796216
-2.05246277161939   -0.24613338756879538   -0.35275211430796216
-2.05246277161939   -0.24613338756879538   -0.35275211430796216
-2.05246277161939   -0.24613338756879538   -0.35275211430796216
-1.6848074234865857   0.3286884068360203   0.2224993273776691
-1.6848074234865857   0.3286884068360203   0.2224993273776691
-1.6848074234865857   0.3286884068360203   0.2224993273776691
-1.6848074234865857   0.3286884068360203   0.2224993273776691
-1.8764718872952906   0.012137987615399581   0.0525112186019161
-1.8764718872952906   0.012137987615399581   0.0525112186019161
-1.8764718872952906   0.012137987615399581   0.0525112186019161
-1.8764718872952906   0.012137987615399581   0.0525112186019161
-1.8944657863500096   -0.20283698639501474   -0.29426709370843906
-1.8944657863500096   -0.20283698639501474   -0.29426709370843906
-1.8944657863500096   -0.20283698639501474   -0.29426709370843906
-1.8944657863500096   -0.20283698639501474   -0.29426709370843906
-1.8308423531496194   0.2973540612685823   0.21186252920351267
-1.8308423531496194   0.2973540612685823   0.21186252920351267
-1.8308423531496194   0.2973540612685823   0.21186252920351267
-1.8308423531496194   0.2973540612685823   0.21186252920351267
-1.7995460843071351   -0.07967476421837127   -0.38529644912289895
-1.7995460843071351   -0.07967476421837127   -0.38529644912289895
-1.7995460843071351   -0.07967476421837127   -0.38529644912289895
-1.7995460843071351   -0.07967476421837127   -0.38529644912289895
-1.6067029808068978   0.4301275741489773   0.18327137171242816
-1.6067029808068978   0.4301275741489773   0.18327137171242816
-1.6067029808068978   0.4301275741489773   0.18327137171242816
-1.6067029808068978   0.4301275741489773   0.18327137171242816
-1.6981917350167433   0.11253941077152324   0.12977923378026324
-1.6981917350167433   0.11253941077152324   0.12977923378026324
-1.6981917350167433   0.11253941077152324   0.12977923378026324
-1.6981917350167433   0.11253941077152324   0.12977923378026324
1.2508693004915028   0.20300178714848627   0.331270017273683
1.2508693004915028   0.20300178714848627   0.331270017273683
1.2508693004915028   0.20300178714848627   0.331270017273683
1.2508693004915028   0.20300178714848627   0.331270017273683
-0.035361156360204093   -0.5331737730661457   -0.21945900788309464
-0.035361156360204093   -0.5331737730661457   -0.21945900788309464
-0.035361156360204093   -0.5331737730661457   -0.21945900788309464
-0.035361156360204093   -0.5331737730661457   -0.21945900788309464
0.2798586629199291   0.10494344103808657   0.256135981484518
0.2798586629199291   0.10494344103808657   0.256135981484518
0.2798586629199291   0.10494344103808657   0.256135981484518
0.2798586629199291   0.10494344103808657   0.256135981484518
1.3073335708557159   -0.18937368724018572   -0.2743196266860131
1.3073335708557159   -0.18937368724018572   -0.2743196266860131
1.3073335708557159   -0.18937368724018572   -0.2743196266860131
1.3073335708557159   -0.18937368724018572   -0.2743196266860131
0.6377987025316526   -0.1045782350272857   -0.1572997335432511
0.6377987025316526   -0.1045782350272857   -0.1572997335432511
0.6377987025316526   -0.1045782350272857   -0.1572997335432511
0.6377987025316526   -0.1045782350272857   -0.1572997335432511
1.5326785440242903   0.36407210945449175   0.29895944246218253
1.5326785440242903   0.36407210945449175   0.29895944246218253
1.5326785440242903   0.36407210945449175   0.29895944246218253
1.5326785440242903   0.36407210945449175   0.29895944246218253
0.06824295300146661   -0.43477309240647366   -0.2622260346632035
0.06824295300146661   -0.43477309240647366   -0.2622260346632035
0.06824295300146661   -0.43477309240647366   -0.2622260346632035
0.06824295300146661   -0.43477309240647366   -0.2622260346632035
0.3957811872986983   0.1823300572135318   0.2139246499975264
0.3957811872986983   0.1823300572135318   0.2139246499975264
0.3957811872986983   0.1823300572135318   0.2139246499975264
0.3957811872986983   0.1823300572135318   0.2139246499975264
1.5278359056264943   -0.1019172007566615   -0.34357132334265783
1.5278359056264943   -0.1019172007566615   -0.34357132334265783
1.5278359056264943   -0.1019172007566615   -0.34357132334265783
1.5278359056264943   -0.1019172007566615   -0.34357132334265783
0.8366214590501448   -0.007934289033584369   -0.07349371919059987
0.8366214590501448   -0.007934289033584369   -0.07349371919059987
0.8366214590501448   -0.007934289033584369   -0.07349371919059987
0.8366214590501448   -0.007934289033584369   -0.07349371919059987
1.7557917293324339   0.4586711287556976   0.23561946567461978
1.7557917293324339   0.4586711287556976   0.23561946567461978
1.7557917293324339   0.4586711287556976   0.23561946567461978
1.7557917293324339   0.4586711287556976   0.23561946567461978
0.18131405750501134   -0.3647695783866257   -0.3113113633707508
0.18131405750501134   -0.3647695783866257   -0.3113113633707508
0.18131405750501134   -0.3647695783866257   -0.3113113633707508
0.18131405750501134   -0.3647695783866257   -0.3113113633707508
0.5083444119743372   0.3241103172809786   0.18514028733212762
0.5083444119743372   0.3241103172809786   0.18514028733212762
0.5083444119743372   0.3241103172809786   0.18514028733212762
0.5083444119743372   0.3241103172809786   0.18514028733212762
1.8203802497216477   0.09392266538069055   -0.37903027108279835
1.8203802497216477   0.09392266538069055   -0.37903027108279835
1.8203802497216477   0.09392266538069055   -0.37903027108279835
1.8203802497216477   0.09392266538069055   -0.37903027108279835
1.0042915925124065   0.10015007016010238   0.005936828382646128
1.0042915925124065   0.10015007016010238   0.005936828382646128
1.0042915925124065   0.10015007016010238   0.005936828382646128
1.0042915925124065   0.10015007016010238   0.005936828382646128
0.17068653961520988   0.05357735859322728   0.22402834033460228
0.17068653961520988   0.05357735859322728   0.22402834033460228
0.17068653961520988   0.05357735859322728   0.22402834033460228
0.17068653961520988   0.05357735859322728   0.22402834033460228
-1.2013417675252687   -0.4522942276951696   -0.1006035959087749
-1.2013417675252687   -0.4522942276951696   -0.1006035959087749
-1.2013417675252687   -0.4522942276951696   -0.1006035959087749
-1.2013417675252687   -0.4522942276951696   -0.1006035959087749
-1.0018526584439935   -0.06506727857412548   0.10279108789707103
-1.0018526584439935   -0.06506727857412548   0.10279108789707103
-1.0018526584439935   -0.06506727857412548   0.10279108789707103
-1.0018526584439935   -0.06506727857412548   0.10279108789707103
0.18078671793019702   -0.05390468667853058   -0.08037561574749447
0.18078671793019702   -0.05390468667853058   -0.08037561574749447
0.18078671793019702   -0.05390468667853058   -0.08037561574749447
0.18078671793019702   -0.05390468667853058   -0.08037561574749447
-0.47272725764804896   -0.11783342977644413   -0.07583150598067061
-0.47272725764804896   -0.11783342977644413   -0.07583150598067061
-0.47272725764804896   -0.11783342977644413   -0.07583150598067061
-0.47272725764804896   -0.11783342977644413   -0.07583150598067061
0.28989404174777006   0.21247925601433804   0.198777060647502
0.28989404174777006   0.21247925601433804   0.198777060647502
0.28989404174777006   0.21247925601433804   0.198777060647502
0.28989404174777006   0.21247925601433804   0.198777060647502
-1.1010062943588648   -0.32149753336427167   -0.13654683688713803
-1.1010062943588648   -0.32149753336427167   -0.13654683688713803
-1.1010062943588648   -0.32149753336427167   -0.13654683688713803
-1.1010062943588648   -0.32149753336427167   -0.13654683688713803
-0.8960762811021634   0.08480598924055816   0.07270716765610379
-0.8960762811021634   0.08480598924055816   0.07270716765610379
-0.8960762811021634   0.08480598924055816   0.07270716765610379
-0.8960762811021634   0.08480598924055816   0.07270716765610379
0.31251233487666175   0.0886066540897874   -0.10869620898891227
0.31251233487666175   0.0886066540897874   -0.10869620898891227
0.31251233487666175   0.0886066540897874   -0.10869620898891227
0.31251233487666175   0.0886066540897874   -0.10869620898891227
-0.36065425260517964   0.01459439760283629   -0.009014701271389411
-0.36065425260517964   0.01459439760283629   -0.009014701271389411
-0.36065425260517964   0.01459439760283629   -0.009014701271389411
-0.36065425260517964   0.01459439760283629   -0.009014701271389411
0.4261805935657794   0.37030523196020265   0.17794650658626088
0.4261805935657794   0.37030523196020265   0.17794650658626088
0.4261805935657794   0.37030523196020265   0.17794650658626088
0.4261805935657794   0.37030523196020265   0.17794650658626088
-1.000182356427832   -0.18733040526642855   -0.1756868144652528
-1.000182356427832   -0.18733040526642855   -0.1756868144652528
-1.000182356427832   -0.18733040526642855   -0.1756868144652528
-1.000182356427832   -0.18733040526642855   -0.1756868144652528
-0.7897052843463879   0.254031693441738   0.04402660895380896
-0.7897052843463879   0.254031693441738   0.04402660895380896
-0.7897052843463879   0.254031693441738   0.04402660895380896
-0.7897052843463879   0.254031693441738   0.04402660895380896
0.42870141108684784   0.24992964762726486   -0.1388940474516054
0.42870141108684784   0.24992964762726486   -0.1388940474516054
0.42870141108684784   0.24992964762726486   -0.1388940474516054
0.42870141108684784   0.24992964762726486   -0.1388940474516054
-0.23698928741883707   0.16053245861364074   0.06211783402225744
-0.23698928741883707   0.16053245861364074   0.06211783402225744
-0.23698928741883707   0.16053245861364074   0.06211783402225744
-0.23698928741883707   0.16053245861364074   0.06211783402225744
-1.0921628678272715   -0.08728818904099978   0.0802848639270406
-1.0921628678272715   -0.08728818904099978   0.0802848639270406
-1.0921628678272715   -0.08728818904099978   0.0802848639270406
-1.0921628678272715   -0.08728818904099978   0.0802848639270406
-2.3464055170570783   -0.31988939031818847   0.021219095748747488
-2.3464055170570783   -0.31988939031818847   0.021219095748747488
-2.3464055170570783   -0.31988939031818847   0.021219095748747488
-2.3464055170570783   -0.31988939031818847   0.021219095748747488
-2.253507026119194   -0.19986556127657173   -0.04430184688052681
-2.253507026119194   -0.19986556127657173   -0.04430184688052681
-2.253507026119194   -0.19986556127657173   -0.04430184688052681
-2.253507026119194   -0.19986556127657173   -0.04430184688052681
-0.982710444582293   0.08321113701049615   0.05022374162095339
-0.982710444582293   0.08321113701049615   0.05022374162095339
-0.982710444582293   0.08321113701049615   0.05022374162095339
-0.982710444582293   0.08321113701049615   0.05022374162095339
-1.6711455016243721   -0.12016408136894272   -0.04395654200405947
-1.6711455016243721   -0.12016408136894272   -0.04395654200405947
-1.6711455016243721   -0.12016408136894272   -0.04395654200405947
-1.6711455016243721   -0.12016408136894272   -0.04395654200405947
-0.9841478449673696   0.07343018305925963   0.05281769364680587
-0.9841478449673696   0.07343018305925963   0.05281769364680587
-0.9841478449673696   0.07343018305925963   0.05281769364680587
-0.9841478449673696   0.07343018305925963   0.05281769364680587
-2.243568557155906   -0.18158353874712435   -0.01289152459353593
-2.243568557155906   -0.18158353874712435   -0.01289152459353593
-2.243568557155906   -0.18158353874712435   -0.01289152459353593
-2.243568557155906   -0.18158353874712435   -0.01289152459353593
-2.142348853489083   -0.03488800396409919   -0.06967525479198185
-2.142348853489083   -0.03488800396409919   -0.06967525479198185
-2.142348853489083   -0.03488800396409919   -0.06967525479198185
-2.142348853489083   -0.03488800396409919   -0.06967525479198185
-0.877968637411475   0.22974264514575762   0.018308730204345758
-0.877968637411475   0.22974264514575762   0.018308730204345758
-0.877968637411475   0.22974264514575762   0.018308730204345758
-0.877968637411475   0.22974264514575762   0.018308730204345758
-1.5564272300530826   0.02483966700041984   0.023289785424850495
-1.5564272300530826   0.02483966700041984   0.023289785424850495
-1.5564272300530826   0.02483966700041984   0.023289785424850495
-1.5564272300530826   0.02483966700041984   0.023289785424850495
-0.8754548625275362   0.23712491261713847   0.023495337152659376
-0.8754548625275362   0.23712491261713847   0.023495337152659376
-0.8754548625275362   0.23712491261713847   0.023495337152659376
-0.8754548625275362   0.23712491261713847   0.023495337152659376
-2.138096736813394   -0.03550437987585486   -0.047798295501798205
-2.138096736813394   -0.03550437987585486   -0.047798295501798205
-2.138096736813394   -0.03550437987585486   -0.047798295501798205
-2.138096736813394   -0.03550437987585486   -0.047798295501798205
-2.035693226210388   0.13048745966510966   -0.09870575963917708
-2.035693226210388   0.13048745966510966   -0.09870575963917708
-2.035693226210388   0.13048745966510966   -0.09870575963917708
-2.035693226210388   0.13048745966510966   -0.09870575963917708
-0.7776501324018005   0.37670695893771666   -0.01837289681921747
-0.7776501324018005   0.37670695893771666   -0.01837289681921747
-0.7776501324018005   0.37670695893771666   -0.01837289681921747
-0.7776501324018005   0.37670695893771666   -0.01837289681921747
-1.4476258169223546   0.16941926700096738   0.08614459285842888
-1.4476258169223546   0.16941926700096738   0.08614459285842888
-1.4476258169223546   0.16941926700096738   0.08614459285842888
-1.4476258169223546   0.16941926700096738   0.08614459285842888
-2.345576248208277   -0.2264844760686564   -0.06803947425675733
-2.345576248208277   -0.2264844760686564   -0.06803947425675733
-2.345576248208277   -0.2264844760686564   -0.06803947425675733
-2.345576248208277   -0.2264844760686564   -0.06803947425675733
-3.4775073612985716   -0.19552089837463849   0.14099225433927856
-3.4775073612985716   -0.19552089837463849   0.14099225433927856
-3.4775073612985716   -0.19552089837463849   0.14099225433927856
-3.4775073612985716   -0.19552089837463849   0.14099225433927856
-3.476905049545403   -0.33167675527044244   -0.18760922504910127
-3.476905049545403   -0.33167675527044244   -0.18760922504910127
-3.476905049545403   -0.33167675527044244   -0.18760922504910127
-3.476905049545403   -0.33167675527044244   -0.18760922504910127
-2.1276371013380033   0.21352629899387732   0.17165591675497563
-2.1276371013380033   0.21352629899387732   0.17165591675497563
-2.1276371013380033   0.21352629899387732   0.17165591675497563
-2.1276371013380033   0.21352629899387732   0.17165591675497563
-2.8410151543451807   -0.12095886030042446   -0.018353526610802418
-2.8410151543451807   -0.12095886030042446   -0.018353526610802418
-2.8410151543451807   -0.12095886030042446   -0.018353526610802418
-2.8410151543451807   -0.12095886030042446   -0.018353526610802418
-2.2365822115566654   -0.06499917477646916   -0.09454416056797228
-2.2365822115566654   -0.06499917477646916   -0.09454416056797228
-2.2365822115566654   -0.06499917477646916   -0.09454416056797228
-2.2365822115566654   -0.06499917477646916   -0.09454416056797228
-3.360981004528072   -0.0461723467014189   0.10650659146856292
-3.360981004528072   -0.0461723467014189   0.10650659146856292
-3.360981004528072   -0.0461723467014189   0.10650659146856292
-3.360981004528072   -0.0461723467014189   0.10650659146856292
-3.3380111415100346   -0.17423519000513188   -0.20872613559524805
-3.3380111415100346   -0.17423519000513188   -0.20872613559524805
-3.3380111415100346   -0.17423519000513188   -0.20872613559524805
-3.3380111415100346   -0.17423519000513188   -0.20872613559524805
-2.0247303903463876   0.346946867033004   0.13658218992439344
-2.0247303903463876   0.346946867033004   0.13658218992439344
-2.0247303903463876   0.346946867033004   0.13658218992439344
-2.0247303903463876   0.346946867033004   0.13658218992439344
-2.7038507250248927   0.025158655673721442   0.05086494508570946
-2.7038507250248927   0.025158655673721442   0.05086494508570946
-2.7038507250248927   0.025158655673721442   0.05086494508570946
-2.7038507250248927   0.025158655673721442   0.05086494508570946
-2.1300825410737936   0.08370784822103128   -0.12693954490067377
-2.1300825410737936   0.08370784822103128   -0.12693954490067377
-2.1300825410737936   0.08370784822103128   -0.12693954490067377
-2.1300825410737936   0.08370784822103128   -0.12693954490067377
-3.224799316740667   0.09686350284880096   0.08623429539765773
-3.224799316740667   0.09686350284880096   0.08623429539765773
-3.224799316740667   0.09686350284880096   0.08623429539765773
-3.224799316740667   0.09686350284880096   0.08623429539765773
-3.2137008944874386   -0.002296066048756762   -0.22461293906322682
-3.2137008944874386   -0.002296066048756762   -0.22461293906322682
-3.2137008944874386   -0.002296066048756762   -0.22461293906322682
-3.2137008944874386   -0.002296066048756762   -0.22461293906322682
-1.9228800767727767   0.4945846122770776   0.10126283493691168
-1.9228800767727767   0.4945846122770776   0.10126283493691168
-1.9228800767727767   0.4945846122770776   0.10126283493691168
-1.9228800767727767   0.4945846122770776   0.10126283493691168
-2.6005422361526374   0.16169244885666456   0.11298081477227456
-2.6005422361526374   0.16169244885666456   0.11298081477227456
-2.6005422361526374   0.16169244885666456   0.11298081477227456
-2.6005422361526374   0.16169244885666456   0.11298081477227456
-3.572924319026929   -0.32594642065485685   -0.20566701202228937
-3.572924319026929   -0.32594642065485685   -0.20566701202228937
-3.572924319026929   -0.32594642065485685   -0.20566701202228937
-3.572924319026929   -0.32594642065485685   -0.20566701202228937
-4.76501084822719   -0.08147974669558766   0.30373235375771307
-4.76501084822719   -0.08147974669558766   0.30373235375771307
-4.76501084822719   -0.08147974669558766   0.30373235375771307
-4.76501084822719   -0.08147974669558766   0.30373235375771307
-4.696108076286528   -0.43295065730963345   -0.27380871112282557
-4.696108076286528   -0.43295065730963345   -0.27380871112282557
-4.696108076286528   -0.43295065730963345   -0.27380871112282557
-4.696108076286528   -0.43295065730963345   -0.27380871112282557
-3.241107546113641   0.3602709498233947   0.29943058701587133
-3.241107546113641   0.3602709498233947   0.29943058701587133
-3.241107546113641   0.3602709498233947   0.29943058701587133
-3.241107546113641   0.3602709498233947   0.29943058701587133
-3.893573812953803   -0.06881232105976742   0.03151291687064689
-3.893573812953803   -0.06881232105976742   0.03151291687064689
-3.893573812953803   -0.06881232105976742   0.03151291687064689
-3.893573812953803   -0.06881232105976742   0.03151291687064689
-3.4548432175127686   -0.17644275613465643   -0.23253406402169977
-3.4548432175127686   -0.17644275613465643   -0.23253406402169977
-3.4548432175127686   -0.17644275613465643   -0.23253406402169977
-3.4548432175127686   -0.17644275613465643   -0.23253406402169977
-4.476072816031391   0.11006263750437628   0.283354295338775
-4.476072816031391   0.11006263750437628   0.283354295338775
-4.476072816031391   0.11006263750437628   0.283354295338775
-4.476072816031391   0.11006263750437628   0.283354295338775
-4.477251727352307   -0.3394397589535567   -0.32569719770449546
-4.477251727352307   -0.3394397589535567   -0.32569719770449546
-4.477251727352307   -0.3394397589535567   -0.32569719770449546
-4.477251727352307   -0.3394397589535567   -0.32569719770449546
-3.1277244901947983   0.42173297275022537   0.24673895822554648
-3.1277244901947983   0.42173297275022537   0.24673895822554648
-3.1277244901947983   0.42173297275022537   0.24673895822554648
-3.1277244901947983   0.42173297275022537   0.24673895822554648
-3.768195647241094   0.029186172959891343   0.0875275087579353
-3.768195647241094   0.029186172959891343   0.0875275087579353
-3.768195647241094   0.029186172959891343   0.0875275087579353
-3.768195647241094   0.029186172959891343   0.0875275087579353
-3.334983062905012   -0.09950897753189714   -0.2683119550433696
-3.334983062905012   -0.09950897753189714   -0.2683119550433696
-3.334983062905012   -0.09950897753189714   -0.2683119550433696
-3.334983062905012   -0.09950897753189714   -0.2683119550433696
-4.262254747380754   0.18954059858984107   0.22030734460982576
-4.262254747380754   0.18954059858984107   0.22030734460982576
-4.262254747380754   0.18954059858984107   0.22030734460982576
-4.262254747380754   0.18954059858984107   0.22030734460982576
-4.2082264219505925   -0.19942542477534064   -0.3629701817654666
-4.2082264219505925   -0.19942542477534064   -0.3629701817654666
-4.2082264219505925   -0.19942542477534064   -0.3629701817654666
-4.2082264219505925   -0.19942542477534064   -0.3629701817654666
-3.0278943841242385   0.4965674711273609   0.2055560755766554
-3.0278943841242385   0.4965674711273609   0.2055560755766554
-3.0278943841242385   0.4965674711273609   0.2055560755766554
-3.0278943841242385   0.4965674711273609   0.2055560755766554
-3.5367314116531743   0.12121028878210982   0.1661543121104055
-3.5367314116531743   0.12121028878210982   0.1661543121104055
-3.5367314116531743   0.12121028878210982   0.1661543121104055
-3.5367314116531743   0.12121028878210982   0.1661543121104055
3.8054911396789977   0.34533938814963505   0.3322545021566074
3.8054911396789977   0.34533938814963505   0.3322545021566074
3.8054911396789977   0.34533938814963505   0.3322545021566074
3.8054911396789977   0.34533938814963505   0.3322545021566074
1.3963242056312382   -0.6369250659770336   -0.21881165639117742
1.3963242056312382   -0.6369250659770336   -0.21881165639117742
1.3963242056312382   -0.6369250659770336   -0.21881165639117742
1.3963242056312382   -0.6369250659770336   -0.21881165639117742
1.7277296678476979   -0.00257475019817055   0.23927896153208073
1.7277296678476979   -0.00257475019817055   0.23927896153208073
1.7277296678476979   -0.00257475019817055   0.23927896153208073
1.7277296678476979   -0.00257475019817055   0.23927896153208073
3.8765900954410224   -0.09158641837415604   -0.27920047433649325
3.8765900954410224   -0.09158641837415604   -0.27920047433649325
3.8765900954410224   -0.09158641837415604   -0.27920047433649325
3.8765900954410224   -0.09158641837415604   -0.27920047433649325
2.535324947923238   -0.11625540634207265   -0.24580021959067963
2.535324947923238   -0.11625540634207265   -0.24580021959067963
2.535324947923238   -0.11625540634207265   -0.24580021959067963
2.535324947923238   -0.11625540634207265   -0.24580021959067963
4.105071765428299   0.48280180704722914   0.2888196501784782
4.105071765428299   0.48280180704722914   0.2888196501784782
4.105071765428299   0.48280180704722914   0.2888196501784782
4.105071765428299   0.48280180704722914   0.2888196501784782
1.5153222940107802   -0.5608886794691958   -0.2644439783814505
1.5153222940107802   -0.5608886794691958   -0.2644439783814505
1.5153222940107802   -0.5608886794691958   -0.2644439783814505
1.5153222940107802   -0.5608886794691958   -0.2644439783814505
1.859393724651967   0.07260455765266022   0.19747964967872333
1.859393724651967   0.07260455765266022   0.19747964967872333
1.859393724651967   0.07260455765266022   0.19747964967872333
1.859393724651967   0.07260455765266022   0.19747964967872333
4.115369518744864   -0.006066455682215088   -0.3521804727312823
4.115369518744864   -0.006066455682215088   -0.3521804727312823
4.115369518744864   -0.006066455682215088   -0.3521804727312823
4.115369518744864   -0.006066455682215088   -0.3521804727312823
2.78421259418803   -0.02375364775316502   -0.14858860554928996
2.78421259418803   -0.02375364775316502   -0.14858860554928996
2.78421259418803   -0.02375364775316502   -0.14858860554928996
2.78421259418803   -0.02375364775316502   -0.14858860554928996
4.346504068442641   0.5750132170751066   0.2224126030002806
4.346504068442641   0.5750132170751066   0.2224126030002806
4.346504068442641   0.5750132170751066   0.2224126030002806
4.346504068442641   0.5750132170751066   0.2224126030002806
1.6454507800731335   -0.4912835099857152   -0.3083470055770521
1.6454507800731335   -0.4912835099857152   -0.3083470055770521
1.6454507800731335   -0.4912835099857152   -0.3083470055770521
1.6454507800731335   -0.4912835099857152   -0.3083470055770521
1.9908540164131316   0.23805581432623613   0.17116170695344562
1.9908540164131316   0.23805581432623613   0.17116170695344562
1.9908540164131316   0.23805581432623613   0.17116170695344562
1.9908540164131316   0.23805581432623613   0.17116170695344562
4.428693155123506   0.2170294337809674   -0.38005837434879625
4.428693155123506   0.2170294337809674   -0.38005837434879625
4.428693155123506   0.2170294337809674   -0.38005837434879625
4.428693155123506   0.2170294337809674   -0.38005837434879625
2.938987140120976   0.08854934543170934   -0.06422820851162112
2.938987140120976   0.08854934543170934   -0.06422820851162112
2.938987140120976   0.08854934543170934   -0.06422820851162112
2.938987140120976   0.08854934543170934   -0.06422820851162112
1.6589525065037043   0.19280525224267003   0.2645995297514502
1.6589525065037043   0.19280525224267003   0.2645995297514502
1.6589525065037043   0.19280525224267003   0.2645995297514502
1.6589525065037043   0.19280525224267003   0.2645995297514502
-0.8034778842489089   -0.5941065393095827   -0.11445686124928149
-0.8034778842489089   -0.5941065393095827   -0.11445686124928149
-0.8034778842489089   -0.5941065393095827   -0.11445686124928149
-0.8034778842489089   -0.5941065393095827   -0.11445686124928149
-0.5749374938889084   -0.17286165106390267   0.08056377414475051
-0.5749374938889084   -0.17286165106390267   0.08056377414475051
-0.5749374938889084   -0.17286165106390267   0.08056377414475051
-0.5749374938889084   -0.17286165106390267   0.08056377414475051
1.6736039578007176   0.0017052948840823312   -0.03562963378505832
1.6736039578007176   0.0017052948840823312   -0.03562963378505832
1.6736039578007176   0.0017052948840823312   -0.03562963378505832
1.6736039578007176   0.0017052948840823312   -0.03562963378505832
0.46674159781270425   -0.12652335720437438   -0.10507994122118189
0.46674159781270425   -0.12652335720437438   -0.10507994122118189
0.46674159781270425   -0.12652335720437438   -0.10507994122118189
0.46674159781270425   -0.12652335720437438   -0.10507994122118189
1.794068996785105   0.3320892195384518   0.23631163648250925
1.794068996785105   0.3320892195384518   0.23631163648250925
1.794068996785105   0.3320892195384518   0.23631163648250925
1.794068996785105   0.3320892195384518   0.23631163648250925
-0.6857994541361965   -0.49364249698117535   -0.1529651811744326
-0.6857994541361965   -0.49364249698117535   -0.1529651811744326
-0.6857994541361965   -0.49364249698117535   -0.1529651811744326
-0.6857994541361965   -0.49364249698117535   -0.1529651811744326
-0.4522141557176806   -0.03239289867558029   0.05103251777883707
-0.4522141557176806   -0.03239289867558029   0.05103251777883707
-0.4522141557176806   -0.03239289867558029   0.05103251777883707
-0.4522141557176806   -0.03239289867558029   0.05103251777883707
1.8177199597363298   0.12791841007975993   -0.06620302732654637
1.8177199597363298   0.12791841007975993   -0.06620302732654637
1.8177199597363298   0.12791841007975993   -0.06620302732654637
1.8177199597363298   0.12791841007975993   -0.06620302732654637
0.5854338523755686   -0.01542775238378033   -0.041836827617716066
0.5854338523755686   -0.01542775238378033   -0.041836827617716066
0.5854338523755686   -0.01542775238378033   -0.041836827617716066
0.5854338523755686   -0.01542775238378033   -0.041836827617716066
1.9429807506834917   0.47836953878894783   0.20964979870005998
1.9429807506834917   0.47836953878894783   0.20964979870005998
1.9429807506834917   0.47836953878894783   0.20964979870005998
1.9429807506834917   0.47836953878894783   0.20964979870005998
-0.5678369658241325   -0.3732060465440198   -0.18626838488498282
-0.5678369658241325   -0.3732060465440198   -0.18626838488498282
-0.5678369658241325   -0.3732060465440198   -0.18626838488498282
-0.5678369658241325   -0.3732060465440198   -0.18626838488498282
-0.3310893356768896   0.13007279365883617   0.021612429469988613
-0.3310893356768896   0.13007279365883617   0.021612429469988613
-0.3310893356768896   0.13007279365883617   0.021612429469988613
-0.3310893356768896   0.13007279365883617   0.021612429469988613
1.945716697171241   0.2779733710254428   -0.09444244595519899
1.945716697171241   0.2779733710254428   -0.09444244595519899
1.945716697171241   0.2779733710254428   -0.09444244595519899
1.945716697171241   0.2779733710254428   -0.09444244595519899
0.7315020873088539   0.12059051677782628   0.031928838714511236
0.7315020873088539   0.12059051677782628   0.031928838714511236
0.7315020873088539   0.12059051677782628   0.031928838714511236
0.7315020873088539   0.12059051677782628   0.031928838714511236
-0.6310525887416009   0.04137499299224656   0.11218808398544493
-0.6310525887416009   0.04137499299224656   0.11218808398544493
-0.6310525887416009   0.04137499299224656   0.11218808398544493
-0.6310525887416009   0.04137499299224656   0.11218808398544493
-2.9595008228189763   -0.5239929129593958   -0.014752800828051423
-2.9595008228189763   -0.5239929129593958   -0.014752800828051423
-2.9595008228189763   -0.5239929129593958   -0.014752800828051423
-2.9595008228189763   -0.5239929129593958   -0.014752800828051423
-2.8137217957017757   -0.3069678520009389   -0.06965985231673899
-2.8137217957017757   -0.3069678520009389   -0.06965985231673899
-2.8137217957017757   -0.3069678520009389   -0.06965985231673899
-2.8137217957017757   -0.3069678520009389   -0.06965985231673899
-0.5264125068587444   0.07545794678415647   0.0748691114474962
-0.5264125068587444   0.07545794678415647   0.0748691114474962
-0.5264125068587444   0.07545794678415647   0.0748691114474962
-0.5264125068587444   0.07545794678415647   0.0748691114474962
-1.7357522600980673   -0.16140018738446904   -0.06552277704800971
-1.7357522600980673   -0.16140018738446904   -0.06552277704800971
-1.7357522600980673   -0.16140018738446904   -0.06552277704800971
-1.7357522600980673   -0.16140018738446904   -0.06552277704800971
-0.502291463266683   0.18619720015651875   0.08473507603545641
-0.502291463266683   0.18619720015651875   0.08473507603545641
-0.502291463266683   0.18619720015651875   0.08473507603545641
-0.502291463266683   0.18619720015651875   0.08473507603545641
-2.8315033423284324   -0.41136760840789366   -0.05416782904306645
-2.8315033423284324   -0.41136760840789366   -0.05416782904306645
-2.8315033423284324   -0.41136760840789366   -0.05416782904306645
-2.8315033423284324   -0.41136760840789366   -0.05416782904306645
-2.678511479413185   -0.15285453078600775   -0.09413430745277135
-2.678511479413185   -0.15285453078600775   -0.09413430745277135
-2.678511479413185   -0.15285453078600775   -0.09413430745277135
-2.678511479413185   -0.15285453078600775   -0.09413430745277135
-0.40693401598434037   0.20291992659816405   0.04212039117180956
-0.40693401598434037   0.20291992659816405   0.04212039117180956
-0.40693401598434037   0.20291992659816405   0.04212039117180956
-0.40693401598434037   0.20291992659816405   0.04212039117180956
-1.5994168177830435   -0.03242166366756538   -0.0010488893038905767
-1.5994168177830435   -0.03242166366756538   -0.0010488893038905767
-1.5994168177830435   -0.03242166366756538   -0.0010488893038905767
-1.5994168177830435   -0.03242166366756538   -0.0010488893038905767
-0.37785498713682236   0.3368256013011097   0.053609860706453696
-0.37785498713682236   0.3368256013011097   0.053609860706453696
-0.37785498713682236   0.3368256013011097   0.053609860706453696
-0.37785498713682236   0.3368256013011097   0.053609860706453696
-2.701686513437138   -0.2808562106653479   -0.082007797693198
-2.701686513437138   -0.2808562106653479   -0.082007797693198
-2.701686513437138   -0.2808562106653479   -0.082007797693198
-2.701686513437138   -0.2808562106653479   -0.082007797693198
-2.552681857472744   0.0006794839121582186   -0.12347854687606571
-2.552681857472744   0.0006794839121582186   -0.12347854687606571
-2.552681857472744   0.0006794839121582186   -0.12347854687606571
-2.552681857472744   0.0006794839121582186   -0.12347854687606571
-0.29278935513531357   0.33316898272926676   0.010016143107438286
-0.29278935513531357   0.33316898272926676   0.010016143107438286
-0.29278935513531357   0.33316898272926676   0.010016143107438286
-0.29278935513531357   0.33316898272926676   0.010016143107438286
-1.4741162376203016   0.09605537571868228   0.06033382528830056
-1.4741162376203016   0.09605537571868228   0.06033382528830056
-1.4741162376203016   0.09605537571868228   0.06033382528830056
-1.4741162376203016   0.09605537571868228   0.06033382528830056
-2.883540700001373   -0.11392919743577978   -0.04501590226362659
-2.883540700001373   -0.11392919743577978   -0.04501590226362659
-2.883540700001373   -0.11392919743577978   -0.04501590226362659
-2.883540700001373   -0.11392919743577978   -0.04501590226362659
-5.063771476434214   -0.423490324265795   0.0994081326036842
-5.063771476434214   -0.423490324265795   0.0994081326036842
-5.063771476434214   -0.423490324265795   0.0994081326036842
-5.063771476434214   -0.423490324265795   0.0994081326036842
-4.991540005766334   -0.43554946272776374   -0.2098199874248989
-4.991540005766334   -0.43554946272776374   -0.2098199874248989
-4.991540005766334   -0.43554946272776374   -0.2098199874248989
-4.991540005766334   -0.43554946272776374   -0.2098199874248989
-2.6615195247033583   0.19561800773956983   0.18876564293486528
-2.6615195247033583   0.19561800773956983   0.18876564293486528
-2.6615195247033583   0.19561800773956983   0.18876564293486528
-2.6615195247033583   0.19561800773956983   0.18876564293486528
-3.873101150561264   -0.1696252211565924   -0.022760599789962283
-3.873101150561264   -0.1696252211565924   -0.022760599789962283
-3.873101150561264   -0.1696252211565924   -0.022760599789962283
-3.873101150561264   -0.1696252211565924   -0.022760599789962283
-2.743534330237619   0.042397995386321274   -0.0680883723831894
-2.743534330237619   0.042397995386321274   -0.0680883723831894
-2.743534330237619   0.042397995386321274   -0.0680883723831894
-2.743534330237619   0.042397995386321274   -0.0680883723831894
-4.909415554948462   -0.2822198050908967   0.04747260902763681
-4.909415554948462   -0.2822198050908967   0.04747260902763681
-4.909415554948462   -0.2822198050908967   0.04747260902763681
-4.909415554948462   -0.2822198050908967   0.04747260902763681
-4.815127468087674   -0.2848610759174445   -0.23206044708656268
-4.815127468087674   -0.2848610759174445   -0.23206044708656268
-4.815127468087674   -0.2848610759174445   -0.23206044708656268
-4.815127468087674   -0.2848610759174445   -0.23206044708656268
-2.535505185430447   0.31728108971402746   0.15076154196091177
-2.535505185430447   0.31728108971402746   0.15076154196091177
-2.535505185430447   0.31728108971402746   0.15076154196091177
-2.535505185430447   0.31728108971402746   0.15076154196091177
-3.6939231783811826   -0.02699804887127455   0.04179779061363362
-3.6939231783811826   -0.02699804887127455   0.04179779061363362
-3.6939231783811826   -0.02699804887127455   0.04179779061363362
-3.6939231783811826   -0.02699804887127455   0.04179779061363362
-2.6124878922522985   0.18225395681673007   -0.0991248592510652
-2.6124878922522985   0.18225395681673007   -0.0991248592510652
-2.6124878922522985   0.18225395681673007   -0.0991248592510652
-2.6124878922522985   0.18225395681673007   -0.0991248592510652
-4.734293953359017   -0.14598313511334415   0.03322918575262382
-4.734293953359017   -0.14598313511334415   0.03322918575262382
-4.734293953359017   -0.14598313511334415   0.03322918575262382
-4.734293953359017   -0.14598313511334415   0.03322918575262382
-4.657354526981843   -0.12134659812102666   -0.24391876684454306
-4.657354526981843   -0.12134659812102666   -0.24391876684454306
-4.657354526981843   -0.12134659812102666   -0.24391876684454306
-4.657354526981843   -0.12134659812102666   -0.24391876684454306
-2.413452552620154   0.4512810205798313   0.12206644071923467
-2.413452552620154   0.4512810205798313   0.12206644071923467
-2.413452552620154   0.4512810205798313   0.12206644071923467
-2.413452552620154   0.4512810205798313   0.12206644071923467
-3.5719181629061207   0.09510881668164106   0.0975516210514761
-3.5719181629061207   0.09510881668164106   0.0975516210514761
-3.5719181629061207   0.09510881668164106   0.0975516210514761
-3.5719181629061207   0.09510881668164106   0.0975516210514761
-5.085957303870812   -0.24451481195406233   -0.19049651689103891
-5.085957303870812   -0.24451481195406233   -0.19049651689103891
-5.085957303870812   -0.24451481195406233   -0.19049651689103891
-5.085957303870812   -0.24451481195406233   -0.19049651689103891
-7.243619685377349   -0.2604737128406134   0.3304224546405429
-7.243619685377349   -0.2604737128406134   0.3304224546405429
-7.243619685377349   -0.2604737128406134   0.3304224546405429
-7.243619685377349   -0.2604737128406134   0.3304224546405429
-7.100949061659524   -0.521890977715503   -0.2515375351327338
-7.100949061659524   -0.521890977715503   -0.2515375351327338
-7.100949061659524   -0.521890977715503   -0.2515375351327338
-7.100949061659524   -0.521890977715503   -0.2515375351327338
-4.713997518345387   0.40690166489789004   0.33544132205418364
-4.713997518345387   0.40690166489789004   0.33544132205418364
-4.713997518345387   0.40690166489789004   0.33544132205418364
-4.713997518345387   0.40690166489789004   0.33544132205418364
-5.7686013471247035   -0.07138665042741876   0.06572251056011241
-5.7686013471247035   -0.07138665042741876   0.06572251056011241
-5.7686013471247035   -0.07138665042741876   0.06572251056011241
-5.7686013471247035   -0.07138665042741876   0.06572251056011241
-4.920366905440501   -0.07780652429153845   -0.2116974242319345
-4.920366905440501   -0.07780652429153845   -0.2116974242319345
-4.920366905440501   -0.07780652429153845   -0.2116974242319345
-4.920366905440501   -0.07780652429153845   -0.2116974242319345
-6.891357683373357   -0.03396079733502866   0.30848917591756053
-6.891357683373357   -0.03396079733502866   0.30848917591756053
-6.891357683373357   -0.03396079733502866   0.30848917591756053
-6.891357683373357   -0.03396079733502866   0.30848917591756053
-6.834882861579215   -0.42826098065218776   -0.29607243740210265
-6.834882861579215   -0.42826098065218776   -0.29607243740210265
-6.834882861579215   -0.42826098065218776   -0.29607243740210265
-6.834882861579215   -0.42826098065218776   -0.29607243740210265
-4.565687858399418   0.46467868006804247   0.2655978453692336
-4.565687858399418   0.46467868006804247   0.2655978453692336
-4.565687858399418   0.46467868006804247   0.2655978453692336
-4.565687858399418   0.46467868006804247   0.2655978453692336
-5.629595103976978   0.03073646783736428   0.11974796698648615
-5.629595103976978   0.03073646783736428   0.11974796698648615
-5.629595103976978   0.03073646783736428   0.11974796698648615
-5.629595103976978   0.03073646783736428   0.11974796698648615
-4.760339199063159   -0.0022781635373685383   -0.24070201434406224
-4.760339199063159   -0.0022781635373685383   -0.24070201434406224
-4.760339199063159   -0.0022781635373685383   -0.24070201434406224
-4.760339199063159   -0.0022781635373685383   -0.24070201434406224
-6.637058546842415   0.04186883702626498   0.2229193186033427
-6.637058546842415   0.04186883702626498   0.2229193186033427
-6.637058546842415   0.04186883702626498   0.2229193186033427
-6.637058546842415   0.04186883702626498   0.2229193186033427
-6.544599877512601   -0.3153112530130664   -0.33713205173711885
-6.544599877512601   -0.3153112530130664   -0.33713205173711885
-6.544599877512601   -0.3153112530130664   -0.33713205173711885
-6.544599877512601   -0.3153112530130664   -0.33713205173711885
-4.435093281695166   0.51981242863313   0.2262284328346889
-4.435093281695166   0.51981242863313   0.2262284328346889
-4.435093281695166   0.51981242863313   0.2262284328346889
-4.435093281695166   0.51981242863313   0.2262284328346889
-5.3375103490575215   0.11584859378801715   0.200898696491968
-5.3375103490575215   0.11584859378801715   0.200898696491968
-5.3375103490575215   0.11584859378801715   0.200898696491968
-5.3375103490575215   0.11584859378801715   0.200898696491968
6.412517114234126   0.4784753017095532   0.34199727343886943
6.412517114234126   0.4784753017095532   0.34199727343886943
6.412517114234126   0.4784753017095532   0.34199727343886943
6.412517114234126   0.4784753017095532   0.34199727343886943
2.8324363711169336   -0.7595102609224691   -0.1561808173665154
2.8324363711169336   -0.7595102609224691   -0.1561808173665154
2.8324363711169336   -0.7595102609224691   -0.1561808173665154
2.8324363711169336   -0.7595102609224691   -0.1561808173665154
3.1615530723099803   -0.1316978146927814   0.23527956720142146
3.1615530723099803   -0.1316978146927814   0.23527956720142146
3.1615530723099803   -0.1316978146927814   0.23527956720142146
3.1615530723099803   -0.1316978146927814   0.23527956720142146
6.485150348492606   -0.01624089375380211   -0.2454745345254386
6.485150348492606   -0.01624089375380211   -0.2454745345254386
6.485150348492606   -0.01624089375380211   -0.2454745345254386
6.485150348492606   -0.01624089375380211   -0.2454745345254386
4.446083767193491   -0.13654663336042927   -0.3493156385326826
4.446083767193491   -0.13654663336042927   -0.3493156385326826
4.446083767193491   -0.13654663336042927   -0.3493156385326826
4.446083767193491   -0.13654663336042927   -0.3493156385326826
6.712463419070824   0.5886652717845557   0.28618465282726385
6.712463419070824   0.5886652717845557   0.28618465282726385
6.712463419070824   0.5886652717845557   0.28618465282726385
6.712463419070824   0.5886652717845557   0.28618465282726385
2.9560292568501176   -0.7148147251127833   -0.20922259967785645
2.9560292568501176   -0.7148147251127833   -0.20922259967785645
2.9560292568501176   -0.7148147251127833   -0.20922259967785645
2.9560292568501176   -0.7148147251127833   -0.20922259967785645
3.290988374246865   -0.06243041179545561   0.19038089120051452
3.290988374246865   -0.06243041179545561   0.19038089120051452
3.290988374246865   -0.06243041179545561   0.19038089120051452
3.290988374246865   -0.06243041179545561   0.19038089120051452
6.710249261880782   0.06020936276336619   -0.3071792630890216
6.710249261880782   0.06020936276336619   -0.3071792630890216
6.710249261880782   0.06020936276336619   -0.3071792630890216
6.710249261880782   0.06020936276336619   -0.3071792630890216
4.728019717245028   -0.05468177637067262   -0.23733481791138433
4.728019717245028   -0.05468177637067262   -0.23733481791138433
4.728019717245028   -0.05468177637067262   -0.23733481791138433
4.728019717245028   -0.05468177637067262   -0.23733481791138433
6.936296058546952   0.6710064695212489   0.21225761348394914
6.936296058546952   0.6710064695212489   0.21225761348394914
6.936296058546952   0.6710064695212489   0.21225761348394914
6.936296058546952   0.6710064695212489   0.21225761348394914
3.084053843366584   -0.6541152527674483   -0.2526069222288975
3.084053843366584   -0.6541152527674483   -0.2526069222288975
3.084053843366584   -0.6541152527674483   -0.2526069222288975
3.084053843366584   -0.6541152527674483   -0.2526069222288975
3.4081442295545754   0.1223135425002253   0.16691109481642447
3.4081442295545754   0.1223135425002253   0.16691109481642447
3.4081442295545754   0.1223135425002253   0.16691109481642447
3.4081442295545754   0.1223135425002253   0.16691109481642447
6.986834999363337   0.2837481409520817   -0.32184269169456536
6.986834999363337   0.2837481409520817   -0.32184269169456536
6.986834999363337   0.2837481409520817   -0.32184269169456536
6.986834999363337   0.2837481409520817   -0.32184269169456536
4.834893309532314   0.05525571308829724   -0.15957052314753165
4.834893309532314   0.05525571308829724   -0.15957052314753165
4.834893309532314   0.05525571308829724   -0.15957052314753165
4.834893309532314   0.05525571308829724   -0.15957052314753165
3.133635353490829   0.278556872670261   0.31174696091019966
3.133635353490829   0.278556872670261   0.31174696091019966
3.133635353490829   0.278556872670261   0.31174696091019966
3.133635353490829   0.278556872670261   0.31174696091019966
-0.3798303775874224   -0.9375622418406376   -0.08867776098904553
-0.3798303775874224   -0.9375622418406376   -0.08867776098904553
-0.3798303775874224   -0.9375622418406376   -0.08867776098904553
-0.3798303775874224   -0.9375622418406376   -0.08867776098904553
-0.09559537849465011   -0.3289796417346689   0.08014501941655303
-0.09559537849465011   -0.3289796417346689   0.08014501941655303
-0.09559537849465011   -0.3289796417346689   0.08014501941655303
-0.09559537849465011   -0.3289796417346689   0.08014501941655303
3.1079028558573394   -0.17956988460052137   0.014900554845958314
3.1079028558573394   -0.17956988460052137   0.014900554845958314
3.1079028558573394   -0.17956988460052137   0.014900554845958314
3.1079028558573394   -0.17956988460052137   0.014900554845958314
1.4025069967316233   -0.26327299792008946   -0.16730958416070582
1.4025069967316233   -0.26327299792008946   -0.16730958416070582
1.4025069967316233   -0.26327299792008946   -0.16730958416070582
1.4025069967316233   -0.26327299792008946   -0.16730958416070582
3.272812948895609   0.3838743724561907   0.27600676298059257
3.272812948895609   0.3838743724561907   0.27600676298059257
3.272812948895609   0.3838743724561907   0.27600676298059257
3.272812948895609   0.3838743724561907   0.27600676298059257
-0.24910269121834597   -0.8810211184768078   -0.13535006745978756
-0.24910269121834597   -0.8810211184768078   -0.13535006745978756
-0.24910269121834597   -0.8810211184768078   -0.13535006745978756
-0.24910269121834597   -0.8810211184768078   -0.13535006745978756
0.036435204252833385   -0.20526654747052953   0.049156940405502524
0.036435204252833385   -0.20526654747052953   0.049156940405502524
0.036435204252833385   -0.20526654747052953   0.049156940405502524
0.036435204252833385   -0.20526654747052953   0.049156940405502524
3.242904644682506   -0.08631965943992537   -0.026148508976810314
3.242904644682506   -0.08631965943992537   -0.026148508976810314
3.242904644682506   -0.08631965943992537   -0.026148508976810314
3.242904644682506   -0.08631965943992537   -0.026148508976810314
1.5174851766561965   -0.18738401796376947   -0.10861114761829194
1.5174851766561965   -0.18738401796376947   -0.10861114761829194
1.5174851766561965   -0.18738401796376947   -0.10861114761829194
1.5174851766561965   -0.18738401796376947   -0.10861114761829194
3.416674354851856   0.510188309211814   0.24619207321819825
3.416674354851856   0.510188309211814   0.24619207321819825
3.416674354851856   0.510188309211814   0.24619207321819825
3.416674354851856   0.510188309211814   0.24619207321819825
-0.13062221410593922   -0.795062224311692   -0.196334474547198
-0.13062221410593922   -0.795062224311692   -0.196334474547198
-0.13062221410593922   -0.795062224311692   -0.196334474547198
-0.13062221410593922   -0.795062224311692   -0.196334474547198
0.1400286604577135   -0.060715163739724735   0.0178029169322454
0.1400286604577135   -0.060715163739724735   0.0178029169322454
0.1400286604577135   -0.060715163739724735   0.0178029169322454
0.1400286604577135   -0.060715163739724735   0.0178029169322454
3.3441202211173775   0.03239599271323179   -0.06329139758260285
3.3441202211173775   0.03239599271323179   -0.06329139758260285
3.3441202211173775   0.03239599271323179   -0.06329139758260285
3.3441202211173775   0.03239599271323179   -0.06329139758260285
1.6574973286594863   -0.07400586525347558   -0.045850961416538175
1.6574973286594863   -0.07400586525347558   -0.045850961416538175
1.6574973286594863   -0.07400586525347558   -0.045850961416538175
1.6574973286594863   -0.07400586525347558   -0.045850961416538175
-0.12844768690375455   0.07608580375582503   0.15458764683283094
-0.12844768690375455   0.07608580375582503   0.15458764683283094
-0.12844768690375455   0.07608580375582503   0.15458764683283094
-0.12844768690375455   0.07608580375582503   0.15458764683283094
-3.5676455380379295   -1.17846786734308   -0.07180916116747277
-3.5676455380379295   -1.17846786734308   -0.07180916116747277
-3.5676455380379295   -1.17846786734308   -0.07180916116747277
-3.5676455380379295   -1.17846786734308   -0.07180916116747277
-3.279162292396175   -0.505044932336616   -0.07489549861893524
-3.279162292396175   -0.505044932336616   -0.07489549861893524
-3.279162292396175   -0.505044932336616   -0.07489549861893524
-3.279162292396175   -0.505044932336616   -0.07489549861893524
-0.11457993403760379   -0.4130351467682751   0.06927774673539071
-0.11457993403760379   -0.4130351467682751   0.06927774673539071
-0.11457993403760379   -0.4130351467682751   0.06927774673539071
-0.11457993403760379   -0.4130351467682751   0.06927774673539071
-1.7806823169678292   -0.47806954833403587   -0.1496862387972908
-1.7806823169678292   -0.47806954833403587   -0.1496862387972908
-1.7806823169678292   -0.47806954833403587   -0.1496862387972908
-1.7806823169678292   -0.47806954833403587   -0.1496862387972908
0.018160005219830355   0.1944892384677321   0.12545305778655425
0.018160005219830355   0.1944892384677321   0.12545305778655425
0.018160005219830355   0.1944892384677321   0.12545305778655425
0.018160005219830355   0.1944892384677321   0.12545305778655425
-3.4036980795878113   -1.104365165506784   -0.09825420140694689
-3.4036980795878113   -1.104365165506784   -0.09825420140694689
-3.4036980795878113   -1.104365165506784   -0.09825420140694689
-3.4036980795878113   -1.104365165506784   -0.09825420140694689
-3.115472670838261   -0.3676557471038262   -0.10221932248422172
-3.115472670838261   -0.3676557471038262   -0.10221932248422172
-3.115472670838261   -0.3676557471038262   -0.10221932248422172
-3.115472670838261   -0.3676557471038262   -0.10221932248422172
0.00849561205890792   -0.3234844874380659   0.02767691940341159
0.00849561205890792   -0.3234844874380659   0.02767691940341159
0.00849561205890792   -0.3234844874380659   0.02767691940341159
0.00849561205890792   -0.3234844874380659   0.02767691940341159
-1.6217811139042981   -0.37941498111716687   -0.083407611022797
-1.6217811139042981   -0.37941498111716687   -0.083407611022797
-1.6217811139042981   -0.37941498111716687   -0.083407611022797
-1.6217811139042981   -0.37941498111716687   -0.083407611022797
0.15234760328129807   0.32586887486032423   0.09758351321697212
0.15234760328129807   0.32586887486032423   0.09758351321697212
0.15234760328129807   0.32586887486032423   0.09758351321697212
0.15234760328129807   0.32586887486032423   0.09758351321697212
-3.2595515810135907   -1.0172360283551525   -0.17303359210952218
-3.2595515810135907   -1.0172360283551525   -0.17303359210952218
-3.2595515810135907   -1.0172360283551525   -0.17303359210952218
-3.2595515810135907   -1.0172360283551525   -0.17303359210952218
-2.9998395639800286   -0.2368101258280263   -0.1328291908343118
-2.9998395639800286   -0.2368101258280263   -0.1328291908343118
-2.9998395639800286   -0.2368101258280263   -0.1328291908343118
-2.9998395639800286   -0.2368101258280263   -0.1328291908343118
0.08941548297428235   -0.25221970329651655   -0.043758430928118576
0.08941548297428235   -0.25221970329651655   -0.043758430928118576
0.08941548297428235   -0.25221970329651655   -0.043758430928118576
0.08941548297428235   -0.25221970329651655   -0.043758430928118576
-1.5051875861453181   -0.2875558091426268   -0.04212552519137691
-1.5051875861453181   -0.2875558091426268   -0.04212552519137691
-1.5051875861453181   -0.2875558091426268   -0.04212552519137691
-1.5051875861453181   -0.2875558091426268   -0.04212552519137691
-3.3386200662542547   -0.09947633555748492   -0.0056733340347249195
-3.3386200662542547   -0.09947633555748492   -0.0056733340347249195
-3.3386200662542547   -0.09947633555748492   -0.0056733340347249195
-3.3386200662542547   -0.09947633555748492   -0.0056733340347249195
-6.768476598266372   -1.2669947982539265   -0.05822391060482808
-6.768476598266372   -1.2669947982539265   -0.05822391060482808
-6.768476598266372   -1.2669947982539265   -0.05822391060482808
-6.768476598266372   -1.2669947982539265   -0.05822391060482808
-6.457695950368243   -0.6461522348399714   -0.22390914429795675
-6.457695950368243   -0.6461522348399714   -0.22390914429795675
-6.457695950368243   -0.6461522348399714   -0.22390914429795675
-6.457695950368243   -0.6461522348399714   -0.22390914429795675
-3.2193803307114255   -0.428806730248557   0.14777610771672955
-3.2193803307114255   -0.428806730248557   0.14777610771672955
-3.2193803307114255   -0.428806730248557   0.14777610771672955
-3.2193803307114255   -0.428806730248557   0.14777610771672955
-4.902463767643875   -0.5737614456419575   -0.10563117587657041
-4.902463767643875   -0.5737614456419575   -0.10563117587657041
-4.902463767643875   -0.5737614456419575   -0.10563117587657041
-4.902463767643875   -0.5737614456419575   -0.10563117587657041
-3.1578115776729927   0.05330758090894794   -0.026494438248610225
-3.1578115776729927   0.05330758090894794   -0.026494438248610225
-3.1578115776729927   0.05330758090894794   -0.026494438248610225
-3.1578115776729927   0.05330758090894794   -0.026494438248610225
-6.5221543745050194   -1.1311562170957705   -0.0611972827259898
-6.5221543745050194   -1.1311562170957705   -0.0611972827259898
-6.5221543745050194   -1.1311562170957705   -0.0611972827259898
-6.5221543745050194   -1.1311562170957705   -0.0611972827259898
-6.223977912823257   -0.5024634838152024   -0.25948859829218324
-6.223977912823257   -0.5024634838152024   -0.25948859829218324
-6.223977912823257   -0.5024634838152024   -0.25948859829218324
-6.223977912823257   -0.5024634838152024   -0.25948859829218324
-3.060213742287205   -0.32074677165606424   0.12716634482331832
-3.060213742287205   -0.32074677165606424   0.12716634482331832
-3.060213742287205   -0.32074677165606424   0.12716634482331832
-3.060213742287205   -0.32074677165606424   0.12716634482331832
-4.662722016560934   -0.4359231807364967   -0.035316580655914254
-4.662722016560934   -0.4359231807364967   -0.035316580655914254
-4.662722016560934   -0.4359231807364967   -0.035316580655914254
-4.662722016560934   -0.4359231807364967   -0.035316580655914254
-2.9936833505965015   0.1860895455106092   -0.047018013889879307
-2.9936833505965015   0.1860895455106092   -0.047018013889879307
-2.9936833505965015   0.1860895455106092   -0.047018013889879307
-2.9936833505965015   0.1860895455106092   -0.047018013889879307
-6.30201308060822   -1.0208045770761753   -0.131323343955977
-6.30201308060822   -1.0208045770761753   -0.131323343955977
-6.30201308060822   -1.0208045770761753   -0.131323343955977
-6.30201308060822   -1.0208045770761753   -0.131323343955977
-6.03389037353434   -0.3507484645820915   -0.2676431641761935
-6.03389037353434   -0.3507484645820915   -0.2676431641761935
-6.03389037353434   -0.3507484645820915   -0.2676431641761935
-6.03389037353434   -0.3507484645820915   -0.2676431641761935
-2.9686862384962156   -0.25204947609019507   0.03817678684694427
-2.9686862384962156   -0.25204947609019507   0.03817678684694427
-2.9686862384962156   -0.25204947609019507   0.03817678684694427
-2.9686862384962156   -0.25204947609019507   0.03817678684694427
-4.52923347747324   -0.35180171716712305   -0.01250317709414031
-4.52923347747324   -0.35180171716712305   -0.01250317709414031
-4.52923347747324   -0.35180171716712305   -0.01250317709414031
-4.52923347747324   -0.35180171716712305   -0.01250317709414031
-6.5818625555355466   -0.2271970640343648   -0.16495143117026245
-6.5818625555355466   -0.2271970640343648   -0.16495143117026245
-6.5818625555355466   -0.2271970640343648   -0.16495143117026245
-6.5818625555355466   -0.2271970640343648   -0.16495143117026245
-9.923605192595565   -0.8524469827511114   0.37984100994808373
-9.923605192595565   -0.8524469827511114   0.37984100994808373
-9.923605192595565   -0.8524469827511114   0.37984100994808373
-9.923605192595565   -0.8524469827511114   0.37984100994808373
-9.577528567024991   -0.6768184636176988   -0.21962827184440237
-9.577528567024991   -0.6768184636176988   -0.21962827184440237
-9.577528567024991   -0.6768184636176988   -0.21962827184440237
-9.577528567024991   -0.6768184636176988   -0.21962827184440237
-6.1790064396900455   0.17526424457648493   0.3481219296765195
-6.1790064396900455   0.17526424457648493   0.3481219296765195
-6.1790064396900455   0.17526424457648493   0.3481219296765195
-6.1790064396900455   0.17526424457648493   0.3481219296765195
-7.705152241372722   -0.2687599731839707   0.03433267946169
-7.705152241372722   -0.2687599731839707   0.03433267946169
-7.705152241372722   -0.2687599731839707   0.03433267946169
-7.705152241372722   -0.2687599731839707   0.03433267946169
-6.323978364714149   -0.0187312158001125   -0.1827422350673128
-6.323978364714149   -0.0187312158001125   -0.1827422350673128
-6.323978364714149   -0.0187312158001125   -0.1827422350673128
-6.323978364714149   -0.0187312158001125   -0.1827422350673128
-9.409156685882348   -0.4594230471225478   0.4048357173736586
-9.409156685882348   -0.4594230471225478   0.4048357173736586
-9.409156685882348   -0.4594230471225478   0.4048357173736586
-9.409156685882348   -0.4594230471225478   0.4048357173736586
-9.206593696033286   -0.5689325312104807   -0.26155237338951265
-9.206593696033286   -0.5689325312104807   -0.26155237338951265
-9.206593696033286   -0.5689325312104807   -0.26155237338951265
-9.206593696033286   -0.5689325312104807   -0.26155237338951265
-5.947654063535228   0.28311095120469787   0.33655621312805933
-5.947654063535228   0.28311095120469787   0.33655621312805933
-5.947654063535228   0.28311095120469787   0.33655621312805933
-5.947654063535228   0.28311095120469787   0.33655621312805933
-7.483915658190575   -0.10844631691623308   0.15276264836505693
-7.483915658190575   -0.10844631691623308   0.15276264836505693
-7.483915658190575   -0.10844631691623308   0.15276264836505693
-7.483915658190575   -0.10844631691623308   0.15276264836505693
-6.097880194301654   0.06568995492823726   -0.19715344442755667
-6.097880194301654   0.06568995492823726   -0.19715344442755667
-6.097880194301654   0.06568995492823726   -0.19715344442755667
-6.097880194301654   0.06568995492823726   -0.19715344442755667
-9.051787337598935   -0.3469313072660565   0.29047819483774834
-9.051787337598935   -0.3469313072660565   0.29047819483774834
-9.051787337598935   -0.3469313072660565   0.29047819483774834
-9.051787337598935   -0.3469313072660565   0.29047819483774834
-8.823212241103885   -0.46624384098582516   -0.31593395585136647
-8.823212241103885   -0.46624384098582516   -0.31593395585136647
-8.823212241103885   -0.46624384098582516   -0.31593395585136647
-8.823212241103885   -0.46624384098582516   -0.31593395585136647
-5.775356577655486   0.4134237321551517   0.26085361848083205
-5.775356577655486   0.4134237321551517   0.26085361848083205
-5.775356577655486   0.4134237321551517   0.26085361848083205
-5.775356577655486   0.4134237321551517   0.26085361848083205
-7.07297422942991   0.028883038806945205   0.2706612150640405
-7.07297422942991   0.028883038806945205   0.2706612150640405
-7.07297422942991   0.028883038806945205   0.2706612150640405
-7.07297422942991   0.028883038806945205   0.2706612150640405
8.774987246922151   0.5243586275980459   0.32061274943084034
8.774987246922151   0.5243586275980459   0.32061274943084034
8.774987246922151   0.5243586275980459   0.32061274943084034
8.774987246922151   0.5243586275980459   0.32061274943084034
4.187992640605329   -0.7872880842477838   0.07428848499160384
4.187992640605329   -0.7872880842477838   0.07428848499160384
4.187992640605329   -0.7872880842477838   0.07428848499160384
4.187992640605329   -0.7872880842477838   0.07428848499160384
4.421368307114803   -0.3304175736674624   0.24742410728406278
4.421368307114803   -0.3304175736674624   0.24742410728406278
4.421368307114803   -0.3304175736674624   0.24742410728406278
4.421368307114803   -0.3304175736674624   0.24742410728406278
8.822622923802738   0.0699379213321869   -0.06919189963136113
8.822622923802738   0.0699379213321869   -0.06919189963136113
8.822622923802738   0.0699379213321869   -0.06919189963136113
8.822622923802738   0.0699379213321869   -0.06919189963136113
6.172219806533166   -0.17057080499374044   -0.41184114766267965
6.172219806533166   -0.17057080499374044   -0.41184114766267965
6.172219806533166   -0.17057080499374044   -0.41184114766267965
6.172219806533166   -0.17057080499374044   -0.41184114766267965
8.99012439813478   0.5845829181266053   0.2536704752344258
8.99012439813478   0.5845829181266053   0.2536704752344258
8.99012439813478   0.5845829181266053   0.2536704752344258
8.99012439813478   0.5845829181266053   0.2536704752344258
4.294228436855367   -0.8047009663892748   0.0860081487087006
4.294228436855367   -0.8047009663892748   0.0860081487087006
4.294228436855367   -0.8047009663892748   0.0860081487087006
4.294228436855367   -0.8047009663892748   0.0860081487087006
4.51032677628271   -0.2806451165543755   0.18847082592034042
4.51032677628271   -0.2806451165543755   0.18847082592034042
4.51032677628271   -0.2806451165543755   0.18847082592034042
4.51032677628271   -0.2806451165543755   0.18847082592034042
8.978958968024356   0.12614800249999525   -0.019083327431173525
8.978958968024356   0.12614800249999525   -0.019083327431173525
8.978958968024356   0.12614800249999525   -0.019083327431173525
8.978958968024356   0.12614800249999525   -0.019083327431173525
6.428578923160754   -0.13525396999209804   -0.28085507000614224
6.428578923160754   -0.13525396999209804   -0.28085507000614224
6.428578923160754   -0.13525396999209804   -0.28085507000614224
6.428578923160754   -0.13525396999209804   -0.28085507000614224
9.120505604247148   0.6388800459091668   0.1759178102736138
9.120505604247148   0.6388800459091668   0.1759178102736138
9.120505604247148   0.6388800459091668   0.1759178102736138
9.120505604247148   0.6388800459091668   0.1759178102736138
4.396861737718644   -0.7652955623048214   0.10579607885045478
4.396861737718644   -0.7652955623048214   0.10579607885045478
4.396861737718644   -0.7652955623048214   0.10579607885045478
4.396861737718644   -0.7652955623048214   0.10579607885045478
4.640988871941729   -0.08659574935979442   0.1722839841676621
4.640988871941729   -0.08659574935979442   0.1722839841676621
4.640988871941729   -0.08659574935979442   0.1722839841676621
4.640988871941729   -0.08659574935979442   0.1722839841676621
9.14115866720341   0.25401670505391327   -0.0008584109658480998
9.14115866720341   0.25401670505391327   -0.0008584109658480998
9.14115866720341   0.25401670505391327   -0.0008584109658480998
9.14115866720341   0.25401670505391327   -0.0008584109658480998
6.4619947316215445   -0.0634134469715184   -0.20925692792416262
6.4619947316215445   -0.0634134469715184   -0.20925692792416262
6.4619947316215445   -0.0634134469715184   -0.20925692792416262
6.4619947316215445   -0.0634134469715184   -0.20925692792416262
4.41881766341542   0.10677335126382892   0.3343521635304445
4.41881766341542   0.10677335126382892   0.3343521635304445
4.41881766341542   0.10677335126382892   0.3343521635304445
4.41881766341542   0.10677335126382892   0.3343521635304445
0.2442827365326381   -1.5749934177115694   0.16405446923945732
0.2442827365326381   -1.5749934177115694   0.16405446923945732
0.2442827365326381   -1.5749934177115694   0.16405446923945732
0.2442827365326381   -1.5749934177115694   0.16405446923945732
0.5493692872972262   -0.6638768595943056   0.15189924843715064
0.5493692872972262   -0.6638768595943056   0.15189924843715064
0.5493692872972262   -0.6638768595943056   0.15189924843715064
0.5493692872972262   -0.6638768595943056   0.15189924843715064
4.304796123199148   -0.7674676536013674   0.1016132676396509
4.304796123199148   -0.7674676536013674   0.1016132676396509
4.304796123199148   -0.7674676536013674   0.1016132676396509
4.304796123199148   -0.7674676536013674   0.1016132676396509
2.301735439959334   -0.7096532704614189   -0.2650446584769554
2.301735439959334   -0.7096532704614189   -0.2650446584769554
2.301735439959334   -0.7096532704614189   -0.2650446584769554
2.301735439959334   -0.7096532704614189   -0.2650446584769554
4.525075535777611   0.15666089650039616   0.2788817804302749
4.525075535777611   0.15666089650039616   0.2788817804302749
4.525075535777611   0.15666089650039616   0.2788817804302749
4.525075535777611   0.15666089650039616   0.2788817804302749
0.3872202680392299   -1.529875016375588   0.2071523089284661
0.3872202680392299   -1.529875016375588   0.2071523089284661
0.3872202680392299   -1.529875016375588   0.2071523089284661
0.3872202680392299   -1.529875016375588   0.2071523089284661
0.6723703849525113   -0.5730906826006388   0.11053063494961768
0.6723703849525113   -0.5730906826006388   0.11053063494961768
0.6723703849525113   -0.5730906826006388   0.11053063494961768
0.6723703849525113   -0.5730906826006388   0.11053063494961768
4.409927679814473   -0.7202149696279967   0.12604519665277725
4.409927679814473   -0.7202149696279967   0.12604519665277725
4.409927679814473   -0.7202149696279967   0.12604519665277725
4.409927679814473   -0.7202149696279967   0.12604519665277725
2.4067992387676895   -0.6751310372724307   -0.13249274410061163
2.4067992387676895   -0.6751310372724307   -0.13249274410061163
2.4067992387676895   -0.6751310372724307   -0.13249274410061163
2.4067992387676895   -0.6751310372724307   -0.13249274410061163
4.624105836307855   0.24207873548237058   0.23464227400932047
4.624105836307855   0.24207873548237058   0.23464227400932047
4.624105836307855   0.24207873548237058   0.23464227400932047
4.624105836307855   0.24207873548237058   0.23464227400932047
0.5141477687017609   -1.4794288474683719   0.22575571856361376
0.5141477687017609   -1.4794288474683719   0.22575571856361376
0.5141477687017609   -1.4794288474683719   0.22575571856361376
0.5141477687017609   -1.4794288474683719   0.22575571856361376
0.8609323883510882   -0.4368599126689034   0.07361690827276521
0.8609323883510882   -0.4368599126689034   0.07361690827276521
0.8609323883510882   -0.4368599126689034   0.07361690827276521
0.8609323883510882   -0.4368599126689034   0.07361690827276521
4.5251736396972975   -0.6482545817678529   0.15486665535358235
4.5251736396972975   -0.6482545817678529   0.15486665535358235
4.5251736396972975   -0.6482545817678529   0.15486665535358235
4.5251736396972975   -0.6482545817678529   0.15486665535358235
2.589764363190597   -0.5911113369971096   0.021624193275778636
2.589764363190597   -0.5911113369971096   0.021624193275778636
2.589764363190597   -0.5911113369971096   0.021624193275778636
2.589764363190597   -0.5911113369971096   0.021624193275778636
0.5083627611952383   -0.3058434502456042   0.2153046250864933
0.5083627611952383   -0.3058434502456042   0.2153046250864933
0.5083627611952383   -0.3058434502456042   0.2153046250864933
0.5083627611952383   -0.3058434502456042   0.2153046250864933
-3.7337351851452265   -2.710409132205577   0.23595628909590882
-3.7337351851452265   -2.710409132205577   0.23595628909590882
-3.7337351851452265   -2.710409132205577   0.23595628909590882
-3.7337351851452265   -2.710409132205577   0.23595628909590882
-3.2505027838307985   -1.0506382015057065   0.01718532284142822
-3.2505027838307985   -1.0506382015057065   0.01718532284142822
-3.2505027838307985   -1.0506382015057065   0.01718532284142822
-3.2505027838307985   -1.0506382015057065   0.01718532284142822
0.27250578775459744   -1.984160726580373   0.0878656177100886
0.27250578775459744   -1.984160726580373   0.0878656177100886
0.27250578775459744   -1.984160726580373   0.0878656177100886
0.27250578775459744   -1.984160726580373   0.0878656177100886
-1.6004635080829477   -1.5237209866232435   -0.3181330173235704
-1.6004635080829477   -1.5237209866232435   -0.3181330173235704
-1.6004635080829477   -1.5237209866232435   -0.3181330173235704
-1.6004635080829477   -1.5237209866232435   -0.3181330173235704
0.6371553398016744   -0.24262759256206454   0.16958024392716514
0.6371553398016744   -0.24262759256206454   0.16958024392716514
0.6371553398016744   -0.24262759256206454   0.16958024392716514
0.6371553398016744   -0.24262759256206454   0.16958024392716514
-3.531304219332228   -2.708323218978362   0.27086316280696665
-3.531304219332228   -2.708323218978362   0.27086316280696665
-3.531304219332228   -2.708323218978362   0.27086316280696665
-3.531304219332228   -2.708323218978362   0.27086316280696665
-3.0641623942908307   -0.9431732071228494   0.001891327329233028
-3.0641623942908307   -0.9431732071228494   0.001891327329233028
-3.0641623942908307   -0.9431732071228494   0.001891327329233028
-3.0641623942908307   -0.9431732071228494   0.001891327329233028
0.4020828336558847   -1.941748024550878   0.1277502204167391
0.4020828336558847   -1.941748024550878   0.1277502204167391
0.4020828336558847   -1.941748024550878   0.1277502204167391
0.4020828336558847   -1.941748024550878   0.1277502204167391
-1.4119752628891988   -1.4728903793549042   -0.1193426370489738
-1.4119752628891988   -1.4728903793549042   -0.1193426370489738
-1.4119752628891988   -1.4728903793549042   -0.1193426370489738
-1.4119752628891988   -1.4728903793549042   -0.1193426370489738
0.7548924992601801   -0.15810865758418846   0.10815918147152659
0.7548924992601801   -0.15810865758418846   0.10815918147152659
0.7548924992601801   -0.15810865758418846   0.10815918147152659
0.7548924992601801   -0.15810865758418846   0.10815918147152659
-3.341036853820313   -2.6508773680147586   0.32522319057377713
-3.341036853820313   -2.6508773680147586   0.32522319057377713
-3.341036853820313   -2.6508773680147586   0.32522319057377713
-3.341036853820313   -2.6508773680147586   0.32522319057377713
-2.756735226676726   -0.8192737314118415   -0.03287786185349008
-2.756735226676726   -0.8192737314118415   -0.03287786185349008
-2.756735226676726   -0.8192737314118415   -0.03287786185349008
-2.756735226676726   -0.8192737314118415   -0.03287786185349008
0.6044271150064451   -1.8212222736979946   0.175452902578626
0.6044271150064451   -1.8212222736979946   0.175452902578626
0.6044271150064451   -1.8212222736979946   0.175452902578626
0.6044271150064451   -1.8212222736979946   0.175452902578626
-1.1670892702678002   -1.3572882059405276   0.08943836709288466
-1.1670892702678002   -1.3572882059405276   0.08943836709288466
-1.1670892702678002   -1.3572882059405276   0.08943836709288466
-1.1670892702678002   -1.3572882059405276   0.08943836709288466
-3.3276721229622526   -0.5466805229259182   0.102542990731095
-3.3276721229622526   -0.5466805229259182   0.102542990731095
-3.3276721229622526   -0.5466805229259182   0.102542990731095
-3.3276721229622526   -0.5466805229259182   0.102542990731095
-8.330780469740075   -4.226280347764386   -0.20422324514551193
-8.330780469740075   -4.226280347764386   -0.20422324514551193
-8.330780469740075   -4.226280347764386   -0.20422324514551193
-8.330780469740075   -4.226280347764386   -0.20422324514551193
-7.532348744139316   -1.3671619901074563   -0.23103177815012288
-7.532348744139316   -1.3671619901074563   -0.23103177815012288
-7.532348744139316   -1.3671619901074563   -0.23103177815012288
-7.532348744139316   -1.3671619901074563   -0.23103177815012288
-3.738492419084744   -3.5420731030692685   0.06867204813526084
-3.738492419084744   -3.5420731030692685   0.06867204813526084
-3.738492419084744   -3.5420731030692685   0.06867204813526084
-3.738492419084744   -3.5420731030692685   0.06867204813526084
-5.72565345282074   -2.4993288674656142   -0.3336433191587271
-5.72565345282074   -2.4993288674656142   -0.3336433191587271
-5.72565345282074   -2.4993288674656142   -0.3336433191587271
-5.72565345282074   -2.4993288674656142   -0.3336433191587271
-3.1073267417859354   -0.4162214730789569   0.09864880463899371
-3.1073267417859354   -0.4162214730789569   0.09864880463899371
-3.1073267417859354   -0.4162214730789569   0.09864880463899371
-3.1073267417859354   -0.4162214730789569   0.09864880463899371
-8.145642456615   -4.475141655274684   -0.18952067536131545
-8.145642456615   -4.475141655274684   -0.18952067536131545
-8.145642456615   -4.475141655274684   -0.18952067536131545
-8.145642456615   -4.475141655274684   -0.18952067536131545
-7.284898041076032   -1.2381456821903143   -0.2351439090591039
-7.284898041076032   -1.2381456821903143   -0.2351439090591039
-7.284898041076032   -1.2381456821903143   -0.2351439090591039
-7.284898041076032   -1.2381456821903143   -0.2351439090591039
-3.558256922077435   -3.515743153983511   0.1039886352568955
-3.558256922077435   -3.515743153983511   0.1039886352568955
-3.558256922077435   -3.515743153983511   0.1039886352568955
-3.558256922077435   -3.515743153983511   0.1039886352568955
-5.466931406743066   -2.4335380115647474   -0.2365712020813694
-5.466931406743066   -2.4335380115647474   -0.2365712020813694
-5.466931406743066   -2.4335380115647474   -0.2365712020813694
-5.466931406743066   -2.4335380115647474   -0.2365712020813694
-2.9320659543687517   -0.31392534922806525   0.03312566904486011
-2.9320659543687517   -0.31392534922806525   0.03312566904486011
-2.9320659543687517   -0.31392534922806525   0.03312566904486011
-2.9320659543687517   -0.31392534922806525   0.03312566904486011
-7.911628142750534   -4.440502620911572   -0.16643747871031278
-7.911628142750534   -4.440502620911572   -0.16643747871031278
-7.911628142750534   -4.440502620911572   -0.16643747871031278
-7.911628142750534   -4.440502620911572   -0.16643747871031278
-6.899442799568397   -1.0991310626464847   -0.2664745848620774
-6.899442799568397   -1.0991310626464847   -0.2664745848620774
-6.899442799568397   -1.0991310626464847   -0.2664745848620774
-6.899442799568397   -1.0991310626464847   -0.2664745848620774
-3.1684092202630616   -3.167038126737622   0.25651656554065183
-3.1684092202630616   -3.167038126737622   0.25651656554065183
-3.1684092202630616   -3.167038126737622   0.25651656554065183
-3.1684092202630616   -3.167038126737622   0.25651656554065183
-5.17750509208036   -2.2090774674574183   -0.1347642714658216
-5.17750509208036   -2.2090774674574183   -0.1347642714658216
-5.17750509208036   -2.2090774674574183   -0.1347642714658216
-5.17750509208036   -2.2090774674574183   -0.1347642714658216
-7.548206328376324   -0.46405165759592326   -0.05358122849521779
-7.548206328376324   -0.46405165759592326   -0.05358122849521779
-7.548206328376324   -0.46405165759592326   -0.05358122849521779
-7.548206328376324   -0.46405165759592326   -0.05358122849521779
-13.34527043396119   -2.641897101843924   0.13578492474156967
-13.34527043396119   -2.641897101843924   0.13578492474156967
-13.34527043396119   -2.641897101843924   0.13578492474156967
-13.34527043396119   -2.641897101843924   0.13578492474156967
-12.816282440354069   -1.2786003646898976   -0.28392511599136844
-12.816282440354069   -1.2786003646898976   -0.28392511599136844
-12.816282440354069   -1.2786003646898976   -0.28392511599136844
-12.816282440354069   -1.2786003646898976   -0.28392511599136844
-7.373236400998825   -1.3626447422590031   0.5600126897038087
-7.373236400998825   -1.3626447422590031   0.5600126897038087
-7.373236400998825   -1.3626447422590031   0.5600126897038087
-7.373236400998825   -1.3626447422590031   0.5600126897038087
-9.854130591109502   -1.5343992135542819   0.14430372814876474
-9.854130591109502   -1.5343992135542819   0.14430372814876474
-9.854130591109502   -1.5343992135542819   0.14430372814876474
-9.854130591109502   -1.5343992135542819   0.14430372814876474
-7.233314994382723   -0.10485571349357281   0.0018306940189090626
-7.233314994382723   -0.10485571349357281   0.0018306940189090626
-7.233314994382723   -0.10485571349357281   0.0018306940189090626
-7.233314994382723   -0.10485571349357281   0.0018306940189090626
-13.00728052876728   -2.5874660752524514   0.06995015250502368
-13.00728052876728   -2.5874660752524514   0.06995015250502368
-13.00728052876728   -2.5874660752524514   0.06995015250502368
-13.00728052876728   -2.5874660752524514   0.06995015250502368
-12.522779398651686   -1.1712772933284847   -0.36025967442139345
-12.522779398651686   -1.1712772933284847   -0.36025967442139345
-12.522779398651686   -1.1712772933284847   -0.36025967442139345
-12.522779398651686   -1.1712772933284847   -0.36025967442139345
-7.118423428968891   -1.2932233266137592   0.6523067959000943
-7.118423428968891   -1.2932233266137592   0.6523067959000943
-7.118423428968891   -1.2932233266137592   0.6523067959000943
-7.118423428968891   -1.2932233266137592   0.6523067959000943
-9.697430097381622   -1.262877757282486   0.13801009091386932
-9.697430097381622   -1.262877757282486   0.13801009091386932
-9.697430097381622   -1.262877757282486   0.13801009091386932
-9.697430097381622   -1.262877757282486   0.13801009091386932
-7.006219384010429   -0.0099105139168143   -0.06998579200454663
-7.006219384010429   -0.0099105139168143   -0.06998579200454663
-7.006219384010429   -0.0099105139168143   -0.06998579200454663
-7.006219384010429   -0.0099105139168143   -0.06998579200454663
-12.654354990056804   -2.4739616524720613   0.2845467276964966
-12.654354990056804   -2.4739616524720613   0.2845467276964966
-12.654354990056804   -2.4739616524720613   0.2845467276964966
-12.654354990056804   -2.4739616524720613   0.2845467276964966
-11.9135120677814   -0.9467439453284416   -0.40182927881121905
-11.9135120677814   -0.9467439453284416   -0.40182927881121905
-11.9135120677814   -0.9467439453284416   -0.40182927881121905
-11.9135120677814   -0.9467439453284416   -0.40182927881121905
-6.72258277951241   -1.2006480544568294   0.7193425072282638
-6.72258277951241   -1.2006480544568294   0.7193425072282638
-6.72258277951241   -1.2006480544568294   0.7193425072282638
-6.72258277951241   -1.2006480544568294   0.7193425072282638
-9.1115352225712   -0.9648621569622948   0.2799234023359468
-9.1115352225712   -0.9648621569622948   0.2799234023359468
-9.1115352225712   -0.9648621569622948   0.2799234023359468
-9.1115352225712   -0.9648621569622948   0.2799234023359468
9.610753959258341   0.30968315325329354   0.13638335384398076
9.610753959258341   0.30968315325329354   0.13638335384398076
9.610753959258341   0.30968315325329354   0.13638335384398076
9.610753959258341   0.30968315325329354   0.13638335384398076
4.9152144089057055   -0.25559439997259803   0.10251268028817817
4.9152144089057055   -0.25559439997259803   0.10251268028817817
4.9152144089057055   -0.25559439997259803   0.10251268028817817
4.9152144089057055   -0.25559439997259803   0.10251268028817817
4.720651649659596   -0.6968358050414234   0.19891074264372927
4.720651649659596   -0.6968358050414234   0.19891074264372927
4.720651649659596   -0.6968358050414234   0.19891074264372927
4.720651649659596   -0.6968358050414234   0.19891074264372927
9.5406648716346   0.537924864391458   0.07497450347494655
9.5406648716346   0.537924864391458   0.07497450347494655
9.5406648716346   0.537924864391458   0.07497450347494655
9.5406648716346   0.537924864391458   0.07497450347494655
6.813207524699402   -0.09813249365613941   -0.2511184683162991
6.813207524699402   -0.09813249365613941   -0.2511184683162991
6.813207524699402   -0.09813249365613941   -0.2511184683162991
6.813207524699402   -0.09813249365613941   -0.2511184683162991
9.486524163113097   0.23749642847692276   0.10469939678196011
9.486524163113097   0.23749642847692276   0.10469939678196011
9.486524163113097   0.23749642847692276   0.10469939678196011
9.486524163113097   0.23749642847692276   0.10469939678196011
4.758730165215495   -0.4124695620924934   0.1049370774742952
4.758730165215495   -0.4124695620924934   0.1049370774742952
4.758730165215495   -0.4124695620924934   0.1049370774742952
4.758730165215495   -0.4124695620924934   0.1049370774742952
4.596999293665704   -0.7134653793914332   0.1648094374703361
4.596999293665704   -0.7134653793914332   0.1648094374703361
4.596999293665704   -0.7134653793914332   0.1648094374703361
4.596999293665704   -0.7134653793914332   0.1648094374703361
9.427326466736552   0.514001782512068   0.12835299279839285
9.427326466736552   0.514001782512068   0.12835299279839285
9.427326466736552   0.514001782512068   0.12835299279839285
9.427326466736552   0.514001782512068   0.12835299279839285
6.790968146185951   -0.1354727075161084   -0.29194633412907245
6.790968146185951   -0.1354727075161084   -0.29194633412907245
6.790968146185951   -0.1354727075161084   -0.29194633412907245
6.790968146185951   -0.1354727075161084   -0.29194633412907245
9.347139287683873   0.20990375660627714   0.03151512344071733
9.347139287683873   0.20990375660627714   0.03151512344071733
9.347139287683873   0.20990375660627714   0.03151512344071733
9.347139287683873   0.20990375660627714   0.03151512344071733
4.648517341849579   -0.4380364843544584   0.1469707833527356
4.648517341849579   -0.4380364843544584   0.1469707833527356
4.648517341849579   -0.4380364843544584   0.1469707833527356
4.648517341849579   -0.4380364843544584   0.1469707833527356
4.466298642954918   -0.6523282324280009   0.14227692587307378
4.466298642954918   -0.6523282324280009   0.14227692587307378
4.466298642954918   -0.6523282324280009   0.14227692587307378
4.466298642954918   -0.6523282324280009   0.14227692587307378
9.252389268516131   0.5180638091718133   0.18346984380958942
9.252389268516131   0.5180638091718133   0.18346984380958942
9.252389268516131   0.5180638091718133   0.18346984380958942
9.252389268516131   0.5180638091718133   0.18346984380958942
6.533968794532965   -0.13719449556741314   -0.3952949976338034
6.533968794532965   -0.13719449556741314   -0.3952949976338034
6.533968794532965   -0.13719449556741314   -0.3952949976338034
6.533968794532965   -0.13719449556741314   -0.3952949976338034
4.866891590617906   -0.6351847524725749   0.2404889413491611
4.866891590617906   -0.6351847524725749   0.2404889413491611
4.866891590617906   -0.6351847524725749   0.2404889413491611
4.866891590617906   -0.6351847524725749   0.2404889413491611
0.9644591579914679   -0.5799469802096713   0.053866705154311356
0.9644591579914679   -0.5799469802096713   0.053866705154311356
0.9644591579914679   -0.5799469802096713   0.053866705154311356
0.9644591579914679   -0.5799469802096713   0.053866705154311356
0.6291569628511227   -1.4705338954060512   0.26192121896425796
0.6291569628511227   -1.4705338954060512   0.26192121896425796
0.6291569628511227   -1.4705338954060512   0.26192121896425796
0.6291569628511227   -1.4705338954060512   0.26192121896425796
4.894458940943684   0.1846924394437114   0.18641895457903582
4.894458940943684   0.1846924394437114   0.18641895457903582
4.894458940943684   0.1846924394437114   0.18641895457903582
4.894458940943684   0.1846924394437114   0.18641895457903582
2.795201042471364   -0.6277069920855001   -0.010344735201544886
2.795201042471364   -0.6277069920855001   -0.010344735201544886
2.795201042471364   -0.6277069920855001   -0.010344735201544886
2.795201042471364   -0.6277069920855001   -0.010344735201544886
4.727861047611922   -0.6629607806449691   0.20108270800886946
4.727861047611922   -0.6629607806449691   0.20108270800886946
4.727861047611922   -0.6629607806449691   0.20108270800886946
4.727861047611922   -0.6629607806449691   0.20108270800886946
0.7537241940988301   -0.6649113374014315   0.07913481719817603
0.7537241940988301   -0.6649113374014315   0.07913481719817603
0.7537241940988301   -0.6649113374014315   0.07913481719817603
0.7537241940988301   -0.6649113374014315   0.07913481719817603
0.4792917090359037   -1.4846280031600858   0.2346159997709013
0.4792917090359037   -1.4846280031600858   0.2346159997709013
0.4792917090359037   -1.4846280031600858   0.2346159997709013
0.4792917090359037   -1.4846280031600858   0.2346159997709013
4.780388332380265   0.1471055236049661   0.22118372804674097
4.780388332380265   0.1471055236049661   0.22118372804674097
4.780388332380265   0.1471055236049661   0.22118372804674097
4.780388332380265   0.1471055236049661   0.22118372804674097
2.5919624130669114   -0.6693437293725172   -0.13497500029114828
2.5919624130669114   -0.6693437293725172   -0.13497500029114828
2.5919624130669114   -0.6693437293725172   -0.13497500029114828
2.5919624130669114   -0.6693437293725172   -0.13497500029114828
4.605276451957216   -0.6731735705189337   0.16590342005534975
4.605276451957216   -0.6731735705189337   0.16590342005534975
4.605276451957216   -0.6731735705189337   0.16590342005534975
4.605276451957216   -0.6731735705189337   0.16590342005534975
0.6087645984397843   -0.7099879000553622   0.10734034368558026
0.6087645984397843   -0.7099879000553622   0.10734034368558026
0.6087645984397843   -0.7099879000553622   0.10734034368558026
0.6087645984397843   -0.7099879000553622   0.10734034368558026
0.3115088706852267   -1.4851438801564445   0.1840849324226954
0.3115088706852267   -1.4851438801564445   0.1840849324226954
0.3115088706852267   -1.4851438801564445   0.1840849324226954
0.3115088706852267   -1.4851438801564445   0.1840849324226954
4.650932864408709   0.14838217998215675   0.2647376207318846
4.650932864408709   0.14838217998215675   0.2647376207318846
4.650932864408709   0.14838217998215675   0.2647376207318846
4.650932864408709   0.14838217998215675   0.2647376207318846
2.4672255651045214   -0.6652259444630363   -0.24124899673625477
2.4672255651045214   -0.6652259444630363   -0.24124899673625477
2.4672255651045214   -0.6652259444630363   -0.24124899673625477
2.4672255651045214   -0.6652259444630363   -0.24124899673625477
0.7494566956915804   -1.8176504426402973   0.21655785608550027
0.7494566956915804   -1.8176504426402973   0.21655785608550027
0.7494566956915804   -1.8176504426402973   0.21655785608550027
0.7494566956915804   -1.8176504426402973   0.21655785608550027
-2.8321961399331625   -0.9027088316534405   0.0052381387928414624
-2.8321961399331625   -0.9027088316534405   0.0052381387928414624
-2.8321961399331625   -0.9027088316534405   0.0052381387928414624
-2.8321961399331625   -0.9027088316534405   0.0052381387928414624
-3.4388311882182894   -2.6839556899296726   0.3002277769364772
-3.4388311882182894   -2.6839556899296726   0.3002277769364772
-3.4388311882182894   -2.6839556899296726   0.3002277769364772
-3.4388311882182894   -2.6839556899296726   0.3002277769364772
0.8622349026239328   -0.16052852308373405   0.11730554550599175
0.8622349026239328   -0.16052852308373405   0.11730554550599175
0.8622349026239328   -0.16052852308373405   0.11730554550599175
0.8622349026239328   -0.16052852308373405   0.11730554550599175
-1.1488691276126546   -1.3716894559320982   0.051133818392932684
-1.1488691276126546   -1.3716894559320982   0.051133818392932684
-1.1488691276126546   -1.3716894559320982   0.051133818392932684
-1.1488691276126546   -1.3716894559320982   0.051133818392932684
0.5174906231889868   -1.921771464988339   0.15482709023586727
0.5174906231889868   -1.921771464988339   0.15482709023586727
0.5174906231889868   -1.921771464988339   0.15482709023586727
0.5174906231889868   -1.921771464988339   0.15482709023586727
-3.152720317586179   -0.9813461568279058   0.028172596995245366
-3.152720317586179   -0.9813461568279058   0.028172596995245366
-3.152720317586179   -0.9813461568279058   0.028172596995245366
-3.152720317586179   -0.9813461568279058   0.028172596995245366
-3.6479107599344145   -2.728599466308223   0.2434866052205572
-3.6479107599344145   -2.728599466308223   0.2434866052205572
-3.6479107599344145   -2.728599466308223   0.2434866052205572
-3.6479107599344145   -2.728599466308223   0.2434866052205572
0.7218924724389335   -0.20229910560043157   0.16529091922639672
0.7218924724389335   -0.20229910560043157   0.16529091922639672
0.7218924724389335   -0.20229910560043157   0.16529091922639672
0.7218924724389335   -0.20229910560043157   0.16529091922639672
-1.4099575712614465   -1.4559677111368237   -0.12347965722287996
-1.4099575712614465   -1.4559677111368237   -0.12347965722287996
-1.4099575712614465   -1.4559677111368237   -0.12347965722287996
-1.4099575712614465   -1.4559677111368237   -0.12347965722287996
0.3578538160573599   -1.9563201381752595   0.09911866989335594
0.3578538160573599   -1.9563201381752595   0.09911866989335594
0.3578538160573599   -1.9563201381752595   0.09911866989335594
0.3578538160573599   -1.9563201381752595   0.09911866989335594
-3.3533374499846453   -1.044043780165163   0.03179746882631801
-3.3533374499846453   -1.044043780165163   0.03179746882631801
-3.3533374499846453   -1.044043780165163   0.03179746882631801
-3.3533374499846453   -1.044043780165163   0.03179746882631801
-3.874105240276778   -2.7106899248888303   0.20664700190766983
-3.874105240276778   -2.7106899248888303   0.20664700190766983
-3.874105240276778   -2.7106899248888303   0.20664700190766983
-3.874105240276778   -2.7106899248888303   0.20664700190766983
0.5656502573283794   -0.22588922499361844   0.19553721047564804
0.5656502573283794   -0.22588922499361844   0.19553721047564804
0.5656502573283794   -0.22588922499361844   0.19553721047564804
0.5656502573283794   -0.22588922499361844   0.19553721047564804
-1.621491844030825   -1.4883652686446567   -0.29730364685560334
-1.621491844030825   -1.4883652686446567   -0.29730364685560334
-1.621491844030825   -1.4883652686446567   -0.29730364685560334
-1.621491844030825   -1.4883652686446567   -0.29730364685560334
-3.223695127129276   -3.112509796651126   0.257544167809989
-3.223695127129276   -3.112509796651126   0.257544167809989
-3.223695127129276   -3.112509796651126   0.257544167809989
-3.223695127129276   -3.112509796651126   0.257544167809989
-7.158643069744538   -1.1247448742545414   -0.16725368828860745
-7.158643069744538   -1.1247448742545414   -0.16725368828860745
-7.158643069744538   -1.1247448742545414   -0.16725368828860745
-7.158643069744538   -1.1247448742545414   -0.16725368828860745
-8.217955105645517   -4.498937990170072   -0.23618970080773738
-8.217955105645517   -4.498937990170072   -0.23618970080773738
-8.217955105645517   -4.498937990170072   -0.23618970080773738
-8.217955105645517   -4.498937990170072   -0.23618970080773738
-2.9939003396904535   -0.26042727960508666   0.10135360925105401
-2.9939003396904535   -0.26042727960508666   0.10135360925105401
-2.9939003396904535   -0.26042727960508666   0.10135360925105401
-2.9939003396904535   -0.26042727960508666   0.10135360925105401
-5.347345172148654   -2.163458691663415   -0.19012306771305415
-5.347345172148654   -2.163458691663415   -0.19012306771305415
-5.347345172148654   -2.163458691663415   -0.19012306771305415
-5.347345172148654   -2.163458691663415   -0.19012306771305415
-3.649350778024705   -3.5210369640745136   0.08471110204924093
-3.649350778024705   -3.5210369640745136   0.08471110204924093
-3.649350778024705   -3.5210369640745136   0.08471110204924093
-3.649350778024705   -3.5210369640745136   0.08471110204924093
-7.545041249181254   -1.22086488757063   -0.1496935210858637
-7.545041249181254   -1.22086488757063   -0.1496935210858637
-7.545041249181254   -1.22086488757063   -0.1496935210858637
-7.545041249181254   -1.22086488757063   -0.1496935210858637
-8.466275824932033   -4.572779651249757   -0.27317494821973665
-8.466275824932033   -4.572779651249757   -0.27317494821973665
-8.466275824932033   -4.572779651249757   -0.27317494821973665
-8.466275824932033   -4.572779651249757   -0.27317494821973665
-3.186189357971464   -0.3285448929639254   0.1520390416909844
-3.186189357971464   -0.3285448929639254   0.1520390416909844
-3.186189357971464   -0.3285448929639254   0.1520390416909844
-3.186189357971464   -0.3285448929639254   0.1520390416909844
-5.650386659095471   -2.3953281222314677   -0.26567109858200055
-5.650386659095471   -2.3953281222314677   -0.26567109858200055
-5.650386659095471   -2.3953281222314677   -0.26567109858200055
-5.650386659095471   -2.3953281222314677   -0.26567109858200055
-3.862454503485029   -3.590788927570472   0.03295734872968514
-3.862454503485029   -3.590788927570472   0.03295734872968514
-3.862454503485029   -3.590788927570472   0.03295734872968514
-3.862454503485029   -3.590788927570472   0.03295734872968514
-7.78995134887277   -1.310476286097527   -0.15385593307571885
-7.78995134887277   -1.310476286097527   -0.15385593307571885
-7.78995134887277   -1.310476286097527   -0.15385593307571885
-7.78995134887277   -1.310476286097527   -0.15385593307571885
-8.67852575589874   -4.381987544171267   -0.308113985991893
-8.67852575589874   -4.381987544171267   -0.308113985991893
-8.67852575589874   -4.381987544171267   -0.308113985991893
-8.67852575589874   -4.381987544171267   -0.308113985991893
-3.430139993251835   -0.42455200338534677   0.14033531552884032
-3.430139993251835   -0.42455200338534677   0.14033531552884032
-3.430139993251835   -0.42455200338534677   0.14033531552884032
-3.430139993251835   -0.42455200338534677   0.14033531552884032
-5.928595822251859   -2.4750278009692384   -0.3371460719786113
-5.928595822251859   -2.4750278009692384   -0.3371460719786113
-5.928595822251859   -2.4750278009692384   -0.3371460719786113
-5.928595822251859   -2.4750278009692384   -0.3371460719786113
-7.026051252941158   -1.2758484552445863   0.6468089767182255
-7.026051252941158   -1.2758484552445863   0.6468089767182255
-7.026051252941158   -1.2758484552445863   0.6468089767182255
-7.026051252941158   -1.2758484552445863   0.6468089767182255
-12.41038135279124   -0.9330866114595713   -0.22455807880893386
-12.41038135279124   -0.9330866114595713   -0.22455807880893386
-12.41038135279124   -0.9330866114595713   -0.22455807880893386
-12.41038135279124   -0.9330866114595713   -0.22455807880893386
-13.17647976096421   -2.599699433594679   0.17798259299081476
-13.17647976096421   -2.599699433594679   0.17798259299081476
-13.17647976096421   -2.599699433594679   0.17798259299081476
-13.17647976096421   -2.599699433594679   0.17798259299081476
-7.238441302826581   0.1005880693090937   0.06185325380770784
-7.238441302826581   0.1005880693090937   0.06185325380770784
-7.238441302826581   0.1005880693090937   0.06185325380770784
-7.238441302826581   0.1005880693090937   0.06185325380770784
-9.488301641140843   -0.9135121026551623   0.1916157697200181
-9.488301641140843   -0.9135121026551623   0.1916157697200181
-9.488301641140843   -0.9135121026551623   0.1916157697200181
-9.488301641140843   -0.9135121026551623   0.1916157697200181
-7.430300589661976   -1.3711926167870314   0.5743375057268199
-7.430300589661976   -1.3711926167870314   0.5743375057268199
-7.430300589661976   -1.3711926167870314   0.5743375057268199
-7.430300589661976   -1.3711926167870314   0.5743375057268199
-12.950361793585673   -1.0936600669554013   -0.19746693675567367
-12.950361793585673   -1.0936600669554013   -0.19746693675567367
-12.950361793585673   -1.0936600669554013   -0.19746693675567367
-12.950361793585673   -1.0936600669554013   -0.19746693675567367
-13.504080065218968   -2.711665959365373   -0.054249731607898255
-13.504080065218968   -2.711665959365373   -0.054249731607898255
-13.504080065218968   -2.711665959365373   -0.054249731607898255
-13.504080065218968   -2.711665959365373   -0.054249731607898255
-7.4692359355616915   0.02467027352497353   0.1145745738571694
-7.4692359355616915   0.02467027352497353   0.1145745738571694
-7.4692359355616915   0.02467027352497353   0.1145745738571694
-7.4692359355616915   0.02467027352497353   0.1145745738571694
-10.06186437514725   -1.2073231292070454   0.07980664258603926
-10.06186437514725   -1.2073231292070454   0.07980664258603926
-10.06186437514725   -1.2073231292070454   0.07980664258603926
-10.06186437514725   -1.2073231292070454   0.07980664258603926
-7.690097485036215   -1.4425267308377818   0.47746383084730626
-7.690097485036215   -1.4425267308377818   0.47746383084730626
-7.690097485036215   -1.4425267308377818   0.47746383084730626
-7.690097485036215   -1.4425267308377818   0.47746383084730626
-13.215215143366276   -1.1764655826244121   -0.1451254990851737
-13.215215143366276   -1.1764655826244121   -0.1451254990851737
-13.215215143366276   -1.1764655826244121   -0.1451254990851737
-13.215215143366276   -1.1764655826244121   -0.1451254990851737
-13.791626890353138   -2.7582796275461448   0.0002287526224131753
-13.791626890353138   -2.7582796275461448   0.0002287526224131753
-13.791626890353138   -2.7582796275461448   0.0002287526224131753
-13.791626890353138   -2.7582796275461448   0.0002287526224131753
-7.792815753602151   -0.3076816348984419   0.04613011621822799
-7.792815753602151   -0.3076816348984419   0.04613011621822799
-7.792815753602151   -0.3076816348984419   0.04613011621822799
-7.792815753602151   -0.3076816348984419   0.04613011621822799
-10.188505562890521   -1.4603080785726552   0.12628748544505514
-10.188505562890521   -1.4603080785726552   0.12628748544505514
-10.188505562890521   -1.4603080785726552   0.12628748544505514
-10.188505562890521   -1.4603080785726552   0.12628748544505514
8.394983284179391   0.38282029338091084   -0.18518272821820814
8.394983284179391   0.38282029338091084   -0.18518272821820814
8.394983284179391   0.38282029338091084   -0.18518272821820814
8.394983284179391   0.38282029338091084   -0.18518272821820814
4.232090384383117   -0.08114592673215948   0.09229632467055848
4.232090384383117   -0.08114592673215948   0.09229632467055848
4.232090384383117   -0.08114592673215948   0.09229632467055848
4.232090384383117   -0.08114592673215948   0.09229632467055848
3.9593977391849373   -0.6258643932560463   -0.16270465231266512
3.9593977391849373   -0.6258643932560463   -0.16270465231266512
3.9593977391849373   -0.6258643932560463   -0.16270465231266512
3.9593977391849373   -0.6258643932560463   -0.16270465231266512
8.296820768569992   0.6077836116497215   0.10798631397221325
8.296820768569992   0.6077836116497215   0.10798631397221325
8.296820768569992   0.6077836116497215   0.10798631397221325
8.296820768569992   0.6077836116497215   0.10798631397221325
5.894698262456596   0.014379530646045247   -0.22780572518658065
5.894698262456596   0.014379530646045247   -0.22780572518658065
5.894698262456596   0.014379530646045247   -0.22780572518658065
5.894698262456596   0.014379530646045247   -0.22780572518658065
8.158208740583483   0.2091505788534067   -0.18644079316394718
8.158208740583483   0.2091505788534067   -0.18644079316394718
8.158208740583483   0.2091505788534067   -0.18644079316394718
8.158208740583483   0.2091505788534067   -0.18644079316394718
4.090213047427519   -0.23502808020365173   0.10053557584781914
4.090213047427519   -0.23502808020365173   0.10053557584781914
4.090213047427519   -0.23502808020365173   0.10053557584781914
4.090213047427519   -0.23502808020365173   0.10053557584781914
3.812715243695266   -0.6614015203522581   -0.13405229848170364
3.812715243695266   -0.6614015203522581   -0.13405229848170364
3.812715243695266   -0.6614015203522581   -0.13405229848170364
3.812715243695266   -0.6614015203522581   -0.13405229848170364
8.09276461353164   0.5576588768016197   0.15709388007686187
8.09276461353164   0.5576588768016197   0.15709388007686187
8.09276461353164   0.5576588768016197   0.15709388007686187
8.09276461353164   0.5576588768016197   0.15709388007686187
5.813006866777022   -0.060102479528486574   -0.2730745018964536
5.813006866777022   -0.060102479528486574   -0.2730745018964536
5.813006866777022   -0.060102479528486574   -0.2730745018964536
5.813006866777022   -0.060102479528486574   -0.2730745018964536
7.9531948243057915   0.16407134801340506   -0.1471675372641601
7.9531948243057915   0.16407134801340506   -0.1471675372641601
7.9531948243057915   0.16407134801340506   -0.1471675372641601
7.9531948243057915   0.16407134801340506   -0.1471675372641601
3.941584069296609   -0.2785149551885062   0.12740526436126198
3.941584069296609   -0.2785149551885062   0.12740526436126198
3.941584069296609   -0.2785149551885062   0.12740526436126198
3.941584069296609   -0.2785149551885062   0.12740526436126198
3.6704238732186596   -0.6533660014063644   -0.09171381378382637
3.6704238732186596   -0.6533660014063644   -0.09171381378382637
3.6704238732186596   -0.6533660014063644   -0.09171381378382637
3.6704238732186596   -0.6533660014063644   -0.09171381378382637
7.839894338375475   0.5222680457449811   0.20367969783919648
7.839894338375475   0.5222680457449811   0.20367969783919648
7.839894338375475   0.5222680457449811   0.20367969783919648
7.839894338375475   0.5222680457449811   0.20367969783919648
5.522769865793471   -0.10518599357859237   -0.3594003394273181
5.522769865793471   -0.10518599357859237   -0.3594003394273181
5.522769865793471   -0.10518599357859237   -0.3594003394273181
5.522769865793471   -0.10518599357859237   -0.3594003394273181
4.251782706901249   0.0738889922060244   0.03572301832300823
4.251782706901249   0.0738889922060244   0.03572301832300823
4.251782706901249   0.0738889922060244   0.03572301832300823
4.251782706901249   0.0738889922060244   0.03572301832300823
0.4213038595513457   -0.2524623822217089   -0.008311897888749614
0.4213038595513457   -0.2524623822217089   -0.008311897888749614
0.4213038595513457   -0.2524623822217089   -0.008311897888749614
0.4213038595513457   -0.2524623822217089   -0.008311897888749614
0.1643778270968843   -0.8298329242061886   -0.15612674982390884
0.1643778270968843   -0.8298329242061886   -0.15612674982390884
0.1643778270968843   -0.8298329242061886   -0.15612674982390884
0.1643778270968843   -0.8298329242061886   -0.15612674982390884
4.257482353777155   0.49020843624711896   0.21164559114522166
4.257482353777155   0.49020843624711896   0.21164559114522166
4.257482353777155   0.49020843624711896   0.21164559114522166
4.257482353777155   0.49020843624711896   0.21164559114522166
2.2319860223183836   -0.11848978911197416   -0.08943251783161835
2.2319860223183836   -0.11848978911197416   -0.08943251783161835
2.2319860223183836   -0.11848978911197416   -0.08943251783161835
2.2319860223183836   -0.11848978911197416   -0.08943251783161835
4.131291113995457   0.007462207362567419   0.06343562112129952
4.131291113995457   0.007462207362567419   0.06343562112129952
4.131291113995457   0.007462207362567419   0.06343562112129952
4.131291113995457   0.007462207362567419   0.06343562112129952
0.29526945812317396   -0.34238630407704274   0.01088478517839317
0.29526945812317396   -0.34238630407704274   0.01088478517839317
0.29526945812317396   -0.34238630407704274   0.01088478517839317
0.29526945812317396   -0.34238630407704274   0.01088478517839317
0.022953513670310566   -0.8702349958622626   -0.10808405057969409
0.022953513670310566   -0.8702349958622626   -0.10808405057969409
0.022953513670310566   -0.8702349958622626   -0.10808405057969409
0.022953513670310566   -0.8702349958622626   -0.10808405057969409
4.102177291342377   0.41826864894172844   0.23358777045986673
4.102177291342377   0.41826864894172844   0.23358777045986673
4.102177291342377   0.41826864894172844   0.23358777045986673
4.102177291342377   0.41826864894172844   0.23358777045986673
2.069654058606765   -0.18451456760256157   -0.12664316203179046
2.069654058606765   -0.18451456760256157   -0.12664316203179046
2.069654058606765   -0.18451456760256157   -0.12664316203179046
2.069654058606765   -0.18451456760256157   -0.12664316203179046
3.9830249314504296   -0.03782081516827074   0.09391543511014638
3.9830249314504296   -0.03782081516827074   0.09391543511014638
3.9830249314504296   -0.03782081516827074   0.09391543511014638
3.9830249314504296   -0.03782081516827074   0.09391543511014638
0.1413818871937736   -0.414869518120745   0.028692339296103403
0.1413818871937736   -0.414869518120745   0.028692339296103403
0.1413818871937736   -0.414869518120745   0.028692339296103403
0.1413818871937736   -0.414869518120745   0.028692339296103403
-0.12900669007128884   -0.8752047102722209   -0.0732572760600061
-0.12900669007128884   -0.8752047102722209   -0.0732572760600061
-0.12900669007128884   -0.8752047102722209   -0.0732572760600061
-0.12900669007128884   -0.8752047102722209   -0.0732572760600061
3.9455052731168636   0.37202890678151823   0.2582982775193208
3.9455052731168636   0.37202890678151823   0.2582982775193208
3.9455052731168636   0.37202890678151823   0.2582982775193208
3.9455052731168636   0.37202890678151823   0.2582982775193208
1.9418793199662892   -0.2115246224014482   -0.15890329618292787
1.9418793199662892   -0.2115246224014482   -0.15890329618292787
1.9418793199662892   -0.2115246224014482   -0.15890329618292787
1.9418793199662892   -0.2115246224014482   -0.15890329618292787
0.42596719457396565   -0.24967942792508668   0.012221822927727805
0.42596719457396565   -0.24967942792508668   0.012221822927727805
0.42596719457396565   -0.24967942792508668   0.012221822927727805
0.42596719457396565   -0.24967942792508668   0.012221822927727805
-3.2608397873375163   -0.3776855444324133   -0.10283494118524428
-3.2608397873375163   -0.3776855444324133   -0.10283494118524428
-3.2608397873375163   -0.3776855444324133   -0.10283494118524428
-3.2608397873375163   -0.3776855444324133   -0.10283494118524428
-3.546456549613255   -1.1011899562446539   -0.1773101680614197
-3.546456549613255   -1.1011899562446539   -0.1773101680614197
-3.546456549613255   -1.1011899562446539   -0.1773101680614197
-3.546456549613255   -1.1011899562446539   -0.1773101680614197
0.4573256648179176   0.3578288124718018   0.1209507021032669
0.4573256648179176   0.3578288124718018   0.1209507021032669
0.4573256648179176   0.3578288124718018   0.1209507021032669
0.4573256648179176   0.3578288124718018   0.1209507021032669
-1.4855526006370332   -0.3262232056265641   -0.08906153214190708
-1.4855526006370332   -0.3262232056265641   -0.08906153214190708
-1.4855526006370332   -0.3262232056265641   -0.08906153214190708
-1.4855526006370332   -0.3262232056265641   -0.08906153214190708
0.3197818557668313   -0.2785567897436877   0.06961725906332504
0.3197818557668313   -0.2785567897436877   0.06961725906332504
0.3197818557668313   -0.2785567897436877   0.06961725906332504
0.3197818557668313   -0.2785567897436877   0.06961725906332504
-3.398463531229786   -0.4543551446967818   -0.08417988769194724
-3.398463531229786   -0.4543551446967818   -0.08417988769194724
-3.398463531229786   -0.4543551446967818   -0.08417988769194724
-3.398463531229786   -0.4543551446967818   -0.08417988769194724
-3.7124099657652727   -1.1455385388974988   -0.11660380905448889
-3.7124099657652727   -1.1455385388974988   -0.11660380905448889
-3.7124099657652727   -1.1455385388974988   -0.11660380905448889
-3.7124099657652727   -1.1455385388974988   -0.11660380905448889
0.30214619952055105   0.28075582377997393   0.13688855902927194
0.30214619952055105   0.28075582377997393   0.13688855902927194
0.30214619952055105   0.28075582377997393   0.13688855902927194
0.30214619952055105   0.28075582377997393   0.13688855902927194
-1.6227384049470972   -0.3723795548270825   -0.10692138604573637
-1.6227384049470972   -0.3723795548270825   -0.10692138604573637
-1.6227384049470972   -0.3723795548270825   -0.10692138604573637
-1.6227384049470972   -0.3723795548270825   -0.10692138604573637
0.17286625330833494   -0.325761335768498   0.09700598751666326
0.17286625330833494   -0.325761335768498   0.09700598751666326
0.17286625330833494   -0.325761335768498   0.09700598751666326
0.17286625330833494   -0.325761335768498   0.09700598751666326
-3.5809933295356107   -0.5368846893315485   -0.06817447747217895
-3.5809933295356107   -0.5368846893315485   -0.06817447747217895
-3.5809933295356107   -0.5368846893315485   -0.06817447747217895
-3.5809933295356107   -0.5368846893315485   -0.06817447747217895
-3.8966652461122244   -1.1781996194272406   -0.10369925825161329
-3.8966652461122244   -1.1781996194272406   -0.10369925825161329
-3.8966652461122244   -1.1781996194272406   -0.10369925825161329
-3.8966652461122244   -1.1781996194272406   -0.10369925825161329
0.1343125080985153   0.2149013645130044   0.1532326400038047
0.1343125080985153   0.2149013645130044   0.1532326400038047
0.1343125080985153   0.2149013645130044   0.1532326400038047
0.1343125080985153   0.2149013645130044   0.1532326400038047
-1.801099624304064   -0.42765382467832297   -0.1498024418560165
-1.801099624304064   -0.42765382467832297   -0.1498024418560165
-1.801099624304064   -0.42765382467832297   -0.1498024418560165
-1.801099624304064   -0.42765382467832297   -0.1498024418560165
-3.212858097331567   -0.29188295769318395   0.051270922105208755
-3.212858097331567   -0.29188295769318395   0.051270922105208755
-3.212858097331567   -0.29188295769318395   0.051270922105208755
-3.212858097331567   -0.29188295769318395   0.051270922105208755
-6.8505763438738185   -0.4417925309188717   -0.18208857181952892
-6.8505763438738185   -0.4417925309188717   -0.18208857181952892
-6.8505763438738185   -0.4417925309188717   -0.18208857181952892
-6.8505763438738185   -0.4417925309188717   -0.18208857181952892
-7.175607637633108   -1.1522697775489168   -0.17615158252519664
-7.175607637633108   -1.1522697775489168   -0.17615158252519664
-7.175607637633108   -1.1522697775489168   -0.17615158252519664
-7.175607637633108   -1.1522697775489168   -0.17615158252519664
-3.2296247312279838   0.27226149058090177   0.033397477039322165
-3.2296247312279838   0.27226149058090177   0.033397477039322165
-3.2296247312279838   0.27226149058090177   0.033397477039322165
-3.2296247312279838   0.27226149058090177   0.033397477039322165
-5.074814616713256   -0.3846831143840014   -0.07542063537374824
-5.074814616713256   -0.3846831143840014   -0.07542063537374824
-5.074814616713256   -0.3846831143840014   -0.07542063537374824
-5.074814616713256   -0.3846831143840014   -0.07542063537374824
-3.3305439279575917   -0.32317843526194306   0.1242414192341554
-3.3305439279575917   -0.32317843526194306   0.1242414192341554
-3.3305439279575917   -0.32317843526194306   0.1242414192341554
-3.3305439279575917   -0.32317843526194306   0.1242414192341554
-7.054069296355043   -0.5362107071576172   -0.1845189465262137
-7.054069296355043   -0.5362107071576172   -0.1845189465262137
-7.054069296355043   -0.5362107071576172   -0.1845189465262137
-7.054069296355043   -0.5362107071576172   -0.1845189465262137
-7.405471202424909   -1.2274274760801092   -0.12309202943649064
-7.405471202424909   -1.2274274760801092   -0.12309202943649064
-7.405471202424909   -1.2274274760801092   -0.12309202943649064
-7.405471202424909   -1.2274274760801092   -0.12309202943649064
-3.414183777802465   0.1878679166076057   0.04112067525439442
-3.414183777802465   0.1878679166076057   0.04112067525439442
-3.414183777802465   0.1878679166076057   0.04112067525439442
-3.414183777802465   0.1878679166076057   0.04112067525439442
-5.220875334143722   -0.42674643582656324   -0.07593098296113518
-5.220875334143722   -0.42674643582656324   -0.07593098296113518
-5.220875334143722   -0.42674643582656324   -0.07593098296113518
-5.220875334143722   -0.42674643582656324   -0.07593098296113518
-3.5139908609863917   -0.3987686389305286   0.1287218148728956
-3.5139908609863917   -0.3987686389305286   0.1287218148728956
-3.5139908609863917   -0.3987686389305286   0.1287218148728956
-3.5139908609863917   -0.3987686389305286   0.1287218148728956
-7.291871557918056   -0.6269983592190488   -0.15552292376328672
-7.291871557918056   -0.6269983592190488   -0.15552292376328672
-7.291871557918056   -0.6269983592190488   -0.15552292376328672
-7.291871557918056   -0.6269983592190488   -0.15552292376328672
-7.665801151287692   -1.326184818089713   -0.13216759995713429
-7.665801151287692   -1.326184818089713   -0.13216759995713429
-7.665801151287692   -1.326184818089713   -0.13216759995713429
-7.665801151287692   -1.326184818089713   -0.13216759995713429
-3.6135919890498385   0.08398723261810792   0.049480175014903705
-3.6135919890498385   0.08398723261810792   0.049480175014903705
-3.6135919890498385   0.08398723261810792   0.049480175014903705
-3.6135919890498385   0.08398723261810792   0.049480175014903705
-5.478061811347068   -0.5274874414436216   -0.1226898691439505
-5.478061811347068   -0.5274874414436216   -0.1226898691439505
-5.478061811347068   -0.5274874414436216   -0.1226898691439505
-5.478061811347068   -0.5274874414436216   -0.1226898691439505
-6.616632032759135   0.3164524657297001   0.22938798710531816
-6.616632032759135   0.3164524657297001   0.22938798710531816
-6.616632032759135   0.3164524657297001   0.22938798710531816
-6.616632032759135   0.3164524657297001   0.22938798710531816
-10.262751806827321   -0.5116570443772173   -0.14038873657805045
-10.262751806827321   -0.5116570443772173   -0.14038873657805045
-10.262751806827321   -0.5116570443772173   -0.14038873657805045
-10.262751806827321   -0.5116570443772173   -0.14038873657805045
-10.519466326568962   -0.5207699338077469   0.23608826196588656
-10.519466326568962   -0.5207699338077469   0.23608826196588656
-10.519466326568962   -0.5207699338077469   0.23608826196588656
-10.519466326568962   -0.5207699338077469   0.23608826196588656
-6.879245269393406   0.21071194322001552   -0.057321462095666076
-6.879245269393406   0.21071194322001552   -0.057321462095666076
-6.879245269393406   0.21071194322001552   -0.057321462095666076
-6.879245269393406   0.21071194322001552   -0.057321462095666076
-8.170387183434357   0.007206483311305023   0.20683980563413623
-8.170387183434357   0.007206483311305023   0.20683980563413623
-8.170387183434357   0.007206483311305023   0.20683980563413623
-8.170387183434357   0.007206483311305023   0.20683980563413623
-6.805638910304362   0.2325519603049202   0.28887031626462173
-6.805638910304362   0.2325519603049202   0.28887031626462173
-6.805638910304362   0.2325519603049202   0.28887031626462173
-6.805638910304362   0.2325519603049202   0.28887031626462173
-10.58835791882689   -0.5378951840615398   -0.09124444906995927
-10.58835791882689   -0.5378951840615398   -0.09124444906995927
-10.58835791882689   -0.5378951840615398   -0.09124444906995927
-10.58835791882689   -0.5378951840615398   -0.09124444906995927
-10.844018805320601   -0.6090567503547488   0.32072232421746805
-10.844018805320601   -0.6090567503547488   0.32072232421746805
-10.844018805320601   -0.6090567503547488   0.32072232421746805
-10.844018805320601   -0.6090567503547488   0.32072232421746805
-7.117156115968757   0.1507917464846098   -0.05973581972051106
-7.117156115968757   0.1507917464846098   -0.05973581972051106
-7.117156115968757   0.1507917464846098   -0.05973581972051106
-7.117156115968757   0.1507917464846098   -0.05973581972051106
-8.586898078580692   -0.0963607870434855   0.11131075282990621
-8.586898078580692   -0.0963607870434855   0.11131075282990621
-8.586898078580692   -0.0963607870434855   0.11131075282990621
-8.586898078580692   -0.0963607870434855   0.11131075282990621
-7.049899184861689   0.1425756877945228   0.2847648945049134
-7.049899184861689   0.1425756877945228   0.2847648945049134
-7.049899184861689   0.1425756877945228   0.2847648945049134
-7.049899184861689   0.1425756877945228   0.2847648945049134
-10.923937097890194   -0.6135020531271445   -0.07442383585809098
-10.923937097890194   -0.6135020531271445   -0.07442383585809098
-10.923937097890194   -0.6135020531271445   -0.07442383585809098
-10.923937097890194   -0.6135020531271445   -0.07442383585809098
-11.304844681520482   -0.9634011476708662   0.279561480274685
-11.304844681520482   -0.9634011476708662   0.279561480274685
-11.304844681520482   -0.9634011476708662   0.279561480274685
-11.304844681520482   -0.9634011476708662   0.279561480274685
-7.3914268496511415   -0.03037216633176998   -0.0561087435324481
-7.3914268496511415   -0.03037216633176998   -0.0561087435324481
-7.3914268496511415   -0.03037216633176998   -0.0561087435324481
-7.3914268496511415   -0.03037216633176998   -0.0561087435324481
-8.767675038216906   -0.22616738021441551   0.02640359163590933
-8.767675038216906   -0.22616738021441551   0.02640359163590933
-8.767675038216906   -0.22616738021441551   0.02640359163590933
-8.767675038216906   -0.22616738021441551   0.02640359163590933
6.778363415500488   0.36062191537794486   -0.2451374958960446
6.778363415500488   0.36062191537794486   -0.2451374958960446
6.778363415500488   0.36062191537794486   -0.2451374958960446
6.778363415500488   0.36062191537794486   -0.2451374958960446
3.365794758223356   0.00033591177586966836   0.08980435612068602
3.365794758223356   0.00033591177586966836   0.08980435612068602
3.365794758223356   0.00033591177586966836   0.08980435612068602
3.365794758223356   0.00033591177586966836   0.08980435612068602
3.0724256161608756   -0.5035147607833705   -0.2241103957841304
3.0724256161608756   -0.5035147607833705   -0.2241103957841304
3.0724256161608756   -0.5035147607833705   -0.2241103957841304
3.0724256161608756   -0.5035147607833705   -0.2241103957841304
6.648841778471212   0.5498915780797321   0.1125008773768443
6.648841778471212   0.5498915780797321   0.1125008773768443
6.648841778471212   0.5498915780797321   0.1125008773768443
6.648841778471212   0.5498915780797321   0.1125008773768443
4.709603923308544   0.04177323025431745   -0.1548963476287012
4.709603923308544   0.04177323025431745   -0.1548963476287012
4.709603923308544   0.04177323025431745   -0.1548963476287012
4.709603923308544   0.04177323025431745   -0.1548963476287012
6.505356812964177   0.18073923609867215   -0.23577160817721876
6.505356812964177   0.18073923609867215   -0.23577160817721876
6.505356812964177   0.18073923609867215   -0.23577160817721876
6.505356812964177   0.18073923609867215   -0.23577160817721876
3.209687694899567   -0.1405853055706544   0.09927054269655664
3.209687694899567   -0.1405853055706544   0.09927054269655664
3.209687694899567   -0.1405853055706544   0.09927054269655664
3.209687694899567   -0.1405853055706544   0.09927054269655664
2.9256585555583063   -0.5460990126098215   -0.19458950900725747
2.9256585555583063   -0.5460990126098215   -0.19458950900725747
2.9256585555583063   -0.5460990126098215   -0.19458950900725747
2.9256585555583063   -0.5460990126098215   -0.19458950900725747
6.42919601148714   0.49154107172083505   0.15329244636540568
6.42919601148714   0.49154107172083505   0.15329244636540568
6.42919601148714   0.49154107172083505   0.15329244636540568
6.42919601148714   0.49154107172083505   0.15329244636540568
4.5934227736565205   -0.03457822437662994   -0.20460406466831443
4.5934227736565205   -0.03457822437662994   -0.20460406466831443
4.5934227736565205   -0.03457822437662994   -0.20460406466831443
4.5934227736565205   -0.03457822437662994   -0.20460406466831443
6.288847675159598   0.1283959003346804   -0.18530406388603904
6.288847675159598   0.1283959003346804   -0.18530406388603904
6.288847675159598   0.1283959003346804   -0.18530406388603904
6.288847675159598   0.1283959003346804   -0.18530406388603904
3.0604886102029494   -0.1884721229065508   0.12193387451266696
3.0604886102029494   -0.1884721229065508   0.12193387451266696
3.0604886102029494   -0.1884721229065508   0.12193387451266696
3.0604886102029494   -0.1884721229065508   0.12193387451266696
2.791471548653276   -0.5599326057429562   -0.1589007698782916
2.791471548653276   -0.5599326057429562   -0.1589007698782916
2.791471548653276   -0.5599326057429562   -0.1589007698782916
2.791471548653276   -0.5599326057429562   -0.1589007698782916
6.181575920293448   0.4394648601167789   0.19027186630477563
6.181575920293448   0.4394648601167789   0.19027186630477563
6.181575920293448   0.4394648601167789   0.19027186630477563
6.181575920293448   0.4394648601167789   0.19027186630477563
4.326971556384074   -0.08754845507748477   -0.27842126129215816
4.326971556384074   -0.08754845507748477   -0.27842126129215816
4.326971556384074   -0.08754845507748477   -0.27842126129215816
4.326971556384074   -0.08754845507748477   -0.27842126129215816
3.4216981881006436   0.3526752887687497   0.0169821285142457
3.4216981881006436   0.3526752887687497   0.0169821285142457
3.4216981881006436   0.3526752887687497   0.0169821285142457
3.4216981881006436   0.3526752887687497   0.0169821285142457
0.12500880124683852   -0.10938928496894404   -0.012948343066032573
0.12500880124683852   -0.10938928496894404   -0.012948343066032573
0.12500880124683852   -0.10938928496894404   -0.012948343066032573
0.12500880124683852   -0.10938928496894404   -0.012948343066032573
-0.09607357034200245   -0.453219633635805   -0.15193883415024154
-0.09607357034200245   -0.453219633635805   -0.15193883415024154
-0.09607357034200245   -0.453219633635805   -0.15193883415024154
-0.09607357034200245   -0.453219633635805   -0.15193883415024154
3.3547900111744076   0.49721716178698483   0.18697965671311936
3.3547900111744076   0.49721716178698483   0.18697965671311936
3.3547900111744076   0.49721716178698483   0.18697965671311936
3.3547900111744076   0.49721716178698483   0.18697965671311936
1.6748852276538997   0.07077358950484713   -0.019586279738683113
1.6748852276538997   0.07077358950484713   -0.019586279738683113
1.6748852276538997   0.07077358950484713   -0.019586279738683113
1.6748852276538997   0.07077358950484713   -0.019586279738683113
3.277134449878661   0.2591612830355027   0.03675772898587831
3.277134449878661   0.2591612830355027   0.03675772898587831
3.277134449878661   0.2591612830355027   0.03675772898587831
3.277134449878661   0.2591612830355027   0.03675772898587831
-0.017067693173263607   -0.21381343901136973   0.0036843570690174923
-0.017067693173263607   -0.21381343901136973   0.0036843570690174923
-0.017067693173263607   -0.21381343901136973   0.0036843570690174923
-0.017067693173263607   -0.21381343901136973   0.0036843570690174923
-0.23511906776726893   -0.5221367800094079   -0.13114301518616842
-0.23511906776726893   -0.5221367800094079   -0.13114301518616842
-0.23511906776726893   -0.5221367800094079   -0.13114301518616842
-0.23511906776726893   -0.5221367800094079   -0.13114301518616842
3.1973067727479125   0.4105342874588108   0.2070182768721188
3.1973067727479125   0.4105342874588108   0.2070182768721188
3.1973067727479125   0.4105342874588108   0.2070182768721188
3.1973067727479125   0.4105342874588108   0.2070182768721188
1.5054187405632045   -0.014508347349117878   -0.06810539595620232
1.5054187405632045   -0.014508347349117878   -0.06810539595620232
1.5054187405632045   -0.014508347349117878   -0.06810539595620232
1.5054187405632045   -0.014508347349117878   -0.06810539595620232
3.122525588235503   0.18695840215180048   0.056688239617101954
3.122525588235503   0.18695840215180048   0.056688239617101954
3.122525588235503   0.18695840215180048   0.056688239617101954
3.122525588235503   0.18695840215180048   0.056688239617101954
-0.16019368454033278   -0.2984166959878675   0.019763816926972017
-0.16019368454033278   -0.2984166959878675   0.019763816926972017
-0.16019368454033278   -0.2984166959878675   0.019763816926972017
-0.16019368454033278   -0.2984166959878675   0.019763816926972017
-0.37281366746633743   -0.564092823376396   -0.10399143268704898
-0.37281366746633743   -0.564092823376396   -0.10399143268704898
-0.37281366746633743   -0.564092823376396   -0.10399143268704898
-0.37281366746633743   -0.564092823376396   -0.10399143268704898
3.0475402851787554   0.337059727430814   0.22445057957530107
3.0475402851787554   0.337059727430814   0.22445057957530107
3.0475402851787554   0.337059727430814   0.22445057957530107
3.0475402851787554   0.337059727430814   0.22445057957530107
1.3795133440982457   -0.06957355071919907   -0.10403995823705256
1.3795133440982457   -0.06957355071919907   -0.10403995823705256
1.3795133440982457   -0.06957355071919907   -0.10403995823705256
1.3795133440982457   -0.06957355071919907   -0.10403995823705256
0.23635403203688726   0.35766492738547473   0.07672359852979235
0.23635403203688726   0.35766492738547473   0.07672359852979235
0.23635403203688726   0.35766492738547473   0.07672359852979235
0.23635403203688726   0.35766492738547473   0.07672359852979235
-3.014135313165739   -0.19325444531103086   -0.10394874266618137
-3.014135313165739   -0.19325444531103086   -0.10394874266618137
-3.014135313165739   -0.19325444531103086   -0.10394874266618137
-3.014135313165739   -0.19325444531103086   -0.10394874266618137
-3.186640609714652   -0.4142147731356283   -0.09530095140131441
-3.186640609714652   -0.4142147731356283   -0.09530095140131441
-3.186640609714652   -0.4142147731356283   -0.09530095140131441
-3.186640609714652   -0.4142147731356283   -0.09530095140131441
0.12439059152659504   0.40696372464436   0.09019861691258106
0.12439059152659504   0.40696372464436   0.09019861691258106
0.12439059152659504   0.40696372464436   0.09019861691258106
0.12439059152659504   0.40696372464436   0.09019861691258106
-1.4582057732259608   0.046389197283939976   0.005298226108829698
-1.4582057732259608   0.046389197283939976   0.005298226108829698
-1.4582057732259608   0.046389197283939976   0.005298226108829698
-1.4582057732259608   0.046389197283939976   0.005298226108829698
0.10064282953265449   0.2816556760929529   0.09676785549428535
0.10064282953265449   0.2816556760929529   0.09676785549428535
0.10064282953265449   0.2816556760929529   0.09676785549428535
0.10064282953265449   0.2816556760929529   0.09676785549428535
-3.1591184920036586   -0.28513236886716853   -0.08677276711480775
-3.1591184920036586   -0.28513236886716853   -0.08677276711480775
-3.1591184920036586   -0.28513236886716853   -0.08677276711480775
-3.1591184920036586   -0.28513236886716853   -0.08677276711480775
-3.335894632859993   -0.48998861491433826   -0.07879280206149993
-3.335894632859993   -0.48998861491433826   -0.07879280206149993
-3.335894632859993   -0.48998861491433826   -0.07879280206149993
-3.335894632859993   -0.48998861491433826   -0.07879280206149993
-0.018986879759231926   0.3177649477420938   0.109616197102515
-0.018986879759231926   0.3177649477420938   0.109616197102515
-0.018986879759231926   0.3177649477420938   0.109616197102515
-0.018986879759231926   0.3177649477420938   0.109616197102515
-1.6011649087222772   -0.0275444153762312   -0.03128648323177212
-1.6011649087222772   -0.0275444153762312   -0.03128648323177212
-1.6011649087222772   -0.0275444153762312   -0.03128648323177212
-1.6011649087222772   -0.0275444153762312   -0.03128648323177212
-0.03930936037808463   0.2085339569537179   0.11723478479662741
-0.03930936037808463   0.2085339569537179   0.11723478479662741
-0.03930936037808463   0.2085339569537179   0.11723478479662741
-0.03930936037808463   0.2085339569537179   0.11723478479662741
-3.3123021237157024   -0.37748759560047873   -0.07333127565387687
-3.3123021237157024   -0.37748759560047873   -0.07333127565387687
-3.3123021237157024   -0.37748759560047873   -0.07333127565387687
-3.3123021237157024   -0.37748759560047873   -0.07333127565387687
-3.4841902633298094   -0.5497219823399624   -0.05138132283270459
-3.4841902633298094   -0.5497219823399624   -0.05138132283270459
-3.4841902633298094   -0.5497219823399624   -0.05138132283270459
-3.4841902633298094   -0.5497219823399624   -0.05138132283270459
-0.1675030161928444   0.23373642542498085   0.12473257487903937
-0.1675030161928444   0.23373642542498085   0.12473257487903937
-0.1675030161928444   0.23373642542498085   0.12473257487903937
-0.1675030161928444   0.23373642542498085   0.12473257487903937
-1.754967546458231   -0.10275124653160361   -0.07120232566426171
-1.754967546458231   -0.10275124653160361   -0.07120232566426171
-1.754967546458231   -0.10275124653160361   -0.07120232566426171
-1.754967546458231   -0.10275124653160361   -0.07120232566426171
-2.841435590247968   0.4247603495771186   0.14153507703457174
-2.841435590247968   0.4247603495771186   0.14153507703457174
-2.841435590247968   0.4247603495771186   0.14153507703457174
-2.841435590247968   0.4247603495771186   0.14153507703457174
-6.045470096714868   -0.2663724871593185   -0.1707889132397456
-6.045470096714868   -0.2663724871593185   -0.1707889132397456
-6.045470096714868   -0.2663724871593185   -0.1707889132397456
-6.045470096714868   -0.2663724871593185   -0.1707889132397456
-6.180083073576194   -0.3296207870956771   -0.025555568995362044
-6.180083073576194   -0.3296207870956771   -0.025555568995362044
-6.180083073576194   -0.3296207870956771   -0.025555568995362044
-6.180083073576194   -0.3296207870956771   -0.025555568995362044
-3.024482374058177   0.30720226627326686   -0.005926812527806302
-3.024482374058177   0.30720226627326686   -0.005926812527806302
-3.024482374058177   0.30720226627326686   -0.005926812527806302
-3.024482374058177   0.30720226627326686   -0.005926812527806302
-4.49024722258577   0.048170955604052934   0.03252683990084648
-4.49024722258577   0.048170955604052934   0.03252683990084648
-4.49024722258577   0.048170955604052934   0.03252683990084648
-4.49024722258577   0.048170955604052934   0.03252683990084648
-2.983627519532522   0.34657615232239736   0.15897357405133827
-2.983627519532522   0.34657615232239736   0.15897357405133827
-2.983627519532522   0.34657615232239736   0.15897357405133827
-2.983627519532522   0.34657615232239736   0.15897357405133827
-6.215729377135911   -0.36378612217888007   -0.16962175171080712
-6.215729377135911   -0.36378612217888007   -0.16962175171080712
-6.215729377135911   -0.36378612217888007   -0.16962175171080712
-6.215729377135911   -0.36378612217888007   -0.16962175171080712
-6.363953128990489   -0.4147508364637852   -0.022203738914536447
-6.363953128990489   -0.4147508364637852   -0.022203738914536447
-6.363953128990489   -0.4147508364637852   -0.022203738914536447
-6.363953128990489   -0.4147508364637852   -0.022203738914536447
-3.175441386319931   0.22207973994094332   0.01140507578356012
-3.175441386319931   0.22207973994094332   0.01140507578356012
-3.175441386319931   0.22207973994094332   0.01140507578356012
-3.175441386319931   0.22207973994094332   0.01140507578356012
-4.619496136981089   -0.01976054024320728   0.0024661495909983344
-4.619496136981089   -0.01976054024320728   0.0024661495909983344
-4.619496136981089   -0.01976054024320728   0.0024661495909983344
-4.619496136981089   -0.01976054024320728   0.0024661495909983344
-3.130742148455789   0.2731069236959177   0.1838740813492786
-3.130742148455789   0.2731069236959177   0.1838740813492786
-3.130742148455789   0.2731069236959177   0.1838740813492786
-3.130742148455789   0.2731069236959177   0.1838740813492786
-6.398187422087579   -0.4553130754517213   -0.1528129654121155
-6.398187422087579   -0.4553130754517213   -0.1528129654121155
-6.398187422087579   -0.4553130754517213   -0.1528129654121155
-6.398187422087579   -0.4553130754517213   -0.1528129654121155
-6.533370861586661   -0.5057804160654968   0.020420804133702675
-6.533370861586661   -0.5057804160654968   0.020420804133702675
-6.533370861586661   -0.5057804160654968   0.020420804133702675
-6.533370861586661   -0.5057804160654968   0.020420804133702675
-3.3354088818055425   0.1210489255003977   0.02175467694833047
-3.3354088818055425   0.1210489255003977   0.02175467694833047
-3.3354088818055425   0.1210489255003977   0.02175467694833047
-3.3354088818055425   0.1210489255003977   0.02175467694833047
-4.819839687425407   -0.1144098726608157   -0.03769552640072918
-4.819839687425407   -0.1144098726608157   -0.03769552640072918
-4.819839687425407   -0.1144098726608157   -0.03769552640072918
-4.819839687425407   -0.1144098726608157   -0.03769552640072918
-5.829665277527018   0.44284212325544114   0.19902057228469378
-5.829665277527018   0.44284212325544114   0.19902057228469378
-5.829665277527018   0.44284212325544114   0.19902057228469378
-5.829665277527018   0.44284212325544114   0.19902057228469378
-8.92062859996002   -0.412105896052114   -0.15903285153298358
-8.92062859996002   -0.412105896052114   -0.15903285153298358
-8.92062859996002   -0.412105896052114   -0.15903285153298358
-8.92062859996002   -0.412105896052114   -0.15903285153298358
-9.04557078065823   -0.17709696990377366   0.16995948355045648
-9.04557078065823   -0.17709696990377366   0.16995948355045648
-9.04557078065823   -0.17709696990377366   0.16995948355045648
-9.04557078065823   -0.17709696990377366   0.16995948355045648
-6.0907637887117625   0.1816610186986467   -0.09024095046752834
-6.0907637887117625   0.1816610186986467   -0.09024095046752834
-6.0907637887117625   0.1816610186986467   -0.09024095046752834
-6.0907637887117625   0.1816610186986467   -0.09024095046752834
-7.1419003602774005   0.09317664184141417   0.16309147230897347
-7.1419003602774005   0.09317664184141417   0.16309147230897347
-7.1419003602774005   0.09317664184141417   0.16309147230897347
-7.1419003602774005   0.09317664184141417   0.16309147230897347
-5.973508018260495   0.4490528916359644   0.22864602885141222
-5.973508018260495   0.4490528916359644   0.22864602885141222
-5.973508018260495   0.4490528916359644   0.22864602885141222
-5.973508018260495   0.4490528916359644   0.22864602885141222
-9.15589419986894   -0.437556491600521   -0.12119809080619048
-9.15589419986894   -0.437556491600521   -0.12119809080619048
-9.15589419986894   -0.437556491600521   -0.12119809080619048
-9.15589419986894   -0.437556491600521   -0.12119809080619048
-9.273846780893992   -0.22161652030265633   0.23491351126839383
-9.273846780893992   -0.22161652030265633   0.23491351126839383
-9.273846780893992   -0.22161652030265633   0.23491351126839383
-9.273846780893992   -0.22161652030265633   0.23491351126839383
-6.266097309738758   0.13271886222994178   -0.08039434134960916
-6.266097309738758   0.13271886222994178   -0.08039434134960916
-6.266097309738758   0.13271886222994178   -0.08039434134960916
-6.266097309738758   0.13271886222994178   -0.08039434134960916
-7.453824121306923   0.04575987332898168   0.10370159863361639
-7.453824121306923   0.04575987332898168   0.10370159863361639
-7.453824121306923   0.04575987332898168   0.10370159863361639
-7.453824121306923   0.04575987332898168   0.10370159863361639
-6.136618795103527   0.4156581611775454   0.28405893287893785
-6.136618795103527   0.4156581611775454   0.28405893287893785
-6.136618795103527   0.4156581611775454   0.28405893287893785
-6.136618795103527   0.4156581611775454   0.28405893287893785
-9.396675596947478   -0.49790612066849627   -0.10294096863307783
-9.396675596947478   -0.49790612066849627   -0.10294096863307783
-9.396675596947478   -0.49790612066849627   -0.10294096863307783
-9.396675596947478   -0.49790612066849627   -0.10294096863307783
-9.583388187897913   -0.410693139501487   0.23424772886549305
-9.583388187897913   -0.410693139501487   0.23424772886549305
-9.583388187897913   -0.410693139501487   0.23424772886549305
-9.583388187897913   -0.410693139501487   0.23424772886549305
-6.453890767683093   -0.012556769144238311   -0.0754023732697206
-6.453890767683093   -0.012556769144238311   -0.0754023732697206
-6.453890767683093   -0.012556769144238311   -0.0754023732697206
-6.453890767683093   -0.012556769144238311   -0.0754023732697206
-7.547493836792894   -0.021830074992570614   0.08341912331929474
-7.547493836792894   -0.021830074992570614   0.08341912331929474
-7.547493836792894   -0.021830074992570614   0.08341912331929474
-7.547493836792894   -0.021830074992570614   0.08341912331929474
5.1146598851956835   0.28258885684099677   -0.24779604552600668
5.1146598851956835   0.28258885684099677   -0.24779604552600668
5.1146598851956835   0.28258885684099677   -0.24779604552600668
5.1146598851956835   0.28258885684099677   -0.24779604552600668
2.435928573189146   0.05225124711650464   0.09528681260032595
2.435928573189146   0.05225124711650464   0.09528681260032595
2.435928573189146   0.05225124711650464   0.09528681260032595
2.435928573189146   0.05225124711650464   0.09528681260032595
2.1602253633736432   -0.4172991890167044   -0.23483654300776982
2.1602253633736432   -0.4172991890167044   -0.23483654300776982
2.1602253633736432   -0.4172991890167044   -0.23483654300776982
2.1602253633736432   -0.4172991890167044   -0.23483654300776982
5.001788621345519   0.47194472816706323   0.11770862954234274
5.001788621345519   0.47194472816706323   0.11770862954234274
5.001788621345519   0.47194472816706323   0.11770862954234274
5.001788621345519   0.47194472816706323   0.11770862954234274
3.488191504179481   0.047310668289944346   -0.10305548302789821
3.488191504179481   0.047310668289944346   -0.10305548302789821
3.488191504179481   0.047310668289944346   -0.10305548302789821
3.488191504179481   0.047310668289944346   -0.10305548302789821
4.861722187735703   0.12319310199114675   -0.23387191233081944
4.861722187735703   0.12319310199114675   -0.23387191233081944
4.861722187735703   0.12319310199114675   -0.23387191233081944
4.861722187735703   0.12319310199114675   -0.23387191233081944
2.297505103299849   -0.07133425652435987   0.10559722413089673
2.297505103299849   -0.07133425652435987   0.10559722413089673
2.297505103299849   -0.07133425652435987   0.10559722413089673
2.297505103299849   -0.07133425652435987   0.10559722413089673
2.031264034884982   -0.45871170678242074   -0.20003946954871515
2.031264034884982   -0.45871170678242074   -0.20003946954871515
2.031264034884982   -0.45871170678242074   -0.20003946954871515
2.031264034884982   -0.45871170678242074   -0.20003946954871515
4.801310861337505   0.412871187998781   0.15436782213998956
4.801310861337505   0.412871187998781   0.15436782213998956
4.801310861337505   0.412871187998781   0.15436782213998956
4.801310861337505   0.412871187998781   0.15436782213998956
3.3716291091468973   -0.024195940663811366   -0.1456853324556931
3.3716291091468973   -0.024195940663811366   -0.1456853324556931
3.3716291091468973   -0.024195940663811366   -0.1456853324556931
3.3716291091468973   -0.024195940663811366   -0.1456853324556931
4.664599813225563   0.07058341392605005   -0.18689964434694245
4.664599813225563   0.07058341392605005   -0.18689964434694245
4.664599813225563   0.07058341392605005   -0.18689964434694245
4.664599813225563   0.07058341392605005   -0.18689964434694245
2.164523480147648   -0.11987553555896158   0.12742158554113336
2.164523480147648   -0.11987553555896158   0.12742158554113336
2.164523480147648   -0.11987553555896158   0.12742158554113336
2.164523480147648   -0.11987553555896158   0.12742158554113336
1.9148822649878083   -0.48523628978657724   -0.16654022790636505
1.9148822649878083   -0.48523628978657724   -0.16654022790636505
1.9148822649878083   -0.48523628978657724   -0.16654022790636505
1.9148822649878083   -0.48523628978657724   -0.16654022790636505
4.57537859706246   0.3481783398774846   0.18300364830240276
4.57537859706246   0.3481783398774846   0.18300364830240276
4.57537859706246   0.3481783398774846   0.18300364830240276
4.57537859706246   0.3481783398774846   0.18300364830240276
3.1446516205835247   -0.0785869588094329   -0.2081719189261796
3.1446516205835247   -0.0785869588094329   -0.2081719189261796
3.1446516205835247   -0.0785869588094329   -0.2081719189261796
3.1446516205835247   -0.0785869588094329   -0.2081719189261796
2.4751279695830064   0.35994268804060936   -0.01640764635443292
2.4751279695830064   0.35994268804060936   -0.01640764635443292
2.4751279695830064   0.35994268804060936   -0.01640764635443292
2.4751279695830064   0.35994268804060936   -0.01640764635443292
-0.15802810969143413   -0.03265675842429239   -0.00029632229153879014
-0.15802810969143413   -0.03265675842429239   -0.00029632229153879014
-0.15802810969143413   -0.03265675842429239   -0.00029632229153879014
-0.15802810969143413   -0.03265675842429239   -0.00029632229153879014
-0.35222095640388185   -0.3113377610330984   -0.1487839898090075
-0.35222095640388185   -0.3113377610330984   -0.1487839898090075
-0.35222095640388185   -0.3113377610330984   -0.1487839898090075
-0.35222095640388185   -0.3113377610330984   -0.1487839898090075
2.4093926653217568   0.42847616342710737   0.1652246142889686
2.4093926653217568   0.42847616342710737   0.1652246142889686
2.4093926653217568   0.42847616342710737   0.1652246142889686
2.4093926653217568   0.42847616342710737   0.1652246142889686
1.0767671157616236   0.10618133662289318   0.007421961976643281
1.0767671157616236   0.10618133662289318   0.007421961976643281
1.0767671157616236   0.10618133662289318   0.007421961976643281
1.0767671157616236   0.10618133662289318   0.007421961976643281
2.3435898144873333   0.25876541317978563   0.005921110364197867
2.3435898144873333   0.25876541317978563   0.005921110364197867
2.3435898144873333   0.25876541317978563   0.005921110364197867
2.3435898144873333   0.25876541317978563   0.005921110364197867
-0.2852731952517224   -0.1404821004680775   0.015099155386768672
-0.2852731952517224   -0.1404821004680775   0.015099155386768672
-0.2852731952517224   -0.1404821004680775   0.015099155386768672
-0.2852731952517224   -0.1404821004680775   0.015099155386768672
-0.4737275093644754   -0.3896387583452923   -0.12281267003600937
-0.4737275093644754   -0.3896387583452923   -0.12281267003600937
-0.4737275093644754   -0.3896387583452923   -0.12281267003600937
-0.4737275093644754   -0.3896387583452923   -0.12281267003600937
2.2662157437660335   0.33533430378757956   0.18067306428652158
2.2662157437660335   0.33533430378757956   0.18067306428652158
2.2662157437660335   0.33533430378757956   0.18067306428652158
2.2662157437660335   0.33533430378757956   0.18067306428652158
0.9273504814102425   0.01419124757719925   -0.03879854413081331
0.9273504814102425   0.01419124757719925   -0.03879854413081331
0.9273504814102425   0.01419124757719925   -0.03879854413081331
0.9273504814102425   0.01419124757719925   -0.03879854413081331
2.2025713708869525   0.1747838770399487   0.023001626638767453
2.2025713708869525   0.1747838770399487   0.023001626638767453
2.2025713708869525   0.1747838770399487   0.023001626638767453
2.2025713708869525   0.1747838770399487   0.023001626638767453
-0.41097052981962345   -0.2299757249318872   0.03130919427484516
-0.41097052981962345   -0.2299757249318872   0.03130919427484516
-0.41097052981962345   -0.2299757249318872   0.03130919427484516
-0.41097052981962345   -0.2299757249318872   0.03130919427484516
-0.5936927894746491   -0.4557578504035319   -0.09840423494302411
-0.5936927894746491   -0.4557578504035319   -0.09840423494302411
-0.5936927894746491   -0.4557578504035319   -0.09840423494302411
-0.5936927894746491   -0.4557578504035319   -0.09840423494302411
2.134028525800781   0.2488809038236345   0.1950738825482792
2.134028525800781   0.2488809038236345   0.1950738825482792
2.134028525800781   0.2488809038236345   0.1950738825482792
2.134028525800781   0.2488809038236345   0.1950738825482792
0.8122400346317414   -0.055975685022041116   -0.07745132800796434
0.8122400346317414   -0.055975685022041116   -0.07745132800796434
0.8122400346317414   -0.055975685022041116   -0.07745132800796434
0.8122400346317414   -0.055975685022041116   -0.07745132800796434
-0.053183292960924944   0.43164992320875933   0.05962107972795541
-0.053183292960924944   0.43164992320875933   0.05962107972795541
-0.053183292960924944   0.43164992320875933   0.05962107972795541
-0.053183292960924944   0.43164992320875933   0.05962107972795541
-2.696507334535425   -0.11475209805294528   -0.08946823603828083
-2.696507334535425   -0.11475209805294528   -0.08946823603828083
-2.696507334535425   -0.11475209805294528   -0.08946823603828083
-2.696507334535425   -0.11475209805294528   -0.08946823603828083
-2.821704775555834   -0.2142264805948343   -0.06965704220096103
-2.821704775555834   -0.2142264805948343   -0.06965704220096103
-2.821704775555834   -0.2142264805948343   -0.06965704220096103
-2.821704775555834   -0.2142264805948343   -0.06965704220096103
-0.17662654823002547   0.34611245695131204   0.07173783307586382
-0.17662654823002547   0.34611245695131204   0.07173783307586382
-0.17662654823002547   0.34611245695131204   0.07173783307586382
-0.17662654823002547   0.34611245695131204   0.07173783307586382
-1.4336155011841472   0.11304440706794694   0.028166907008515957
-1.4336155011841472   0.11304440706794694   0.028166907008515957
-1.4336155011841472   0.11304440706794694   0.028166907008515957
-1.4336155011841472   0.11304440706794694   0.028166907008515957
-0.17413332179982605   0.34606875252682845   0.08424766965134464
-0.17413332179982605   0.34606875252682845   0.08424766965134464
-0.17413332179982605   0.34606875252682845   0.08424766965134464
-0.17413332179982605   0.34606875252682845   0.08424766965134464
-2.8218332974438103   -0.21181807162808658   -0.07270806060758965
-2.8218332974438103   -0.21181807162808658   -0.07270806060758965
-2.8218332974438103   -0.21181807162808658   -0.07270806060758965
-2.8218332974438103   -0.21181807162808658   -0.07270806060758965
-2.946150766655652   -0.29898085282504905   -0.04694891883677954
-2.946150766655652   -0.29898085282504905   -0.04694891883677954
-2.946150766655652   -0.29898085282504905   -0.04694891883677954
-2.946150766655652   -0.29898085282504905   -0.04694891883677954
-0.30327158700083745   0.2501935719219377   0.08963461151495022
-0.30327158700083745   0.2501935719219377   0.08963461151495022
-0.30327158700083745   0.2501935719219377   0.08963461151495022
-0.30327158700083745   0.2501935719219377   0.08963461151495022
-1.5593404776256687   0.029603225792303678   -0.009409856358939678
-1.5593404776256687   0.029603225792303678   -0.009409856358939678
-1.5593404776256687   0.029603225792303678   -0.009409856358939678
-1.5593404776256687   0.029603225792303678   -0.009409856358939678
-0.29828442151300305   0.2607791684550405   0.10398484242101957
-0.29828442151300305   0.2607791684550405   0.10398484242101957
-0.29828442151300305   0.2607791684550405   0.10398484242101957
-0.29828442151300305   0.2607791684550405   0.10398484242101957
-2.950411915179774   -0.30884043239443953   -0.05839508188799973
-2.950411915179774   -0.30884043239443953   -0.05839508188799973
-2.950411915179774   -0.30884043239443953   -0.05839508188799973
-2.950411915179774   -0.30884043239443953   -0.05839508188799973
-3.0691859295593753   -0.3764466414214966   -0.024499845986816607
-3.0691859295593753   -0.3764466414214966   -0.024499845986816607
-3.0691859295593753   -0.3764466414214966   -0.024499845986816607
-3.0691859295593753   -0.3764466414214966   -0.024499845986816607
-0.430395256643379   0.1574218207611164   0.10490375804869326
-0.430395256643379   0.1574218207611164   0.10490375804869326
-0.430395256643379   0.1574218207611164   0.10490375804869326
-0.430395256643379   0.1574218207611164   0.10490375804869326
-1.6907842099797978   -0.054564789359589305   -0.051225375325460454
-1.6907842099797978   -0.054564789359589305   -0.051225375325460454
-1.6907842099797978   -0.054564789359589305   -0.051225375325460454
-1.6907842099797978   -0.054564789359589305   -0.051225375325460454
-2.5300679297244213   0.49705088906622674   0.13092580089753375
-2.5300679297244213   0.49705088906622674   0.13092580089753375
-2.5300679297244213   0.49705088906622674   0.13092580089753375
-2.5300679297244213   0.49705088906622674   0.13092580089753375
-5.174363167337988   -0.19843483038905374   -0.16179767088136043
-5.174363167337988   -0.19843483038905374   -0.16179767088136043
-5.174363167337988   -0.19843483038905374   -0.16179767088136043
-5.174363167337988   -0.19843483038905374   -0.16179767088136043
-5.242893679814916   -0.13197339464385194   0.016606188643338016
-5.242893679814916   -0.13197339464385194   0.016606188643338016
-5.242893679814916   -0.13197339464385194   0.016606188643338016
-5.242893679814916   -0.13197339464385194   0.016606188643338016
-2.71959073976047   0.24818429471145143   -0.021497638530410423
-2.71959073976047   0.24818429471145143   -0.021497638530410423
-2.71959073976047   0.24818429471145143   -0.021497638530410423
-2.71959073976047   0.24818429471145143   -0.021497638530410423
-3.8914236848266546   0.10880232611177276   0.04778372041287515
-3.8914236848266546   0.10880232611177276   0.04778372041287515
-3.8914236848266546   0.10880232611177276   0.04778372041287515
-3.8914236848266546   0.10880232611177276   0.04778372041287515
-2.651208548704689   0.41396826345126014   0.15462934800867195
-2.651208548704689   0.41396826345126014   0.15462934800867195
-2.651208548704689   0.41396826345126014   0.15462934800867195
-2.651208548704689   0.41396826345126014   0.15462934800867195
-5.310578556505158   -0.29706004901812366   -0.15673154043359805
-5.310578556505158   -0.29706004901812366   -0.15673154043359805
-5.310578556505158   -0.29706004901812366   -0.15673154043359805
-5.310578556505158   -0.29706004901812366   -0.15673154043359805
-5.387767328263627   -0.21762592406731474   0.02520269768596564
-5.387767328263627   -0.21762592406731474   0.02520269768596564
-5.387767328263627   -0.21762592406731474   0.02520269768596564
-5.387767328263627   -0.21762592406731474   0.02520269768596564
-2.845742726648851   0.15936396707929634   -0.0032535387071196686
-2.845742726648851   0.15936396707929634   -0.0032535387071196686
-2.845742726648851   0.15936396707929634   -0.0032535387071196686
-2.845742726648851   0.15936396707929634   -0.0032535387071196686
-3.9981729914942328   0.03412856872511283   0.01275427345999361
-3.9981729914942328   0.03412856872511283   0.01275427345999361
-3.9981729914942328   0.03412856872511283   0.01275427345999361
-3.9981729914942328   0.03412856872511283   0.01275427345999361
-2.774540438620991   0.3353360733552616   0.17678579515621187
-2.774540438620991   0.3353360733552616   0.17678579515621187
-2.774540438620991   0.3353360733552616   0.17678579515621187
-2.774540438620991   0.3353360733552616   0.17678579515621187
-5.455279308373427   -0.3899077224252213   -0.1400754045051308
-5.455279308373427   -0.3899077224252213   -0.1400754045051308
-5.455279308373427   -0.3899077224252213   -0.1400754045051308
-5.455279308373427   -0.3899077224252213   -0.1400754045051308
-5.519300252895967   -0.3096613202125448   0.05209481947404218
-5.519300252895967   -0.3096613202125448   0.05209481947404218
-5.519300252895967   -0.3096613202125448   0.05209481947404218
-5.519300252895967   -0.3096613202125448   0.05209481947404218
-2.975408242605365   0.05797350687999869   0.009968440481771312
-2.975408242605365   0.05797350687999869   0.009968440481771312
-2.975408242605365   0.05797350687999869   0.009968440481771312
-2.975408242605365   0.05797350687999869   0.009968440481771312
-4.15963972052344   -0.05902788379982804   -0.031527808598329404
-4.15963972052344   -0.05902788379982804   -0.031527808598329404
-4.15963972052344   -0.05902788379982804   -0.031527808598329404
-4.15963972052344   -0.05902788379982804   -0.031527808598329404
-4.976072408487235   0.4457134759547583   0.18550781702859326
-4.976072408487235   0.4457134759547583   0.18550781702859326
-4.976072408487235   0.4457134759547583   0.18550781702859326
-4.976072408487235   0.4457134759547583   0.18550781702859326
-7.525694939975432   -0.3465773152463305   -0.17968544657127195
-7.525694939975432   -0.3465773152463305   -0.17968544657127195
-7.525694939975432   -0.3465773152463305   -0.17968544657127195
-7.525694939975432   -0.3465773152463305   -0.17968544657127195
-7.611127504174454   -0.0701102343057034   0.1712664999734117
-7.611127504174454   -0.0701102343057034   0.1712664999734117
-7.611127504174454   -0.0701102343057034   0.1712664999734117
-7.611127504174454   -0.0701102343057034   0.1712664999734117
-5.216341943424837   0.12324827997566334   -0.10585680402578379
-5.216341943424837   0.12324827997566334   -0.10585680402578379
-5.216341943424837   0.12324827997566334   -0.10585680402578379
-5.216341943424837   0.12324827997566334   -0.10585680402578379
-6.052522678518467   0.10123913759069603   0.14748431433169323
-6.052522678518467   0.10123913759069603   0.14748431433169323
-6.052522678518467   0.10123913759069603   0.14748431433169323
-6.052522678518467   0.10123913759069603   0.14748431433169323
-5.087538233270171   0.44386360435421435   0.21754642236896266
-5.087538233270171   0.44386360435421435   0.21754642236896266
-5.087538233270171   0.44386360435421435   0.21754642236896266
-5.087538233270171   0.44386360435421435   0.21754642236896266
-7.737693680045752   -0.3884880244008857   -0.14318658928786077
-7.737693680045752   -0.3884880244008857   -0.14318658928786077
-7.737693680045752   -0.3884880244008857   -0.14318658928786077
-7.737693680045752   -0.3884880244008857   -0.14318658928786077
-7.800629891406263   -0.11524538749203028   0.2143169917080367
-7.800629891406263   -0.11524538749203028   0.2143169917080367
-7.800629891406263   -0.11524538749203028   0.2143169917080367
-7.800629891406263   -0.11524538749203028   0.2143169917080367
-5.352535552826878   0.07453881724726119   -0.09080316644486525
-5.352535552826878   0.07453881724726119   -0.09080316644486525
-5.352535552826878   0.07453881724726119   -0.09080316644486525
-5.352535552826878   0.07453881724726119   -0.09080316644486525
-6.315586915486983   0.05074473653089284   0.08880014843609235
-6.315586915486983   0.05074473653089284   0.08880014843609235
-6.315586915486983   0.05074473653089284   0.08880014843609235
-6.315586915486983   0.05074473653089284   0.08880014843609235
-5.215896223723909   0.4101870058052355   0.25674529051200995
-5.215896223723909   0.4101870058052355   0.25674529051200995
-5.215896223723909   0.4101870058052355   0.25674529051200995
-5.215896223723909   0.4101870058052355   0.25674529051200995
-7.933644189684541   -0.4472685452253433   -0.11873134194997909
-7.933644189684541   -0.4472685452253433   -0.11873134194997909
-7.933644189684541   -0.4472685452253433   -0.11873134194997909
-7.933644189684541   -0.4472685452253433   -0.11873134194997909
-8.05069386332921   -0.274655826223557   0.21090543697955727
-8.05069386332921   -0.274655826223557   0.21090543697955727
-8.05069386332921   -0.274655826223557   0.21090543697955727
-8.05069386332921   -0.274655826223557   0.21090543697955727
-5.496195010549336   -0.05980274045839851   -0.08223754854694781
-5.496195010549336   -0.05980274045839851   -0.08223754854694781
-5.496195010549336   -0.05980274045839851   -0.08223754854694781
-5.496195010549336   -0.05980274045839851   -0.08223754854694781
-6.385586398851192   -0.011663955379585422   0.06884356886564758
-6.385586398851192   -0.011663955379585422   0.06884356886564758
-6.385586398851192   -0.011663955379585422   0.06884356886564758
-6.385586398851192   -0.011663955379585422   0.06884356886564758
3.490871739142613   0.19626018675083678   -0.23961165518148064
3.490871739142613   0.19626018675083678   -0.23961165518148064
3.490871739142613   0.19626018675083678   -0.23961165518148064
3.490871739142613   0.19626018675083678   -0.23961165518148064
1.4912874701993784   0.09858780540977405   0.10349231402129574
1.4912874701993784   0.09858780540977405   0.10349231402129574
1.4912874701993784   0.09858780540977405   0.10349231402129574
1.4912874701993784   0.09858780540977405   0.10349231402129574
1.2438156613210531   -0.34782165998501785   -0.22315035119359716
1.2438156613210531   -0.34782165998501785   -0.22315035119359716
1.2438156613210531   -0.34782165998501785   -0.22315035119359716
1.2438156613210531   -0.34782165998501785   -0.22315035119359716
3.407106931017054   0.3988776707509827   0.1256631630415757
3.407106931017054   0.3988776707509827   0.1256631630415757
3.407106931017054   0.3988776707509827   0.1256631630415757
3.407106931017054   0.3988776707509827   0.1256631630415757
2.2806535405773243   0.05075751978967691   -0.06237511587867697
2.2806535405773243   0.05075751978967691   -0.06237511587867697
2.2806535405773243   0.05075751978967691   -0.06237511587867697
2.2806535405773243   0.05075751978967691   -0.06237511587867697
3.268992152026795   0.05719758013595555   -0.2232306412947175
3.268992152026795   0.05719758013595555   -0.2232306412947175
3.268992152026795   0.05719758013595555   -0.2232306412947175
3.268992152026795   0.05719758013595555   -0.2232306412947175
1.379341096347677   -0.008730913333584889   0.11538607728811479
1.379341096347677   -0.008730913333584889   0.11538607728811479
1.379341096347677   -0.008730913333584889   0.11538607728811479
1.379341096347677   -0.008730913333584889   0.11538607728811479
1.1382215245562293   -0.3885612206751168   -0.1897048844479786
1.1382215245562293   -0.3885612206751168   -0.1897048844479786
1.1382215245562293   -0.3885612206751168   -0.1897048844479786
1.1382215245562293   -0.3885612206751168   -0.1897048844479786
3.2334952586560535   0.34111013880825625   0.1615723685034735
3.2334952586560535   0.34111013880825625   0.1615723685034735
3.2334952586560535   0.34111013880825625   0.1615723685034735
3.2334952586560535   0.34111013880825625   0.1615723685034735
2.170652489463966   -0.016226311848415997   -0.10243291156353605
2.170652489463966   -0.016226311848415997   -0.10243291156353605
2.170652489463966   -0.016226311848415997   -0.10243291156353605
2.170652489463966   -0.016226311848415997   -0.10243291156353605
3.0977396502756944   0.005053562033628056   -0.1811490966237201
3.0977396502756944   0.005053562033628056   -0.1811490966237201
3.0977396502756944   0.005053562033628056   -0.1811490966237201
3.0977396502756944   0.005053562033628056   -0.1811490966237201
1.2701967347079346   -0.05628504212914531   0.13789498776458464
1.2701967347079346   -0.05628504212914531   0.13789498776458464
1.2701967347079346   -0.05628504212914531   0.13789498776458464
1.2701967347079346   -0.05628504212914531   0.13789498776458464
1.0437166794902095   -0.4263621945762067   -0.15803710639380333
1.0437166794902095   -0.4263621945762067   -0.15803710639380333
1.0437166794902095   -0.4263621945762067   -0.15803710639380333
1.0437166794902095   -0.4263621945762067   -0.15803710639380333
3.031030939348947   0.2646158504964202   0.18410622355887404
3.031030939348947   0.2646158504964202   0.18410622355887404
3.031030939348947   0.2646158504964202   0.18410622355887404
3.031030939348947   0.2646158504964202   0.18410622355887404
1.9869988765431963   -0.071497147998548   -0.15702251818930021
1.9869988765431963   -0.071497147998548   -0.15702251818930021
1.9869988765431963   -0.071497147998548   -0.15702251818930021
1.9869988765431963   -0.071497147998548   -0.15702251818930021
1.5000402116011606   0.2901541129837711   -0.044310286543816316
1.5000402116011606   0.2901541129837711   -0.044310286543816316
1.5000402116011606   0.2901541129837711   -0.044310286543816316
1.5000402116011606   0.2901541129837711   -0.044310286543816316
-0.46470130952715094   0.027147784881407094   0.014723484730841112
-0.46470130952715094   0.027147784881407094   0.014723484730841112
-0.46470130952715094   0.027147784881407094   0.014723484730841112
-0.46470130952715094   0.027147784881407094   0.014723484730841112
-0.633870340696815   -0.24063337916250105   -0.13706009264025668
-0.633870340696815   -0.24063337916250105   -0.13706009264025668
-0.633870340696815   -0.24063337916250105   -0.13706009264025668
-0.633870340696815   -0.24063337916250105   -0.13706009264025668
1.4572250446086086   0.34926053119833333   0.14681437406085365
1.4572250446086086   0.34926053119833333   0.14681437406085365
1.4572250446086086   0.34926053119833333   0.14681437406085365
1.4572250446086086   0.34926053119833333   0.14681437406085365
0.4544428508950658   0.10134686037480228   0.01732315452536013
0.4544428508950658   0.10134686037480228   0.01732315452536013
0.4544428508950658   0.10134686037480228   0.01732315452536013
0.4544428508950658   0.10134686037480228   0.01732315452536013
1.3905433379188359   0.18682887454228503   -0.0241625027319769
1.3905433379188359   0.18682887454228503   -0.0241625027319769
1.3905433379188359   0.18682887454228503   -0.0241625027319769
1.3905433379188359   0.18682887454228503   -0.0241625027319769
-0.5681406088776019   -0.07915369737701496   0.03010888467032255
-0.5681406088776019   -0.07915369737701496   0.03010888467032255
-0.5681406088776019   -0.07915369737701496   0.03010888467032255
-0.5681406088776019   -0.07915369737701496   0.03010888467032255
-0.7321240090180878   -0.3226074761261738   -0.11069608249812367
-0.7321240090180878   -0.3226074761261738   -0.11069608249812367
-0.7321240090180878   -0.3226074761261738   -0.11069608249812367
-0.7321240090180878   -0.3226074761261738   -0.11069608249812367
1.3367824935546324   0.2549318337272555   0.15960690614167394
1.3367824935546324   0.2549318337272555   0.15960690614167394
1.3367824935546324   0.2549318337272555   0.15960690614167394
1.3367824935546324   0.2549318337272555   0.15960690614167394
0.3335281046334887   0.009000654385045222   -0.027042590691919423
0.3335281046334887   0.009000654385045222   -0.027042590691919423
0.3335281046334887   0.009000654385045222   -0.027042590691919423
0.3335281046334887   0.009000654385045222   -0.027042590691919423
1.2722076447566295   0.09894247525347788   -0.007277979374582411
1.2722076447566295   0.09894247525347788   -0.007277979374582411
1.2722076447566295   0.09894247525347788   -0.007277979374582411
1.2722076447566295   0.09894247525347788   -0.007277979374582411
-0.6699974412701055   -0.16906639870241752   0.04639567881804695
-0.6699974412701055   -0.16906639870241752   0.04639567881804695
-0.6699974412701055   -0.16906639870241752   0.04639567881804695
-0.6699974412701055   -0.16906639870241752   0.04639567881804695
-0.8291060317263378   -0.400026392099447   -0.08632803954000967
-0.8291060317263378   -0.400026392099447   -0.08632803954000967
-0.8291060317263378   -0.400026392099447   -0.08632803954000967
-0.8291060317263378   -0.400026392099447   -0.08632803954000967
1.2280906222660124   0.16394969933916811   0.1735207135698629
1.2280906222660124   0.16394969933916811   0.1735207135698629
1.2280906222660124   0.16394969933916811   0.1735207135698629
1.2280906222660124   0.16394969933916811   0.1735207135698629
0.23606259074126063   -0.06805803383795188   -0.06635433700500351
0.23606259074126063   -0.06805803383795188   -0.06635433700500351
0.23606259074126063   -0.06805803383795188   -0.06635433700500351
0.23606259074126063   -0.06805803383795188   -0.06635433700500351
-0.39222738511249955   0.3707047644803308   0.03353612720517429
-0.39222738511249955   0.3707047644803308   0.03353612720517429
-0.39222738511249955   0.3707047644803308   0.03353612720517429
-0.39222738511249955   0.3707047644803308   0.03353612720517429
-2.3920546792857498   -0.05827991621720896   -0.07250453316470129
-2.3920546792857498   -0.05827991621720896   -0.07250453316470129
-2.3920546792857498   -0.05827991621720896   -0.07250453316470129
-2.3920546792857498   -0.05827991621720896   -0.07250453316470129
-2.488846340725423   -0.14132936635008153   -0.053251490935706164
-2.488846340725423   -0.14132936635008153   -0.053251490935706164
-2.488846340725423   -0.14132936635008153   -0.053251490935706164
-2.488846340725423   -0.14132936635008153   -0.053251490935706164
-0.49369586567689916   0.26640323897684237   0.056775664319978505
-0.49369586567689916   0.26640323897684237   0.056775664319978505
-0.49369586567689916   0.26640323897684237   0.056775664319978505
-0.49369586567689916   0.26640323897684237   0.056775664319978505
-1.4382253599957655   0.10776753305003861   0.028259133881395726
-1.4382253599957655   0.10776753305003861   0.028259133881395726
-1.4382253599957655   0.10776753305003861   0.028259133881395726
-1.4382253599957655   0.10776753305003861   0.028259133881395726
-0.49055171412005016   0.2806331578119563   0.058266503269109884
-0.49055171412005016   0.2806331578119563   0.058266503269109884
-0.49055171412005016   0.2806331578119563   0.058266503269109884
-0.49055171412005016   0.2806331578119563   0.058266503269109884
-2.4922270465311915   -0.15579583943411507   -0.05568854688051596
-2.4922270465311915   -0.15579583943411507   -0.05568854688051596
-2.4922270465311915   -0.15579583943411507   -0.05568854688051596
-2.4922270465311915   -0.15579583943411507   -0.05568854688051596
-2.5880892543120146   -0.23064167851501055   -0.029723973358613806
-2.5880892543120146   -0.23064167851501055   -0.029723973358613806
-2.5880892543120146   -0.23064167851501055   -0.029723973358613806
-2.5880892543120146   -0.23064167851501055   -0.029723973358613806
-0.5967842810749289   0.16932015948769646   0.07407492160380097
-0.5967842810749289   0.16932015948769646   0.07407492160380097
-0.5967842810749289   0.16932015948769646   0.07407492160380097
-0.5967842810749289   0.16932015948769646   0.07407492160380097
-1.540272661985041   0.020931889485556077   -0.009943252877411948
-1.540272661985041   0.020931889485556077   -0.009943252877411948
-1.540272661985041   0.020931889485556077   -0.009943252877411948
-1.540272661985041   0.020931889485556077   -0.009943252877411948
-0.5915093824801811   0.1904775044467717   0.07929206961846387
-0.5915093824801811   0.1904775044467717   0.07929206961846387
-0.5915093824801811   0.1904775044467717   0.07929206961846387
-0.5915093824801811   0.1904775044467717   0.07929206961846387
-2.594892947502951   -0.2533278180702747   -0.041056299758032766
-2.594892947502951   -0.2533278180702747   -0.041056299758032766
-2.594892947502951   -0.2533278180702747   -0.041056299758032766
-2.594892947502951   -0.2533278180702747   -0.041056299758032766
-2.6857094642956114   -0.3159990348182543   -0.006886312195928536
-2.6857094642956114   -0.3159990348182543   -0.006886312195928536
-2.6857094642956114   -0.3159990348182543   -0.006886312195928536
-2.6857094642956114   -0.3159990348182543   -0.006886312195928536
-0.6989591649948774   0.07496940683689204   0.08941049518095295
-0.6989591649948774   0.07496940683689204   0.08941049518095295
-0.6989591649948774   0.07496940683689204   0.08941049518095295
-0.6989591649948774   0.07496940683689204   0.08941049518095295
-1.646480408439778   -0.06601823166909565   -0.0513266566724291
-1.646480408439778   -0.06601823166909565   -0.0513266566724291
-1.646480408439778   -0.06601823166909565   -0.0513266566724291
-1.646480408439778   -0.06601823166909565   -0.0513266566724291
-2.2561139360842395   0.43946533613591365   0.10945393048972807
-2.2561139360842395   0.43946533613591365   0.10945393048972807
-2.2561139360842395   0.43946533613591365   0.10945393048972807
-2.2561139360842395   0.43946533613591365   0.10945393048972807
-4.283456846003675   -0.14302512519367683   -0.14818187828987836
-4.283456846003675   -0.14302512519367683   -0.14818187828987836
-4.283456846003675   -0.14302512519367683   -0.14818187828987836
-4.283456846003675   -0.14302512519367683   -0.14818187828987836
-4.319964877261106   -0.06024709837523734   0.036719533536782256
-4.319964877261106   -0.06024709837523734   0.036719533536782256
-4.319964877261106   -0.06024709837523734   0.036719533536782256
-4.319964877261106   -0.06024709837523734   0.036719533536782256
-2.4216694903917944   0.17339575543731556   -0.032092361055005264
-2.4216694903917944   0.17339575543731556   -0.032092361055005264
-2.4216694903917944   0.17339575543731556   -0.032092361055005264
-2.4216694903917944   0.17339575543731556   -0.032092361055005264
-3.3007749866570824   0.10344963715864808   0.04116093926935013
-3.3007749866570824   0.10344963715864808   0.04116093926935013
-3.3007749866570824   0.10344963715864808   0.04116093926935013
-3.3007749866570824   0.10344963715864808   0.04116093926935013
-2.3525823593046233   0.35269442372695425   0.13404462609125745
-2.3525823593046233   0.35269442372695425   0.13404462609125745
-2.3525823593046233   0.35269442372695425   0.13404462609125745
-2.3525823593046233   0.35269442372695425   0.13404462609125745
-4.392008564971645   -0.24250232328824162   -0.14124368010294033
-4.392008564971645   -0.24250232328824162   -0.14124368010294033
-4.392008564971645   -0.24250232328824162   -0.14124368010294033
-4.392008564971645   -0.24250232328824162   -0.14124368010294033
-4.436884500011491   -0.14867689970630826   0.047683900727498146
-4.436884500011491   -0.14867689970630826   0.047683900727498146
-4.436884500011491   -0.14867689970630826   0.047683900727498146
-4.436884500011491   -0.14867689970630826   0.047683900727498146
-2.5219587807490664   0.08396870148194857   -0.013681985540879738
-2.5219587807490664   0.08396870148194857   -0.013681985540879738
-2.5219587807490664   0.08396870148194857   -0.013681985540879738
-2.5219587807490664   0.08396870148194857   -0.013681985540879738
-3.386996029914082   0.024533495988685594   0.002811700461901101
-3.386996029914082   0.024533495988685594   0.002811700461901101
-3.386996029914082   0.024533495988685594   0.002811700461901101
-3.386996029914082   0.024533495988685594   0.002811700461901101
-2.4504016355477254   0.2705811511920889   0.1574912907557173
-2.4504016355477254   0.2705811511920889   0.1574912907557173
-2.4504016355477254   0.2705811511920889   0.1574912907557173
-2.4504016355477254   0.2705811511920889   0.1574912907557173
-4.508666642686015   -0.335514346889635   -0.12438936546184998
-4.508666642686015   -0.335514346889635   -0.12438936546184998
-4.508666642686015   -0.335514346889635   -0.12438936546184998
-4.508666642686015   -0.335514346889635   -0.12438936546184998
-4.541109821830866   -0.24272134333726125   0.07219576862097349
-4.541109821830866   -0.24272134333726125   0.07219576862097349
-4.541109821830866   -0.24272134333726125   0.07219576862097349
-4.541109821830866   -0.24272134333726125   0.07219576862097349
-2.623977549614574   -0.015015097535614141   0.0007893239265718277
-2.623977549614574   -0.015015097535614141   0.0007893239265718277
-2.623977549614574   -0.015015097535614141   0.0007893239265718277
-2.623977549614574   -0.015015097535614141   0.0007893239265718277
-3.5155425440558483   -0.06667226970394113   -0.041543750956716946
-3.5155425440558483   -0.06667226970394113   -0.041543750956716946
-3.5155425440558483   -0.06667226970394113   -0.041543750956716946
-3.5155425440558483   -0.06667226970394113   -0.041543750956716946
-4.109333636250222   0.4070948698914236   0.17231417539228822
-4.109333636250222   0.4070948698914236   0.17231417539228822
-4.109333636250222   0.4070948698914236   0.17231417539228822
-4.109333636250222   0.4070948698914236   0.17231417539228822
-6.057908363494028   -0.2781354793287014   -0.19378624730865435
-6.057908363494028   -0.2781354793287014   -0.19378624730865435
-6.057908363494028   -0.2781354793287014   -0.19378624730865435
-6.057908363494028   -0.2781354793287014   -0.19378624730865435
-6.1175672926189275   -0.0016399165292599882   0.17092756264344322
-6.1175672926189275   -0.0016399165292599882   0.17092756264344322
-6.1175672926189275   -0.0016399165292599882   0.17092756264344322
-6.1175672926189275   -0.0016399165292599882   0.17092756264344322
-4.327111679533821   0.057538536462566015   -0.11680011266465729
-4.327111679533821   0.057538536462566015   -0.11680011266465729
-4.327111679533821   0.057538536462566015   -0.11680011266465729
-4.327111679533821   0.057538536462566015   -0.11680011266465729
-4.9265546960965905   0.09543377845790624   0.1240736878789292
-4.9265546960965905   0.09543377845790624   0.1240736878789292
-4.9265546960965905   0.09543377845790624   0.1240736878789292
-4.9265546960965905   0.09543377845790624   0.1240736878789292
-4.196820346399094   0.38896914840027685   0.20322594107129466
-4.196820346399094   0.38896914840027685   0.20322594107129466
-4.196820346399094   0.38896914840027685   0.20322594107129466
-4.196820346399094   0.38896914840027685   0.20322594107129466
-6.250362828859917   -0.33557473157321893   -0.15911530351748593
-6.250362828859917   -0.33557473157321893   -0.15911530351748593
-6.250362828859917   -0.33557473157321893   -0.15911530351748593
-6.250362828859917   -0.33557473157321893   -0.15911530351748593
-6.282551405472598   -0.050203985303719056   0.21549867344619994
-6.282551405472598   -0.050203985303719056   0.21549867344619994
-6.282551405472598   -0.050203985303719056   0.21549867344619994
-6.282551405472598   -0.050203985303719056   0.21549867344619994
-4.43491404860421   0.008486308524429997   -0.09962705046692039
-4.43491404860421   0.008486308524429997   -0.09962705046692039
-4.43491404860421   0.008486308524429997   -0.09962705046692039
-4.43491404860421   0.008486308524429997   -0.09962705046692039
-5.147887175128231   0.03950115309905722   0.06411310140959148
-5.147887175128231   0.03950115309905722   0.06411310140959148
-5.147887175128231   0.03950115309905722   0.06411310140959148
-5.147887175128231   0.03950115309905722   0.06411310140959148
-4.298493066140753   0.3514173182903635   0.23954685208452114
-4.298493066140753   0.3514173182903635   0.23954685208452114
-4.298493066140753   0.3514173182903635   0.23954685208452114
-4.298493066140753   0.3514173182903635   0.23954685208452114
-6.420790369762624   -0.39495297689616593   -0.13094715641148463
-6.420790369762624   -0.39495297689616593   -0.13094715641148463
-6.420790369762624   -0.39495297689616593   -0.13094715641148463
-6.420790369762624   -0.39495297689616593   -0.13094715641148463
-6.503272769754992   -0.20147026288947   0.21650259850310533
-6.503272769754992   -0.20147026288947   0.21650259850310533
-6.503272769754992   -0.20147026288947   0.21650259850310533
-6.503272769754992   -0.20147026288947   0.21650259850310533
-4.547612430359748   -0.11496913645176343   -0.0880694809090222
-4.547612430359748   -0.11496913645176343   -0.0880694809090222
-4.547612430359748   -0.11496913645176343   -0.0880694809090222
-4.547612430359748   -0.11496913645176343   -0.0880694809090222
-5.2121351555915245   -0.024016789487992796   0.03528754951170665
-5.2121351555915245   -0.024016789487992796   0.03528754951170665
-5.2121351555915245   -0.024016789487992796   0.03528754951170665
-5.2121351555915245   -0.024016789487992796   0.03528754951170665
1.8979640077606466   0.11253797808936264   -0.23343336014202978
1.8979640077606466   0.11253797808936264   -0.23343336014202978
1.8979640077606466   0.11253797808936264   -0.23343336014202978
1.8979640077606466   0.11253797808936264   -0.23343336014202978
0.5450422598173945   0.14135552714447872   0.11221737922480542
0.5450422598173945   0.14135552714447872   0.11221737922480542
0.5450422598173945   0.14135552714447872   0.11221737922480542
0.5450422598173945   0.14135552714447872   0.11221737922480542
0.327412329305908   -0.2833270179660753   -0.2056656788325682
0.327412329305908   -0.2833270179660753   -0.2056656788325682
0.327412329305908   -0.2833270179660753   -0.2056656788325682
0.327412329305908   -0.2833270179660753   -0.2056656788325682
1.8440942756961032   0.3277029606222163   0.135044903407743
1.8440942756961032   0.3277029606222163   0.135044903407743
1.8440942756961032   0.3277029606222163   0.135044903407743
1.8440942756961032   0.3277029606222163   0.135044903407743
1.0859525766494065   0.05450597230847937   -0.025337743699835297
1.0859525766494065   0.05450597230847937   -0.025337743699835297
1.0859525766494065   0.05450597230847937   -0.025337743699835297
1.0859525766494065   0.05450597230847937   -0.025337743699835297
1.706987153475097   -0.009030388983930548   -0.21375735809115592
1.706987153475097   -0.009030388983930548   -0.21375735809115592
1.706987153475097   -0.009030388983930548   -0.21375735809115592
1.706987153475097   -0.009030388983930548   -0.21375735809115592
0.46023673166393164   0.04912361177710789   0.1260057032143724
0.46023673166393164   0.04912361177710789   0.1260057032143724
0.46023673166393164   0.04912361177710789   0.1260057032143724
0.46023673166393164   0.04912361177710789   0.1260057032143724
0.24517565459760943   -0.3237587722741289   -0.17445258285000834
0.24517565459760943   -0.3237587722741289   -0.17445258285000834
0.24517565459760943   -0.3237587722741289   -0.17445258285000834
0.24517565459760943   -0.3237587722741289   -0.17445258285000834
1.696292450966687   0.2718801206840119   0.17317047022496723
1.696292450966687   0.2718801206840119   0.17317047022496723
1.696292450966687   0.2718801206840119   0.17317047022496723
1.696292450966687   0.2718801206840119   0.17317047022496723
0.9820927675930162   -0.008518797038058079   -0.06642355513380307
0.9820927675930162   -0.008518797038058079   -0.06642355513380307
0.9820927675930162   -0.008518797038058079   -0.06642355513380307
0.9820927675930162   -0.008518797038058079   -0.06642355513380307
1.5600563361404798   -0.060931763366639635   -0.1751982198554322
1.5600563361404798   -0.060931763366639635   -0.1751982198554322
1.5600563361404798   -0.060931763366639635   -0.1751982198554322
1.5600563361404798   -0.060931763366639635   -0.1751982198554322
0.3757022533828892   0.003343595735593702   0.15107804306667383
0.3757022533828892   0.003343595735593702   0.15107804306667383
0.3757022533828892   0.003343595735593702   0.15107804306667383
0.3757022533828892   0.003343595735593702   0.15107804306667383
0.17157943058628045   -0.37313540509859044   -0.1451985456536352
0.17157943058628045   -0.37313540509859044   -0.1451985456536352
0.17157943058628045   -0.37313540509859044   -0.1451985456536352
0.17157943058628045   -0.37313540509859044   -0.1451985456536352
1.513445906413716   0.182167264882075   0.19200493808442173
1.513445906413716   0.182167264882075   0.19200493808442173
1.513445906413716   0.182167264882075   0.19200493808442173
1.513445906413716   0.182167264882075   0.19200493808442173
0.8401310776909664   -0.06490633864660092   -0.11637053030959268
0.8401310776909664   -0.06490633864660092   -0.11637053030959268
0.8401310776909664   -0.06490633864660092   -0.11637053030959268
0.8401310776909664   -0.06490633864660092   -0.11637053030959268
0.5222142563650801   0.20789398244602225   -0.06846109333831424
0.5222142563650801   0.20789398244602225   -0.06846109333831424
0.5222142563650801   0.20789398244602225   -0.06846109333831424
0.5222142563650801   0.20789398244602225   -0.06846109333831424
-0.7885826694841375   0.06873319539337533   0.027705168386073675
-0.7885826694841375   0.06873319539337533   0.027705168386073675
-0.7885826694841375   0.06873319539337533   0.027705168386073675
-0.7885826694841375   0.06873319539337533   0.027705168386073675
-0.9286995620624777   -0.1812379265609953   -0.11975330806470322
-0.9286995620624777   -0.1812379265609953   -0.11975330806470322
-0.9286995620624777   -0.1812379265609953   -0.11975330806470322
-0.9286995620624777   -0.1812379265609953   -0.11975330806470322
0.5022754155024425   0.25827485770925945   0.12704787647477497
0.5022754155024425   0.25827485770925945   0.12704787647477497
0.5022754155024425   0.25827485770925945   0.12704787647477497
0.5022754155024425   0.25827485770925945   0.12704787647477497
-0.17768912791170682   0.08472035133297054   0.021060111285759894
-0.17768912791170682   0.08472035133297054   0.021060111285759894
-0.17768912791170682   0.08472035133297054   0.021060111285759894
-0.17768912791170682   0.08472035133297054   0.021060111285759894
0.4362667118922933   0.10563486089127695   -0.050355644757990384
0.4362667118922933   0.10563486089127695   -0.050355644757990384
0.4362667118922933   0.10563486089127695   -0.050355644757990384
0.4362667118922933   0.10563486089127695   -0.050355644757990384
-0.8663154143940053   -0.03222248568473077   0.043151989401394475
-0.8663154143940053   -0.03222248568473077   0.043151989401394475
-0.8663154143940053   -0.03222248568473077   0.043151989401394475
-0.8663154143940053   -0.03222248568473077   0.043151989401394475
-1.002290046409084   -0.263523029339543   -0.09359486922847948
-1.002290046409084   -0.263523029339543   -0.09359486922847948
-1.002290046409084   -0.263523029339543   -0.09359486922847948
-1.002290046409084   -0.263523029339543   -0.09359486922847948
0.4057145208724554   0.16600536462453253   0.13847761162556593
0.4057145208724554   0.16600536462453253   0.13847761162556593
0.4057145208724554   0.16600536462453253   0.13847761162556593
0.4057145208724554   0.16600536462453253   0.13847761162556593
-0.2684862435797281   -0.003791126147887243   -0.0213258080390099
-0.2684862435797281   -0.003791126147887243   -0.0213258080390099
-0.2684862435797281   -0.003791126147887243   -0.0213258080390099
-0.2684862435797281   -0.003791126147887243   -0.0213258080390099
0.3416773070907062   0.017373997228650198   -0.03307708988730346
0.3416773070907062   0.017373997228650198   -0.03307708988730346
0.3416773070907062   0.017373997228650198   -0.03307708988730346
0.3416773070907062   0.017373997228650198   -0.03307708988730346
-0.942940366380783   -0.1195791956971099   0.05920969727059225
-0.942940366380783   -0.1195791956971099   0.05920969727059225
-0.942940366380783   -0.1195791956971099   0.05920969727059225
-0.942940366380783   -0.1195791956971099   0.05920969727059225
-1.0753341454832006   -0.34542820143905134   -0.06994402257189883
-1.0753341454832006   -0.34542820143905134   -0.06994402257189883
-1.0753341454832006   -0.34542820143905134   -0.06994402257189883
-1.0753341454832006   -0.34542820143905134   -0.06994402257189883
0.32117587661765545   0.07512019236511613   0.1545280870395354
0.32117587661765545   0.07512019236511613   0.1545280870395354
0.32117587661765545   0.07512019236511613   0.1545280870395354
0.32117587661765545   0.07512019236511613   0.1545280870395354
-0.34730761630604173   -0.08338037028723581   -0.06144549216835103
-0.34730761630604173   -0.08338037028723581   -0.06144549216835103
-0.34730761630604173   -0.08338037028723581   -0.06144549216835103
-0.34730761630604173   -0.08338037028723581   -0.06144549216835103
-0.7485042369520101   0.2869143201420803   0.00991620629800545
-0.7485042369520101   0.2869143201420803   0.00991620629800545
-0.7485042369520101   0.2869143201420803   0.00991620629800545
-0.7485042369520101   0.2869143201420803   0.00991620629800545
-2.1051621350592655   -0.02358063323327375   -0.05748380578380949
-2.1051621350592655   -0.02358063323327375   -0.05748380578380949
-2.1051621350592655   -0.02358063323327375   -0.05748380578380949
-2.1051621350592655   -0.02358063323327375   -0.05748380578380949
-2.171343567957454   -0.0873153123691246   -0.034169390129423785
-2.171343567957454   -0.0873153123691246   -0.034169390129423785
-2.171343567957454   -0.0873153123691246   -0.034169390129423785
-2.171343567957454   -0.0873153123691246   -0.034169390129423785
-0.8264492107179792   0.16989608419679117   0.0403644378999885
-0.8264492107179792   0.16989608419679117   0.0403644378999885
-0.8264492107179792   0.16989608419679117   0.0403644378999885
-0.8264492107179792   0.16989608419679117   0.0403644378999885
-1.4594375542848566   0.08473946737698762   0.021945062989329564
-1.4594375542848566   0.08473946737698762   0.021945062989329564
-1.4594375542848566   0.08473946737698762   0.021945062989329564
-1.4594375542848566   0.08473946737698762   0.021945062989329564
-0.8224028431610778   0.19617098549355938   0.03432137438774223
-0.8224028431610778   0.19617098549355938   0.03432137438774223
-0.8224028431610778   0.19617098549355938   0.03432137438774223
-0.8224028431610778   0.19617098549355938   0.03432137438774223
-2.178554132985005   -0.11675441113654461   -0.04078311649978719
-2.178554132985005   -0.11675441113654461   -0.04078311649978719
-2.178554132985005   -0.11675441113654461   -0.04078311649978719
-2.178554132985005   -0.11675441113654461   -0.04078311649978719
-2.2445936506678783   -0.1771429569956613   -0.010431291220160954
-2.2445936506678783   -0.1771429569956613   -0.010431291220160954
-2.2445936506678783   -0.1771429569956613   -0.010431291220160954
-2.2445936506678783   -0.1771429569956613   -0.010431291220160954
-0.904143612431791   0.07631952032303724   0.057294750995390206
-0.904143612431791   0.07631952032303724   0.057294750995390206
-0.904143612431791   0.07631952032303724   0.057294750995390206
-0.904143612431791   0.07631952032303724   0.057294750995390206
-1.5358856216527264   -0.0005179486017129475   -0.016091589127158495
-1.5358856216527264   -0.0005179486017129475   -0.016091589127158495
-1.5358856216527264   -0.0005179486017129475   -0.016091589127158495
-1.5358856216527264   -0.0005179486017129475   -0.016091589127158495
-0.8987209412742833   0.1052194737902385   0.0555081533157426
-0.8987209412742833   0.1052194737902385   0.0555081533157426
-0.8987209412742833   0.1052194737902385   0.0555081533157426
-0.8987209412742833   0.1052194737902385   0.0555081533157426
-2.2545186188360846   -0.21054520747355848   -0.026653881583294806
-2.2545186188360846   -0.21054520747355848   -0.026653881583294806
-2.2545186188360846   -0.21054520747355848   -0.026653881583294806
-2.2545186188360846   -0.21054520747355848   -0.026653881583294806
-2.316474484969996   -0.2639137134602083   0.01251021367056998
-2.316474484969996   -0.2639137134602083   0.01251021367056998
-2.316474484969996   -0.2639137134602083   0.01251021367056998
-2.316474484969996   -0.2639137134602083   0.01251021367056998
-0.9804627849036079   -0.0138637281820434   0.07284830706904057
-0.9804627849036079   -0.0138637281820434   0.07284830706904057
-0.9804627849036079   -0.0138637281820434   0.07284830706904057
-0.9804627849036079   -0.0138637281820434   0.07284830706904057
-1.6162902866340096   -0.08599896363402493   -0.05737285974912841
-1.6162902866340096   -0.08599896363402493   -0.05737285974912841
-1.6162902866340096   -0.08599896363402493   -0.05737285974912841
-1.6162902866340096   -0.08599896363402493   -0.05737285974912841
-1.9985922176173527   0.36161767148338275   0.09016747670909644
-1.9985922176173527   0.36161767148338275   0.09016747670909644
-1.9985922176173527   0.36161767148338275   0.09016747670909644
-1.9985922176173527   0.36161767148338275   0.09016747670909644
-3.391513491398482   -0.09890170322344649   -0.13176324278719684
-3.391513491398482   -0.09890170322344649   -0.13176324278719684
-3.391513491398482   -0.09890170322344649   -0.13176324278719684
-3.391513491398482   -0.09890170322344649   -0.13176324278719684
-3.39811527966945   -0.004142331462576587   0.05666299372318992
-3.39811527966945   -0.004142331462576587   0.05666299372318992
-3.39811527966945   -0.004142331462576587   0.05666299372318992
-3.39811527966945   -0.004142331462576587   0.05666299372318992
-2.138003365188951   0.08712686375583334   -0.041910552411925234
-2.138003365188951   0.08712686375583334   -0.041910552411925234
-2.138003365188951   0.08712686375583334   -0.041910552411925234
-2.138003365188951   0.08712686375583334   -0.041910552411925234
-2.717823702930399   0.08633030236844397   0.029094304698466494
-2.717823702930399   0.08633030236844397   0.029094304698466494
-2.717823702930399   0.08633030236844397   0.029094304698466494
-2.717823702930399   0.08633030236844397   0.029094304698466494
-2.0694784316088217   0.2731838627115284   0.11465711653308672
-2.0694784316088217   0.2731838627115284   0.11465711653308672
-2.0694784316088217   0.2731838627115284   0.11465711653308672
-2.0694784316088217   0.2731838627115284   0.11465711653308672
-3.4727340395743362   -0.19629315674301873   -0.12427998052080044
-3.4727340395743362   -0.19629315674301873   -0.12427998052080044
-3.4727340395743362   -0.19629315674301873   -0.12427998052080044
-3.4727340395743362   -0.19629315674301873   -0.12427998052080044
-3.4882517126323176   -0.09265818414792804   0.06947651819298784
-3.4882517126323176   -0.09265818414792804   0.06947651819298784
-3.4882517126323176   -0.09265818414792804   0.06947651819298784
-3.4882517126323176   -0.09265818414792804   0.06947651819298784
-2.2116385234645364   0.0010420834743680718   -0.023840695673511686
-2.2116385234645364   0.0010420834743680718   -0.023840695673511686
-2.2116385234645364   0.0010420834743680718   -0.023840695673511686
-2.2116385234645364   0.0010420834743680718   -0.023840695673511686
-2.782965619924947   0.006777141354895044   -0.010813598287690934
-2.782965619924947   0.006777141354895044   -0.010813598287690934
-2.782965619924947   0.006777141354895044   -0.010813598287690934
-2.782965619924947   0.006777141354895044   -0.010813598287690934
-2.141286248889529   0.19052679758101393   0.13843596309490935
-2.141286248889529   0.19052679758101393   0.13843596309490935
-2.141286248889529   0.19052679758101393   0.13843596309490935
-2.141286248889529   0.19052679758101393   0.13843596309490935
-3.562397395609691   -0.2859363066569399   -0.10797377418489698
-3.562397395609691   -0.2859363066569399   -0.10797377418489698
-3.562397395609691   -0.2859363066569399   -0.10797377418489698
-3.562397395609691   -0.2859363066569399   -0.10797377418489698
-3.566204665328185   -0.18476792248554363   0.09425231489053576
-3.566204665328185   -0.18476792248554363   0.09425231489053576
-3.566204665328185   -0.18476792248554363   0.09425231489053576
-3.566204665328185   -0.18476792248554363   0.09425231489053576
-2.2861729817431815   -0.09085022582132657   -0.009045757834268545
-2.2861729817431815   -0.09085022582132657   -0.009045757834268545
-2.2861729817431815   -0.09085022582132657   -0.009045757834268545
-2.2861729817431815   -0.09085022582132657   -0.009045757834268545
-2.8793419054135914   -0.07961273696267634   -0.05419496617319425
-2.8793419054135914   -0.07961273696267634   -0.05419496617319425
-2.8793419054135914   -0.07961273696267634   -0.05419496617319425
-2.8793419054135914   -0.07961273696267634   -0.05419496617319425
-3.242278902778904   0.355707718077909   0.1598002790093962
-3.242278902778904   0.355707718077909   0.1598002790093962
-3.242278902778904   0.355707718077909   0.1598002790093962
-3.242278902778904   0.355707718077909   0.1598002790093962
-4.55518491296385   -0.2087472944161689   -0.20126581597769275
-4.55518491296385   -0.2087472944161689   -0.20126581597769275
-4.55518491296385   -0.2087472944161689   -0.20126581597769275
-4.55518491296385   -0.2087472944161689   -0.20126581597769275
-4.589037880560222   0.06212115397811102   0.16803917593946927
-4.589037880560222   0.06212115397811102   0.16803917593946927
-4.589037880560222   0.06212115397811102   0.16803917593946927
-4.589037880560222   0.06212115397811102   0.16803917593946927
-3.435626606438718   -0.011858705362696842   -0.12317726622309422
-3.435626606438718   -0.011858705362696842   -0.12317726622309422
-3.435626606438718   -0.011858705362696842   -0.12317726622309422
-3.435626606438718   -0.011858705362696842   -0.12317726622309422
-3.7858484321381236   0.08620804773638613   0.09099840409312218
-3.7858484321381236   0.08620804773638613   0.09099840409312218
-3.7858484321381236   0.08620804773638613   0.09099840409312218
-3.7858484321381236   0.08620804773638613   0.09099840409312218
-3.306249515565262   0.3228674069545898   0.18898207582690263
-3.306249515565262   0.3228674069545898   0.18898207582690263
-3.306249515565262   0.3228674069545898   0.18898207582690263
-3.306249515565262   0.3228674069545898   0.18898207582690263
-4.724885363085084   -0.27907534999058115   -0.17000173271615004
-4.724885363085084   -0.27907534999058115   -0.17000173271615004
-4.724885363085084   -0.27907534999058115   -0.17000173271615004
-4.724885363085084   -0.27907534999058115   -0.17000173271615004
-4.729245034297911   0.012489751896833656   0.21472115208892273
-4.729245034297911   0.012489751896833656   0.21472115208892273
-4.729245034297911   0.012489751896833656   0.21472115208892273
-4.729245034297911   0.012489751896833656   0.21472115208892273
-3.516755849835012   -0.05989720062008874   -0.10580515134835111
-3.516755849835012   -0.05989720062008874   -0.10580515134835111
-3.516755849835012   -0.05989720062008874   -0.10580515134835111
-3.516755849835012   -0.05989720062008874   -0.10580515134835111
-3.9643484603300876   0.02740625621858206   0.03189133517863765
-3.9643484603300876   0.02740625621858206   0.03189133517863765
-3.9643484603300876   0.02740625621858206   0.03189133517863765
-3.9643484603300876   0.02740625621858206   0.03189133517863765
-3.381838932492606   0.28400265732404884   0.22487957741957004
-3.381838932492606   0.28400265732404884   0.22487957741957004
-3.381838932492606   0.28400265732404884   0.22487957741957004
-3.381838932492606   0.28400265732404884   0.22487957741957004
-4.870314916494827   -0.3375630709017885   -0.14057543609703482
-4.870314916494827   -0.3375630709017885   -0.14057543609703482
-4.870314916494827   -0.3375630709017885   -0.14057543609703482
-4.870314916494827   -0.3375630709017885   -0.14057543609703482
-4.923282999532191   -0.12810455364758389   0.22192400228431855
-4.923282999532191   -0.12810455364758389   0.22192400228431855
-4.923282999532191   -0.12810455364758389   0.22192400228431855
-4.923282999532191   -0.12810455364758389   0.22192400228431855
-3.6004226235885564   -0.16934486703967722   -0.0922605318572175
-3.6004226235885564   -0.16934486703967722   -0.0922605318572175
-3.6004226235885564   -0.16934486703967722   -0.0922605318572175
-3.6004226235885564   -0.16934486703967722   -0.0922605318572175
-4.023594356236051   -0.034910637028448877   -0.0034965593900820047
-4.023594356236051   -0.034910637028448877   -0.0034965593900820047
-4.023594356236051   -0.034910637028448877   -0.0034965593900820047
-4.023594356236051   -0.034910637028448877   -0.0034965593900820047
0.310793784948184   0.02565749890876937   -0.2320242870845306
0.310793784948184   0.02565749890876937   -0.2320242870845306
0.310793784948184   0.02565749890876937   -0.2320242870845306
0.310793784948184   0.02565749890876937   -0.2320242870845306
-0.396275566832314   0.17472718960570138   0.1191142745060906
-0.396275566832314   0.17472718960570138   0.1191142745060906
-0.396275566832314   0.17472718960570138   0.1191142745060906
-0.396275566832314   0.17472718960570138   0.1191142745060906
-0.5853158456529219   -0.2225136601966327   -0.18662807933747708
-0.5853158456529219   -0.2225136601966327   -0.18662807933747708
-0.5853158456529219   -0.2225136601966327   -0.18662807933747708
-0.5853158456529219   -0.2225136601966327   -0.18662807933747708
0.2821458951701925   0.24313368276563724   0.14650562981403745
0.2821458951701925   0.24313368276563724   0.14650562981403745
0.2821458951701925   0.24313368276563724   0.14650562981403745
0.2821458951701925   0.24313368276563724   0.14650562981403745
-0.10379774442230622   0.053311221066227946   0.020337243674894142
-0.10379774442230622   0.053311221066227946   0.020337243674894142
-0.10379774442230622   0.053311221066227946   0.020337243674894142
-0.10379774442230622   0.053311221066227946   0.020337243674894142
0.14674533647591803   -0.0802070867347574   -0.20715639415694043
0.14674533647591803   -0.0802070867347574   -0.20715639415694043
0.14674533647591803   -0.0802070867347574   -0.20715639415694043
0.14674533647591803   -0.0802070867347574   -0.20715639415694043
-0.45797926677067363   0.0927631294917356   0.13477802538539554
-0.45797926677067363   0.0927631294917356   0.13477802538539554
-0.45797926677067363   0.0927631294917356   0.13477802538539554
-0.45797926677067363   0.0927631294917356   0.13477802538539554
-0.647461688041094   -0.2631005643530706   -0.1579788159526646
-0.647461688041094   -0.2631005643530706   -0.1579788159526646
-0.647461688041094   -0.2631005643530706   -0.1579788159526646
-0.647461688041094   -0.2631005643530706   -0.1579788159526646
0.1538595468967154   0.18790933118667402   0.20066284190556188
0.1538595468967154   0.18790933118667402   0.20066284190556188
0.1538595468967154   0.18790933118667402   0.20066284190556188
0.1538595468967154   0.18790933118667402   0.20066284190556188
-0.2055062411635406   -0.007460900388208264   -0.02667404362588728
-0.2055062411635406   -0.007460900388208264   -0.02667404362588728
-0.2055062411635406   -0.007460900388208264   -0.02667404362588728
-0.2055062411635406   -0.007460900388208264   -0.02667404362588728
0.015402858162225176   -0.1330617883649295   -0.17064948221527804
0.015402858162225176   -0.1330617883649295   -0.17064948221527804
0.015402858162225176   -0.1330617883649295   -0.17064948221527804
0.015402858162225176   -0.1330617883649295   -0.17064948221527804
-0.5201673619528197   0.04670819255231805   0.16868405758331695
-0.5201673619528197   0.04670819255231805   0.16868405758331695
-0.5201673619528197   0.04670819255231805   0.16868405758331695
-0.5201673619528197   0.04670819255231805   0.16868405758331695
-0.7043989222286378   -0.32596340698318116   -0.1308035925993827
-0.7043989222286378   -0.32596340698318116   -0.1308035925993827
-0.7043989222286378   -0.32596340698318116   -0.1308035925993827
-0.7043989222286378   -0.32596340698318116   -0.1308035925993827
-0.02428491100179301   0.07183076683319864   0.22852160638157012
-0.02428491100179301   0.07183076683319864   0.22852160638157012
-0.02428491100179301   0.07183076683319864   0.22852160638157012
-0.02428491100179301   0.07183076683319864   0.22852160638157012
-0.31368475444039456   -0.06885142246200937   -0.0806801034592044
-0.31368475444039456   -0.06885142246200937   -0.0806801034592044
-0.31368475444039456   -0.06885142246200937   -0.0806801034592044
-0.31368475444039456   -0.06885142246200937   -0.0806801034592044
-0.4512024781036787   0.11209131795272553   -0.09288441019775678
-0.4512024781036787   0.11209131795272553   -0.09288441019775678
-0.4512024781036787   0.11209131795272553   -0.09288441019775678
-0.4512024781036787   0.11209131795272553   -0.09288441019775678
-1.1156664605265483   0.04683023553081306   0.031320987124175415
-1.1156664605265483   0.04683023553081306   0.031320987124175415
-1.1156664605265483   0.04683023553081306   0.031320987124175415
-1.1156664605265483   0.04683023553081306   0.031320987124175415
-1.2129230318755186   -0.12953782884946652   -0.09681710894077092
-1.2129230318755186   -0.12953782884946652   -0.09681710894077092
-1.2129230318755186   -0.12953782884946652   -0.09681710894077092
-1.2129230318755186   -0.12953782884946652   -0.09681710894077092
-0.463406915515838   0.10805028691922022   0.09235262423208959
-0.463406915515838   0.10805028691922022   0.09235262423208959
-0.463406915515838   0.10805028691922022   0.09235262423208959
-0.463406915515838   0.10805028691922022   0.09235262423208959
-0.8090429755869714   0.032152350086658565   0.01694995015011618
-0.8090429755869714   0.032152350086658565   0.01694995015011618
-0.8090429755869714   0.032152350086658565   0.01694995015011618
-0.8090429755869714   0.032152350086658565   0.01694995015011618
-0.515946154762345   0.013968592787564904   -0.07626187786878766
-0.515946154762345   0.013968592787564904   -0.07626187786878766
-0.515946154762345   0.013968592787564904   -0.07626187786878766
-0.515946154762345   0.013968592787564904   -0.07626187786878766
-1.1669625600107154   -0.04203490209951943   0.045482323633268616
-1.1669625600107154   -0.04203490209951943   0.045482323633268616
-1.1669625600107154   -0.04203490209951943   0.045482323633268616
-1.1669625600107154   -0.04203490209951943   0.045482323633268616
-1.2612425161691831   -0.20933265820028318   -0.07125546545675156
-1.2612425161691831   -0.20933265820028318   -0.07125546545675156
-1.2612425161691831   -0.20933265820028318   -0.07125546545675156
-1.2612425161691831   -0.20933265820028318   -0.07125546545675156
-0.5384421918052971   0.019904405327603458   0.10411369554564445
-0.5384421918052971   0.019904405327603458   0.10411369554564445
-0.5384421918052971   0.019904405327603458   0.10411369554564445
-0.5384421918052971   0.019904405327603458   0.10411369554564445
-0.8700981335931008   -0.04776712693817156   -0.02308675814315341
-0.8700981335931008   -0.04776712693817156   -0.02308675814315341
-0.8700981335931008   -0.04776712693817156   -0.02308675814315341
-0.8700981335931008   -0.04776712693817156   -0.02308675814315341
-0.5890409545977441   -0.07203032951034802   -0.056945383578637335
-0.5890409545977441   -0.07203032951034802   -0.056945383578637335
-0.5890409545977441   -0.07203032951034802   -0.056945383578637335
-0.5890409545977441   -0.07203032951034802   -0.056945383578637335
-1.217696683219094   -0.12445085320466903   0.061591894298079125
-1.217696683219094   -0.12445085320466903   0.061591894298079125
-1.217696683219094   -0.12445085320466903   0.061591894298079125
-1.217696683219094   -0.12445085320466903   0.061591894298079125
-1.3098809195445584   -0.2917180199164394   -0.04860617820602873
-1.3098809195445584   -0.2917180199164394   -0.04860617820602873
-1.3098809195445584   -0.2917180199164394   -0.04860617820602873
-1.3098809195445584   -0.2917180199164394   -0.04860617820602873
-0.6011548443916801   -0.06974294415238086   0.12919633375460504
-0.6011548443916801   -0.06974294415238086   0.12919633375460504
-0.6011548443916801   -0.06974294415238086   0.12919633375460504
-0.6011548443916801   -0.06974294415238086   0.12919633375460504
-0.9312704512310578   -0.12714404352345196   -0.06389187870405635
-0.9312704512310578   -0.12714404352345196   -0.06389187870405635
-0.9312704512310578   -0.12714404352345196   -0.06389187870405635
-0.9312704512310578   -0.12714404352345196   -0.06389187870405635
-1.0957120005807235   0.1878257160800133   -0.00990219369591594
-1.0957120005807235   0.1878257160800133   -0.00990219369591594
-1.0957120005807235   0.1878257160800133   -0.00990219369591594
-1.0957120005807235   0.1878257160800133   -0.00990219369591594
-1.8296755779122644   -0.06206219134706448   -0.051328612080798225
-1.8296755779122644   -0.06206219134706448   -0.051328612080798225
-1.8296755779122644   -0.06206219134706448   -0.051328612080798225
-1.8296755779122644   -0.06206219134706448   -0.051328612080798225
-1.8486713398715258   -0.044703263785246805   -0.01041017285665466
-1.8486713398715258   -0.044703263785246805   -0.01041017285665466
-1.8486713398715258   -0.044703263785246805   -0.01041017285665466
-1.8486713398715258   -0.044703263785246805   -0.01041017285665466
-1.163083436554786   0.0086429116675254   0.01420012714587035
-1.163083436554786   0.0086429116675254   0.01420012714587035
-1.163083436554786   0.0086429116675254   0.01420012714587035
-1.163083436554786   0.0086429116675254   0.01420012714587035
-1.481224646992229   0.02104378018748987   0.005442274660726443
-1.481224646992229   0.02104378018748987   0.005442274660726443
-1.481224646992229   0.02104378018748987   0.005442274660726443
-1.481224646992229   0.02104378018748987   0.005442274660726443
-1.144620991414536   0.10101657781700935   0.014138686697636377
-1.144620991414536   0.10101657781700935   0.014138686697636377
-1.144620991414536   0.10101657781700935   0.014138686697636377
-1.144620991414536   0.10101657781700935   0.014138686697636377
-1.8734474059655768   -0.1433905508885317   -0.03560321622362425
-1.8734474059655768   -0.1433905508885317   -0.03560321622362425
-1.8734474059655768   -0.1433905508885317   -0.03560321622362425
-1.8734474059655768   -0.1433905508885317   -0.03560321622362425
-1.8939413909197742   -0.13041762785992078   0.013406788568583725
-1.8939413909197742   -0.13041762785992078   0.013406788568583725
-1.8939413909197742   -0.13041762785992078   0.013406788568583725
-1.8939413909197742   -0.13041762785992078   0.013406788568583725
-1.2143836660744167   -0.07558246335302923   0.02928859016982637
-1.2143836660744167   -0.07558246335302923   0.02928859016982637
-1.2143836660744167   -0.07558246335302923   0.02928859016982637
-1.2143836660744167   -0.07558246335302923   0.02928859016982637
-1.5303518520893615   -0.056907347278852716   -0.03133790956880968
-1.5303518520893615   -0.056907347278852716   -0.03133790956880968
-1.5303518520893615   -0.056907347278852716   -0.03133790956880968
-1.5303518520893615   -0.056907347278852716   -0.03133790956880968
-1.1953046287373934   0.013707191302684496   0.035394122199229036
-1.1953046287373934   0.013707191302684496   0.035394122199229036
-1.1953046287373934   0.013707191302684496   0.035394122199229036
-1.1953046287373934   0.013707191302684496   0.035394122199229036
-1.9206265294937548   -0.22731338375259172   -0.023123148408647827
-1.9206265294937548   -0.22731338375259172   -0.023123148408647827
-1.9206265294937548   -0.22731338375259172   -0.023123148408647827
-1.9206265294937548   -0.22731338375259172   -0.023123148408647827
-1.938048143091612   -0.21270896898058886   0.03620746126419445
-1.938048143091612   -0.21270896898058886   0.03620746126419445
-1.938048143091612   -0.21270896898058886   0.03620746126419445
-1.938048143091612   -0.21270896898058886   0.03620746126419445
-1.2635864449479361   -0.15512994811050218   0.04627812297114406
-1.2635864449479361   -0.15512994811050218   0.04627812297114406
-1.2635864449479361   -0.15512994811050218   0.04627812297114406
-1.2635864449479361   -0.15512994811050218   0.04627812297114406
-1.583218063196512   -0.13537871952808492   -0.07129640846660992
-1.583218063196512   -0.13537871952808492   -0.07129640846660992
-1.583218063196512   -0.13537871952808492   -0.07129640846660992
-1.583218063196512   -0.13537871952808492   -0.07129640846660992
-1.737214243727334   0.2734116403063219   0.07550422719049746
-1.737214243727334   0.2734116403063219   0.07550422719049746
-1.737214243727334   0.2734116403063219   0.07550422719049746
-1.737214243727334   0.2734116403063219   0.07550422719049746
-2.5143432913573114   -0.10261804782388828   -0.11539892907671459
-2.5143432913573114   -0.10261804782388828   -0.11539892907671459
-2.5143432913573114   -0.10261804782388828   -0.11539892907671459
-2.5143432913573114   -0.10261804782388828   -0.11539892907671459
-2.4800234628647035   0.04288330772494042   0.07889176510923931
-2.4800234628647035   0.04288330772494042   0.07889176510923931
-2.4800234628647035   0.04288330772494042   0.07889176510923931
-2.4800234628647035   0.04288330772494042   0.07889176510923931
-1.8555385025906261   -0.037800409575288574   -0.051648840662114656
-1.8555385025906261   -0.037800409575288574   -0.051648840662114656
-1.8555385025906261   -0.037800409575288574   -0.051648840662114656
-1.8555385025906261   -0.037800409575288574   -0.051648840662114656
-2.1395347711643917   0.044342537284053796   0.009898641123179702
-2.1395347711643917   0.044342537284053796   0.009898641123179702
-2.1395347711643917   0.044342537284053796   0.009898641123179702
-2.1395347711643917   0.044342537284053796   0.009898641123179702
-1.7803351029366739   0.18696348024597498   0.09960426778638296
-1.7803351029366739   0.18696348024597498   0.09960426778638296
-1.7803351029366739   0.18696348024597498   0.09960426778638296
-1.7803351029366739   0.18696348024597498   0.09960426778638296
-2.564441251546536   -0.19109497112419316   -0.1092188994508505
-2.564441251546536   -0.19109497112419316   -0.1092188994508505
-2.564441251546536   -0.19109497112419316   -0.1092188994508505
-2.564441251546536   -0.19109497112419316   -0.1092188994508505
-2.5407668748179337   -0.041396907193533616   0.09309270234037711
-2.5407668748179337   -0.041396907193533616   0.09309270234037711
-2.5407668748179337   -0.041396907193533616   0.09309270234037711
-2.5407668748179337   -0.041396907193533616   0.09309270234037711
-1.900423711405153   -0.1142517288203298   -0.0351707128978999
-1.900423711405153   -0.1142517288203298   -0.0351707128978999
-1.900423711405153   -0.1142517288203298   -0.0351707128978999
-1.900423711405153   -0.1142517288203298   -0.0351707128978999
-2.1808418053782583   -0.030799189718594577   -0.02997701137034245
-2.1808418053782583   -0.030799189718594577   -0.02997701137034245
-2.1808418053782583   -0.030799189718594577   -0.02997701137034245
-2.1808418053782583   -0.030799189718594577   -0.02997701137034245
-1.8243500225737337   0.10788093606250893   0.12306506637638967
-1.8243500225737337   0.10788093606250893   0.12306506637638967
-1.8243500225737337   0.10788093606250893   0.12306506637638967
-1.8243500225737337   0.10788093606250893   0.12306506637638967
-2.6241165902785633   -0.2708055987055877   -0.09424718345077891
-2.6241165902785633   -0.2708055987055877   -0.09424718345077891
-2.6241165902785633   -0.2708055987055877   -0.09424718345077891
-2.6241165902785633   -0.2708055987055877   -0.09424718345077891
-2.5901672628383023   -0.1261541955555912   0.11842867458965127
-2.5901672628383023   -0.1261541955555912   0.11842867458965127
-2.5901672628383023   -0.1261541955555912   0.11842867458965127
-2.5901672628383023   -0.1261541955555912   0.11842867458965127
-1.9454489674701838   -0.19240055862986577   -0.02110507097938845
-1.9454489674701838   -0.19240055862986577   -0.02110507097938845
-1.9454489674701838   -0.19240055862986577   -0.02110507097938845
-1.9454489674701838   -0.19240055862986577   -0.02110507097938845
-2.2428530973768064   -0.10722236671661278   -0.07076075310224636
-2.2428530973768064   -0.10722236671661278   -0.07076075310224636
-2.2428530973768064   -0.10722236671661278   -0.07076075310224636
-2.2428530973768064   -0.10722236671661278   -0.07076075310224636
-2.381693593444287   0.2960420293468218   0.14918948331769735
-2.381693593444287   0.2960420293468218   0.14918948331769735
-2.381693593444287   0.2960420293468218   0.14918948331769735
-2.381693593444287   0.2960420293468218   0.14918948331769735
-3.0547299154009195   -0.15196072739124145   -0.19408067949724114
-3.0547299154009195   -0.15196072739124145   -0.19408067949724114
-3.0547299154009195   -0.15196072739124145   -0.19408067949724114
-3.0547299154009195   -0.15196072739124145   -0.19408067949724114
-3.0567968227044617   0.12143224668776742   0.16444771029497063
-3.0567968227044617   0.12143224668776742   0.16444771029497063
-3.0567968227044617   0.12143224668776742   0.16444771029497063
-3.0567968227044617   0.12143224668776742   0.16444771029497063
-2.5457735607008893   -0.08817836913846355   -0.11879704720834594
-2.5457735607008893   -0.08817836913846355   -0.11879704720834594
-2.5457735607008893   -0.08817836913846355   -0.11879704720834594
-2.5457735607008893   -0.08817836913846355   -0.11879704720834594
-2.6484444997389924   0.07108405815298746   0.050419573351077523
-2.6484444997389924   0.07108405815298746   0.050419573351077523
-2.6484444997389924   0.07108405815298746   0.050419573351077523
-2.6484444997389924   0.07108405815298746   0.050419573351077523
-2.418912883837173   0.2513209049971393   0.1760070629746639
-2.418912883837173   0.2513209049971393   0.1760070629746639
-2.418912883837173   0.2513209049971393   0.1760070629746639
-2.418912883837173   0.2513209049971393   0.1760070629746639
-3.193197165223949   -0.22760669310361092   -0.16851506251102344
-3.193197165223949   -0.22760669310361092   -0.16851506251102344
-3.193197165223949   -0.22760669310361092   -0.16851506251102344
-3.193197165223949   -0.22760669310361092   -0.16851506251102344
-3.167315711220212   0.07355969885784319   0.21203920742650928
-3.167315711220212   0.07355969885784319   0.21203920742650928
-3.167315711220212   0.07355969885784319   0.21203920742650928
-3.167315711220212   0.07355969885784319   0.21203920742650928
-2.598367222120087   -0.1321007016860533   -0.10420523967793195
-2.598367222120087   -0.1321007016860533   -0.10420523967793195
-2.598367222120087   -0.1321007016860533   -0.10420523967793195
-2.598367222120087   -0.1321007016860533   -0.10420523967793195
-2.779648313453658   0.0127744456591673   -0.004654510070958351
-2.779648313453658   0.0127744456591673   -0.004654510070958351
-2.779648313453658   0.0127744456591673   -0.004654510070958351
-2.779648313453658   0.0127744456591673   -0.004654510070958351
-2.4661433804178188   0.2136241474687427   0.2111891196786132
-2.4661433804178188   0.2136241474687427   0.2111891196786132
-2.4661433804178188   0.2136241474687427   0.2111891196786132
-2.4661433804178188   0.2136241474687427   0.2111891196786132
-3.3093025597338994   -0.2819281571083513   -0.14240717917573245
-3.3093025597338994   -0.2819281571083513   -0.14240717917573245
-3.3093025597338994   -0.2819281571083513   -0.14240717917573245
-3.3093025597338994   -0.2819281571083513   -0.14240717917573245
-3.3310504146383835   -0.052146149153413646   0.22436084862392724
-3.3310504146383835   -0.052146149153413646   0.22436084862392724
-3.3310504146383835   -0.052146149153413646   0.22436084862392724
-3.3310504146383835   -0.052146149153413646   0.22436084862392724
-2.6511504630105884   -0.22262390297611367   -0.09001761885128917
-2.6511504630105884   -0.22262390297611367   -0.09001761885128917
-2.6511504630105884   -0.22262390297611367   -0.09001761885128917
-2.6511504630105884   -0.22262390297611367   -0.09001761885128917
-2.8305676818652037   -0.044817138108125154   -0.043930112767291335
-2.8305676818652037   -0.044817138108125154   -0.043930112767291335
-2.8305676818652037   -0.044817138108125154   -0.043930112767291335
-2.8305676818652037   -0.044817138108125154   -0.043930112767291335
-1.3469960836285995   -0.08836423870264948   -0.24562235023937826
-1.3469960836285995   -0.08836423870264948   -0.24562235023937826
-1.3469960836285995   -0.08836423870264948   -0.24562235023937826
-1.3469960836285995   -0.08836423870264948   -0.24562235023937826
-1.3146742689061521   0.1893377502709564   0.11079846466774913
-1.3146742689061521   0.1893377502709564   0.11079846466774913
-1.3146742689061521   0.1893377502709564   0.11079846466774913
-1.3146742689061521   0.1893377502709564   0.11079846466774913
-1.4761962926193164   -0.1710405650724605   -0.16602342158694225
-1.4761962926193164   -0.1710405650724605   -0.16602342158694225
-1.4761962926193164   -0.1710405650724605   -0.16602342158694225
-1.4761962926193164   -0.1710405650724605   -0.16602342158694225
-1.373531240406711   0.09570682413909182   0.1673061870012591
-1.373531240406711   0.09570682413909182   0.1673061870012591
-1.373531240406711   0.09570682413909182   0.1673061870012591
-1.373531240406711   0.09570682413909182   0.1673061870012591
-1.3087761293012439   0.031129373230761592   0.11301825243371003
-1.3087761293012439   0.031129373230761592   0.11301825243371003
-1.3087761293012439   0.031129373230761592   0.11301825243371003
-1.3087761293012439   0.031129373230761592   0.11301825243371003
-1.5041174795781755   -0.18450312924184323   -0.2054150554751195
-1.5041174795781755   -0.18450312924184323   -0.2054150554751195
-1.5041174795781755   -0.18450312924184323   -0.2054150554751195
-1.5041174795781755   -0.18450312924184323   -0.2054150554751195
-1.3620319004689092   0.09274754128743906   0.14101043280519338
-1.3620319004689092   0.09274754128743906   0.14101043280519338
-1.3620319004689092   0.09274754128743906   0.14101043280519338
-1.3620319004689092   0.09274754128743906   0.14101043280519338
-1.52428990389452   -0.21589632597938024   -0.14021599313359687
-1.52428990389452   -0.21589632597938024   -0.14021599313359687
-1.52428990389452   -0.21589632597938024   -0.14021599313359687
-1.52428990389452   -0.21589632597938024   -0.14021599313359687
-1.4988642042537255   0.03443795121940135   0.31011762430443424
-1.4988642042537255   0.03443795121940135   0.31011762430443424
-1.4988642042537255   0.03443795121940135   0.31011762430443424
-1.4988642042537255   0.03443795121940135   0.31011762430443424
-1.42484898506831   -0.0460165853641496   0.04481516492340265
-1.42484898506831   -0.0460165853641496   0.04481516492340265
-1.42484898506831   -0.0460165853641496   0.04481516492340265
-1.42484898506831   -0.0460165853641496   0.04481516492340265
-1.648634441331243   -0.2446509640106478   -0.1596446458530888
-1.648634441331243   -0.2446509640106478   -0.1596446458530888
-1.648634441331243   -0.2446509640106478   -0.1596446458530888
-1.648634441331243   -0.2446509640106478   -0.1596446458530888
-1.4130980529873531   0.024614203080300268   0.17523273234255626
-1.4130980529873531   0.024614203080300268   0.17523273234255626
-1.4130980529873531   0.024614203080300268   0.17523273234255626
-1.4130980529873531   0.024614203080300268   0.17523273234255626
-1.5635566728199441   -0.3037447869029791   -0.11008440048116745
-1.5635566728199441   -0.3037447869029791   -0.11008440048116745
-1.5635566728199441   -0.3037447869029791   -0.11008440048116745
-1.5635566728199441   -0.3037447869029791   -0.11008440048116745
-1.6939273614207433   -0.16801812412355913   0.2903749326901179
-1.6939273614207433   -0.16801812412355913   0.2903749326901179
-1.6939273614207433   -0.16801812412355913   0.2903749326901179
-1.6939273614207433   -0.16801812412355913   0.2903749326901179
-1.5242808209947227   -0.13732540475408986   -0.06277406124648163
-1.5242808209947227   -0.13732540475408986   -0.06277406124648163
-1.5242808209947227   -0.13732540475408986   -0.06277406124648163
-1.5242808209947227   -0.13732540475408986   -0.06277406124648163
-1.4088007687257948   -0.04346673363814635   -0.12702955052137513
-1.4088007687257948   -0.04346673363814635   -0.12702955052137513
-1.4088007687257948   -0.04346673363814635   -0.12702955052137513
-1.4088007687257948   -0.04346673363814635   -0.12702955052137513
-1.4140588902225826   -0.17317609745034332   -0.007301153586687308
-1.4140588902225826   -0.17317609745034332   -0.007301153586687308
-1.4140588902225826   -0.17317609745034332   -0.007301153586687308
-1.4140588902225826   -0.17317609745034332   -0.007301153586687308
-1.4233082043781955   -0.11491164317722127   -0.06255573738776046
-1.4233082043781955   -0.11491164317722127   -0.06255573738776046
-1.4233082043781955   -0.11491164317722127   -0.06255573738776046
-1.4233082043781955   -0.11491164317722127   -0.06255573738776046
-1.457035337725745   -0.23809826086765445   -0.003160951323891629
-1.457035337725745   -0.23809826086765445   -0.003160951323891629
-1.457035337725745   -0.23809826086765445   -0.003160951323891629
-1.457035337725745   -0.23809826086765445   -0.003160951323891629
-1.4136292111438764   -0.14856885943603376   -0.005929924723087232
-1.4136292111438764   -0.14856885943603376   -0.005929924723087232
-1.4136292111438764   -0.14856885943603376   -0.005929924723087232
-1.4136292111438764   -0.14856885943603376   -0.005929924723087232
-1.4569587730923914   -0.13108823937290823   -0.10978814965187675
-1.4569587730923914   -0.13108823937290823   -0.10978814965187675
-1.4569587730923914   -0.13108823937290823   -0.10978814965187675
-1.4569587730923914   -0.13108823937290823   -0.10978814965187675
-1.4324592901628357   -0.2309961858232758   0.007773376335092371
-1.4324592901628357   -0.2309961858232758   0.007773376335092371
-1.4324592901628357   -0.2309961858232758   0.007773376335092371
-1.4324592901628357   -0.2309961858232758   0.007773376335092371
-1.4462680806434156   -0.19049778287898178   -0.04007135664916314
-1.4462680806434156   -0.19049778287898178   -0.04007135664916314
-1.4462680806434156   -0.19049778287898178   -0.04007135664916314
-1.4462680806434156   -0.19049778287898178   -0.04007135664916314
-1.5084300025829749   -0.30832843056678777   0.03151561801153489
-1.5084300025829749   -0.30832843056678777   0.03151561801153489
-1.5084300025829749   -0.30832843056678777   0.03151561801153489
-1.5084300025829749   -0.30832843056678777   0.03151561801153489
-1.4449844522608364   -0.20947034164075296   -0.04071540745973032
-1.4449844522608364   -0.20947034164075296   -0.04071540745973032
-1.4449844522608364   -0.20947034164075296   -0.04071540745973032
-1.4449844522608364   -0.20947034164075296   -0.04071540745973032
-1.5117010456235407   -0.21183642508065853   -0.08133160267742198
-1.5117010456235407   -0.21183642508065853   -0.08133160267742198
-1.5117010456235407   -0.21183642508065853   -0.08133160267742198
-1.5117010456235407   -0.21183642508065853   -0.08133160267742198
-1.454615795370883   -0.2986085461331466   0.026300832967649
-1.454615795370883   -0.2986085461331466   0.026300832967649
-1.454615795370883   -0.2986085461331466   0.026300832967649
-1.454615795370883   -0.2986085461331466   0.026300832967649
-1.4667501420426552   -0.2722572872902466   -0.017780084283748603
-1.4667501420426552   -0.2722572872902466   -0.017780084283748603
-1.4667501420426552   -0.2722572872902466   -0.017780084283748603
-1.4667501420426552   -0.2722572872902466   -0.017780084283748603
-1.5476250263171574   -0.3979795432756294   0.06380858840540947
-1.5476250263171574   -0.3979795432756294   0.06380858840540947
-1.5476250263171574   -0.3979795432756294   0.06380858840540947
-1.5476250263171574   -0.3979795432756294   0.06380858840540947
-1.488609310902723   -0.2834757588489287   -0.08515522661220731
-1.488609310902723   -0.2834757588489287   -0.08515522661220731
-1.488609310902723   -0.2834757588489287   -0.08515522661220731
-1.488609310902723   -0.2834757588489287   -0.08515522661220731
-1.3757296892460686   0.034355382976204385   -0.02318662913064959
-1.3757296892460686   0.034355382976204385   -0.02318662913064959
-1.3757296892460686   0.034355382976204385   -0.02318662913064959
-1.3757296892460686   0.034355382976204385   -0.02318662913064959
-1.5448331796164978   -0.2931380046575935   -0.07373392468330485
-1.5448331796164978   -0.2931380046575935   -0.07373392468330485
-1.5448331796164978   -0.2931380046575935   -0.07373392468330485
-1.5448331796164978   -0.2931380046575935   -0.07373392468330485
-1.4808032498187438   -0.053718143805183693   0.020114663046282816
-1.4808032498187438   -0.053718143805183693   0.020114663046282816
-1.4808032498187438   -0.053718143805183693   0.020114663046282816
-1.4808032498187438   -0.053718143805183693   0.020114663046282816
-1.4608875780429378   -0.31944381435667046   -0.04592043453202335
-1.4608875780429378   -0.31944381435667046   -0.04592043453202335
-1.4608875780429378   -0.31944381435667046   -0.04592043453202335
-1.4608875780429378   -0.31944381435667046   -0.04592043453202335
-1.464547285568712   -0.16295330146085787   -0.033682506228375826
-1.464547285568712   -0.16295330146085787   -0.033682506228375826
-1.464547285568712   -0.16295330146085787   -0.033682506228375826
-1.464547285568712   -0.16295330146085787   -0.033682506228375826
-1.3959882009600477   -0.04079294944795797   -7.441402628480254e-05
-1.3959882009600477   -0.04079294944795797   -7.441402628480254e-05
-1.3959882009600477   -0.04079294944795797   -7.441402628480254e-05
-1.3959882009600477   -0.04079294944795797   -7.441402628480254e-05
-1.553921413253283   -0.3405877950655454   -0.05860650286605254
-1.553921413253283   -0.3405877950655454   -0.05860650286605254
-1.553921413253283   -0.3405877950655454   -0.05860650286605254
-1.553921413253283   -0.3405877950655454   -0.05860650286605254
-1.4970479272480794   -0.1294813288356361   0.042458523930455065
-1.4970479272480794   -0.1294813288356361   0.042458523930455065
-1.4970479272480794   -0.1294813288356361   0.042458523930455065
-1.4970479272480794   -0.1294813288356361   0.042458523930455065
-1.4823692590289175   -0.3792213759851545   -0.03185365547050011
-1.4823692590289175   -0.3792213759851545   -0.03185365547050011
-1.4823692590289175   -0.3792213759851545   -0.03185365547050011
-1.4823692590289175   -0.3792213759851545   -0.03185365547050011
-1.4818947329063732   -0.22074427809808161   -0.06350400645632163
-1.4818947329063732   -0.22074427809808161   -0.06350400645632163
-1.4818947329063732   -0.22074427809808161   -0.06350400645632163
-1.4818947329063732   -0.22074427809808161   -0.06350400645632163
-1.4192108493167914   -0.1178851788454158   0.022602195950391042
-1.4192108493167914   -0.1178851788454158   0.022602195950391042
-1.4192108493167914   -0.1178851788454158   0.022602195950391042
-1.4192108493167914   -0.1178851788454158   0.022602195950391042
-1.5693861108527232   -0.3999972998679232   -0.048716423060476535
-1.5693861108527232   -0.3999972998679232   -0.048716423060476535
-1.5693861108527232   -0.3999972998679232   -0.048716423060476535
-1.5693861108527232   -0.3999972998679232   -0.048716423060476535
-1.5101189119142653   -0.20083734971504474   0.06427358191476026
-1.5101189119142653   -0.20083734971504474   0.06427358191476026
-1.5101189119142653   -0.20083734971504474   0.06427358191476026
-1.5101189119142653   -0.20083734971504474   0.06427358191476026
-1.498104450634737   -0.43677810472993905   -0.010030809804479929
-1.498104450634737   -0.43677810472993905   -0.010030809804479929
-1.498104450634737   -0.43677810472993905   -0.010030809804479929
-1.498104450634737   -0.43677810472993905   -0.010030809804479929
-1.502687185496504   -0.28122561238113936   -0.09628235683747279
-1.502687185496504   -0.28122561238113936   -0.09628235683747279
-1.502687185496504   -0.28122561238113936   -0.09628235683747279
-1.502687185496504   -0.28122561238113936   -0.09628235683747279
-1.426523843599802   0.1524671480762272   0.07220760266635332
-1.426523843599802   0.1524671480762272   0.07220760266635332
-1.426523843599802   0.1524671480762272   0.07220760266635332
-1.426523843599802   0.1524671480762272   0.07220760266635332
-1.6759403792952197   -0.21728421738651876   -0.10229816733859402
-1.6759403792952197   -0.21728421738651876   -0.10229816733859402
-1.6759403792952197   -0.21728421738651876   -0.10229816733859402
-1.6759403792952197   -0.21728421738651876   -0.10229816733859402
-1.5841506971642487   0.04691620782056766   0.10054644089078914
-1.5841506971642487   0.04691620782056766   0.10054644089078914
-1.5841506971642487   0.04691620782056766   0.10054644089078914
-1.5841506971642487   0.04691620782056766   0.10054644089078914
-1.535578434026493   -0.2451866893032179   -0.062292712494429595
-1.535578434026493   -0.2451866893032179   -0.062292712494429595
-1.535578434026493   -0.2451866893032179   -0.062292712494429595
-1.535578434026493   -0.2451866893032179   -0.062292712494429595
-1.5555832646078924   -0.06408837038476717   -0.020129238089231366
-1.5555832646078924   -0.06408837038476717   -0.020129238089231366
-1.5555832646078924   -0.06408837038476717   -0.020129238089231366
-1.5555832646078924   -0.06408837038476717   -0.020129238089231366
-1.4402579945681662   0.0745083493836865   0.09461444611030069
-1.4402579945681662   0.0745083493836865   0.09461444611030069
-1.4402579945681662   0.0745083493836865   0.09461444611030069
-1.4402579945681662   0.0745083493836865   0.09461444611030069
-1.6903584453811222   -0.28366613962488324   -0.09990995274812704
-1.6903584453811222   -0.28366613962488324   -0.09990995274812704
-1.6903584453811222   -0.28366613962488324   -0.09990995274812704
-1.6903584453811222   -0.28366613962488324   -0.09990995274812704
-1.6129084992616898   -0.02693043204780199   0.11392055882139854
-1.6129084992616898   -0.02693043204780199   0.11392055882139854
-1.6129084992616898   -0.02693043204780199   0.11392055882139854
-1.6129084992616898   -0.02693043204780199   0.11392055882139854
-1.5496107542443873   -0.3001751065296051   -0.04966183335708532
-1.5496107542443873   -0.3001751065296051   -0.04966183335708532
-1.5496107542443873   -0.3001751065296051   -0.04966183335708532
-1.5496107542443873   -0.3001751065296051   -0.04966183335708532
-1.5697679300734044   -0.12665227268175275   -0.0550761074071146
-1.5697679300734044   -0.12665227268175275   -0.0550761074071146
-1.5697679300734044   -0.12665227268175275   -0.0550761074071146
-1.5697679300734044   -0.12665227268175275   -0.0550761074071146
-1.4553448541075753   0.005080581148528163   0.11641197964881207
-1.4553448541075753   0.005080581148528163   0.11641197964881207
-1.4553448541075753   0.005080581148528163   0.11641197964881207
-1.4553448541075753   0.005080581148528163   0.11641197964881207
-1.7166142845684347   -0.3416260048958526   -0.08991279486427536
-1.7166142845684347   -0.3416260048958526   -0.08991279486427536
-1.7166142845684347   -0.3416260048958526   -0.08991279486427536
-1.7166142845684347   -0.3416260048958526   -0.08991279486427536
-1.631719381590073   -0.09766140797120676   0.13886109643379607
-1.631719381590073   -0.09766140797120676   0.13886109643379607
-1.631719381590073   -0.09766140797120676   0.13886109643379607
-1.631719381590073   -0.09766140797120676   0.13886109643379607
-1.5615239605106686   -0.35537039813654087   -0.03821861264578912
-1.5615239605106686   -0.35537039813654087   -0.03821861264578912
-1.5615239605106686   -0.35537039813654087   -0.03821861264578912
-1.5615239605106686   -0.35537039813654087   -0.03821861264578912
-1.5949983064913142   -0.18546134878845963   -0.08887579121794076
-1.5949983064913142   -0.18546134878845963   -0.08887579121794076
-1.5949983064913142   -0.18546134878845963   -0.08887579121794076
-1.5949983064913142   -0.18546134878845963   -0.08887579121794076
-1.5395280219591245   0.21865972298969355   0.14381967896563916
-1.5395280219591245   0.21865972298969355   0.14381967896563916
-1.5395280219591245   0.21865972298969355   0.14381967896563916
-1.5395280219591245   0.21865972298969355   0.14381967896563916
-1.6333273839865103   -0.13005736130112255   -0.14863598961728414
-1.6333273839865103   -0.13005736130112255   -0.14863598961728414
-1.6333273839865103   -0.13005736130112255   -0.14863598961728414
-1.6333273839865103   -0.13005736130112255   -0.14863598961728414
-1.5951574230045582   0.15765568826510734   0.15975710211330008
-1.5951574230045582   0.15765568826510734   0.15975710211330008
-1.5951574230045582   0.15765568826510734   0.15975710211330008
-1.5951574230045582   0.15765568826510734   0.15975710211330008
-1.6658193327544852   -0.17005284557220926   -0.09082768366758523
-1.6658193327544852   -0.17005284557220926   -0.09082768366758523
-1.6658193327544852   -0.17005284557220926   -0.09082768366758523
-1.6658193327544852   -0.17005284557220926   -0.09082768366758523
-1.554155680391081   0.039777604046298765   0.005079554136557016
-1.554155680391081   0.039777604046298765   0.005079554136557016
-1.554155680391081   0.039777604046298765   0.005079554136557016
-1.554155680391081   0.039777604046298765   0.005079554136557016
-1.5466524472498406   0.16866336887505862   0.16629052940833894
-1.5466524472498406   0.16866336887505862   0.16629052940833894
-1.5466524472498406   0.16866336887505862   0.16629052940833894
-1.5466524472498406   0.16866336887505862   0.16629052940833894
-1.72313431877973   -0.1898705364526929   -0.13260115204475867
-1.72313431877973   -0.1898705364526929   -0.13260115204475867
-1.72313431877973   -0.1898705364526929   -0.13260115204475867
-1.72313431877973   -0.1898705364526929   -0.13260115204475867
-1.6654505332043774   0.11649458805773127   0.20585452012515862
-1.6654505332043774   0.11649458805773127   0.20585452012515862
-1.6654505332043774   0.11649458805773127   0.20585452012515862
-1.6654505332043774   0.11649458805773127   0.20585452012515862
-1.687381110874207   -0.20232639447268372   -0.08304653681630486
-1.687381110874207   -0.20232639447268372   -0.08304653681630486
-1.687381110874207   -0.20232639447268372   -0.08304653681630486
-1.687381110874207   -0.20232639447268372   -0.08304653681630486
-1.6297291356713564   -0.010186387322199064   -0.03588595368015861
-1.6297291356713564   -0.010186387322199064   -0.03588595368015861
-1.6297291356713564   -0.010186387322199064   -0.03588595368015861
-1.6297291356713564   -0.010186387322199064   -0.03588595368015861
-1.5633541815127738   0.1355794145622079   0.19918230095593806
-1.5633541815127738   0.1355794145622079   0.19918230095593806
-1.5633541815127738   0.1355794145622079   0.19918230095593806
-1.5633541815127738   0.1355794145622079   0.19918230095593806
-1.801029825021825   -0.23296358343316978   -0.12258376747111716
-1.801029825021825   -0.23296358343316978   -0.12258376747111716
-1.801029825021825   -0.23296358343316978   -0.12258376747111716
-1.801029825021825   -0.23296358343316978   -0.12258376747111716
-1.7904606267756242   0.011528078967323885   0.22005245463105683
-1.7904606267756242   0.011528078967323885   0.22005245463105683
-1.7904606267756242   0.011528078967323885   0.22005245463105683
-1.7904606267756242   0.011528078967323885   0.22005245463105683
-1.7069660810993585   -0.2628132132437902   -0.07222059584004767
-1.7069660810993585   -0.2628132132437902   -0.07222059584004767
-1.7069660810993585   -0.2628132132437902   -0.07222059584004767
-1.7069660810993585   -0.2628132132437902   -0.07222059584004767
-1.6656343458624727   -0.055993818927685624   -0.0730227344602939
-1.6656343458624727   -0.055993818927685624   -0.0730227344602939
-1.6656343458624727   -0.055993818927685624   -0.0730227344602939
-1.6656343458624727   -0.055993818927685624   -0.0730227344602939
-3.3747542530536667   -0.30755614121175684   -0.3135910085983022
-3.3747542530536667   -0.30755614121175684   -0.3135910085983022
-3.3747542530536667   -0.30755614121175684   -0.3135910085983022
-3.3747542530536667   -0.30755614121175684   -0.3135910085983022
-2.1302754032678393   0.18586203480012986   0.07425865666950812
-2.1302754032678393   0.18586203480012986   0.07425865666950812
-2.1302754032678393   0.18586203480012986   0.07425865666950812
-2.1302754032678393   0.18586203480012986   0.07425865666950812
-2.2357787252845758   -0.1379811516345399   -0.1388862069890348
-2.2357787252845758   -0.1379811516345399   -0.1388862069890348
-2.2357787252845758   -0.1379811516345399   -0.1388862069890348
-2.2357787252845758   -0.1379811516345399   -0.1388862069890348
-3.58239847057484   -0.3977010358493968   0.35385553335443787
-3.58239847057484   -0.3977010358493968   0.35385553335443787
-3.58239847057484   -0.3977010358493968   0.35385553335443787
-3.58239847057484   -0.3977010358493968   0.35385553335443787
-2.603692216598633   -0.09711852165006263   0.3419225161347171
-2.603692216598633   -0.09711852165006263   0.3419225161347171
-2.603692216598633   -0.09711852165006263   0.3419225161347171
-2.603692216598633   -0.09711852165006263   0.3419225161347171
-3.7096007696033193   -0.450783098856632   -0.22907389878069068
-3.7096007696033193   -0.450783098856632   -0.22907389878069068
-3.7096007696033193   -0.450783098856632   -0.22907389878069068
-3.7096007696033193   -0.450783098856632   -0.22907389878069068
-2.1978802464296825   -0.1742029088008959   0.08682794445178545
-2.1978802464296825   -0.1742029088008959   0.08682794445178545
-2.1978802464296825   -0.1742029088008959   0.08682794445178545
-2.1978802464296825   -0.1742029088008959   0.08682794445178545
-2.268027072418073   -0.20121434296122936   -0.09898097843437222
-2.268027072418073   -0.20121434296122936   -0.09898097843437222
-2.268027072418073   -0.20121434296122936   -0.09898097843437222
-2.268027072418073   -0.20121434296122936   -0.09898097843437222
-3.6934803255253303   -0.5564891531633075   0.010324181061026817
-3.6934803255253303   -0.5564891531633075   0.010324181061026817
-3.6934803255253303   -0.5564891531633075   0.010324181061026817
-3.6934803255253303   -0.5564891531633075   0.010324181061026817
-2.87861848468922   -0.33584716679773885   0.07844465717462693
-2.87861848468922   -0.33584716679773885   0.07844465717462693
-2.87861848468922   -0.33584716679773885   0.07844465717462693
-2.87861848468922   -0.33584716679773885   0.07844465717462693
-3.7227883409475795   -0.5090928423524621   -0.18361220686102908
-3.7227883409475795   -0.5090928423524621   -0.18361220686102908
-3.7227883409475795   -0.5090928423524621   -0.18361220686102908
-3.7227883409475795   -0.5090928423524621   -0.18361220686102908
-2.2659759667235777   -0.2758675634998269   -0.014072229423323111
-2.2659759667235777   -0.2758675634998269   -0.014072229423323111
-2.2659759667235777   -0.2758675634998269   -0.014072229423323111
-2.2659759667235777   -0.2758675634998269   -0.014072229423323111
-2.267648863094026   -0.35516402609917364   -0.07163307551467202
-2.267648863094026   -0.35516402609917364   -0.07163307551467202
-2.267648863094026   -0.35516402609917364   -0.07163307551467202
-2.267648863094026   -0.35516402609917364   -0.07163307551467202
-3.7782645557599146   -0.8511969533059481   0.058169009919101795
-3.7782645557599146   -0.8511969533059481   0.058169009919101795
-3.7782645557599146   -0.8511969533059481   0.058169009919101795
-3.7782645557599146   -0.8511969533059481   0.058169009919101795
-2.8731859104277464   -0.4621554619723417   0.005207075482047355
-2.8731859104277464   -0.4621554619723417   0.005207075482047355
-2.8731859104277464   -0.4621554619723417   0.005207075482047355
-2.8731859104277464   -0.4621554619723417   0.005207075482047355
-2.3006212462613282   -0.3894583688669274   -0.20215015463086222
-2.3006212462613282   -0.3894583688669274   -0.20215015463086222
-2.3006212462613282   -0.3894583688669274   -0.20215015463086222
-2.3006212462613282   -0.3894583688669274   -0.20215015463086222
-1.572389428400684   -1.0068157251063041   -0.18921104366090444
-1.572389428400684   -1.0068157251063041   -0.18921104366090444
-1.572389428400684   -1.0068157251063041   -0.18921104366090444
-1.572389428400684   -1.0068157251063041   -0.18921104366090444
-1.3816545314450568   -0.22461137689057165   -0.011107337719227341
-1.3816545314450568   -0.22461137689057165   -0.011107337719227341
-1.3816545314450568   -0.22461137689057165   -0.011107337719227341
-1.3816545314450568   -0.22461137689057165   -0.011107337719227341
-2.4423836822709615   -1.0704639478869673   -0.23942819566853576
-2.4423836822709615   -1.0704639478869673   -0.23942819566853576
-2.4423836822709615   -1.0704639478869673   -0.23942819566853576
-2.4423836822709615   -1.0704639478869673   -0.23942819566853576
-1.9017303184566317   -0.7146593766381837   -0.055186457129096964
-1.9017303184566317   -0.7146593766381837   -0.055186457129096964
-1.9017303184566317   -0.7146593766381837   -0.055186457129096964
-1.9017303184566317   -0.7146593766381837   -0.055186457129096964
-2.2980035312932436   -0.43604832254145387   -0.15194306612545133
-2.2980035312932436   -0.43604832254145387   -0.15194306612545133
-2.2980035312932436   -0.43604832254145387   -0.15194306612545133
-2.2980035312932436   -0.43604832254145387   -0.15194306612545133
-1.5353962310333924   -0.8683885508467042   -0.13603866170478937
-1.5353962310333924   -0.8683885508467042   -0.13603866170478937
-1.5353962310333924   -0.8683885508467042   -0.13603866170478937
-1.5353962310333924   -0.8683885508467042   -0.13603866170478937
-1.3954646885767328   -0.29142102562963834   0.003087328691040044
-1.3954646885767328   -0.29142102562963834   0.003087328691040044
-1.3954646885767328   -0.29142102562963834   0.003087328691040044
-1.3954646885767328   -0.29142102562963834   0.003087328691040044
-2.4493139172998766   -1.0650094482021424   -0.1416200976025026
-2.4493139172998766   -1.0650094482021424   -0.1416200976025026
-2.4493139172998766   -1.0650094482021424   -0.1416200976025026
-2.4493139172998766   -1.0650094482021424   -0.1416200976025026
-1.8793170052867272   -0.6699360179449638   -0.058609910255587344
-1.8793170052867272   -0.6699360179449638   -0.058609910255587344
-1.8793170052867272   -0.6699360179449638   -0.058609910255587344
-1.8793170052867272   -0.6699360179449638   -0.058609910255587344
-2.3311022455234283   -0.501900200118051   -0.11367098680432804
-2.3311022455234283   -0.501900200118051   -0.11367098680432804
-2.3311022455234283   -0.501900200118051   -0.11367098680432804
-2.3311022455234283   -0.501900200118051   -0.11367098680432804
-1.532892987059503   -0.8737469004200502   -0.10172828893241553
-1.532892987059503   -0.8737469004200502   -0.10172828893241553
-1.532892987059503   -0.8737469004200502   -0.10172828893241553
-1.532892987059503   -0.8737469004200502   -0.10172828893241553
-1.3927354537424528   -0.3750871086851848   0.02338118878292776
-1.3927354537424528   -0.3750871086851848   0.02338118878292776
-1.3927354537424528   -0.3750871086851848   0.02338118878292776
-1.3927354537424528   -0.3750871086851848   0.02338118878292776
-2.441208570016397   -1.0838753323698422   -0.21072030385588997
-2.441208570016397   -1.0838753323698422   -0.21072030385588997
-2.441208570016397   -1.0838753323698422   -0.21072030385588997
-2.441208570016397   -1.0838753323698422   -0.21072030385588997
-1.905541816068312   -0.7210357832038918   -0.1086647535350664
-1.905541816068312   -0.7210357832038918   -0.1086647535350664
-1.905541816068312   -0.7210357832038918   -0.1086647535350664
-1.905541816068312   -0.7210357832038918   -0.1086647535350664
-1.386670844010751   -0.2502046016360764   -0.017229245181466395
-1.386670844010751   -0.2502046016360764   -0.017229245181466395
-1.386670844010751   -0.2502046016360764   -0.017229245181466395
-1.386670844010751   -0.2502046016360764   -0.017229245181466395
-1.1544706709313335   -0.768521812836896   -0.1326906511347678
-1.1544706709313335   -0.768521812836896   -0.1326906511347678
-1.1544706709313335   -0.768521812836896   -0.1326906511347678
-1.1544706709313335   -0.768521812836896   -0.1326906511347678
-0.994495133009005   -0.20623852221826766   0.05371358112605809
-0.994495133009005   -0.20623852221826766   0.05371358112605809
-0.994495133009005   -0.20623852221826766   0.05371358112605809
-0.994495133009005   -0.20623852221826766   0.05371358112605809
-1.5314873131129954   -0.8376792894728349   -0.1472033334766737
-1.5314873131129954   -0.8376792894728349   -0.1472033334766737
-1.5314873131129954   -0.8376792894728349   -0.1472033334766737
-1.5314873131129954   -0.8376792894728349   -0.1472033334766737
-1.2610812365015514   -0.5231738230669325   -0.06137999572576251
-1.2610812365015514   -0.5231738230669325   -0.06137999572576251
-1.2610812365015514   -0.5231738230669325   -0.06137999572576251
-1.2610812365015514   -0.5231738230669325   -0.06137999572576251
-1.3932391373338162   -0.29621532343263673   0.0025735793790238846
-1.3932391373338162   -0.29621532343263673   0.0025735793790238846
-1.3932391373338162   -0.29621532343263673   0.0025735793790238846
-1.3932391373338162   -0.29621532343263673   0.0025735793790238846
-1.1409736955149667   -0.7559328749852484   -0.1289848786367396
-1.1409736955149667   -0.7559328749852484   -0.1289848786367396
-1.1409736955149667   -0.7559328749852484   -0.1289848786367396
-1.1409736955149667   -0.7559328749852484   -0.1289848786367396
-0.9930130338350356   -0.26108422233972584   0.0694758875627613
-0.9930130338350356   -0.26108422233972584   0.0694758875627613
-0.9930130338350356   -0.26108422233972584   0.0694758875627613
-0.9930130338350356   -0.26108422233972584   0.0694758875627613
-1.5344700358085388   -0.8509872671726388   -0.13237316592500592
-1.5344700358085388   -0.8509872671726388   -0.13237316592500592
-1.5344700358085388   -0.8509872671726388   -0.13237316592500592
-1.5344700358085388   -0.8509872671726388   -0.13237316592500592
-1.257258936970201   -0.5440503875535575   -0.07960554482501118
-1.257258936970201   -0.5440503875535575   -0.07960554482501118
-1.257258936970201   -0.5440503875535575   -0.07960554482501118
-1.257258936970201   -0.5440503875535575   -0.07960554482501118
-1.4029508023813522   -0.3517665056282466   0.02600223966653546
-1.4029508023813522   -0.3517665056282466   0.02600223966653546
-1.4029508023813522   -0.3517665056282466   0.02600223966653546
-1.4029508023813522   -0.3517665056282466   0.02600223966653546
-1.1290310552070173   -0.7648037718289182   -0.1068946698079245
-1.1290310552070173   -0.7648037718289182   -0.1068946698079245
-1.1290310552070173   -0.7648037718289182   -0.1068946698079245
-1.1290310552070173   -0.7648037718289182   -0.1068946698079245
-0.97924101953904   -0.31368421407783587   0.0865752123602776
-0.97924101953904   -0.31368421407783587   0.0865752123602776
-0.97924101953904   -0.31368421407783587   0.0865752123602776
-0.97924101953904   -0.31368421407783587   0.0865752123602776
-1.5139942522065923   -0.8623339586209424   -0.09566595360201219
-1.5139942522065923   -0.8623339586209424   -0.09566595360201219
-1.5139942522065923   -0.8623339586209424   -0.09566595360201219
-1.5139942522065923   -0.8623339586209424   -0.09566595360201219
-1.2514473632525722   -0.5712500426278906   -0.09198097939696515
-1.2514473632525722   -0.5712500426278906   -0.09198097939696515
-1.2514473632525722   -0.5712500426278906   -0.09198097939696515
-1.2514473632525722   -0.5712500426278906   -0.09198097939696515
-0.962413585676728   -0.0352538606123626   0.09432682291369528
-0.962413585676728   -0.0352538606123626   0.09432682291369528
-0.962413585676728   -0.0352538606123626   0.09432682291369528
-0.962413585676728   -0.0352538606123626   0.09432682291369528
-0.9012396200607025   -0.4050257927746411   -0.07862726037751007
-0.9012396200607025   -0.4050257927746411   -0.07862726037751007
-0.9012396200607025   -0.4050257927746411   -0.07862726037751007
-0.9012396200607025   -0.4050257927746411   -0.07862726037751007
-0.7753112484641831   -0.058768551282173495   0.10953079204848236
-0.7753112484641831   -0.058768551282173495   0.10953079204848236
-0.7753112484641831   -0.058768551282173495   0.10953079204848236
-0.7753112484641831   -0.058768551282173495   0.10953079204848236
-1.0692752528250602   -0.47039861268862554   -0.056026927483860164
-1.0692752528250602   -0.47039861268862554   -0.056026927483860164
-1.0692752528250602   -0.47039861268862554   -0.056026927483860164
-1.0692752528250602   -0.47039861268862554   -0.056026927483860164
-0.9302249063772899   -0.24026706183591515   -0.03319520864185926
-0.9302249063772899   -0.24026706183591515   -0.03319520864185926
-0.9302249063772899   -0.24026706183591515   -0.03319520864185926
-0.9302249063772899   -0.24026706183591515   -0.03319520864185926
-0.9614660278787702   -0.0961512905524954   0.10877187511146007
-0.9614660278787702   -0.0961512905524954   0.10877187511146007
-0.9614660278787702   -0.0961512905524954   0.10877187511146007
-0.9614660278787702   -0.0961512905524954   0.10877187511146007
-0.8917818412556974   -0.4416772412635279   -0.08991348192773503
-0.8917818412556974   -0.4416772412635279   -0.08991348192773503
-0.8917818412556974   -0.4416772412635279   -0.08991348192773503
-0.8917818412556974   -0.4416772412635279   -0.08991348192773503
-0.7746865027837412   -0.1117357883612434   0.11761050602407713
-0.7746865027837412   -0.1117357883612434   0.11761050602407713
-0.7746865027837412   -0.1117357883612434   0.11761050602407713
-0.7746865027837412   -0.1117357883612434   0.11761050602407713
-1.0670412946893821   -0.49894817964510363   -0.06280145940359413
-1.0670412946893821   -0.49894817964510363   -0.06280145940359413
-1.0670412946893821   -0.49894817964510363   -0.06280145940359413
-1.0670412946893821   -0.49894817964510363   -0.06280145940359413
-0.9245335689435978   -0.28295840724769883   -0.056185672358881666
-0.9245335689435978   -0.28295840724769883   -0.056185672358881666
-0.9245335689435978   -0.28295840724769883   -0.056185672358881666
-0.9245335689435978   -0.28295840724769883   -0.056185672358881666
-0.9594238326233968   -0.14744818439812007   0.12378585567934938
-0.9594238326233968   -0.14744818439812007   0.12378585567934938
-0.9594238326233968   -0.14744818439812007   0.12378585567934938
-0.9594238326233968   -0.14744818439812007   0.12378585567934938
-0.8875409361353308   -0.4684727548938363   -0.08992469420127823
-0.8875409361353308   -0.4684727548938363   -0.08992469420127823
-0.8875409361353308   -0.4684727548938363   -0.08992469420127823
-0.8875409361353308   -0.4684727548938363   -0.08992469420127823
-0.7661583029305805   -0.16140919125299202   0.13622176419186718
-0.7661583029305805   -0.16140919125299202   0.13622176419186718
-0.7661583029305805   -0.16140919125299202   0.13622176419186718
-0.7661583029305805   -0.16140919125299202   0.13622176419186718
-1.0479979297643864   -0.527638552075563   -0.04325500076872826
-1.0479979297643864   -0.527638552075563   -0.04325500076872826
-1.0479979297643864   -0.527638552075563   -0.04325500076872826
-1.0479979297643864   -0.527638552075563   -0.04325500076872826
-0.9197417094729798   -0.31936936168079955   -0.07193603966546305
-0.9197417094729798   -0.31936936168079955   -0.07193603966546305
-0.9197417094729798   -0.31936936168079955   -0.07193603966546305
-0.9197417094729798   -0.31936936168079955   -0.07193603966546305
-0.7542649923065831   0.10477194340167412   0.14644814221677188
-0.7542649923065831   0.10477194340167412   0.14644814221677188
-0.7542649923065831   0.10477194340167412   0.14644814221677188
-0.7542649923065831   0.10477194340167412   0.14644814221677188
-0.48921470289626395   -0.13187239331732387   -0.047771335788785174
-0.48921470289626395   -0.13187239331732387   -0.047771335788785174
-0.48921470289626395   -0.13187239331732387   -0.047771335788785174
-0.48921470289626395   -0.13187239331732387   -0.047771335788785174
-0.4236853144477334   0.12541695222166385   0.14438728699502856
-0.4236853144477334   0.12541695222166385   0.14438728699502856
-0.4236853144477334   0.12541695222166385   0.14438728699502856
-0.4236853144477334   0.12541695222166385   0.14438728699502856
-0.8313612424876273   -0.2048677525357881   -0.02461997681512483
-0.8313612424876273   -0.2048677525357881   -0.02461997681512483
-0.8313612424876273   -0.2048677525357881   -0.02461997681512483
-0.8313612424876273   -0.2048677525357881   -0.02461997681512483
-0.6165480511943529   -0.012656360013705736   -0.027140258289826018
-0.6165480511943529   -0.012656360013705736   -0.027140258289826018
-0.6165480511943529   -0.012656360013705736   -0.027140258289826018
-0.6165480511943529   -0.012656360013705736   -0.027140258289826018
-0.7404675734734723   0.06514930513456904   0.1598313105852934
-0.7404675734734723   0.06514930513456904   0.1598313105852934
-0.7404675734734723   0.06514930513456904   0.1598313105852934
-0.7404675734734723   0.06514930513456904   0.1598313105852934
-0.5153365267144517   -0.1453576487012617   -0.043094173415637864
-0.5153365267144517   -0.1453576487012617   -0.043094173415637864
-0.5153365267144517   -0.1453576487012617   -0.043094173415637864
-0.5153365267144517   -0.1453576487012617   -0.043094173415637864
-0.4410809292572617   0.09989549567085519   0.1817627322844446
-0.4410809292572617   0.09989549567085519   0.1817627322844446
-0.4410809292572617   0.09989549567085519   0.1817627322844446
-0.4410809292572617   0.09989549567085519   0.1817627322844446
-0.8258163418851492   -0.2178246200360719   -0.031949857808134946
-0.8258163418851492   -0.2178246200360719   -0.031949857808134946
-0.8258163418851492   -0.2178246200360719   -0.031949857808134946
-0.8258163418851492   -0.2178246200360719   -0.031949857808134946
-0.6330732618573144   -0.0405757926958881   -0.037392764813466095
-0.6330732618573144   -0.0405757926958881   -0.037392764813466095
-0.6330732618573144   -0.0405757926958881   -0.037392764813466095
-0.6330732618573144   -0.0405757926958881   -0.037392764813466095
-0.7305420519920053   0.0424750991594437   0.1841218724620694
-0.7305420519920053   0.0424750991594437   0.1841218724620694
-0.7305420519920053   0.0424750991594437   0.1841218724620694
-0.7305420519920053   0.0424750991594437   0.1841218724620694
-0.5428759853826723   -0.16692498975691678   -0.06039206291483648
-0.5428759853826723   -0.16692498975691678   -0.06039206291483648
-0.5428759853826723   -0.16692498975691678   -0.06039206291483648
-0.5428759853826723   -0.16692498975691678   -0.06039206291483648
-0.5052990844711593   0.0297867965781137   0.18911245664127266
-0.5052990844711593   0.0297867965781137   0.18911245664127266
-0.5052990844711593   0.0297867965781137   0.18911245664127266
-0.5052990844711593   0.0297867965781137   0.18911245664127266
-0.812293304812498   -0.22890151626063907   -0.026960920210072993
-0.812293304812498   -0.22890151626063907   -0.026960920210072993
-0.812293304812498   -0.22890151626063907   -0.026960920210072993
-0.812293304812498   -0.22890151626063907   -0.026960920210072993
-0.6403679756273776   -0.060465838080544565   -0.054567095862495724
-0.6403679756273776   -0.060465838080544565   -0.054567095862495724
-0.6403679756273776   -0.060465838080544565   -0.054567095862495724
-0.6403679756273776   -0.060465838080544565   -0.054567095862495724
-7.899243132398171   -1.1133102924249028   -0.6526352503253251
-7.899243132398171   -1.1133102924249028   -0.6526352503253251
-7.899243132398171   -1.1133102924249028   -0.6526352503253251
-7.899243132398171   -1.1133102924249028   -0.6526352503253251
-2.7331527964068876   -4.236978207427246   -0.5120782527802318
-2.7331527964068876   -4.236978207427246   -0.5120782527802318
-2.7331527964068876   -4.236978207427246   -0.5120782527802318
-2.7331527964068876   -4.236978207427246   -0.5120782527802318
-2.1211188227946773   -0.17545072896189862   0.0038274200117352497
-2.1211188227946773   -0.17545072896189862   0.0038274200117352497
-2.1211188227946773   -0.17545072896189862   0.0038274200117352497
-2.1211188227946773   -0.17545072896189862   0.0038274200117352497
-8.417308284955459   -4.993591303958155   -2.6821799177827224
-8.417308284955459   -4.993591303958155   -2.6821799177827224
-8.417308284955459   -4.993591303958155   -2.6821799177827224
-8.417308284955459   -4.993591303958155   -2.6821799177827224
-5.160737240437816   -2.486101337462186   -0.3620216042112478
-5.160737240437816   -2.486101337462186   -0.3620216042112478
-5.160737240437816   -2.486101337462186   -0.3620216042112478
-5.160737240437816   -2.486101337462186   -0.3620216042112478
-7.338969592787677   -1.39716826595271   -0.8869094949493217
-7.338969592787677   -1.39716826595271   -0.8869094949493217
-7.338969592787677   -1.39716826595271   -0.8869094949493217
-7.338969592787677   -1.39716826595271   -0.8869094949493217
-2.9489391719008218   -3.5213554239057134   -0.7893696305751515
-2.9489391719008218   -3.5213554239057134   -0.7893696305751515
-2.9489391719008218   -3.5213554239057134   -0.7893696305751515
-2.9489391719008218   -3.5213554239057134   -0.7893696305751515
-2.16159813218797   -0.2358255842666451   0.08175983220697844
-2.16159813218797   -0.2358255842666451   0.08175983220697844
-2.16159813218797   -0.2358255842666451   0.08175983220697844
-2.16159813218797   -0.2358255842666451   0.08175983220697844
-7.875149458543952   -4.447271121324869   -2.464484115973764
-7.875149458543952   -4.447271121324869   -2.464484115973764
-7.875149458543952   -4.447271121324869   -2.464484115973764
-7.875149458543952   -4.447271121324869   -2.464484115973764
-4.859480342214039   -2.2394823028230664   0.19848659987226153
-4.859480342214039   -2.2394823028230664   0.19848659987226153
-4.859480342214039   -2.2394823028230664   0.19848659987226153
-4.859480342214039   -2.2394823028230664   0.19848659987226153
-6.89083062690973   -1.330046887898257   -0.6601141912293214
-6.89083062690973   -1.330046887898257   -0.6601141912293214
-6.89083062690973   -1.330046887898257   -0.6601141912293214
-6.89083062690973   -1.330046887898257   -0.6601141912293214
-2.867786645261251   -3.074919499132321   -0.6100888182937269
-2.867786645261251   -3.074919499132321   -0.6100888182937269
-2.867786645261251   -3.074919499132321   -0.6100888182937269
-2.867786645261251   -3.074919499132321   -0.6100888182937269
-2.478596761954212   -0.6283143455026301   -0.12708574487001034
-2.478596761954212   -0.6283143455026301   -0.12708574487001034
-2.478596761954212   -0.6283143455026301   -0.12708574487001034
-2.478596761954212   -0.6283143455026301   -0.12708574487001034
-7.17667870982531   -3.7284785473144746   -2.181031451427957
-7.17667870982531   -3.7284785473144746   -2.181031451427957
-7.17667870982531   -3.7284785473144746   -2.181031451427957
-7.17667870982531   -3.7284785473144746   -2.181031451427957
-4.499899685457139   -1.9398171478993418   0.8309703356180671
-4.499899685457139   -1.9398171478993418   0.8309703356180671
-4.499899685457139   -1.9398171478993418   0.8309703356180671
-4.499899685457139   -1.9398171478993418   0.8309703356180671
-2.034644532720136   -1.0939396379939677   -0.1625755037797704
-2.034644532720136   -1.0939396379939677   -0.1625755037797704
-2.034644532720136   -1.0939396379939677   -0.1625755037797704
-2.034644532720136   -1.0939396379939677   -0.1625755037797704
-0.9335157358645959   -1.317539761805882   -0.23031260228991537
-0.9335157358645959   -1.317539761805882   -0.23031260228991537
-0.9335157358645959   -1.317539761805882   -0.23031260228991537
-0.9335157358645959   -1.317539761805882   -0.23031260228991537
-0.827911214587794   -0.6952856941583748   0.021990605291258847
-0.827911214587794   -0.6952856941583748   0.021990605291258847
-0.827911214587794   -0.6952856941583748   0.021990605291258847
-0.827911214587794   -0.6952856941583748   0.021990605291258847
-2.476370962287927   -1.9454648016211666   -0.0024192047952240614
-2.476370962287927   -1.9454648016211666   -0.0024192047952240614
-2.476370962287927   -1.9454648016211666   -0.0024192047952240614
-2.476370962287927   -1.9454648016211666   -0.0024192047952240614
-1.3334161546646537   -0.9454371603267945   0.42467307795103404
-1.3334161546646537   -0.9454371603267945   0.42467307795103404
-1.3334161546646537   -0.9454371603267945   0.42467307795103404
-1.3334161546646537   -0.9454371603267945   0.42467307795103404
-2.3111204557832603   -1.0172099651952813   -0.10442150869780684
-2.3111204557832603   -1.0172099651952813   -0.10442150869780684
-2.3111204557832603   -1.0172099651952813   -0.10442150869780684
-2.3111204557832603   -1.0172099651952813   -0.10442150869780684
-1.0622584712578473   -1.6926372807496521   -0.15239409146773086
-1.0622584712578473   -1.6926372807496521   -0.15239409146773086
-1.0622584712578473   -1.6926372807496521   -0.15239409146773086
-1.0622584712578473   -1.6926372807496521   -0.15239409146773086
-0.8920760408706281   -0.72080962093372   0.022141162310360313
-0.8920760408706281   -0.72080962093372   0.022141162310360313
-0.8920760408706281   -0.72080962093372   0.022141162310360313
-0.8920760408706281   -0.72080962093372   0.022141162310360313
-2.5938742408113704   -1.9178006130004397   -0.3976456821762059
-2.5938742408113704   -1.9178006130004397   -0.3976456821762059
-2.5938742408113704   -1.9178006130004397   -0.3976456821762059
-2.5938742408113704   -1.9178006130004397   -0.3976456821762059
-1.5858177710492152   -1.2153012581111562   0.19584578481954218
-1.5858177710492152   -1.2153012581111562   0.19584578481954218
-1.5858177710492152   -1.2153012581111562   0.19584578481954218
-1.5858177710492152   -1.2153012581111562   0.19584578481954218
-2.3821294710290157   -1.062160857233707   -0.19456158903118637
-2.3821294710290157   -1.062160857233707   -0.19456158903118637
-2.3821294710290157   -1.062160857233707   -0.19456158903118637
-2.3821294710290157   -1.062160857233707   -0.19456158903118637
-1.0972642432820416   -1.5698928093295155   -0.15471666135091275
-1.0972642432820416   -1.5698928093295155   -0.15471666135091275
-1.0972642432820416   -1.5698928093295155   -0.15471666135091275
-1.0972642432820416   -1.5698928093295155   -0.15471666135091275
-0.9903403316777994   -0.7450534369639206   0.03252093483515178
-0.9903403316777994   -0.7450534369639206   0.03252093483515178
-0.9903403316777994   -0.7450534369639206   0.03252093483515178
-0.9903403316777994   -0.7450534369639206   0.03252093483515178
-2.7693497171704213   -1.8614561113371524   -0.34770875511652605
-2.7693497171704213   -1.8614561113371524   -0.34770875511652605
-2.7693497171704213   -1.8614561113371524   -0.34770875511652605
-2.7693497171704213   -1.8614561113371524   -0.34770875511652605
-1.6563338746669682   -1.1449474283738525   0.20761515131113822
-1.6563338746669682   -1.1449474283738525   0.20761515131113822
-1.6563338746669682   -1.1449474283738525   0.20761515131113822
-1.6563338746669682   -1.1449474283738525   0.20761515131113822
-0.7445112815458135   -0.6504648526943463   0.04763476019246127
-0.7445112815458135   -0.6504648526943463   0.04763476019246127
-0.7445112815458135   -0.6504648526943463   0.04763476019246127
-0.7445112815458135   -0.6504648526943463   0.04763476019246127
-0.448725664184731   -0.3996458038042666   -0.1118656734914717
-0.448725664184731   -0.3996458038042666   -0.1118656734914717
-0.448725664184731   -0.3996458038042666   -0.1118656734914717
-0.448725664184731   -0.3996458038042666   -0.1118656734914717
-0.4372709669396221   -0.5796923157256676   0.04851518908581984
-0.4372709669396221   -0.5796923157256676   0.04851518908581984
-0.4372709669396221   -0.5796923157256676   0.04851518908581984
-0.4372709669396221   -0.5796923157256676   0.04851518908581984
-0.8151597235287925   -0.5553368217587759   -0.05420081181333307
-0.8151597235287925   -0.5553368217587759   -0.05420081181333307
-0.8151597235287925   -0.5553368217587759   -0.05420081181333307
-0.8151597235287925   -0.5553368217587759   -0.05420081181333307
-0.5170897283680351   -0.46145343800349276   0.21246175487087343
-0.5170897283680351   -0.46145343800349276   0.21246175487087343
-0.5170897283680351   -0.46145343800349276   0.21246175487087343
-0.5170897283680351   -0.46145343800349276   0.21246175487087343
-0.8139532368725446   -0.6545273729896584   0.051022172698788726
-0.8139532368725446   -0.6545273729896584   0.051022172698788726
-0.8139532368725446   -0.6545273729896584   0.051022172698788726
-0.8139532368725446   -0.6545273729896584   0.051022172698788726
-0.4451043014993235   -0.4871286123982387   -0.08321518704011638
-0.4451043014993235   -0.4871286123982387   -0.08321518704011638
-0.4451043014993235   -0.4871286123982387   -0.08321518704011638
-0.4451043014993235   -0.4871286123982387   -0.08321518704011638
-0.4405074781249534   -0.5971470150867207   0.0428655368209688
-0.4405074781249534   -0.5971470150867207   0.0428655368209688
-0.4405074781249534   -0.5971470150867207   0.0428655368209688
-0.4405074781249534   -0.5971470150867207   0.0428655368209688
-0.8630119703226594   -0.6494423089606284   0.09609420307711222
-0.8630119703226594   -0.6494423089606284   0.09609420307711222
-0.8630119703226594   -0.6494423089606284   0.09609420307711222
-0.8630119703226594   -0.6494423089606284   0.09609420307711222
-0.5594837840715289   -0.513614383102822   0.18162242848409302
-0.5594837840715289   -0.513614383102822   0.18162242848409302
-0.5594837840715289   -0.513614383102822   0.18162242848409302
-0.5594837840715289   -0.513614383102822   0.18162242848409302
-0.8742745374572942   -0.678671435523939   0.06901049396724843
-0.8742745374572942   -0.678671435523939   0.06901049396724843
-0.8742745374572942   -0.678671435523939   0.06901049396724843
-0.8742745374572942   -0.678671435523939   0.06901049396724843
-0.46613778996705496   -0.6048107675001515   -0.07762226997610822
-0.46613778996705496   -0.6048107675001515   -0.07762226997610822
-0.46613778996705496   -0.6048107675001515   -0.07762226997610822
-0.46613778996705496   -0.6048107675001515   -0.07762226997610822
-0.44254289959287224   -0.6169143273350608   0.05998085021367583
-0.44254289959287224   -0.6169143273350608   0.05998085021367583
-0.44254289959287224   -0.6169143273350608   0.05998085021367583
-0.44254289959287224   -0.6169143273350608   0.05998085021367583
-1.0049663212452298   -0.8028199457402156   0.017157495774310194
-1.0049663212452298   -0.8028199457402156   0.017157495774310194
-1.0049663212452298   -0.8028199457402156   0.017157495774310194
-1.0049663212452298   -0.8028199457402156   0.017157495774310194
-0.621762384281912   -0.5868801986614608   0.08810636317216672
-0.621762384281912   -0.5868801986614608   0.08810636317216672
-0.621762384281912   -0.5868801986614608   0.08810636317216672
-0.621762384281912   -0.5868801986614608   0.08810636317216672
-0.37301056832512447   -0.25853477495963206   0.12559877696192648
-0.37301056832512447   -0.25853477495963206   0.12559877696192648
-0.37301056832512447   -0.25853477495963206   0.12559877696192648
-0.37301056832512447   -0.25853477495963206   0.12559877696192648
-0.2563059515097116   0.011002082049124534   -0.02477966451990176
-0.2563059515097116   0.011002082049124534   -0.02477966451990176
-0.2563059515097116   0.011002082049124534   -0.02477966451990176
-0.2563059515097116   0.011002082049124534   -0.02477966451990176
-0.24361255696324985   -0.278416693604281   0.0782199720760521
-0.24361255696324985   -0.278416693604281   0.0782199720760521
-0.24361255696324985   -0.278416693604281   0.0782199720760521
-0.24361255696324985   -0.278416693604281   0.0782199720760521
-0.34205760676357966   -0.037089520427706656   -0.018020805331929242
-0.34205760676357966   -0.037089520427706656   -0.018020805331929242
-0.34205760676357966   -0.037089520427706656   -0.018020805331929242
-0.34205760676357966   -0.037089520427706656   -0.018020805331929242
-0.28113915426334524   -0.13661870141083188   0.06232875940866152
-0.28113915426334524   -0.13661870141083188   0.06232875940866152
-0.28113915426334524   -0.13661870141083188   0.06232875940866152
-0.28113915426334524   -0.13661870141083188   0.06232875940866152
-0.3664121965583745   -0.29499772573769856   0.11811445100408881
-0.3664121965583745   -0.29499772573769856   0.11811445100408881
-0.3664121965583745   -0.29499772573769856   0.11811445100408881
-0.3664121965583745   -0.29499772573769856   0.11811445100408881
-0.21252615667329244   -0.01377667779912644   -0.030988042279315363
-0.21252615667329244   -0.01377667779912644   -0.030988042279315363
-0.21252615667329244   -0.01377667779912644   -0.030988042279315363
-0.21252615667329244   -0.01377667779912644   -0.030988042279315363
-0.22169024228893713   -0.3029475208964973   0.07185078193902315
-0.22169024228893713   -0.3029475208964973   0.07185078193902315
-0.22169024228893713   -0.3029475208964973   0.07185078193902315
-0.22169024228893713   -0.3029475208964973   0.07185078193902315
-0.34255982380705835   -0.08271886471188432   0.018175658035607518
-0.34255982380705835   -0.08271886471188432   0.018175658035607518
-0.34255982380705835   -0.08271886471188432   0.018175658035607518
-0.34255982380705835   -0.08271886471188432   0.018175658035607518
-0.2560040869993788   -0.15617917532531767   0.07556093696985064
-0.2560040869993788   -0.15617917532531767   0.07556093696985064
-0.2560040869993788   -0.15617917532531767   0.07556093696985064
-0.2560040869993788   -0.15617917532531767   0.07556093696985064
-0.36658668419846235   -0.31936038949405526   0.13468288086075852
-0.36658668419846235   -0.31936038949405526   0.13468288086075852
-0.36658668419846235   -0.31936038949405526   0.13468288086075852
-0.36658668419846235   -0.31936038949405526   0.13468288086075852
-0.1992058354083505   -0.0678484496251437   -0.050826254929397255
-0.1992058354083505   -0.0678484496251437   -0.050826254929397255
-0.1992058354083505   -0.0678484496251437   -0.050826254929397255
-0.1992058354083505   -0.0678484496251437   -0.050826254929397255
-0.1825498849061722   -0.3301503432765734   0.0787379983680053
-0.1825498849061722   -0.3301503432765734   0.0787379983680053
-0.1825498849061722   -0.3301503432765734   0.0787379983680053
-0.1825498849061722   -0.3301503432765734   0.0787379983680053
-0.3656253338120123   -0.1964900191433467   0.02414437092626149
-0.3656253338120123   -0.1964900191433467   0.02414437092626149
-0.3656253338120123   -0.1964900191433467   0.02414437092626149
-0.3656253338120123   -0.1964900191433467   0.02414437092626149
-0.24380072086637197   -0.19788887920350345   0.0668832531013438
-0.24380072086637197   -0.19788887920350345   0.0668832531013438
-0.24380072086637197   -0.19788887920350345   0.0668832531013438
-0.24380072086637197   -0.19788887920350345   0.0668832531013438
-0.23779197318138323   -0.046895931985348124   0.12568824115621274
-0.23779197318138323   -0.046895931985348124   0.12568824115621274
-0.23779197318138323   -0.046895931985348124   0.12568824115621274
-0.23779197318138323   -0.046895931985348124   0.12568824115621274
-0.03779289206384988   0.02981388344680896   -0.002534441219037859
-0.03779289206384988   0.02981388344680896   -0.002534441219037859
-0.03779289206384988   0.02981388344680896   -0.002534441219037859
-0.03779289206384988   0.02981388344680896   -0.002534441219037859
0.018517173452982615   -0.01451892745389097   0.07724573265375072
0.018517173452982615   -0.01451892745389097   0.07724573265375072
0.018517173452982615   -0.01451892745389097   0.07724573265375072
0.018517173452982615   -0.01451892745389097   0.07724573265375072
-0.2010714440897515   0.023701685237497522   -0.011192842398234756
-0.2010714440897515   0.023701685237497522   -0.011192842398234756
-0.2010714440897515   0.023701685237497522   -0.011192842398234756
-0.2010714440897515   0.023701685237497522   -0.011192842398234756
-0.11670477660018244   -0.008333315173458325   -0.010174507884074844
-0.11670477660018244   -0.008333315173458325   -0.010174507884074844
-0.11670477660018244   -0.008333315173458325   -0.010174507884074844
-0.11670477660018244   -0.008333315173458325   -0.010174507884074844
-0.1864405624248734   -0.04485580910623471   0.13051906026988805
-0.1864405624248734   -0.04485580910623471   0.13051906026988805
-0.1864405624248734   -0.04485580910623471   0.13051906026988805
-0.1864405624248734   -0.04485580910623471   0.13051906026988805
0.011085942432120292   0.061238217533867274   -0.035667567438257775
0.011085942432120292   0.061238217533867274   -0.035667567438257775
0.011085942432120292   0.061238217533867274   -0.035667567438257775
0.011085942432120292   0.061238217533867274   -0.035667567438257775
0.04795292338053628   -0.017660152242276413   0.0951032158951568
0.04795292338053628   -0.017660152242276413   0.0951032158951568
0.04795292338053628   -0.017660152242276413   0.0951032158951568
0.04795292338053628   -0.017660152242276413   0.0951032158951568
-0.17479859195203235   0.020040588751906847   -0.016679076024857076
-0.17479859195203235   0.020040588751906847   -0.016679076024857076
-0.17479859195203235   0.020040588751906847   -0.016679076024857076
-0.17479859195203235   0.020040588751906847   -0.016679076024857076
-0.07390550323839624   -0.0009482599136085169   0.012821728999505327
-0.07390550323839624   -0.0009482599136085169   0.012821728999505327
-0.07390550323839624   -0.0009482599136085169   0.012821728999505327
-0.07390550323839624   -0.0009482599136085169   0.012821728999505327
-0.15746580946739694   -0.04979954746737423   0.13982497261760096
-0.15746580946739694   -0.04979954746737423   0.13982497261760096
-0.15746580946739694   -0.04979954746737423   0.13982497261760096
-0.15746580946739694   -0.04979954746737423   0.13982497261760096
0.037278279795122035   0.058838122876225814   -0.03476827715041661
0.037278279795122035   0.058838122876225814   -0.03476827715041661
0.037278279795122035   0.058838122876225814   -0.03476827715041661
0.037278279795122035   0.058838122876225814   -0.03476827715041661
0.07892016772348284   -0.02687104643736743   0.09197795637030443
0.07892016772348284   -0.02687104643736743   0.09197795637030443
0.07892016772348284   -0.02687104643736743   0.09197795637030443
0.07892016772348284   -0.02687104643736743   0.09197795637030443
-0.1314498395938098   0.023161039578919948   -0.019073157925675998
-0.1314498395938098   0.023161039578919948   -0.019073157925675998
-0.1314498395938098   0.023161039578919948   -0.019073157925675998
-0.1314498395938098   0.023161039578919948   -0.019073157925675998
-0.03531642052468527   0.004256487509633091   0.03356514504549334
-0.03531642052468527   0.004256487509633091   0.03356514504549334
-0.03531642052468527   0.004256487509633091   0.03356514504549334
-0.03531642052468527   0.004256487509633091   0.03356514504549334
              </DataArray>   
             <DataArray type="Float64" NumberOfComponents="3" Name="Displacements" format="ascii">   
0.0   0.0   0.0
-0.021929801146232587   -0.01434489888443537   -0.007343579473118022
0.0   0.0   0.0
0.0   0.0   0.0
-0.021929801146232587   -0.01434489888443537   -0.007343579473118022
-0.013959072688822172   -0.012883462958075341   -0.005394867200042449
0.0   0.0   0.0
-0.013686309639184567   -0.013532476494321885   -0.00451873809989687
0.0   0.0   0.0
0.0   0.0   0.0
-0.013686309639184567   -0.013532476494321885   -0.00451873809989687
0.0   0.0   0.0
0.0   0.0   0.0
-0.013686309639184567   -0.013532476494321885   -0.00451873809989687
-0.022954658316065933   -0.015284463354186388   -0.005894353972255168
-0.021929801146232587   -0.01434489888443537   -0.007343579473118022
0.0   0.0   0.0
-0.013686309639184567   -0.013532476494321885   -0.00451873809989687
-0.021929801146232587   -0.01434489888443537   -0.007343579473118022
0.0   0.0   0.0
0.0   0.0   0.0
-0.022954658316065933   -0.015284463354186388   -0.005894353972255168
0.0   0.0   0.0
0.0   0.0   0.0
-0.022954658316065933   -0.015284463354186388   -0.005894353972255168
-0.013686309639184567   -0.013532476494321885   -0.00451873809989687
0.0   0.0   0.0
-0.01372847825338643   -0.013864665092315894   -0.0036434639437161825
0.0   0.0   0.0
0.0   0.0   0.0
-0.01372847825338643   -0.013864665092315894   -0.0036434639437161825
0.0   0.0   0.0
0.0   0.0   0.0
-0.01372847825338643   -0.013864665092315894   -0.0036434639437161825
-0.023676044747549536   -0.01574116168781529   -0.004504997947668656
-0.022954658316065933   -0.015284463354186388   -0.005894353972255168
0.0   0.0   0.0
-0.01372847825338643   -0.013864665092315894   -0.0036434639437161825
-0.022954658316065933   -0.015284463354186388   -0.005894353972255168
0.0   0.0   0.0
0.0   0.0   0.0
-0.023676044747549536   -0.01574116168781529   -0.004504997947668656
0.0   0.0   0.0
0.0   0.0   0.0
-0.023676044747549536   -0.01574116168781529   -0.004504997947668656
-0.01372847825338643   -0.013864665092315894   -0.0036434639437161825
0.0   0.0   0.0
-0.013725287549963704   -0.01394946123584137   -0.0027379112470680327
0.0   0.0   0.0
0.0   0.0   0.0
-0.013725287549963704   -0.01394946123584137   -0.0027379112470680327
0.0   0.0   0.0
0.0   0.0   0.0
-0.013725287549963704   -0.01394946123584137   -0.0027379112470680327
-0.025226566229596493   -0.016085635118139166   -0.002892644592222861
-0.023676044747549536   -0.01574116168781529   -0.004504997947668656
0.0   0.0   0.0
-0.013725287549963704   -0.01394946123584137   -0.0027379112470680327
-0.023676044747549536   -0.01574116168781529   -0.004504997947668656
0.0   0.0   0.0
0.0   0.0   0.0
-0.013959072688822172   -0.012883462958075341   -0.005394867200042449
0.0   0.0   0.0
0.0   0.0   0.0
-0.013959072688822172   -0.012883462958075341   -0.005394867200042449
-0.006352907818450834   -0.012346733493773663   -0.004101915567294464
0.0   0.0   0.0
-0.006113617101383621   -0.012769590193398801   -0.003688733613571035
0.0   0.0   0.0
0.0   0.0   0.0
-0.006113617101383621   -0.012769590193398801   -0.003688733613571035
0.0   0.0   0.0
0.0   0.0   0.0
-0.006113617101383621   -0.012769590193398801   -0.003688733613571035
-0.013686309639184567   -0.013532476494321885   -0.00451873809989687
-0.013959072688822172   -0.012883462958075341   -0.005394867200042449
0.0   0.0   0.0
-0.006113617101383621   -0.012769590193398801   -0.003688733613571035
-0.013959072688822172   -0.012883462958075341   -0.005394867200042449
0.0   0.0   0.0
0.0   0.0   0.0
-0.013686309639184567   -0.013532476494321885   -0.00451873809989687
0.0   0.0   0.0
0.0   0.0   0.0
-0.013686309639184567   -0.013532476494321885   -0.00451873809989687
-0.006113617101383621   -0.012769590193398801   -0.003688733613571035
0.0   0.0   0.0
-0.005980683719891633   -0.012930621447624016   -0.003285940653810545
0.0   0.0   0.0
0.0   0.0   0.0
-0.005980683719891633   -0.012930621447624016   -0.003285940653810545
0.0   0.0   0.0
0.0   0.0   0.0
-0.005980683719891633   -0.012930621447624016   -0.003285940653810545
-0.01372847825338643   -0.013864665092315894   -0.0036434639437161825
-0.013686309639184567   -0.013532476494321885   -0.00451873809989687
0.0   0.0   0.0
-0.005980683719891633   -0.012930621447624016   -0.003285940653810545
-0.013686309639184567   -0.013532476494321885   -0.00451873809989687
0.0   0.0   0.0
0.0   0.0   0.0
-0.01372847825338643   -0.013864665092315894   -0.0036434639437161825
0.0   0.0   0.0
0.0   0.0   0.0
-0.01372847825338643   -0.013864665092315894   -0.0036434639437161825
-0.005980683719891633   -0.012930621447624016   -0.003285940653810545
0.0   0.0   0.0
-0.005860227339550843   -0.012863100636149743   -0.0028691075540586285
0.0   0.0   0.0
0.0   0.0   0.0
-0.005860227339550843   -0.012863100636149743   -0.0028691075540586285
0.0   0.0   0.0
0.0   0.0   0.0
-0.005860227339550843   -0.012863100636149743   -0.0028691075540586285
-0.013725287549963704   -0.01394946123584137   -0.0027379112470680327
-0.01372847825338643   -0.013864665092315894   -0.0036434639437161825
0.0   0.0   0.0
-0.005860227339550843   -0.012863100636149743   -0.0028691075540586285
-0.01372847825338643   -0.013864665092315894   -0.0036434639437161825
0.0   0.0   0.0
0.0   0.0   0.0
-0.006352907818450834   -0.012346733493773663   -0.004101915567294464
0.0   0.0   0.0
0.0   0.0   0.0
-0.006352907818450834   -0.012346733493773663   -0.004101915567294464
0.0008365408464529101   -0.012414945309961114   -0.0032770273064501826
0.0   0.0   0.0
0.000987624451435266   -0.012634583239165947   -0.003335229040926607
0.0   0.0   0.0
0.0   0.0   0.0
0.000987624451435266   -0.012634583239165947   -0.003335229040926607
0.0   0.0   0.0
0.0   0.0   0.0
0.000987624451435266   -0.012634583239165947   -0.003335229040926607
-0.006113617101383621   -0.012769590193398801   -0.003688733613571035
-0.006352907818450834   -0.012346733493773663   -0.004101915567294464
0.0   0.0   0.0
0.000987624451435266   -0.012634583239165947   -0.003335229040926607
-0.006352907818450834   -0.012346733493773663   -0.004101915567294464
0.0   0.0   0.0
0.0   0.0   0.0
-0.006113617101383621   -0.012769590193398801   -0.003688733613571035
0.0   0.0   0.0
0.0   0.0   0.0
-0.006113617101383621   -0.012769590193398801   -0.003688733613571035
0.000987624451435266   -0.012634583239165947   -0.003335229040926607
0.0   0.0   0.0
0.001106397241290287   -0.01261678177564363   -0.003387456454953107
0.0   0.0   0.0
0.0   0.0   0.0
0.001106397241290287   -0.01261678177564363   -0.003387456454953107
0.0   0.0   0.0
0.0   0.0   0.0
0.001106397241290287   -0.01261678177564363   -0.003387456454953107
-0.005980683719891633   -0.012930621447624016   -0.003285940653810545
-0.006113617101383621   -0.012769590193398801   -0.003688733613571035
0.0   0.0   0.0
0.001106397241290287   -0.01261678177564363   -0.003387456454953107
-0.006113617101383621   -0.012769590193398801   -0.003688733613571035
0.0   0.0   0.0
0.0   0.0   0.0
-0.005980683719891633   -0.012930621447624016   -0.003285940653810545
0.0   0.0   0.0
0.0   0.0   0.0
-0.005980683719891633   -0.012930621447624016   -0.003285940653810545
0.001106397241290287   -0.01261678177564363   -0.003387456454953107
0.0   0.0   0.0
0.0012673919460889904   -0.012341999715395938   -0.003440716363215937
0.0   0.0   0.0
0.0   0.0   0.0
0.0012673919460889904   -0.012341999715395938   -0.003440716363215937
0.0   0.0   0.0
0.0   0.0   0.0
0.0012673919460889904   -0.012341999715395938   -0.003440716363215937
-0.005860227339550843   -0.012863100636149743   -0.0028691075540586285
-0.005980683719891633   -0.012930621447624016   -0.003285940653810545
0.0   0.0   0.0
0.0012673919460889904   -0.012341999715395938   -0.003440716363215937
-0.005980683719891633   -0.012930621447624016   -0.003285940653810545
0.0   0.0   0.0
0.0   0.0   0.0
0.0008365408464529101   -0.012414945309961114   -0.0032770273064501826
0.0   0.0   0.0
0.0   0.0   0.0
0.0008365408464529101   -0.012414945309961114   -0.0032770273064501826
0.008637540642746754   -0.013022791196959498   -0.0028678140964662527
0.0   0.0   0.0
0.008648282035051266   -0.013093422503159561   -0.0034219845247774675
0.0   0.0   0.0
0.0   0.0   0.0
0.008648282035051266   -0.013093422503159561   -0.0034219845247774675
0.0   0.0   0.0
0.0   0.0   0.0
0.008648282035051266   -0.013093422503159561   -0.0034219845247774675
0.000987624451435266   -0.012634583239165947   -0.003335229040926607
0.0008365408464529101   -0.012414945309961114   -0.0032770273064501826
0.0   0.0   0.0
0.008648282035051266   -0.013093422503159561   -0.0034219845247774675
0.0008365408464529101   -0.012414945309961114   -0.0032770273064501826
0.0   0.0   0.0
0.0   0.0   0.0
0.000987624451435266   -0.012634583239165947   -0.003335229040926607
0.0   0.0   0.0
0.0   0.0   0.0
0.000987624451435266   -0.012634583239165947   -0.003335229040926607
0.008648282035051266   -0.013093422503159561   -0.0034219845247774675
0.0   0.0   0.0
0.00860726333033549   -0.012906420292273561   -0.003953137129613685
0.0   0.0   0.0
0.0   0.0   0.0
0.00860726333033549   -0.012906420292273561   -0.003953137129613685
0.0   0.0   0.0
0.0   0.0   0.0
0.00860726333033549   -0.012906420292273561   -0.003953137129613685
0.001106397241290287   -0.01261678177564363   -0.003387456454953107
0.000987624451435266   -0.012634583239165947   -0.003335229040926607
0.0   0.0   0.0
0.00860726333033549   -0.012906420292273561   -0.003953137129613685
0.000987624451435266   -0.012634583239165947   -0.003335229040926607
0.0   0.0   0.0
0.0   0.0   0.0
0.001106397241290287   -0.01261678177564363   -0.003387456454953107
0.0   0.0   0.0
0.0   0.0   0.0
0.001106397241290287   -0.01261678177564363   -0.003387456454953107
0.00860726333033549   -0.012906420292273561   -0.003953137129613685
0.0   0.0   0.0
0.008770136478166855   -0.012404124709121032   -0.004473800299820725
0.0   0.0   0.0
0.0   0.0   0.0
0.008770136478166855   -0.012404124709121032   -0.004473800299820725
0.0   0.0   0.0
0.0   0.0   0.0
0.008770136478166855   -0.012404124709121032   -0.004473800299820725
0.0012673919460889904   -0.012341999715395938   -0.003440716363215937
0.001106397241290287   -0.01261678177564363   -0.003387456454953107
0.0   0.0   0.0
0.008770136478166855   -0.012404124709121032   -0.004473800299820725
0.001106397241290287   -0.01261678177564363   -0.003387456454953107
0.0   0.0   0.0
0.0   0.0   0.0
0.008637540642746754   -0.013022791196959498   -0.0028678140964662527
0.0   0.0   0.0
0.0   0.0   0.0
0.008637540642746754   -0.013022791196959498   -0.0028678140964662527
0.01947606633421387   -0.014561813849426753   -0.002702769934192415
0.0   0.0   0.0
0.01828517136965928   -0.01440434922076936   -0.003957830991490122
0.0   0.0   0.0
0.0   0.0   0.0
0.01828517136965928   -0.01440434922076936   -0.003957830991490122
0.0   0.0   0.0
0.0   0.0   0.0
0.01828517136965928   -0.01440434922076936   -0.003957830991490122
0.008648282035051266   -0.013093422503159561   -0.0034219845247774675
0.008637540642746754   -0.013022791196959498   -0.0028678140964662527
0.0   0.0   0.0
0.01828517136965928   -0.01440434922076936   -0.003957830991490122
0.008637540642746754   -0.013022791196959498   -0.0028678140964662527
0.0   0.0   0.0
0.0   0.0   0.0
0.008648282035051266   -0.013093422503159561   -0.0034219845247774675
0.0   0.0   0.0
0.0   0.0   0.0
0.008648282035051266   -0.013093422503159561   -0.0034219845247774675
0.01828517136965928   -0.01440434922076936   -0.003957830991490122
0.0   0.0   0.0
0.01773420464427073   -0.014104831295702433   -0.005018771572528974
0.0   0.0   0.0
0.0   0.0   0.0
0.01773420464427073   -0.014104831295702433   -0.005018771572528974
0.0   0.0   0.0
0.0   0.0   0.0
0.01773420464427073   -0.014104831295702433   -0.005018771572528974
0.00860726333033549   -0.012906420292273561   -0.003953137129613685
0.008648282035051266   -0.013093422503159561   -0.0034219845247774675
0.0   0.0   0.0
0.01773420464427073   -0.014104831295702433   -0.005018771572528974
0.008648282035051266   -0.013093422503159561   -0.0034219845247774675
0.0   0.0   0.0
0.0   0.0   0.0
0.00860726333033549   -0.012906420292273561   -0.003953137129613685
0.0   0.0   0.0
0.0   0.0   0.0
0.00860726333033549   -0.012906420292273561   -0.003953137129613685
0.01773420464427073   -0.014104831295702433   -0.005018771572528974
0.0   0.0   0.0
0.016916751519065954   -0.013337278630808089   -0.006140650668309207
0.0   0.0   0.0
0.0   0.0   0.0
0.016916751519065954   -0.013337278630808089   -0.006140650668309207
0.0   0.0   0.0
0.0   0.0   0.0
0.016916751519065954   -0.013337278630808089   -0.006140650668309207
0.008770136478166855   -0.012404124709121032   -0.004473800299820725
0.00860726333033549   -0.012906420292273561   -0.003953137129613685
0.0   0.0   0.0
0.016916751519065954   -0.013337278630808089   -0.006140650668309207
0.00860726333033549   -0.012906420292273561   -0.003953137129613685
0.0   0.0   0.0
-0.021929801146232587   -0.01434489888443537   -0.007343579473118022
-0.040992309532249464   -0.04010521276682652   -0.00989216793373123
-0.013959072688822172   -0.012883462958075341   -0.005394867200042449
-0.022954658316065933   -0.015284463354186388   -0.005894353972255168
-0.040992309532249464   -0.04010521276682652   -0.00989216793373123
-0.026165280590127724   -0.03878968656640872   -0.008139117955445418
-0.013959072688822172   -0.012883462958075341   -0.005394867200042449
-0.026201605100733865   -0.03945435554785969   -0.00732793737564315
-0.022954658316065933   -0.015284463354186388   -0.005894353972255168
-0.013686309639184567   -0.013532476494321885   -0.00451873809989687
-0.026201605100733865   -0.03945435554785969   -0.00732793737564315
-0.013959072688822172   -0.012883462958075341   -0.005394867200042449
-0.022954658316065933   -0.015284463354186388   -0.005894353972255168
-0.026201605100733865   -0.03945435554785969   -0.00732793737564315
-0.04222765491762429   -0.04103211954495526   -0.008574127172026276
-0.040992309532249464   -0.04010521276682652   -0.00989216793373123
-0.022954658316065933   -0.015284463354186388   -0.005894353972255168
-0.026201605100733865   -0.03945435554785969   -0.00732793737564315
-0.040992309532249464   -0.04010521276682652   -0.00989216793373123
-0.013959072688822172   -0.012883462958075341   -0.005394867200042449
-0.022954658316065933   -0.015284463354186388   -0.005894353972255168
-0.04222765491762429   -0.04103211954495526   -0.008574127172026276
-0.013686309639184567   -0.013532476494321885   -0.00451873809989687
-0.023676044747549536   -0.01574116168781529   -0.004504997947668656
-0.04222765491762429   -0.04103211954495526   -0.008574127172026276
-0.026201605100733865   -0.03945435554785969   -0.00732793737564315
-0.013686309639184567   -0.013532476494321885   -0.00451873809989687
-0.026310613928931238   -0.03985904851875796   -0.006548074310903964
-0.023676044747549536   -0.01574116168781529   -0.004504997947668656
-0.01372847825338643   -0.013864665092315894   -0.0036434639437161825
-0.026310613928931238   -0.03985904851875796   -0.006548074310903964
-0.013686309639184567   -0.013532476494321885   -0.00451873809989687
-0.023676044747549536   -0.01574116168781529   -0.004504997947668656
-0.026310613928931238   -0.03985904851875796   -0.006548074310903964
-0.04308824705745548   -0.041555122504098145   -0.0072830542848712895
-0.04222765491762429   -0.04103211954495526   -0.008574127172026276
-0.023676044747549536   -0.01574116168781529   -0.004504997947668656
-0.026310613928931238   -0.03985904851875796   -0.006548074310903964
-0.04222765491762429   -0.04103211954495526   -0.008574127172026276
-0.013686309639184567   -0.013532476494321885   -0.00451873809989687
-0.023676044747549536   -0.01574116168781529   -0.004504997947668656
-0.04308824705745548   -0.041555122504098145   -0.0072830542848712895
-0.01372847825338643   -0.013864665092315894   -0.0036434639437161825
-0.025226566229596493   -0.016085635118139166   -0.002892644592222861
-0.04308824705745548   -0.041555122504098145   -0.0072830542848712895
-0.026310613928931238   -0.03985904851875796   -0.006548074310903964
-0.01372847825338643   -0.013864665092315894   -0.0036434639437161825
-0.026238260930830804   -0.04006823562889216   -0.005817744624037655
-0.025226566229596493   -0.016085635118139166   -0.002892644592222861
-0.013725287549963704   -0.01394946123584137   -0.0027379112470680327
-0.026238260930830804   -0.04006823562889216   -0.005817744624037655
-0.01372847825338643   -0.013864665092315894   -0.0036434639437161825
-0.025226566229596493   -0.016085635118139166   -0.002892644592222861
-0.026238260930830804   -0.04006823562889216   -0.005817744624037655
-0.044105680683773   -0.041857760301979845   -0.00610763800609423
-0.04308824705745548   -0.041555122504098145   -0.0072830542848712895
-0.025226566229596493   -0.016085635118139166   -0.002892644592222861
-0.026238260930830804   -0.04006823562889216   -0.005817744624037655
-0.04308824705745548   -0.041555122504098145   -0.0072830542848712895
-0.01372847825338643   -0.013864665092315894   -0.0036434639437161825
-0.013959072688822172   -0.012883462958075341   -0.005394867200042449
-0.026165280590127724   -0.03878968656640872   -0.008139117955445418
-0.006352907818450834   -0.012346733493773663   -0.004101915567294464
-0.013686309639184567   -0.013532476494321885   -0.00451873809989687
-0.026165280590127724   -0.03878968656640872   -0.008139117955445418
-0.012131238385437367   -0.03817759219294356   -0.006941924854549649
-0.006352907818450834   -0.012346733493773663   -0.004101915567294464
-0.012032105962035432   -0.03860108904869511   -0.006526745872759984
-0.013686309639184567   -0.013532476494321885   -0.00451873809989687
-0.006113617101383621   -0.012769590193398801   -0.003688733613571035
-0.012032105962035432   -0.03860108904869511   -0.006526745872759984
-0.006352907818450834   -0.012346733493773663   -0.004101915567294464
-0.013686309639184567   -0.013532476494321885   -0.00451873809989687
-0.012032105962035432   -0.03860108904869511   -0.006526745872759984
-0.026201605100733865   -0.03945435554785969   -0.00732793737564315
-0.026165280590127724   -0.03878968656640872   -0.008139117955445418
-0.013686309639184567   -0.013532476494321885   -0.00451873809989687
-0.012032105962035432   -0.03860108904869511   -0.006526745872759984
-0.026165280590127724   -0.03878968656640872   -0.008139117955445418
-0.006352907818450834   -0.012346733493773663   -0.004101915567294464
-0.013686309639184567   -0.013532476494321885   -0.00451873809989687
-0.026201605100733865   -0.03945435554785969   -0.00732793737564315
-0.006113617101383621   -0.012769590193398801   -0.003688733613571035
-0.01372847825338643   -0.013864665092315894   -0.0036434639437161825
-0.026201605100733865   -0.03945435554785969   -0.00732793737564315
-0.012032105962035432   -0.03860108904869511   -0.006526745872759984
-0.006113617101383621   -0.012769590193398801   -0.003688733613571035
-0.01194488128485309   -0.038806299962945386   -0.006150143405110525
-0.01372847825338643   -0.013864665092315894   -0.0036434639437161825
-0.005980683719891633   -0.012930621447624016   -0.003285940653810545
-0.01194488128485309   -0.038806299962945386   -0.006150143405110525
-0.006113617101383621   -0.012769590193398801   -0.003688733613571035
-0.01372847825338643   -0.013864665092315894   -0.0036434639437161825
-0.01194488128485309   -0.038806299962945386   -0.006150143405110525
-0.026310613928931238   -0.03985904851875796   -0.006548074310903964
-0.026201605100733865   -0.03945435554785969   -0.00732793737564315
-0.01372847825338643   -0.013864665092315894   -0.0036434639437161825
-0.01194488128485309   -0.038806299962945386   -0.006150143405110525
-0.026201605100733865   -0.03945435554785969   -0.00732793737564315
-0.006113617101383621   -0.012769590193398801   -0.003688733613571035
-0.01372847825338643   -0.013864665092315894   -0.0036434639437161825
-0.026310613928931238   -0.03985904851875796   -0.006548074310903964
-0.005980683719891633   -0.012930621447624016   -0.003285940653810545
-0.013725287549963704   -0.01394946123584137   -0.0027379112470680327
-0.026310613928931238   -0.03985904851875796   -0.006548074310903964
-0.01194488128485309   -0.038806299962945386   -0.006150143405110525
-0.005980683719891633   -0.012930621447624016   -0.003285940653810545
-0.011812137156112025   -0.038800974258065384   -0.005821988580027938
-0.013725287549963704   -0.01394946123584137   -0.0027379112470680327
-0.005860227339550843   -0.012863100636149743   -0.0028691075540586285
-0.011812137156112025   -0.038800974258065384   -0.005821988580027938
-0.005980683719891633   -0.012930621447624016   -0.003285940653810545
-0.013725287549963704   -0.01394946123584137   -0.0027379112470680327
-0.011812137156112025   -0.038800974258065384   -0.005821988580027938
-0.026238260930830804   -0.04006823562889216   -0.005817744624037655
-0.026310613928931238   -0.03985904851875796   -0.006548074310903964
-0.013725287549963704   -0.01394946123584137   -0.0027379112470680327
-0.011812137156112025   -0.038800974258065384   -0.005821988580027938
-0.026310613928931238   -0.03985904851875796   -0.006548074310903964
-0.005980683719891633   -0.012930621447624016   -0.003285940653810545
-0.006352907818450834   -0.012346733493773663   -0.004101915567294464
-0.012131238385437367   -0.03817759219294356   -0.006941924854549649
0.0008365408464529101   -0.012414945309961114   -0.0032770273064501826
-0.006113617101383621   -0.012769590193398801   -0.003688733613571035
-0.012131238385437367   -0.03817759219294356   -0.006941924854549649
0.00140536473857448   -0.03819548496441134   -0.006183881643307977
0.0008365408464529101   -0.012414945309961114   -0.0032770273064501826
0.0015281737615571124   -0.03839684208704964   -0.006157413244340948
-0.006113617101383621   -0.012769590193398801   -0.003688733613571035
0.000987624451435266   -0.012634583239165947   -0.003335229040926607
0.0015281737615571124   -0.03839684208704964   -0.006157413244340948
0.0008365408464529101   -0.012414945309961114   -0.0032770273064501826
-0.006113617101383621   -0.012769590193398801   -0.003688733613571035
0.0015281737615571124   -0.03839684208704964   -0.006157413244340948
-0.012032105962035432   -0.03860108904869511   -0.006526745872759984
-0.012131238385437367   -0.03817759219294356   -0.006941924854549649
-0.006113617101383621   -0.012769590193398801   -0.003688733613571035
0.0015281737615571124   -0.03839684208704964   -0.006157413244340948
-0.012131238385437367   -0.03817759219294356   -0.006941924854549649
0.0008365408464529101   -0.012414945309961114   -0.0032770273064501826
-0.006113617101383621   -0.012769590193398801   -0.003688733613571035
-0.012032105962035432   -0.03860108904869511   -0.006526745872759984
0.000987624451435266   -0.012634583239165947   -0.003335229040926607
-0.005980683719891633   -0.012930621447624016   -0.003285940653810545
-0.012032105962035432   -0.03860108904869511   -0.006526745872759984
0.0015281737615571124   -0.03839684208704964   -0.006157413244340948
0.000987624451435266   -0.012634583239165947   -0.003335229040926607
0.0016090510359941849   -0.03838504946331493   -0.006174749620762349
-0.005980683719891633   -0.012930621447624016   -0.003285940653810545
0.001106397241290287   -0.01261678177564363   -0.003387456454953107
0.0016090510359941849   -0.03838504946331493   -0.006174749620762349
0.000987624451435266   -0.012634583239165947   -0.003335229040926607
-0.005980683719891633   -0.012930621447624016   -0.003285940653810545
0.0016090510359941849   -0.03838504946331493   -0.006174749620762349
-0.01194488128485309   -0.038806299962945386   -0.006150143405110525
-0.012032105962035432   -0.03860108904869511   -0.006526745872759984
-0.005980683719891633   -0.012930621447624016   -0.003285940653810545
0.0016090510359941849   -0.03838504946331493   -0.006174749620762349
-0.012032105962035432   -0.03860108904869511   -0.006526745872759984
0.000987624451435266   -0.012634583239165947   -0.003335229040926607
-0.005980683719891633   -0.012930621447624016   -0.003285940653810545
-0.01194488128485309   -0.038806299962945386   -0.006150143405110525
0.001106397241290287   -0.01261678177564363   -0.003387456454953107
-0.005860227339550843   -0.012863100636149743   -0.0028691075540586285
-0.01194488128485309   -0.038806299962945386   -0.006150143405110525
0.0016090510359941849   -0.03838504946331493   -0.006174749620762349
0.001106397241290287   -0.01261678177564363   -0.003387456454953107
0.0016962322434460938   -0.038153575789203656   -0.006236590388508391
-0.005860227339550843   -0.012863100636149743   -0.0028691075540586285
0.0012673919460889904   -0.012341999715395938   -0.003440716363215937
0.0016962322434460938   -0.038153575789203656   -0.006236590388508391
0.001106397241290287   -0.01261678177564363   -0.003387456454953107
-0.005860227339550843   -0.012863100636149743   -0.0028691075540586285
0.0016962322434460938   -0.038153575789203656   -0.006236590388508391
-0.011812137156112025   -0.038800974258065384   -0.005821988580027938
-0.01194488128485309   -0.038806299962945386   -0.006150143405110525
-0.005860227339550843   -0.012863100636149743   -0.0028691075540586285
0.0016962322434460938   -0.038153575789203656   -0.006236590388508391
-0.01194488128485309   -0.038806299962945386   -0.006150143405110525
0.001106397241290287   -0.01261678177564363   -0.003387456454953107
0.0008365408464529101   -0.012414945309961114   -0.0032770273064501826
0.00140536473857448   -0.03819548496441134   -0.006183881643307977
0.008637540642746754   -0.013022791196959498   -0.0028678140964662527
0.000987624451435266   -0.012634583239165947   -0.003335229040926607
0.00140536473857448   -0.03819548496441134   -0.006183881643307977
0.015747304976245016   -0.03882051704828001   -0.005828474513607544
0.008637540642746754   -0.013022791196959498   -0.0028678140964662527
0.015813715404975816   -0.03882027000123042   -0.006203360392105139
0.000987624451435266   -0.012634583239165947   -0.003335229040926607
0.008648282035051266   -0.013093422503159561   -0.0034219845247774675
0.015813715404975816   -0.03882027000123042   -0.006203360392105139
0.008637540642746754   -0.013022791196959498   -0.0028678140964662527
0.000987624451435266   -0.012634583239165947   -0.003335229040926607
0.015813715404975816   -0.03882027000123042   -0.006203360392105139
0.0015281737615571124   -0.03839684208704964   -0.006157413244340948
0.00140536473857448   -0.03819548496441134   -0.006183881643307977
0.000987624451435266   -0.012634583239165947   -0.003335229040926607
0.015813715404975816   -0.03882027000123042   -0.006203360392105139
0.00140536473857448   -0.03819548496441134   -0.006183881643307977
0.008637540642746754   -0.013022791196959498   -0.0028678140964662527
0.000987624451435266   -0.012634583239165947   -0.003335229040926607
0.0015281737615571124   -0.03839684208704964   -0.006157413244340948
0.008648282035051266   -0.013093422503159561   -0.0034219845247774675
0.001106397241290287   -0.01261678177564363   -0.003387456454953107
0.0015281737615571124   -0.03839684208704964   -0.006157413244340948
0.015813715404975816   -0.03882027000123042   -0.006203360392105139
0.008648282035051266   -0.013093422503159561   -0.0034219845247774675
0.01573453550656178   -0.038610851249064104   -0.006627811193282817
0.001106397241290287   -0.01261678177564363   -0.003387456454953107
0.00860726333033549   -0.012906420292273561   -0.003953137129613685
0.01573453550656178   -0.038610851249064104   -0.006627811193282817
0.008648282035051266   -0.013093422503159561   -0.0034219845247774675
0.001106397241290287   -0.01261678177564363   -0.003387456454953107
0.01573453550656178   -0.038610851249064104   -0.006627811193282817
0.0016090510359941849   -0.03838504946331493   -0.006174749620762349
0.0015281737615571124   -0.03839684208704964   -0.006157413244340948
0.001106397241290287   -0.01261678177564363   -0.003387456454953107
0.01573453550656178   -0.038610851249064104   -0.006627811193282817
0.0015281737615571124   -0.03839684208704964   -0.006157413244340948
0.008648282035051266   -0.013093422503159561   -0.0034219845247774675
0.001106397241290287   -0.01261678177564363   -0.003387456454953107
0.0016090510359941849   -0.03838504946331493   -0.006174749620762349
0.00860726333033549   -0.012906420292273561   -0.003953137129613685
0.0012673919460889904   -0.012341999715395938   -0.003440716363215937
0.0016090510359941849   -0.03838504946331493   -0.006174749620762349
0.01573453550656178   -0.038610851249064104   -0.006627811193282817
0.00860726333033549   -0.012906420292273561   -0.003953137129613685
0.01568694614170508   -0.03813475747077743   -0.007086143820379489
0.0012673919460889904   -0.012341999715395938   -0.003440716363215937
0.008770136478166855   -0.012404124709121032   -0.004473800299820725
0.01568694614170508   -0.03813475747077743   -0.007086143820379489
0.00860726333033549   -0.012906420292273561   -0.003953137129613685
0.0012673919460889904   -0.012341999715395938   -0.003440716363215937
0.01568694614170508   -0.03813475747077743   -0.007086143820379489
0.0016962322434460938   -0.038153575789203656   -0.006236590388508391
0.0016090510359941849   -0.03838504946331493   -0.006174749620762349
0.0012673919460889904   -0.012341999715395938   -0.003440716363215937
0.01568694614170508   -0.03813475747077743   -0.007086143820379489
0.0016090510359941849   -0.03838504946331493   -0.006174749620762349
0.00860726333033549   -0.012906420292273561   -0.003953137129613685
0.008637540642746754   -0.013022791196959498   -0.0028678140964662527
0.015747304976245016   -0.03882051704828001   -0.005828474513607544
0.01947606633421387   -0.014561813849426753   -0.002702769934192415
0.008648282035051266   -0.013093422503159561   -0.0034219845247774675
0.015747304976245016   -0.03882051704828001   -0.005828474513607544
0.03304602013563352   -0.039983375735166284   -0.0057293672468964815
0.01947606633421387   -0.014561813849426753   -0.002702769934192415
0.03236476793569301   -0.03987634458709646   -0.006571947064554027
0.008648282035051266   -0.013093422503159561   -0.0034219845247774675
0.01828517136965928   -0.01440434922076936   -0.003957830991490122
0.03236476793569301   -0.03987634458709646   -0.006571947064554027
0.01947606633421387   -0.014561813849426753   -0.002702769934192415
0.008648282035051266   -0.013093422503159561   -0.0034219845247774675
0.03236476793569301   -0.03987634458709646   -0.006571947064554027
0.015813715404975816   -0.03882027000123042   -0.006203360392105139
0.015747304976245016   -0.03882051704828001   -0.005828474513607544
0.008648282035051266   -0.013093422503159561   -0.0034219845247774675
0.03236476793569301   -0.03987634458709646   -0.006571947064554027
0.015747304976245016   -0.03882051704828001   -0.005828474513607544
0.01947606633421387   -0.014561813849426753   -0.002702769934192415
0.008648282035051266   -0.013093422503159561   -0.0034219845247774675
0.015813715404975816   -0.03882027000123042   -0.006203360392105139
0.01828517136965928   -0.01440434922076936   -0.003957830991490122
0.00860726333033549   -0.012906420292273561   -0.003953137129613685
0.015813715404975816   -0.03882027000123042   -0.006203360392105139
0.03236476793569301   -0.03987634458709646   -0.006571947064554027
0.01828517136965928   -0.01440434922076936   -0.003957830991490122
0.03175670788146964   -0.03955316604190552   -0.007518886585499742
0.00860726333033549   -0.012906420292273561   -0.003953137129613685
0.01773420464427073   -0.014104831295702433   -0.005018771572528974
0.03175670788146964   -0.03955316604190552   -0.007518886585499742
0.01828517136965928   -0.01440434922076936   -0.003957830991490122
0.00860726333033549   -0.012906420292273561   -0.003953137129613685
0.03175670788146964   -0.03955316604190552   -0.007518886585499742
0.01573453550656178   -0.038610851249064104   -0.006627811193282817
0.015813715404975816   -0.03882027000123042   -0.006203360392105139
0.00860726333033549   -0.012906420292273561   -0.003953137129613685
0.03175670788146964   -0.03955316604190552   -0.007518886585499742
0.015813715404975816   -0.03882027000123042   -0.006203360392105139
0.01828517136965928   -0.01440434922076936   -0.003957830991490122
0.00860726333033549   -0.012906420292273561   -0.003953137129613685
0.01573453550656178   -0.038610851249064104   -0.006627811193282817
0.01773420464427073   -0.014104831295702433   -0.005018771572528974
0.008770136478166855   -0.012404124709121032   -0.004473800299820725
0.01573453550656178   -0.038610851249064104   -0.006627811193282817
0.03175670788146964   -0.03955316604190552   -0.007518886585499742
0.01773420464427073   -0.014104831295702433   -0.005018771572528974
0.03084935595635441   -0.03883216258644522   -0.008504040953317839
0.008770136478166855   -0.012404124709121032   -0.004473800299820725
0.016916751519065954   -0.013337278630808089   -0.006140650668309207
0.03084935595635441   -0.03883216258644522   -0.008504040953317839
0.01773420464427073   -0.014104831295702433   -0.005018771572528974
0.008770136478166855   -0.012404124709121032   -0.004473800299820725
0.03084935595635441   -0.03883216258644522   -0.008504040953317839
0.01568694614170508   -0.03813475747077743   -0.007086143820379489
0.01573453550656178   -0.038610851249064104   -0.006627811193282817
0.008770136478166855   -0.012404124709121032   -0.004473800299820725
0.03084935595635441   -0.03883216258644522   -0.008504040953317839
0.01573453550656178   -0.038610851249064104   -0.006627811193282817
0.01773420464427073   -0.014104831295702433   -0.005018771572528974
-0.040992309532249464   -0.04010521276682652   -0.00989216793373123
-0.05620635250211195   -0.07529648063956657   -0.011262497612121444
-0.026165280590127724   -0.03878968656640872   -0.008139117955445418
-0.04222765491762429   -0.04103211954495526   -0.008574127172026276
-0.05620635250211195   -0.07529648063956657   -0.011262497612121444
-0.03613246557195505   -0.07428977681679112   -0.009838233851869526
-0.026165280590127724   -0.03878968656640872   -0.008139117955445418
-0.036218205789900045   -0.07486433700495777   -0.009208061585531583
-0.04222765491762429   -0.04103211954495526   -0.008574127172026276
-0.026201605100733865   -0.03945435554785969   -0.00732793737564315
-0.036218205789900045   -0.07486433700495777   -0.009208061585531583
-0.026165280590127724   -0.03878968656640872   -0.008139117955445418
-0.04222765491762429   -0.04103211954495526   -0.008574127172026276
-0.036218205789900045   -0.07486433700495777   -0.009208061585531583
-0.05721476664137022   -0.07608134285093189   -0.01027767580938215
-0.05620635250211195   -0.07529648063956657   -0.011262497612121444
-0.04222765491762429   -0.04103211954495526   -0.008574127172026276
-0.036218205789900045   -0.07486433700495777   -0.009208061585531583
-0.05620635250211195   -0.07529648063956657   -0.011262497612121444
-0.026165280590127724   -0.03878968656640872   -0.008139117955445418
-0.04222765491762429   -0.04103211954495526   -0.008574127172026276
-0.05721476664137022   -0.07608134285093189   -0.01027767580938215
-0.026201605100733865   -0.03945435554785969   -0.00732793737564315
-0.04308824705745548   -0.041555122504098145   -0.0072830542848712895
-0.05721476664137022   -0.07608134285093189   -0.01027767580938215
-0.036218205789900045   -0.07486433700495777   -0.009208061585531583
-0.026201605100733865   -0.03945435554785969   -0.00732793737564315
-0.03631837679025635   -0.07526368076936046   -0.008623259897392103
-0.04308824705745548   -0.041555122504098145   -0.0072830542848712895
-0.026310613928931238   -0.03985904851875796   -0.006548074310903964
-0.03631837679025635   -0.07526368076936046   -0.008623259897392103
-0.026201605100733865   -0.03945435554785969   -0.00732793737564315
-0.04308824705745548   -0.041555122504098145   -0.0072830542848712895
-0.03631837679025635   -0.07526368076936046   -0.008623259897392103
-0.057853473467896065   -0.07657294275386504   -0.009359383690003062
-0.05721476664137022   -0.07608134285093189   -0.01027767580938215
-0.04308824705745548   -0.041555122504098145   -0.0072830542848712895
-0.03631837679025635   -0.07526368076936046   -0.008623259897392103
-0.05721476664137022   -0.07608134285093189   -0.01027767580938215
-0.026201605100733865   -0.03945435554785969   -0.00732793737564315
-0.04308824705745548   -0.041555122504098145   -0.0072830542848712895
-0.057853473467896065   -0.07657294275386504   -0.009359383690003062
-0.026310613928931238   -0.03985904851875796   -0.006548074310903964
-0.044105680683773   -0.041857760301979845   -0.00610763800609423
-0.057853473467896065   -0.07657294275386504   -0.009359383690003062
-0.03631837679025635   -0.07526368076936046   -0.008623259897392103
-0.026310613928931238   -0.03985904851875796   -0.006548074310903964
-0.0362571897377719   -0.07552564649077384   -0.008074178725877032
-0.044105680683773   -0.041857760301979845   -0.00610763800609423
-0.026238260930830804   -0.04006823562889216   -0.005817744624037655
-0.0362571897377719   -0.07552564649077384   -0.008074178725877032
-0.026310613928931238   -0.03985904851875796   -0.006548074310903964
-0.044105680683773   -0.041857760301979845   -0.00610763800609423
-0.0362571897377719   -0.07552564649077384   -0.008074178725877032
-0.05858019755869327   -0.07692525089738038   -0.008513837135133567
-0.057853473467896065   -0.07657294275386504   -0.009359383690003062
-0.044105680683773   -0.041857760301979845   -0.00610763800609423
-0.0362571897377719   -0.07552564649077384   -0.008074178725877032
-0.057853473467896065   -0.07657294275386504   -0.009359383690003062
-0.026310613928931238   -0.03985904851875796   -0.006548074310903964
-0.026165280590127724   -0.03878968656640872   -0.008139117955445418
-0.03613246557195505   -0.07428977681679112   -0.009838233851869526
-0.012131238385437367   -0.03817759219294356   -0.006941924854549649
-0.026201605100733865   -0.03945435554785969   -0.00732793737564315
-0.03613246557195505   -0.07428977681679112   -0.009838233851869526
-0.017196558692284997   -0.0737883733937544   -0.008848445184979447
-0.012131238385437367   -0.03817759219294356   -0.006941924854549649
-0.017159976669965785   -0.07415622466512471   -0.008492917663112925
-0.026201605100733865   -0.03945435554785969   -0.00732793737564315
-0.012032105962035432   -0.03860108904869511   -0.006526745872759984
-0.017159976669965785   -0.07415622466512471   -0.008492917663112925
-0.012131238385437367   -0.03817759219294356   -0.006941924854549649
-0.026201605100733865   -0.03945435554785969   -0.00732793737564315
-0.017159976669965785   -0.07415622466512471   -0.008492917663112925
-0.036218205789900045   -0.07486433700495777   -0.009208061585531583
-0.03613246557195505   -0.07428977681679112   -0.009838233851869526
-0.026201605100733865   -0.03945435554785969   -0.00732793737564315
-0.017159976669965785   -0.07415622466512471   -0.008492917663112925
-0.03613246557195505   -0.07428977681679112   -0.009838233851869526
-0.012131238385437367   -0.03817759219294356   -0.006941924854549649
-0.026201605100733865   -0.03945435554785969   -0.00732793737564315
-0.036218205789900045   -0.07486433700495777   -0.009208061585531583
-0.012032105962035432   -0.03860108904869511   -0.006526745872759984
-0.026310613928931238   -0.03985904851875796   -0.006548074310903964
-0.036218205789900045   -0.07486433700495777   -0.009208061585531583
-0.017159976669965785   -0.07415622466512471   -0.008492917663112925
-0.012032105962035432   -0.03860108904869511   -0.006526745872759984
-0.017113669327349285   -0.07437210391716226   -0.00818063304204091
-0.026310613928931238   -0.03985904851875796   -0.006548074310903964
-0.01194488128485309   -0.038806299962945386   -0.006150143405110525
-0.017113669327349285   -0.07437210391716226   -0.00818063304204091
-0.012032105962035432   -0.03860108904869511   -0.006526745872759984
-0.026310613928931238   -0.03985904851875796   -0.006548074310903964
-0.017113669327349285   -0.07437210391716226   -0.00818063304204091
-0.03631837679025635   -0.07526368076936046   -0.008623259897392103
-0.036218205789900045   -0.07486433700495777   -0.009208061585531583
-0.026310613928931238   -0.03985904851875796   -0.006548074310903964
-0.017113669327349285   -0.07437210391716226   -0.00818063304204091
-0.036218205789900045   -0.07486433700495777   -0.009208061585531583
-0.012032105962035432   -0.03860108904869511   -0.006526745872759984
-0.026310613928931238   -0.03985904851875796   -0.006548074310903964
-0.03631837679025635   -0.07526368076936046   -0.008623259897392103
-0.01194488128485309   -0.038806299962945386   -0.006150143405110525
-0.026238260930830804   -0.04006823562889216   -0.005817744624037655
-0.03631837679025635   -0.07526368076936046   -0.008623259897392103
-0.017113669327349285   -0.07437210391716226   -0.00818063304204091
-0.01194488128485309   -0.038806299962945386   -0.006150143405110525
-0.017033490252782835   -0.07443909871842407   -0.007911444053048229
-0.026238260930830804   -0.04006823562889216   -0.005817744624037655
-0.011812137156112025   -0.038800974258065384   -0.005821988580027938
-0.017033490252782835   -0.07443909871842407   -0.007911444053048229
-0.01194488128485309   -0.038806299962945386   -0.006150143405110525
-0.026238260930830804   -0.04006823562889216   -0.005817744624037655
-0.017033490252782835   -0.07443909871842407   -0.007911444053048229
-0.0362571897377719   -0.07552564649077384   -0.008074178725877032
-0.03631837679025635   -0.07526368076936046   -0.008623259897392103
-0.026238260930830804   -0.04006823562889216   -0.005817744624037655
-0.017033490252782835   -0.07443909871842407   -0.007911444053048229
-0.03631837679025635   -0.07526368076936046   -0.008623259897392103
-0.01194488128485309   -0.038806299962945386   -0.006150143405110525
-0.012131238385437367   -0.03817759219294356   -0.006941924854549649
-0.017196558692284997   -0.0737883733937544   -0.008848445184979447
0.00140536473857448   -0.03819548496441134   -0.006183881643307977
-0.012032105962035432   -0.03860108904869511   -0.006526745872759984
-0.017196558692284997   -0.0737883733937544   -0.008848445184979447
0.0011859708388247158   -0.07376179044079527   -0.008233564322062684
0.00140536473857448   -0.03819548496441134   -0.006183881643307977
0.0012584615349463496   -0.0739263307298558   -0.008151168965336325
-0.012032105962035432   -0.03860108904869511   -0.006526745872759984
0.0015281737615571124   -0.03839684208704964   -0.006157413244340948
0.0012584615349463496   -0.0739263307298558   -0.008151168965336325
0.00140536473857448   -0.03819548496441134   -0.006183881643307977
-0.012032105962035432   -0.03860108904869511   -0.006526745872759984
0.0012584615349463496   -0.0739263307298558   -0.008151168965336325
-0.017159976669965785   -0.07415622466512471   -0.008492917663112925
-0.017196558692284997   -0.0737883733937544   -0.008848445184979447
-0.012032105962035432   -0.03860108904869511   -0.006526745872759984
0.0012584615349463496   -0.0739263307298558   -0.008151168965336325
-0.017196558692284997   -0.0737883733937544   -0.008848445184979447
0.00140536473857448   -0.03819548496441134   -0.006183881643307977
-0.012032105962035432   -0.03860108904869511   -0.006526745872759984
-0.017159976669965785   -0.07415622466512471   -0.008492917663112925
0.0015281737615571124   -0.03839684208704964   -0.006157413244340948
-0.01194488128485309   -0.038806299962945386   -0.006150143405110525
-0.017159976669965785   -0.07415622466512471   -0.008492917663112925
0.0012584615349463496   -0.0739263307298558   -0.008151168965336325
0.0015281737615571124   -0.03839684208704964   -0.006157413244340948
0.0013026217062784766   -0.07393952170821717   -0.00811086524969235
-0.01194488128485309   -0.038806299962945386   -0.006150143405110525
0.0016090510359941849   -0.03838504946331493   -0.006174749620762349
0.0013026217062784766   -0.07393952170821717   -0.00811086524969235
0.0015281737615571124   -0.03839684208704964   -0.006157413244340948
-0.01194488128485309   -0.038806299962945386   -0.006150143405110525
0.0013026217062784766   -0.07393952170821717   -0.00811086524969235
-0.017113669327349285   -0.07437210391716226   -0.00818063304204091
-0.017159976669965785   -0.07415622466512471   -0.008492917663112925
-0.01194488128485309   -0.038806299962945386   -0.006150143405110525
0.0013026217062784766   -0.07393952170821717   -0.00811086524969235
-0.017159976669965785   -0.07415622466512471   -0.008492917663112925
0.0015281737615571124   -0.03839684208704964   -0.006157413244340948
-0.01194488128485309   -0.038806299962945386   -0.006150143405110525
-0.017113669327349285   -0.07437210391716226   -0.00818063304204091
0.0016090510359941849   -0.03838504946331493   -0.006174749620762349
-0.011812137156112025   -0.038800974258065384   -0.005821988580027938
-0.017113669327349285   -0.07437210391716226   -0.00818063304204091
0.0013026217062784766   -0.07393952170821717   -0.00811086524969235
0.0016090510359941849   -0.03838504946331493   -0.006174749620762349
0.0013326990341114178   -0.07379909826236303   -0.008115235433625887
-0.011812137156112025   -0.038800974258065384   -0.005821988580027938
0.0016962322434460938   -0.038153575789203656   -0.006236590388508391
0.0013326990341114178   -0.07379909826236303   -0.008115235433625887
0.0016090510359941849   -0.03838504946331493   -0.006174749620762349
-0.011812137156112025   -0.038800974258065384   -0.005821988580027938
0.0013326990341114178   -0.07379909826236303   -0.008115235433625887
-0.017033490252782835   -0.07443909871842407   -0.007911444053048229
-0.017113669327349285   -0.07437210391716226   -0.00818063304204091
-0.011812137156112025   -0.038800974258065384   -0.005821988580027938
0.0013326990341114178   -0.07379909826236303   -0.008115235433625887
-0.017113669327349285   -0.07437210391716226   -0.00818063304204091
0.0016090510359941849   -0.03838504946331493   -0.006174749620762349
0.00140536473857448   -0.03819548496441134   -0.006183881643307977
0.0011859708388247158   -0.07376179044079527   -0.008233564322062684
0.015747304976245016   -0.03882051704828001   -0.005828474513607544
0.0015281737615571124   -0.03839684208704964   -0.006157413244340948
0.0011859708388247158   -0.07376179044079527   -0.008233564322062684
0.020351259081842016   -0.0741818612758623   -0.00798289916142921
0.015747304976245016   -0.03882051704828001   -0.005828474513607544
0.020413114157303576   -0.07416027216387035   -0.008179359856598328
0.0015281737615571124   -0.03839684208704964   -0.006157413244340948
0.015813715404975816   -0.03882027000123042   -0.006203360392105139
0.020413114157303576   -0.07416027216387035   -0.008179359856598328
0.015747304976245016   -0.03882051704828001   -0.005828474513607544
0.0015281737615571124   -0.03839684208704964   -0.006157413244340948
0.020413114157303576   -0.07416027216387035   -0.008179359856598328
0.0012584615349463496   -0.0739263307298558   -0.008151168965336325
0.0011859708388247158   -0.07376179044079527   -0.008233564322062684
0.0015281737615571124   -0.03839684208704964   -0.006157413244340948
0.020413114157303576   -0.07416027216387035   -0.008179359856598328
0.0011859708388247158   -0.07376179044079527   -0.008233564322062684
0.015747304976245016   -0.03882051704828001   -0.005828474513607544
0.0015281737615571124   -0.03839684208704964   -0.006157413244340948
0.0012584615349463496   -0.0739263307298558   -0.008151168965336325
0.015813715404975816   -0.03882027000123042   -0.006203360392105139
0.0016090510359941849   -0.03838504946331493   -0.006174749620762349
0.0012584615349463496   -0.0739263307298558   -0.008151168965336325
0.020413114157303576   -0.07416027216387035   -0.008179359856598328
0.015813715404975816   -0.03882027000123042   -0.006203360392105139
0.020354173694590156   -0.07399037008409341   -0.008414819228103098
0.0016090510359941849   -0.03838504946331493   -0.006174749620762349
0.01573453550656178   -0.038610851249064104   -0.006627811193282817
0.020354173694590156   -0.07399037008409341   -0.008414819228103098
0.015813715404975816   -0.03882027000123042   -0.006203360392105139
0.0016090510359941849   -0.03838504946331493   -0.006174749620762349
0.020354173694590156   -0.07399037008409341   -0.008414819228103098
0.0013026217062784766   -0.07393952170821717   -0.00811086524969235
0.0012584615349463496   -0.0739263307298558   -0.008151168965336325
0.0016090510359941849   -0.03838504946331493   -0.006174749620762349
0.020354173694590156   -0.07399037008409341   -0.008414819228103098
0.0012584615349463496   -0.0739263307298558   -0.008151168965336325
0.015813715404975816   -0.03882027000123042   -0.006203360392105139
0.0016090510359941849   -0.03838504946331493   -0.006174749620762349
0.0013026217062784766   -0.07393952170821717   -0.00811086524969235
0.01573453550656178   -0.038610851249064104   -0.006627811193282817
0.0016962322434460938   -0.038153575789203656   -0.006236590388508391
0.0013026217062784766   -0.07393952170821717   -0.00811086524969235
0.020354173694590156   -0.07399037008409341   -0.008414819228103098
0.01573453550656178   -0.038610851249064104   -0.006627811193282817
0.02026994859952095   -0.07363566283822616   -0.008693878269002064
0.0016962322434460938   -0.038153575789203656   -0.006236590388508391
0.01568694614170508   -0.03813475747077743   -0.007086143820379489
0.02026994859952095   -0.07363566283822616   -0.008693878269002064
0.01573453550656178   -0.038610851249064104   -0.006627811193282817
0.0016962322434460938   -0.038153575789203656   -0.006236590388508391
0.02026994859952095   -0.07363566283822616   -0.008693878269002064
0.0013326990341114178   -0.07379909826236303   -0.008115235433625887
0.0013026217062784766   -0.07393952170821717   -0.00811086524969235
0.0016962322434460938   -0.038153575789203656   -0.006236590388508391
0.02026994859952095   -0.07363566283822616   -0.008693878269002064
0.0013026217062784766   -0.07393952170821717   -0.00811086524969235
0.01573453550656178   -0.038610851249064104   -0.006627811193282817
0.015747304976245016   -0.03882051704828001   -0.005828474513607544
0.020351259081842016   -0.0741818612758623   -0.00798289916142921
0.03304602013563352   -0.039983375735166284   -0.0057293672468964815
0.015813715404975816   -0.03882027000123042   -0.006203360392105139
0.020351259081842016   -0.0741818612758623   -0.00798289916142921
0.042173897954026075   -0.07494519550141976   -0.00798300023130966
0.03304602013563352   -0.039983375735166284   -0.0057293672468964815
0.041796598425586765   -0.07481670948076814   -0.008494890423624047
0.015813715404975816   -0.03882027000123042   -0.006203360392105139
0.03236476793569301   -0.03987634458709646   -0.006571947064554027
0.041796598425586765   -0.07481670948076814   -0.008494890423624047
0.03304602013563352   -0.039983375735166284   -0.0057293672468964815
0.015813715404975816   -0.03882027000123042   -0.006203360392105139
0.041796598425586765   -0.07481670948076814   -0.008494890423624047
0.020413114157303576   -0.07416027216387035   -0.008179359856598328
0.020351259081842016   -0.0741818612758623   -0.00798289916142921
0.015813715404975816   -0.03882027000123042   -0.006203360392105139
0.041796598425586765   -0.07481670948076814   -0.008494890423624047
0.020351259081842016   -0.0741818612758623   -0.00798289916142921
0.03304602013563352   -0.039983375735166284   -0.0057293672468964815
0.015813715404975816   -0.03882027000123042   -0.006203360392105139
0.020413114157303576   -0.07416027216387035   -0.008179359856598328
0.03236476793569301   -0.03987634458709646   -0.006571947064554027
0.01573453550656178   -0.038610851249064104   -0.006627811193282817
0.020413114157303576   -0.07416027216387035   -0.008179359856598328
0.041796598425586765   -0.07481670948076814   -0.008494890423624047
0.03236476793569301   -0.03987634458709646   -0.006571947064554027
0.04142143907033593   -0.07455471443910583   -0.009077099575226484
0.01573453550656178   -0.038610851249064104   -0.006627811193282817
0.03175670788146964   -0.03955316604190552   -0.007518886585499742
0.04142143907033593   -0.07455471443910583   -0.009077099575226484
0.03236476793569301   -0.03987634458709646   -0.006571947064554027
0.01573453550656178   -0.038610851249064104   -0.006627811193282817
0.04142143907033593   -0.07455471443910583   -0.009077099575226484
0.020354173694590156   -0.07399037008409341   -0.008414819228103098
0.020413114157303576   -0.07416027216387035   -0.008179359856598328
0.01573453550656178   -0.038610851249064104   -0.006627811193282817
0.04142143907033593   -0.07455471443910583   -0.009077099575226484
0.020413114157303576   -0.07416027216387035   -0.008179359856598328
0.03236476793569301   -0.03987634458709646   -0.006571947064554027
0.01573453550656178   -0.038610851249064104   -0.006627811193282817
0.020354173694590156   -0.07399037008409341   -0.008414819228103098
0.03175670788146964   -0.03955316604190552   -0.007518886585499742
0.01568694614170508   -0.03813475747077743   -0.007086143820379489
0.020354173694590156   -0.07399037008409341   -0.008414819228103098
0.04142143907033593   -0.07455471443910583   -0.009077099575226484
0.03175670788146964   -0.03955316604190552   -0.007518886585499742
0.040761660307958324   -0.07400294945097716   -0.009729699984771138
0.01568694614170508   -0.03813475747077743   -0.007086143820379489
0.03084935595635441   -0.03883216258644522   -0.008504040953317839
0.040761660307958324   -0.07400294945097716   -0.009729699984771138
0.03175670788146964   -0.03955316604190552   -0.007518886585499742
0.01568694614170508   -0.03813475747077743   -0.007086143820379489
0.040761660307958324   -0.07400294945097716   -0.009729699984771138
0.02026994859952095   -0.07363566283822616   -0.008693878269002064
0.020354173694590156   -0.07399037008409341   -0.008414819228103098
0.01568694614170508   -0.03813475747077743   -0.007086143820379489
0.040761660307958324   -0.07400294945097716   -0.009729699984771138
0.020354173694590156   -0.07399037008409341   -0.008414819228103098
0.03175670788146964   -0.03955316604190552   -0.007518886585499742
-0.05620635250211195   -0.07529648063956657   -0.011262497612121444
-0.06716376354411162   -0.11707349362165058   -0.012004816599889868
-0.03613246557195505   -0.07428977681679112   -0.009838233851869526
-0.05721476664137022   -0.07608134285093189   -0.01027767580938215
-0.06716376354411162   -0.11707349362165058   -0.012004816599889868
-0.043583921636851305   -0.11643169539378324   -0.010841416854773757
-0.03613246557195505   -0.07428977681679112   -0.009838233851869526
-0.043642723476668   -0.11692678693783373   -0.010389714797921869
-0.05721476664137022   -0.07608134285093189   -0.01027767580938215
-0.036218205789900045   -0.07486433700495777   -0.009208061585531583
-0.043642723476668   -0.11692678693783373   -0.010389714797921869
-0.03613246557195505   -0.07428977681679112   -0.009838233851869526
-0.05721476664137022   -0.07608134285093189   -0.01027767580938215
-0.043642723476668   -0.11692678693783373   -0.010389714797921869
-0.06784669052021099   -0.11774297599765296   -0.011349322816036912
-0.06716376354411162   -0.11707349362165058   -0.012004816599889868
-0.05721476664137022   -0.07608134285093189   -0.01027767580938215
-0.043642723476668   -0.11692678693783373   -0.010389714797921869
-0.06716376354411162   -0.11707349362165058   -0.012004816599889868
-0.03613246557195505   -0.07428977681679112   -0.009838233851869526
-0.05721476664137022   -0.07608134285093189   -0.01027767580938215
-0.06784669052021099   -0.11774297599765296   -0.011349322816036912
-0.036218205789900045   -0.07486433700495777   -0.009208061585531583
-0.057853473467896065   -0.07657294275386504   -0.009359383690003062
-0.06784669052021099   -0.11774297599765296   -0.011349322816036912
-0.043642723476668   -0.11692678693783373   -0.010389714797921869
-0.036218205789900045   -0.07486433700495777   -0.009208061585531583
-0.043686713831826936   -0.11731876784245557   -0.009982913573003079
-0.057853473467896065   -0.07657294275386504   -0.009359383690003062
-0.03631837679025635   -0.07526368076936046   -0.008623259897392103
-0.043686713831826936   -0.11731876784245557   -0.009982913573003079
-0.036218205789900045   -0.07486433700495777   -0.009208061585531583
-0.057853473467896065   -0.07657294275386504   -0.009359383690003062
-0.043686713831826936   -0.11731876784245557   -0.009982913573003079
-0.06824169324178445   -0.11821601976210364   -0.010756457913925205
-0.06784669052021099   -0.11774297599765296   -0.011349322816036912
-0.057853473467896065   -0.07657294275386504   -0.009359383690003062
-0.043686713831826936   -0.11731876784245557   -0.009982913573003079
-0.06784669052021099   -0.11774297599765296   -0.011349322816036912
-0.036218205789900045   -0.07486433700495777   -0.009208061585531583
-0.057853473467896065   -0.07657294275386504   -0.009359383690003062
-0.06824169324178445   -0.11821601976210364   -0.010756457913925205
-0.03631837679025635   -0.07526368076936046   -0.008623259897392103
-0.05858019755869327   -0.07692525089738038   -0.008513837135133567
-0.06824169324178445   -0.11821601976210364   -0.010756457913925205
-0.043686713831826936   -0.11731876784245557   -0.009982913573003079
-0.03631837679025635   -0.07526368076936046   -0.008623259897392103
-0.04360278039502821   -0.1176400877613644   -0.009615084445743348
-0.05858019755869327   -0.07692525089738038   -0.008513837135133567
-0.0362571897377719   -0.07552564649077384   -0.008074178725877032
-0.04360278039502821   -0.1176400877613644   -0.009615084445743348
-0.03631837679025635   -0.07526368076936046   -0.008623259897392103
-0.05858019755869327   -0.07692525089738038   -0.008513837135133567
-0.04360278039502821   -0.1176400877613644   -0.009615084445743348
-0.0686490931218425   -0.11863898235012472   -0.010233629629706245
-0.06824169324178445   -0.11821601976210364   -0.010756457913925205
-0.05858019755869327   -0.07692525089738038   -0.008513837135133567
-0.04360278039502821   -0.1176400877613644   -0.009615084445743348
-0.06824169324178445   -0.11821601976210364   -0.010756457913925205
-0.03631837679025635   -0.07526368076936046   -0.008623259897392103
-0.03613246557195505   -0.07428977681679112   -0.009838233851869526
-0.043583921636851305   -0.11643169539378324   -0.010841416854773757
-0.017196558692284997   -0.0737883733937544   -0.008848445184979447
-0.036218205789900045   -0.07486433700495777   -0.009208061585531583
-0.043583921636851305   -0.11643169539378324   -0.010841416854773757
-0.021473117263224595   -0.11610080675635154   -0.010035633806075302
-0.017196558692284997   -0.0737883733937544   -0.008848445184979447
-0.02143852181301916   -0.11641191965860326   -0.009738126752049915
-0.036218205789900045   -0.07486433700495777   -0.009208061585531583
-0.017159976669965785   -0.07415622466512471   -0.008492917663112925
-0.02143852181301916   -0.11641191965860326   -0.009738126752049915
-0.017196558692284997   -0.0737883733937544   -0.008848445184979447
-0.036218205789900045   -0.07486433700495777   -0.009208061585531583
-0.02143852181301916   -0.11641191965860326   -0.009738126752049915
-0.043642723476668   -0.11692678693783373   -0.010389714797921869
-0.043583921636851305   -0.11643169539378324   -0.010841416854773757
-0.036218205789900045   -0.07486433700495777   -0.009208061585531583
-0.02143852181301916   -0.11641191965860326   -0.009738126752049915
-0.043583921636851305   -0.11643169539378324   -0.010841416854773757
-0.017196558692284997   -0.0737883733937544   -0.008848445184979447
-0.036218205789900045   -0.07486433700495777   -0.009208061585531583
-0.043642723476668   -0.11692678693783373   -0.010389714797921869
-0.017159976669965785   -0.07415622466512471   -0.008492917663112925
-0.03631837679025635   -0.07526368076936046   -0.008623259897392103
-0.043642723476668   -0.11692678693783373   -0.010389714797921869
-0.02143852181301916   -0.11641191965860326   -0.009738126752049915
-0.017159976669965785   -0.07415622466512471   -0.008492917663112925
-0.02138891188281198   -0.11663668254078029   -0.00948487741598015
-0.03631837679025635   -0.07526368076936046   -0.008623259897392103
-0.017113669327349285   -0.07437210391716226   -0.00818063304204091
-0.02138891188281198   -0.11663668254078029   -0.00948487741598015
-0.017159976669965785   -0.07415622466512471   -0.008492917663112925
-0.03631837679025635   -0.07526368076936046   -0.008623259897392103
-0.02138891188281198   -0.11663668254078029   -0.00948487741598015
-0.043686713831826936   -0.11731876784245557   -0.009982913573003079
-0.043642723476668   -0.11692678693783373   -0.010389714797921869
-0.03631837679025635   -0.07526368076936046   -0.008623259897392103
-0.02138891188281198   -0.11663668254078029   -0.00948487741598015
-0.043642723476668   -0.11692678693783373   -0.010389714797921869
-0.017159976669965785   -0.07415622466512471   -0.008492917663112925
-0.03631837679025635   -0.07526368076936046   -0.008623259897392103
-0.043686713831826936   -0.11731876784245557   -0.009982913573003079
-0.017113669327349285   -0.07437210391716226   -0.00818063304204091
-0.0362571897377719   -0.07552564649077384   -0.008074178725877032
-0.043686713831826936   -0.11731876784245557   -0.009982913573003079
-0.02138891188281198   -0.11663668254078029   -0.00948487741598015
-0.017113669327349285   -0.07437210391716226   -0.00818063304204091
-0.02131194693806716   -0.11677656207317261   -0.00927659616185609
-0.0362571897377719   -0.07552564649077384   -0.008074178725877032
-0.017033490252782835   -0.07443909871842407   -0.007911444053048229
-0.02131194693806716   -0.11677656207317261   -0.00927659616185609
-0.017113669327349285   -0.07437210391716226   -0.00818063304204091
-0.0362571897377719   -0.07552564649077384   -0.008074178725877032
-0.02131194693806716   -0.11677656207317261   -0.00927659616185609
-0.04360278039502821   -0.1176400877613644   -0.009615084445743348
-0.043686713831826936   -0.11731876784245557   -0.009982913573003079
-0.0362571897377719   -0.07552564649077384   -0.008074178725877032
-0.02131194693806716   -0.11677656207317261   -0.00927659616185609
-0.043686713831826936   -0.11731876784245557   -0.009982913573003079
-0.017113669327349285   -0.07437210391716226   -0.00818063304204091
-0.017196558692284997   -0.0737883733937544   -0.008848445184979447
-0.021473117263224595   -0.11610080675635154   -0.010035633806075302
0.0011859708388247158   -0.07376179044079527   -0.008233564322062684
-0.017159976669965785   -0.07415622466512471   -0.008492917663112925
-0.021473117263224595   -0.11610080675635154   -0.010035633806075302
3.8779723261560264e-05   -0.11604441457195214   -0.009565078617829568
0.0011859708388247158   -0.07376179044079527   -0.008233564322062684
0.00010924571163033302   -0.11617074942427245   -0.009422889748414258
-0.017159976669965785   -0.07415622466512471   -0.008492917663112925
0.0012584615349463496   -0.0739263307298558   -0.008151168965336325
0.00010924571163033302   -0.11617074942427245   -0.009422889748414258
0.0011859708388247158   -0.07376179044079527   -0.008233564322062684
-0.017159976669965785   -0.07415622466512471   -0.008492917663112925
0.00010924571163033302   -0.11617074942427245   -0.009422889748414258
-0.02143852181301916   -0.11641191965860326   -0.009738126752049915
-0.021473117263224595   -0.11610080675635154   -0.010035633806075302
-0.017159976669965785   -0.07415622466512471   -0.008492917663112925
0.00010924571163033302   -0.11617074942427245   -0.009422889748414258
-0.021473117263224595   -0.11610080675635154   -0.010035633806075302
0.0011859708388247158   -0.07376179044079527   -0.008233564322062684
-0.017159976669965785   -0.07415622466512471   -0.008492917663112925
-0.02143852181301916   -0.11641191965860326   -0.009738126752049915
0.0012584615349463496   -0.0739263307298558   -0.008151168965336325
-0.017113669327349285   -0.07437210391716226   -0.00818063304204091
-0.02143852181301916   -0.11641191965860326   -0.009738126752049915
0.00010924571163033302   -0.11617074942427245   -0.009422889748414258
0.0012584615349463496   -0.0739263307298558   -0.008151168965336325
0.00015762762815125624   -0.11621014667778445   -0.00932437551693792
-0.017113669327349285   -0.07437210391716226   -0.00818063304204091
0.0013026217062784766   -0.07393952170821717   -0.00811086524969235
0.00015762762815125624   -0.11621014667778445   -0.00932437551693792
0.0012584615349463496   -0.0739263307298558   -0.008151168965336325
-0.017113669327349285   -0.07437210391716226   -0.00818063304204091
0.00015762762815125624   -0.11621014667778445   -0.00932437551693792
-0.02138891188281198   -0.11663668254078029   -0.00948487741598015
-0.02143852181301916   -0.11641191965860326   -0.009738126752049915
-0.017113669327349285   -0.07437210391716226   -0.00818063304204091
0.00015762762815125624   -0.11621014667778445   -0.00932437551693792
-0.02143852181301916   -0.11641191965860326   -0.009738126752049915
0.0012584615349463496   -0.0739263307298558   -0.008151168965336325
-0.017113669327349285   -0.07437210391716226   -0.00818063304204091
-0.02138891188281198   -0.11663668254078029   -0.00948487741598015
0.0013026217062784766   -0.07393952170821717   -0.00811086524969235
-0.017033490252782835   -0.07443909871842407   -0.007911444053048229
-0.02138891188281198   -0.11663668254078029   -0.00948487741598015
0.00015762762815125624   -0.11621014667778445   -0.00932437551693792
0.0013026217062784766   -0.07393952170821717   -0.00811086524969235
0.00018596205021032962   -0.11616141953469189   -0.009271487331130266
-0.017033490252782835   -0.07443909871842407   -0.007911444053048229
0.0013326990341114178   -0.07379909826236303   -0.008115235433625887
0.00018596205021032962   -0.11616141953469189   -0.009271487331130266
0.0013026217062784766   -0.07393952170821717   -0.00811086524969235
-0.017033490252782835   -0.07443909871842407   -0.007911444053048229
0.00018596205021032962   -0.11616141953469189   -0.009271487331130266
-0.02131194693806716   -0.11677656207317261   -0.00927659616185609
-0.02138891188281198   -0.11663668254078029   -0.00948487741598015
-0.017033490252782835   -0.07443909871842407   -0.007911444053048229
0.00018596205021032962   -0.11616141953469189   -0.009271487331130266
-0.02138891188281198   -0.11663668254078029   -0.00948487741598015
0.0013026217062784766   -0.07393952170821717   -0.00811086524969235
0.0011859708388247158   -0.07376179044079527   -0.008233564322062684
3.8779723261560264e-05   -0.11604441457195214   -0.009565078617829568
0.020351259081842016   -0.0741818612758623   -0.00798289916142921
0.0012584615349463496   -0.0739263307298558   -0.008151168965336325
3.8779723261560264e-05   -0.11604441457195214   -0.009565078617829568
0.022290066996489666   -0.1162392231206727   -0.009427621599167928
0.020351259081842016   -0.0741818612758623   -0.00798289916142921
0.02237719712097294   -0.11619171683475148   -0.009444073732497692
0.0012584615349463496   -0.0739263307298558   -0.008151168965336325
0.020413114157303576   -0.07416027216387035   -0.008179359856598328
0.02237719712097294   -0.11619171683475148   -0.009444073732497692
0.020351259081842016   -0.0741818612758623   -0.00798289916142921
0.0012584615349463496   -0.0739263307298558   -0.008151168965336325
0.02237719712097294   -0.11619171683475148   -0.009444073732497692
0.00010924571163033302   -0.11617074942427245   -0.009422889748414258
3.8779723261560264e-05   -0.11604441457195214   -0.009565078617829568
0.0012584615349463496   -0.0739263307298558   -0.008151168965336325
0.02237719712097294   -0.11619171683475148   -0.009444073732497692
3.8779723261560264e-05   -0.11604441457195214   -0.009565078617829568
0.020351259081842016   -0.0741818612758623   -0.00798289916142921
0.0012584615349463496   -0.0739263307298558   -0.008151168965336325
0.00010924571163033302   -0.11617074942427245   -0.009422889748414258
0.020413114157303576   -0.07416027216387035   -0.008179359856598328
0.0013026217062784766   -0.07393952170821717   -0.00811086524969235
0.00010924571163033302   -0.11617074942427245   -0.009422889748414258
0.02237719712097294   -0.11619171683475148   -0.009444073732497692
0.020413114157303576   -0.07416027216387035   -0.008179359856598328
0.022377281267832682   -0.11606368648277189   -0.00950186595436353
0.0013026217062784766   -0.07393952170821717   -0.00811086524969235
0.020354173694590156   -0.07399037008409341   -0.008414819228103098
0.022377281267832682   -0.11606368648277189   -0.00950186595436353
0.020413114157303576   -0.07416027216387035   -0.008179359856598328
0.0013026217062784766   -0.07393952170821717   -0.00811086524969235
0.022377281267832682   -0.11606368648277189   -0.00950186595436353
0.00015762762815125624   -0.11621014667778445   -0.00932437551693792
0.00010924571163033302   -0.11617074942427245   -0.009422889748414258
0.0013026217062784766   -0.07393952170821717   -0.00811086524969235
0.022377281267832682   -0.11606368648277189   -0.00950186595436353
0.00010924571163033302   -0.11617074942427245   -0.009422889748414258
0.020413114157303576   -0.07416027216387035   -0.008179359856598328
0.0013026217062784766   -0.07393952170821717   -0.00811086524969235
0.00015762762815125624   -0.11621014667778445   -0.00932437551693792
0.020354173694590156   -0.07399037008409341   -0.008414819228103098
0.0013326990341114178   -0.07379909826236303   -0.008115235433625887
0.00015762762815125624   -0.11621014667778445   -0.00932437551693792
0.022377281267832682   -0.11606368648277189   -0.00950186595436353
0.020354173694590156   -0.07399037008409341   -0.008414819228103098
0.022321805342636798   -0.1158228553725938   -0.00960255072982235
0.0013326990341114178   -0.07379909826236303   -0.008115235433625887
0.02026994859952095   -0.07363566283822616   -0.008693878269002064
0.022321805342636798   -0.1158228553725938   -0.00960255072982235
0.020354173694590156   -0.07399037008409341   -0.008414819228103098
0.0013326990341114178   -0.07379909826236303   -0.008115235433625887
0.022321805342636798   -0.1158228553725938   -0.00960255072982235
0.00018596205021032962   -0.11616141953469189   -0.009271487331130266
0.00015762762815125624   -0.11621014667778445   -0.00932437551693792
0.0013326990341114178   -0.07379909826236303   -0.008115235433625887
0.022321805342636798   -0.1158228553725938   -0.00960255072982235
0.00015762762815125624   -0.11621014667778445   -0.00932437551693792
0.020354173694590156   -0.07399037008409341   -0.008414819228103098
0.020351259081842016   -0.0741818612758623   -0.00798289916142921
0.022290066996489666   -0.1162392231206727   -0.009427621599167928
0.042173897954026075   -0.07494519550141976   -0.00798300023130966
0.020413114157303576   -0.07416027216387035   -0.008179359856598328
0.022290066996489666   -0.1162392231206727   -0.009427621599167928
0.046861620806931084   -0.116598348888809   -0.009549392227882097
0.042173897954026075   -0.07494519550141976   -0.00798300023130966
0.04680793605063778   -0.11643335676033731   -0.009737744065014724
0.020413114157303576   -0.07416027216387035   -0.008179359856598328
0.041796598425586765   -0.07481670948076814   -0.008494890423624047
0.04680793605063778   -0.11643335676033731   -0.009737744065014724
0.042173897954026075   -0.07494519550141976   -0.00798300023130966
0.020413114157303576   -0.07416027216387035   -0.008179359856598328
0.04680793605063778   -0.11643335676033731   -0.009737744065014724
0.02237719712097294   -0.11619171683475148   -0.009444073732497692
0.022290066996489666   -0.1162392231206727   -0.009427621599167928
0.020413114157303576   -0.07416027216387035   -0.008179359856598328
0.04680793605063778   -0.11643335676033731   -0.009737744065014724
0.022290066996489666   -0.1162392231206727   -0.009427621599167928
0.042173897954026075   -0.07494519550141976   -0.00798300023130966
0.020413114157303576   -0.07416027216387035   -0.008179359856598328
0.02237719712097294   -0.11619171683475148   -0.009444073732497692
0.041796598425586765   -0.07481670948076814   -0.008494890423624047
0.020354173694590156   -0.07399037008409341   -0.008414819228103098
0.02237719712097294   -0.11619171683475148   -0.009444073732497692
0.04680793605063778   -0.11643335676033731   -0.009737744065014724
0.041796598425586765   -0.07481670948076814   -0.008494890423624047
0.04668152269614704   -0.11622398574277822   -0.009993122493174054
0.020354173694590156   -0.07399037008409341   -0.008414819228103098
0.04142143907033593   -0.07455471443910583   -0.009077099575226484
0.04668152269614704   -0.11622398574277822   -0.009993122493174054
0.041796598425586765   -0.07481670948076814   -0.008494890423624047
0.020354173694590156   -0.07399037008409341   -0.008414819228103098
0.04668152269614704   -0.11622398574277822   -0.009993122493174054
0.022377281267832682   -0.11606368648277189   -0.00950186595436353
0.02237719712097294   -0.11619171683475148   -0.009444073732497692
0.020354173694590156   -0.07399037008409341   -0.008414819228103098
0.04668152269614704   -0.11622398574277822   -0.009993122493174054
0.02237719712097294   -0.11619171683475148   -0.009444073732497692
0.041796598425586765   -0.07481670948076814   -0.008494890423624047
0.020354173694590156   -0.07399037008409341   -0.008414819228103098
0.022377281267832682   -0.11606368648277189   -0.00950186595436353
0.04142143907033593   -0.07455471443910583   -0.009077099575226484
0.02026994859952095   -0.07363566283822616   -0.008693878269002064
0.022377281267832682   -0.11606368648277189   -0.00950186595436353
0.04668152269614704   -0.11622398574277822   -0.009993122493174054
0.04142143907033593   -0.07455471443910583   -0.009077099575226484
0.04635182460785198   -0.11582281104505368   -0.010315042451638145
0.02026994859952095   -0.07363566283822616   -0.008693878269002064
0.040761660307958324   -0.07400294945097716   -0.009729699984771138
0.04635182460785198   -0.11582281104505368   -0.010315042451638145
0.04142143907033593   -0.07455471443910583   -0.009077099575226484
0.02026994859952095   -0.07363566283822616   -0.008693878269002064
0.04635182460785198   -0.11582281104505368   -0.010315042451638145
0.022321805342636798   -0.1158228553725938   -0.00960255072982235
0.022377281267832682   -0.11606368648277189   -0.00950186595436353
0.02026994859952095   -0.07363566283822616   -0.008693878269002064
0.04635182460785198   -0.11582281104505368   -0.010315042451638145
0.022377281267832682   -0.11606368648277189   -0.00950186595436353
0.04142143907033593   -0.07455471443910583   -0.009077099575226484
-0.06716376354411162   -0.11707349362165058   -0.012004816599889868
-0.0738177060011933   -0.16259500749560302   -0.012217690823547105
-0.043583921636851305   -0.11643169539378324   -0.010841416854773757
-0.06784669052021099   -0.11774297599765296   -0.011349322816036912
-0.0738177060011933   -0.16259500749560302   -0.012217690823547105
-0.048485019549625585   -0.16233231129108658   -0.011289101649420761
-0.043583921636851305   -0.11643169539378324   -0.010841416854773757
-0.048471068680373666   -0.16275538653306376   -0.011011607873262342
-0.06784669052021099   -0.11774297599765296   -0.011349322816036912
-0.043642723476668   -0.11692678693783373   -0.010389714797921869
-0.048471068680373666   -0.16275538653306376   -0.011011607873262342
-0.043583921636851305   -0.11643169539378324   -0.010841416854773757
-0.06784669052021099   -0.11774297599765296   -0.011349322816036912
-0.048471068680373666   -0.16275538653306376   -0.011011607873262342
-0.07414056148694378   -0.1631634522314086   -0.011878277107571158
-0.0738177060011933   -0.16259500749560302   -0.012217690823547105
-0.06784669052021099   -0.11774297599765296   -0.011349322816036912
-0.048471068680373666   -0.16275538653306376   -0.011011607873262342
-0.0738177060011933   -0.16259500749560302   -0.012217690823547105
-0.043583921636851305   -0.11643169539378324   -0.010841416854773757
-0.06784669052021099   -0.11774297599765296   -0.011349322816036912
-0.07414056148694378   -0.1631634522314086   -0.011878277107571158
-0.043642723476668   -0.11692678693783373   -0.010389714797921869
-0.06824169324178445   -0.11821601976210364   -0.010756457913925205
-0.07414056148694378   -0.1631634522314086   -0.011878277107571158
-0.048471068680373666   -0.16275538653306376   -0.011011607873262342
-0.043642723476668   -0.11692678693783373   -0.010389714797921869
-0.04841142890153767   -0.16314508598534333   -0.010780172201361453
-0.06824169324178445   -0.11821601976210364   -0.010756457913925205
-0.043686713831826936   -0.11731876784245557   -0.009982913573003079
-0.04841142890153767   -0.16314508598534333   -0.010780172201361453
-0.043642723476668   -0.11692678693783373   -0.010389714797921869
-0.06824169324178445   -0.11821601976210364   -0.010756457913925205
-0.04841142890153767   -0.16314508598534333   -0.010780172201361453
-0.07424775025866263   -0.16362637591863982   -0.011605173956106137
-0.07414056148694378   -0.1631634522314086   -0.011878277107571158
-0.06824169324178445   -0.11821601976210364   -0.010756457913925205
-0.04841142890153767   -0.16314508598534333   -0.010780172201361453
-0.07414056148694378   -0.1631634522314086   -0.011878277107571158
-0.043642723476668   -0.11692678693783373   -0.010389714797921869
-0.06824169324178445   -0.11821601976210364   -0.010756457913925205
-0.07424775025866263   -0.16362637591863982   -0.011605173956106137
-0.043686713831826936   -0.11731876784245557   -0.009982913573003079
-0.0686490931218425   -0.11863898235012472   -0.010233629629706245
-0.07424775025866263   -0.16362637591863982   -0.011605173956106137
-0.04841142890153767   -0.16314508598534333   -0.010780172201361453
-0.043686713831826936   -0.11731876784245557   -0.009982913573003079
-0.048256356561850886   -0.16353105961636472   -0.010591617456750602
-0.0686490931218425   -0.11863898235012472   -0.010233629629706245
-0.04360278039502821   -0.1176400877613644   -0.009615084445743348
-0.048256356561850886   -0.16353105961636472   -0.010591617456750602
-0.043686713831826936   -0.11731876784245557   -0.009982913573003079
-0.0686490931218425   -0.11863898235012472   -0.010233629629706245
-0.048256356561850886   -0.16353105961636472   -0.010591617456750602
-0.07428851449710172   -0.16412823003124521   -0.011404020439511504
-0.07424775025866263   -0.16362637591863982   -0.011605173956106137
-0.0686490931218425   -0.11863898235012472   -0.010233629629706245
-0.048256356561850886   -0.16353105961636472   -0.010591617456750602
-0.07424775025866263   -0.16362637591863982   -0.011605173956106137
-0.043686713831826936   -0.11731876784245557   -0.009982913573003079
-0.043583921636851305   -0.11643169539378324   -0.010841416854773757
-0.048485019549625585   -0.16233231129108658   -0.011289101649420761
-0.021473117263224595   -0.11610080675635154   -0.010035633806075302
-0.043642723476668   -0.11692678693783373   -0.010389714797921869
-0.048485019549625585   -0.16233231129108658   -0.011289101649420761
-0.02495147405921112   -0.16218270010884206   -0.01065674439139826
-0.021473117263224595   -0.11610080675635154   -0.010035633806075302
-0.02486878419442291   -0.1624392088647204   -0.010415650764068739
-0.043642723476668   -0.11692678693783373   -0.010389714797921869
-0.02143852181301916   -0.11641191965860326   -0.009738126752049915
-0.02486878419442291   -0.1624392088647204   -0.010415650764068739
-0.021473117263224595   -0.11610080675635154   -0.010035633806075302
-0.043642723476668   -0.11692678693783373   -0.010389714797921869
-0.02486878419442291   -0.1624392088647204   -0.010415650764068739
-0.048471068680373666   -0.16275538653306376   -0.011011607873262342
-0.048485019549625585   -0.16233231129108658   -0.011289101649420761
-0.043642723476668   -0.11692678693783373   -0.010389714797921869
-0.02486878419442291   -0.1624392088647204   -0.010415650764068739
-0.048485019549625585   -0.16233231129108658   -0.011289101649420761
-0.021473117263224595   -0.11610080675635154   -0.010035633806075302
-0.043642723476668   -0.11692678693783373   -0.010389714797921869
-0.048471068680373666   -0.16275538653306376   -0.011011607873262342
-0.02143852181301916   -0.11641191965860326   -0.009738126752049915
-0.043686713831826936   -0.11731876784245557   -0.009982913573003079
-0.048471068680373666   -0.16275538653306376   -0.011011607873262342
-0.02486878419442291   -0.1624392088647204   -0.010415650764068739
-0.02143852181301916   -0.11641191965860326   -0.009738126752049915
-0.02476612106943238   -0.16267421557428025   -0.010220680347205321
-0.043686713831826936   -0.11731876784245557   -0.009982913573003079
-0.02138891188281198   -0.11663668254078029   -0.00948487741598015
-0.02476612106943238   -0.16267421557428025   -0.010220680347205321
-0.02143852181301916   -0.11641191965860326   -0.009738126752049915
-0.043686713831826936   -0.11731876784245557   -0.009982913573003079
-0.02476612106943238   -0.16267421557428025   -0.010220680347205321
-0.04841142890153767   -0.16314508598534333   -0.010780172201361453
-0.048471068680373666   -0.16275538653306376   -0.011011607873262342
-0.043686713831826936   -0.11731876784245557   -0.009982913573003079
-0.02476612106943238   -0.16267421557428025   -0.010220680347205321
-0.048471068680373666   -0.16275538653306376   -0.011011607873262342
-0.02143852181301916   -0.11641191965860326   -0.009738126752049915
-0.043686713831826936   -0.11731876784245557   -0.009982913573003079
-0.04841142890153767   -0.16314508598534333   -0.010780172201361453
-0.02138891188281198   -0.11663668254078029   -0.00948487741598015
-0.04360278039502821   -0.1176400877613644   -0.009615084445743348
-0.04841142890153767   -0.16314508598534333   -0.010780172201361453
-0.02476612106943238   -0.16267421557428025   -0.010220680347205321
-0.02138891188281198   -0.11663668254078029   -0.00948487741598015
-0.02464179633715857   -0.16288848292624417   -0.010072915917285813
-0.04360278039502821   -0.1176400877613644   -0.009615084445743348
-0.02131194693806716   -0.11677656207317261   -0.00927659616185609
-0.02464179633715857   -0.16288848292624417   -0.010072915917285813
-0.02138891188281198   -0.11663668254078029   -0.00948487741598015
-0.04360278039502821   -0.1176400877613644   -0.009615084445743348
-0.02464179633715857   -0.16288848292624417   -0.010072915917285813
-0.048256356561850886   -0.16353105961636472   -0.010591617456750602
-0.04841142890153767   -0.16314508598534333   -0.010780172201361453
-0.04360278039502821   -0.1176400877613644   -0.009615084445743348
-0.02464179633715857   -0.16288848292624417   -0.010072915917285813
-0.04841142890153767   -0.16314508598534333   -0.010780172201361453
-0.02138891188281198   -0.11663668254078029   -0.00948487741598015
-0.021473117263224595   -0.11610080675635154   -0.010035633806075302
-0.02495147405921112   -0.16218270010884206   -0.01065674439139826
3.8779723261560264e-05   -0.11604441457195214   -0.009565078617829568
-0.02143852181301916   -0.11641191965860326   -0.009738126752049915
-0.02495147405921112   -0.16218270010884206   -0.01065674439139826
-0.0020544314847127567   -0.16209775521983527   -0.010328293326674115
3.8779723261560264e-05   -0.11604441457195214   -0.009565078617829568
-0.0019369844562869333   -0.16218482390930236   -0.010125947834657837
-0.02143852181301916   -0.11641191965860326   -0.009738126752049915
0.00010924571163033302   -0.11617074942427245   -0.009422889748414258
-0.0019369844562869333   -0.16218482390930236   -0.010125947834657837
3.8779723261560264e-05   -0.11604441457195214   -0.009565078617829568
-0.02143852181301916   -0.11641191965860326   -0.009738126752049915
-0.0019369844562869333   -0.16218482390930236   -0.010125947834657837
-0.02486878419442291   -0.1624392088647204   -0.010415650764068739
-0.02495147405921112   -0.16218270010884206   -0.01065674439139826
-0.02143852181301916   -0.11641191965860326   -0.009738126752049915
-0.0019369844562869333   -0.16218482390930236   -0.010125947834657837
-0.02495147405921112   -0.16218270010884206   -0.01065674439139826
3.8779723261560264e-05   -0.11604441457195214   -0.009565078617829568
-0.02143852181301916   -0.11641191965860326   -0.009738126752049915
-0.02486878419442291   -0.1624392088647204   -0.010415650764068739
0.00010924571163033302   -0.11617074942427245   -0.009422889748414258
-0.02138891188281198   -0.11663668254078029   -0.00948487741598015
-0.02486878419442291   -0.1624392088647204   -0.010415650764068739
-0.0019369844562869333   -0.16218482390930236   -0.010125947834657837
0.00010924571163033302   -0.11617074942427245   -0.009422889748414258
-0.0018359425959627665   -0.1622488965238327   -0.009969305370318326
-0.02138891188281198   -0.11663668254078029   -0.00948487741598015
0.00015762762815125624   -0.11621014667778445   -0.00932437551693792
-0.0018359425959627665   -0.1622488965238327   -0.009969305370318326
0.00010924571163033302   -0.11617074942427245   -0.009422889748414258
-0.02138891188281198   -0.11663668254078029   -0.00948487741598015
-0.0018359425959627665   -0.1622488965238327   -0.009969305370318326
-0.02476612106943238   -0.16267421557428025   -0.010220680347205321
-0.02486878419442291   -0.1624392088647204   -0.010415650764068739
-0.02138891188281198   -0.11663668254078029   -0.00948487741598015
-0.0018359425959627665   -0.1622488965238327   -0.009969305370318326
-0.02486878419442291   -0.1624392088647204   -0.010415650764068739
0.00010924571163033302   -0.11617074942427245   -0.009422889748414258
-0.02138891188281198   -0.11663668254078029   -0.00948487741598015
-0.02476612106943238   -0.16267421557428025   -0.010220680347205321
0.00015762762815125624   -0.11621014667778445   -0.00932437551693792
-0.02131194693806716   -0.11677656207317261   -0.00927659616185609
-0.02476612106943238   -0.16267421557428025   -0.010220680347205321
-0.0018359425959627665   -0.1622488965238327   -0.009969305370318326
0.00015762762815125624   -0.11621014667778445   -0.00932437551693792
-0.0017602403752287276   -0.16228966131129932   -0.009860046380852788
-0.02131194693806716   -0.11677656207317261   -0.00927659616185609
0.00018596205021032962   -0.11616141953469189   -0.009271487331130266
-0.0017602403752287276   -0.16228966131129932   -0.009860046380852788
0.00015762762815125624   -0.11621014667778445   -0.00932437551693792
-0.02131194693806716   -0.11677656207317261   -0.00927659616185609
-0.0017602403752287276   -0.16228966131129932   -0.009860046380852788
-0.02464179633715857   -0.16288848292624417   -0.010072915917285813
-0.02476612106943238   -0.16267421557428025   -0.010220680347205321
-0.02131194693806716   -0.11677656207317261   -0.00927659616185609
-0.0017602403752287276   -0.16228966131129932   -0.009860046380852788
-0.02476612106943238   -0.16267421557428025   -0.010220680347205321
0.00015762762815125624   -0.11621014667778445   -0.00932437551693792
3.8779723261560264e-05   -0.11604441457195214   -0.009565078617829568
-0.0020544314847127567   -0.16209775521983527   -0.010328293326674115
0.022290066996489666   -0.1162392231206727   -0.009427621599167928
0.00010924571163033302   -0.11617074942427245   -0.009422889748414258
-0.0020544314847127567   -0.16209775521983527   -0.010328293326674115
0.0215425984049672   -0.16206288377612488   -0.010306406832849833
0.022290066996489666   -0.1162392231206727   -0.009427621599167928
0.021699452117543715   -0.16198598518108034   -0.01014477923201605
0.00010924571163033302   -0.11617074942427245   -0.009422889748414258
0.02237719712097294   -0.11619171683475148   -0.009444073732497692
0.021699452117543715   -0.16198598518108034   -0.01014477923201605
0.022290066996489666   -0.1162392231206727   -0.009427621599167928
0.00010924571163033302   -0.11617074942427245   -0.009422889748414258
0.021699452117543715   -0.16198598518108034   -0.01014477923201605
-0.0019369844562869333   -0.16218482390930236   -0.010125947834657837
-0.0020544314847127567   -0.16209775521983527   -0.010328293326674115
0.00010924571163033302   -0.11617074942427245   -0.009422889748414258
0.021699452117543715   -0.16198598518108034   -0.01014477923201605
-0.0020544314847127567   -0.16209775521983527   -0.010328293326674115
0.022290066996489666   -0.1162392231206727   -0.009427621599167928
0.00010924571163033302   -0.11617074942427245   -0.009422889748414258
-0.0019369844562869333   -0.16218482390930236   -0.010125947834657837
0.02237719712097294   -0.11619171683475148   -0.009444073732497692
0.00015762762815125624   -0.11621014667778445   -0.00932437551693792
-0.0019369844562869333   -0.16218482390930236   -0.010125947834657837
0.021699452117543715   -0.16198598518108034   -0.01014477923201605
0.02237719712097294   -0.11619171683475148   -0.009444073732497692
0.0218022887317321   -0.16189538134706116   -0.010027562364697802
0.00015762762815125624   -0.11621014667778445   -0.00932437551693792
0.022377281267832682   -0.11606368648277189   -0.00950186595436353
0.0218022887317321   -0.16189538134706116   -0.010027562364697802
0.02237719712097294   -0.11619171683475148   -0.009444073732497692
0.00015762762815125624   -0.11621014667778445   -0.00932437551693792
0.0218022887317321   -0.16189538134706116   -0.010027562364697802
-0.0018359425959627665   -0.1622488965238327   -0.009969305370318326
-0.0019369844562869333   -0.16218482390930236   -0.010125947834657837
0.00015762762815125624   -0.11621014667778445   -0.00932437551693792
0.0218022887317321   -0.16189538134706116   -0.010027562364697802
-0.0019369844562869333   -0.16218482390930236   -0.010125947834657837
0.02237719712097294   -0.11619171683475148   -0.009444073732497692
0.00015762762815125624   -0.11621014667778445   -0.00932437551693792
-0.0018359425959627665   -0.1622488965238327   -0.009969305370318326
0.022377281267832682   -0.11606368648277189   -0.00950186595436353
0.00018596205021032962   -0.11616141953469189   -0.009271487331130266
-0.0018359425959627665   -0.1622488965238327   -0.009969305370318326
0.0218022887317321   -0.16189538134706116   -0.010027562364697802
0.022377281267832682   -0.11606368648277189   -0.00950186595436353
0.021818684636873198   -0.16176104191480611   -0.009953832411317021
0.00018596205021032962   -0.11616141953469189   -0.009271487331130266
0.022321805342636798   -0.1158228553725938   -0.00960255072982235
0.021818684636873198   -0.16176104191480611   -0.009953832411317021
0.022377281267832682   -0.11606368648277189   -0.00950186595436353
0.00018596205021032962   -0.11616141953469189   -0.009271487331130266
0.021818684636873198   -0.16176104191480611   -0.009953832411317021
-0.0017602403752287276   -0.16228966131129932   -0.009860046380852788
-0.0018359425959627665   -0.1622488965238327   -0.009969305370318326
0.00018596205021032962   -0.11616141953469189   -0.009271487331130266
0.021818684636873198   -0.16176104191480611   -0.009953832411317021
-0.0018359425959627665   -0.1622488965238327   -0.009969305370318326
0.022377281267832682   -0.11606368648277189   -0.00950186595436353
0.022290066996489666   -0.1162392231206727   -0.009427621599167928
0.0215425984049672   -0.16206288377612488   -0.010306406832849833
0.046861620806931084   -0.116598348888809   -0.009549392227882097
0.02237719712097294   -0.11619171683475148   -0.009444073732497692
0.0215425984049672   -0.16206288377612488   -0.010306406832849833
0.04711938123953342   -0.16201613444301446   -0.010559447127418586
0.046861620806931084   -0.116598348888809   -0.009549392227882097
0.04742861798131504   -0.16180984181607236   -0.010429034499838686
0.02237719712097294   -0.11619171683475148   -0.009444073732497692
0.04680793605063778   -0.11643335676033731   -0.009737744065014724
0.04742861798131504   -0.16180984181607236   -0.010429034499838686
0.046861620806931084   -0.116598348888809   -0.009549392227882097
0.02237719712097294   -0.11619171683475148   -0.009444073732497692
0.04742861798131504   -0.16180984181607236   -0.010429034499838686
0.021699452117543715   -0.16198598518108034   -0.01014477923201605
0.0215425984049672   -0.16206288377612488   -0.010306406832849833
0.02237719712097294   -0.11619171683475148   -0.009444073732497692
0.04742861798131504   -0.16180984181607236   -0.010429034499838686
0.0215425984049672   -0.16206288377612488   -0.010306406832849833
0.046861620806931084   -0.116598348888809   -0.009549392227882097
0.02237719712097294   -0.11619171683475148   -0.009444073732497692
0.021699452117543715   -0.16198598518108034   -0.01014477923201605
0.04680793605063778   -0.11643335676033731   -0.009737744065014724
0.022377281267832682   -0.11606368648277189   -0.00950186595436353
0.021699452117543715   -0.16198598518108034   -0.01014477923201605
0.04742861798131504   -0.16180984181607236   -0.010429034499838686
0.04680793605063778   -0.11643335676033731   -0.009737744065014724
0.047588651096273964   -0.16164636058068307   -0.010366038553119208
0.022377281267832682   -0.11606368648277189   -0.00950186595436353
0.04668152269614704   -0.11622398574277822   -0.009993122493174054
0.047588651096273964   -0.16164636058068307   -0.010366038553119208
0.04680793605063778   -0.11643335676033731   -0.009737744065014724
0.022377281267832682   -0.11606368648277189   -0.00950186595436353
0.047588651096273964   -0.16164636058068307   -0.010366038553119208
0.0218022887317321   -0.16189538134706116   -0.010027562364697802
0.021699452117543715   -0.16198598518108034   -0.01014477923201605
0.022377281267832682   -0.11606368648277189   -0.00950186595436353
0.047588651096273964   -0.16164636058068307   -0.010366038553119208
0.021699452117543715   -0.16198598518108034   -0.01014477923201605
0.04680793605063778   -0.11643335676033731   -0.009737744065014724
0.022377281267832682   -0.11606368648277189   -0.00950186595436353
0.0218022887317321   -0.16189538134706116   -0.010027562364697802
0.04668152269614704   -0.11622398574277822   -0.009993122493174054
0.022321805342636798   -0.1158228553725938   -0.00960255072982235
0.0218022887317321   -0.16189538134706116   -0.010027562364697802
0.047588651096273964   -0.16164636058068307   -0.010366038553119208
0.04668152269614704   -0.11622398574277822   -0.009993122493174054
0.04761968637264121   -0.16138228529734927   -0.010371605266557251
0.022321805342636798   -0.1158228553725938   -0.00960255072982235
0.04635182460785198   -0.11582281104505368   -0.010315042451638145
0.04761968637264121   -0.16138228529734927   -0.010371605266557251
0.04668152269614704   -0.11622398574277822   -0.009993122493174054
0.022321805342636798   -0.1158228553725938   -0.00960255072982235
0.04761968637264121   -0.16138228529734927   -0.010371605266557251
0.021818684636873198   -0.16176104191480611   -0.009953832411317021
0.0218022887317321   -0.16189538134706116   -0.010027562364697802
0.022321805342636798   -0.1158228553725938   -0.00960255072982235
0.04761968637264121   -0.16138228529734927   -0.010371605266557251
0.0218022887317321   -0.16189538134706116   -0.010027562364697802
0.04668152269614704   -0.11622398574277822   -0.009993122493174054
-0.0738177060011933   -0.16259500749560302   -0.012217690823547105
-0.07615784770719337   -0.20898017558357299   -0.01200471293491419
-0.048485019549625585   -0.16233231129108658   -0.011289101649420761
-0.07414056148694378   -0.1631634522314086   -0.011878277107571158
-0.07615784770719337   -0.20898017558357299   -0.01200471293491419
-0.05083538516075725   -0.20910041524053896   -0.011316486120795033
-0.048485019549625585   -0.16233231129108658   -0.011289101649420761
-0.05070247252766557   -0.20944975650034184   -0.011210964589173762
-0.07414056148694378   -0.1631634522314086   -0.011878277107571158
-0.048471068680373666   -0.16275538653306376   -0.011011607873262342
-0.05070247252766557   -0.20944975650034184   -0.011210964589173762
-0.048485019549625585   -0.16233231129108658   -0.011289101649420761
-0.07414056148694378   -0.1631634522314086   -0.011878277107571158
-0.05070247252766557   -0.20944975650034184   -0.011210964589173762
-0.07607562566503641   -0.20944736552383003   -0.01198086381845619
-0.07615784770719337   -0.20898017558357299   -0.01200471293491419
-0.07414056148694378   -0.1631634522314086   -0.011878277107571158
-0.05070247252766557   -0.20944975650034184   -0.011210964589173762
-0.07615784770719337   -0.20898017558357299   -0.01200471293491419
-0.048485019549625585   -0.16233231129108658   -0.011289101649420761
-0.07414056148694378   -0.1631634522314086   -0.011878277107571158
-0.07607562566503641   -0.20944736552383003   -0.01198086381845619
-0.048471068680373666   -0.16275538653306376   -0.011011607873262342
-0.07424775025866263   -0.16362637591863982   -0.011605173956106137
-0.07607562566503641   -0.20944736552383003   -0.01198086381845619
-0.05070247252766557   -0.20944975650034184   -0.011210964589173762
-0.048471068680373666   -0.16275538653306376   -0.011011607873262342
-0.050493025713613665   -0.20983607129268775   -0.011153071537881018
-0.07424775025866263   -0.16362637591863982   -0.011605173956106137
-0.04841142890153767   -0.16314508598534333   -0.010780172201361453
-0.050493025713613665   -0.20983607129268775   -0.011153071537881018
-0.048471068680373666   -0.16275538653306376   -0.011011607873262342
-0.07424775025866263   -0.16362637591863982   -0.011605173956106137
-0.050493025713613665   -0.20983607129268775   -0.011153071537881018
-0.07584711814761441   -0.20990008778359337   -0.012028208157816363
-0.07607562566503641   -0.20944736552383003   -0.01198086381845619
-0.07424775025866263   -0.16362637591863982   -0.011605173956106137
-0.050493025713613665   -0.20983607129268775   -0.011153071537881018
-0.07607562566503641   -0.20944736552383003   -0.01198086381845619
-0.048471068680373666   -0.16275538653306376   -0.011011607873262342
-0.07424775025866263   -0.16362637591863982   -0.011605173956106137
-0.07584711814761441   -0.20990008778359337   -0.012028208157816363
-0.04841142890153767   -0.16314508598534333   -0.010780172201361453
-0.07428851449710172   -0.16412823003124521   -0.011404020439511504
-0.07584711814761441   -0.20990008778359337   -0.012028208157816363
-0.050493025713613665   -0.20983607129268775   -0.011153071537881018
-0.04841142890153767   -0.16314508598534333   -0.010780172201361453
-0.05022051430508296   -0.21028590728925858   -0.01114208841568958
-0.07428851449710172   -0.16412823003124521   -0.011404020439511504
-0.048256356561850886   -0.16353105961636472   -0.010591617456750602
-0.05022051430508296   -0.21028590728925858   -0.01114208841568958
-0.04841142890153767   -0.16314508598534333   -0.010780172201361453
-0.07428851449710172   -0.16412823003124521   -0.011404020439511504
-0.05022051430508296   -0.21028590728925858   -0.01114208841568958
-0.0754734062516449   -0.21048245857274236   -0.012150277124802822
-0.07584711814761441   -0.20990008778359337   -0.012028208157816363
-0.07428851449710172   -0.16412823003124521   -0.011404020439511504
-0.05022051430508296   -0.21028590728925858   -0.01114208841568958
-0.07584711814761441   -0.20990008778359337   -0.012028208157816363
-0.04841142890153767   -0.16314508598534333   -0.010780172201361453
-0.048485019549625585   -0.16233231129108658   -0.011289101649420761
-0.05083538516075725   -0.20910041524053896   -0.011316486120795033
-0.02495147405921112   -0.16218270010884206   -0.01065674439139826
-0.048471068680373666   -0.16275538653306376   -0.011011607873262342
-0.05083538516075725   -0.20910041524053896   -0.011316486120795033
-0.027643130246779633   -0.20912730458760262   -0.010858838680655281
-0.02495147405921112   -0.16218270010884206   -0.01065674439139826
-0.027463851042158465   -0.20932811865348466   -0.010672634278240266
-0.048471068680373666   -0.16275538653306376   -0.011011607873262342
-0.02486878419442291   -0.1624392088647204   -0.010415650764068739
-0.027463851042158465   -0.20932811865348466   -0.010672634278240266
-0.02495147405921112   -0.16218270010884206   -0.01065674439139826
-0.048471068680373666   -0.16275538653306376   -0.011011607873262342
-0.027463851042158465   -0.20932811865348466   -0.010672634278240266
-0.05070247252766557   -0.20944975650034184   -0.011210964589173762
-0.05083538516075725   -0.20910041524053896   -0.011316486120795033
-0.048471068680373666   -0.16275538653306376   -0.011011607873262342
-0.027463851042158465   -0.20932811865348466   -0.010672634278240266
-0.05083538516075725   -0.20910041524053896   -0.011316486120795033
-0.02495147405921112   -0.16218270010884206   -0.01065674439139826
-0.048471068680373666   -0.16275538653306376   -0.011011607873262342
-0.05070247252766557   -0.20944975650034184   -0.011210964589173762
-0.02486878419442291   -0.1624392088647204   -0.010415650764068739
-0.04841142890153767   -0.16314508598534333   -0.010780172201361453
-0.05070247252766557   -0.20944975650034184   -0.011210964589173762
-0.027463851042158465   -0.20932811865348466   -0.010672634278240266
-0.02486878419442291   -0.1624392088647204   -0.010415650764068739
-0.02726077216039784   -0.20957160506096006   -0.010534258997893725
-0.04841142890153767   -0.16314508598534333   -0.010780172201361453
-0.02476612106943238   -0.16267421557428025   -0.010220680347205321
-0.02726077216039784   -0.20957160506096006   -0.010534258997893725
-0.02486878419442291   -0.1624392088647204   -0.010415650764068739
-0.04841142890153767   -0.16314508598534333   -0.010780172201361453
-0.02726077216039784   -0.20957160506096006   -0.010534258997893725
-0.050493025713613665   -0.20983607129268775   -0.011153071537881018
-0.05070247252766557   -0.20944975650034184   -0.011210964589173762
-0.04841142890153767   -0.16314508598534333   -0.010780172201361453
-0.02726077216039784   -0.20957160506096006   -0.010534258997893725
-0.05070247252766557   -0.20944975650034184   -0.011210964589173762
-0.02486878419442291   -0.1624392088647204   -0.010415650764068739
-0.04841142890153767   -0.16314508598534333   -0.010780172201361453
-0.050493025713613665   -0.20983607129268775   -0.011153071537881018
-0.02476612106943238   -0.16267421557428025   -0.010220680347205321
-0.048256356561850886   -0.16353105961636472   -0.010591617456750602
-0.050493025713613665   -0.20983607129268775   -0.011153071537881018
-0.02726077216039784   -0.20957160506096006   -0.010534258997893725
-0.02476612106943238   -0.16267421557428025   -0.010220680347205321
-0.02704170950261454   -0.20985852132262933   -0.010445235837036989
-0.048256356561850886   -0.16353105961636472   -0.010591617456750602
-0.02464179633715857   -0.16288848292624417   -0.010072915917285813
-0.02704170950261454   -0.20985852132262933   -0.010445235837036989
-0.02476612106943238   -0.16267421557428025   -0.010220680347205321
-0.048256356561850886   -0.16353105961636472   -0.010591617456750602
-0.02704170950261454   -0.20985852132262933   -0.010445235837036989
-0.05022051430508296   -0.21028590728925858   -0.01114208841568958
-0.050493025713613665   -0.20983607129268775   -0.011153071537881018
-0.048256356561850886   -0.16353105961636472   -0.010591617456750602
-0.02704170950261454   -0.20985852132262933   -0.010445235837036989
-0.050493025713613665   -0.20983607129268775   -0.011153071537881018
-0.02476612106943238   -0.16267421557428025   -0.010220680347205321
-0.02495147405921112   -0.16218270010884206   -0.01065674439139826
-0.027643130246779633   -0.20912730458760262   -0.010858838680655281
-0.0020544314847127567   -0.16209775521983527   -0.010328293326674115
-0.02486878419442291   -0.1624392088647204   -0.010415650764068739
-0.027643130246779633   -0.20912730458760262   -0.010858838680655281
-0.005107708858388718   -0.20900530379777324   -0.010670170595897142
-0.0020544314847127567   -0.16209775521983527   -0.010328293326674115
-0.004895226485229186   -0.2090528223142726   -0.010407289164449187
-0.02486878419442291   -0.1624392088647204   -0.010415650764068739
-0.0019369844562869333   -0.16218482390930236   -0.010125947834657837
-0.004895226485229186   -0.2090528223142726   -0.010407289164449187
-0.0020544314847127567   -0.16209775521983527   -0.010328293326674115
-0.02486878419442291   -0.1624392088647204   -0.010415650764068739
-0.004895226485229186   -0.2090528223142726   -0.010407289164449187
-0.027463851042158465   -0.20932811865348466   -0.010672634278240266
-0.027643130246779633   -0.20912730458760262   -0.010858838680655281
-0.02486878419442291   -0.1624392088647204   -0.010415650764068739
-0.004895226485229186   -0.2090528223142726   -0.010407289164449187
-0.027643130246779633   -0.20912730458760262   -0.010858838680655281
-0.0020544314847127567   -0.16209775521983527   -0.010328293326674115
-0.02486878419442291   -0.1624392088647204   -0.010415650764068739
-0.027463851042158465   -0.20932811865348466   -0.010672634278240266
-0.0019369844562869333   -0.16218482390930236   -0.010125947834657837
-0.02476612106943238   -0.16267421557428025   -0.010220680347205321
-0.027463851042158465   -0.20932811865348466   -0.010672634278240266
-0.004895226485229186   -0.2090528223142726   -0.010407289164449187
-0.0019369844562869333   -0.16218482390930236   -0.010125947834657837
-0.004694396046984149   -0.20913960843443133   -0.010191875668160226
-0.02476612106943238   -0.16267421557428025   -0.010220680347205321
-0.0018359425959627665   -0.1622488965238327   -0.009969305370318326
-0.004694396046984149   -0.20913960843443133   -0.010191875668160226
-0.0019369844562869333   -0.16218482390930236   -0.010125947834657837
-0.02476612106943238   -0.16267421557428025   -0.010220680347205321
-0.004694396046984149   -0.20913960843443133   -0.010191875668160226
-0.02726077216039784   -0.20957160506096006   -0.010534258997893725
-0.027463851042158465   -0.20932811865348466   -0.010672634278240266
-0.02476612106943238   -0.16267421557428025   -0.010220680347205321
-0.004694396046984149   -0.20913960843443133   -0.010191875668160226
-0.027463851042158465   -0.20932811865348466   -0.010672634278240266
-0.0019369844562869333   -0.16218482390930236   -0.010125947834657837
-0.02476612106943238   -0.16267421557428025   -0.010220680347205321
-0.02726077216039784   -0.20957160506096006   -0.010534258997893725
-0.0018359425959627665   -0.1622488965238327   -0.009969305370318326
-0.02464179633715857   -0.16288848292624417   -0.010072915917285813
-0.02726077216039784   -0.20957160506096006   -0.010534258997893725
-0.004694396046984149   -0.20913960843443133   -0.010191875668160226
-0.0018359425959627665   -0.1622488965238327   -0.009969305370318326
-0.004524536037772226   -0.20926767264047205   -0.010025600406870545
-0.02464179633715857   -0.16288848292624417   -0.010072915917285813
-0.0017602403752287276   -0.16228966131129932   -0.009860046380852788
-0.004524536037772226   -0.20926767264047205   -0.010025600406870545
-0.0018359425959627665   -0.1622488965238327   -0.009969305370318326
-0.02464179633715857   -0.16288848292624417   -0.010072915917285813
-0.004524536037772226   -0.20926767264047205   -0.010025600406870545
-0.02704170950261454   -0.20985852132262933   -0.010445235837036989
-0.02726077216039784   -0.20957160506096006   -0.010534258997893725
-0.02464179633715857   -0.16288848292624417   -0.010072915917285813
-0.004524536037772226   -0.20926767264047205   -0.010025600406870545
-0.02726077216039784   -0.20957160506096006   -0.010534258997893725
-0.0018359425959627665   -0.1622488965238327   -0.009969305370318326
-0.0020544314847127567   -0.16209775521983527   -0.010328293326674115
-0.005107708858388718   -0.20900530379777324   -0.010670170595897142
0.0215425984049672   -0.16206288377612488   -0.010306406832849833
-0.0019369844562869333   -0.16218482390930236   -0.010125947834657837
-0.005107708858388718   -0.20900530379777324   -0.010670170595897142
0.018109045781542522   -0.2087336727005036   -0.010759248158661755
0.0215425984049672   -0.16206288377612488   -0.010306406832849833
0.01838056341565402   -0.20862749429344385   -0.010421140304766544
-0.0019369844562869333   -0.16218482390930236   -0.010125947834657837
0.021699452117543715   -0.16198598518108034   -0.01014477923201605
0.01838056341565402   -0.20862749429344385   -0.010421140304766544
0.0215425984049672   -0.16206288377612488   -0.010306406832849833
-0.0019369844562869333   -0.16218482390930236   -0.010125947834657837
0.01838056341565402   -0.20862749429344385   -0.010421140304766544
-0.004895226485229186   -0.2090528223142726   -0.010407289164449187
-0.005107708858388718   -0.20900530379777324   -0.010670170595897142
-0.0019369844562869333   -0.16218482390930236   -0.010125947834657837
0.01838056341565402   -0.20862749429344385   -0.010421140304766544
-0.005107708858388718   -0.20900530379777324   -0.010670170595897142
0.0215425984049672   -0.16206288377612488   -0.010306406832849833
-0.0019369844562869333   -0.16218482390930236   -0.010125947834657837
-0.004895226485229186   -0.2090528223142726   -0.010407289164449187
0.021699452117543715   -0.16198598518108034   -0.01014477923201605
-0.0018359425959627665   -0.1622488965238327   -0.009969305370318326
-0.004895226485229186   -0.2090528223142726   -0.010407289164449187
0.01838056341565402   -0.20862749429344385   -0.010421140304766544
0.021699452117543715   -0.16198598518108034   -0.01014477923201605
0.018630831186980647   -0.2085723516159692   -0.010130372854408603
-0.0018359425959627665   -0.1622488965238327   -0.009969305370318326
0.0218022887317321   -0.16189538134706116   -0.010027562364697802
0.018630831186980647   -0.2085723516159692   -0.010130372854408603
0.021699452117543715   -0.16198598518108034   -0.01014477923201605
-0.0018359425959627665   -0.1622488965238327   -0.009969305370318326
0.018630831186980647   -0.2085723516159692   -0.010130372854408603
-0.004694396046984149   -0.20913960843443133   -0.010191875668160226
-0.004895226485229186   -0.2090528223142726   -0.010407289164449187
-0.0018359425959627665   -0.1622488965238327   -0.009969305370318326
0.018630831186980647   -0.2085723516159692   -0.010130372854408603
-0.004895226485229186   -0.2090528223142726   -0.010407289164449187
0.021699452117543715   -0.16198598518108034   -0.01014477923201605
-0.0018359425959627665   -0.1622488965238327   -0.009969305370318326
-0.004694396046984149   -0.20913960843443133   -0.010191875668160226
0.0218022887317321   -0.16189538134706116   -0.010027562364697802
-0.0017602403752287276   -0.16228966131129932   -0.009860046380852788
-0.004694396046984149   -0.20913960843443133   -0.010191875668160226
0.018630831186980647   -0.2085723516159692   -0.010130372854408603
0.0218022887317321   -0.16189538134706116   -0.010027562364697802
0.018763238046803975   -0.20854113550196177   -0.009883855508681857
-0.0017602403752287276   -0.16228966131129932   -0.009860046380852788
0.021818684636873198   -0.16176104191480611   -0.009953832411317021
0.018763238046803975   -0.20854113550196177   -0.009883855508681857
0.0218022887317321   -0.16189538134706116   -0.010027562364697802
-0.0017602403752287276   -0.16228966131129932   -0.009860046380852788
0.018763238046803975   -0.20854113550196177   -0.009883855508681857
-0.004524536037772226   -0.20926767264047205   -0.010025600406870545
-0.004694396046984149   -0.20913960843443133   -0.010191875668160226
-0.0017602403752287276   -0.16228966131129932   -0.009860046380852788
0.018763238046803975   -0.20854113550196177   -0.009883855508681857
-0.004694396046984149   -0.20913960843443133   -0.010191875668160226
0.0218022887317321   -0.16189538134706116   -0.010027562364697802
0.0215425984049672   -0.16206288377612488   -0.010306406832849833
0.018109045781542522   -0.2087336727005036   -0.010759248158661755
0.04711938123953342   -0.16201613444301446   -0.010559447127418586
0.021699452117543715   -0.16198598518108034   -0.01014477923201605
0.018109045781542522   -0.2087336727005036   -0.010759248158661755
0.042974973350842   -0.20827808417164675   -0.011139978834534802
0.04711938123953342   -0.16201613444301446   -0.010559447127418586
0.043686649944069365   -0.2080327599823072   -0.01069710307741089
0.021699452117543715   -0.16198598518108034   -0.01014477923201605
0.04742861798131504   -0.16180984181607236   -0.010429034499838686
0.043686649944069365   -0.2080327599823072   -0.01069710307741089
0.04711938123953342   -0.16201613444301446   -0.010559447127418586
0.021699452117543715   -0.16198598518108034   -0.01014477923201605
0.043686649944069365   -0.2080327599823072   -0.01069710307741089
0.01838056341565402   -0.20862749429344385   -0.010421140304766544
0.018109045781542522   -0.2087336727005036   -0.010759248158661755
0.021699452117543715   -0.16198598518108034   -0.01014477923201605
0.043686649944069365   -0.2080327599823072   -0.01069710307741089
0.018109045781542522   -0.2087336727005036   -0.010759248158661755
0.04711938123953342   -0.16201613444301446   -0.010559447127418586
0.021699452117543715   -0.16198598518108034   -0.01014477923201605
0.01838056341565402   -0.20862749429344385   -0.010421140304766544
0.04742861798131504   -0.16180984181607236   -0.010429034499838686
0.0218022887317321   -0.16189538134706116   -0.010027562364697802
0.01838056341565402   -0.20862749429344385   -0.010421140304766544
0.043686649944069365   -0.2080327599823072   -0.01069710307741089
0.04742861798131504   -0.16180984181607236   -0.010429034499838686
0.04417401210114315   -0.20791388869081961   -0.010321578283796826
0.0218022887317321   -0.16189538134706116   -0.010027562364697802
0.047588651096273964   -0.16164636058068307   -0.010366038553119208
0.04417401210114315   -0.20791388869081961   -0.010321578283796826
0.04742861798131504   -0.16180984181607236   -0.010429034499838686
0.0218022887317321   -0.16189538134706116   -0.010027562364697802
0.04417401210114315   -0.20791388869081961   -0.010321578283796826
0.018630831186980647   -0.2085723516159692   -0.010130372854408603
0.01838056341565402   -0.20862749429344385   -0.010421140304766544
0.0218022887317321   -0.16189538134706116   -0.010027562364697802
0.04417401210114315   -0.20791388869081961   -0.010321578283796826
0.01838056341565402   -0.20862749429344385   -0.010421140304766544
0.04742861798131504   -0.16180984181607236   -0.010429034499838686
0.0218022887317321   -0.16189538134706116   -0.010027562364697802
0.018630831186980647   -0.2085723516159692   -0.010130372854408603
0.047588651096273964   -0.16164636058068307   -0.010366038553119208
0.021818684636873198   -0.16176104191480611   -0.009953832411317021
0.018630831186980647   -0.2085723516159692   -0.010130372854408603
0.04417401210114315   -0.20791388869081961   -0.010321578283796826
0.047588651096273964   -0.16164636058068307   -0.010366038553119208
0.044604577111795135   -0.20778338225535273   -0.010016183591464835
0.021818684636873198   -0.16176104191480611   -0.009953832411317021
0.04761968637264121   -0.16138228529734927   -0.010371605266557251
0.044604577111795135   -0.20778338225535273   -0.010016183591464835
0.047588651096273964   -0.16164636058068307   -0.010366038553119208
0.021818684636873198   -0.16176104191480611   -0.009953832411317021
0.044604577111795135   -0.20778338225535273   -0.010016183591464835
0.018763238046803975   -0.20854113550196177   -0.009883855508681857
0.018630831186980647   -0.2085723516159692   -0.010130372854408603
0.021818684636873198   -0.16176104191480611   -0.009953832411317021
0.044604577111795135   -0.20778338225535273   -0.010016183591464835
0.018630831186980647   -0.2085723516159692   -0.010130372854408603
0.047588651096273964   -0.16164636058068307   -0.010366038553119208
-0.07615784770719337   -0.20898017558357299   -0.01200471293491419
-0.07413661989870032   -0.2533123814619119   -0.011472167877846936
-0.05083538516075725   -0.20910041524053896   -0.011316486120795033
-0.07607562566503641   -0.20944736552383003   -0.01198086381845619
-0.07413661989870032   -0.2533123814619119   -0.011472167877846936
-0.05063191272289569   -0.25382355786496924   -0.01105639773736504
-0.05083538516075725   -0.20910041524053896   -0.011316486120795033
-0.050335612495129516   -0.2540847975306975   -0.011118678080119944
-0.07607562566503641   -0.20944736552383003   -0.01198086381845619
-0.05070247252766557   -0.20944975650034184   -0.011210964589173762
-0.050335612495129516   -0.2540847975306975   -0.011118678080119944
-0.05083538516075725   -0.20910041524053896   -0.011316486120795033
-0.07607562566503641   -0.20944736552383003   -0.01198086381845619
-0.050335612495129516   -0.2540847975306975   -0.011118678080119944
-0.07360199981054709   -0.2536650344818557   -0.011765402037687406
-0.07413661989870032   -0.2533123814619119   -0.011472167877846936
-0.07607562566503641   -0.20944736552383003   -0.01198086381845619
-0.050335612495129516   -0.2540847975306975   -0.011118678080119944
-0.07413661989870032   -0.2533123814619119   -0.011472167877846936
-0.05083538516075725   -0.20910041524053896   -0.011316486120795033
-0.07607562566503641   -0.20944736552383003   -0.01198086381845619
-0.07360199981054709   -0.2536650344818557   -0.011765402037687406
-0.05070247252766557   -0.20944975650034184   -0.011210964589173762
-0.07584711814761441   -0.20990008778359337   -0.012028208157816363
-0.07360199981054709   -0.2536650344818557   -0.011765402037687406
-0.050335612495129516   -0.2540847975306975   -0.011118678080119944
-0.05070247252766557   -0.20944975650034184   -0.011210964589173762
-0.04993378499655274   -0.2544557753135286   -0.011229938390356811
-0.07584711814761441   -0.20990008778359337   -0.012028208157816363
-0.050493025713613665   -0.20983607129268775   -0.011153071537881018
-0.04993378499655274   -0.2544557753135286   -0.011229938390356811
-0.05070247252766557   -0.20944975650034184   -0.011210964589173762
-0.07584711814761441   -0.20990008778359337   -0.012028208157816363
-0.04993378499655274   -0.2544557753135286   -0.011229938390356811
-0.07299034498428161   -0.2540966550479313   -0.012135693594999906
-0.07360199981054709   -0.2536650344818557   -0.011765402037687406
-0.07584711814761441   -0.20990008778359337   -0.012028208157816363
-0.04993378499655274   -0.2544557753135286   -0.011229938390356811
-0.07360199981054709   -0.2536650344818557   -0.011765402037687406
-0.05070247252766557   -0.20944975650034184   -0.011210964589173762
-0.07584711814761441   -0.20990008778359337   -0.012028208157816363
-0.07299034498428161   -0.2540966550479313   -0.012135693594999906
-0.050493025713613665   -0.20983607129268775   -0.011153071537881018
-0.0754734062516449   -0.21048245857274236   -0.012150277124802822
-0.07299034498428161   -0.2540966550479313   -0.012135693594999906
-0.04993378499655274   -0.2544557753135286   -0.011229938390356811
-0.050493025713613665   -0.20983607129268775   -0.011153071537881018
-0.04950232651170537   -0.2549590754319127   -0.011391669991766957
-0.0754734062516449   -0.21048245857274236   -0.012150277124802822
-0.05022051430508296   -0.21028590728925858   -0.01114208841568958
-0.04950232651170537   -0.2549590754319127   -0.011391669991766957
-0.050493025713613665   -0.20983607129268775   -0.011153071537881018
-0.0754734062516449   -0.21048245857274236   -0.012150277124802822
-0.04950232651170537   -0.2549590754319127   -0.011391669991766957
-0.07215644199217129   -0.2547530535269511   -0.012584392566792172
-0.07299034498428161   -0.2540966550479313   -0.012135693594999906
-0.0754734062516449   -0.21048245857274236   -0.012150277124802822
-0.04950232651170537   -0.2549590754319127   -0.011391669991766957
-0.07299034498428161   -0.2540966550479313   -0.012135693594999906
-0.050493025713613665   -0.20983607129268775   -0.011153071537881018
-0.05083538516075725   -0.20910041524053896   -0.011316486120795033
-0.05063191272289569   -0.25382355786496924   -0.01105639773736504
-0.027643130246779633   -0.20912730458760262   -0.010858838680655281
-0.05070247252766557   -0.20944975650034184   -0.011210964589173762
-0.05063191272289569   -0.25382355786496924   -0.01105639773736504
-0.02957027194784762   -0.2540269908914799   -0.010789997588638602
-0.027643130246779633   -0.20912730458760262   -0.010858838680655281
-0.029247238710548188   -0.2541632288809962   -0.010654471320596604
-0.05070247252766557   -0.20944975650034184   -0.011210964589173762
-0.027463851042158465   -0.20932811865348466   -0.010672634278240266
-0.029247238710548188   -0.2541632288809962   -0.010654471320596604
-0.027643130246779633   -0.20912730458760262   -0.010858838680655281
-0.05070247252766557   -0.20944975650034184   -0.011210964589173762
-0.029247238710548188   -0.2541632288809962   -0.010654471320596604
-0.050335612495129516   -0.2540847975306975   -0.011118678080119944
-0.05063191272289569   -0.25382355786496924   -0.01105639773736504
-0.05070247252766557   -0.20944975650034184   -0.011210964589173762
-0.029247238710548188   -0.2541632288809962   -0.010654471320596604
-0.05063191272289569   -0.25382355786496924   -0.01105639773736504
-0.027643130246779633   -0.20912730458760262   -0.010858838680655281
-0.05070247252766557   -0.20944975650034184   -0.011210964589173762
-0.050335612495129516   -0.2540847975306975   -0.011118678080119944
-0.027463851042158465   -0.20932811865348466   -0.010672634278240266
-0.050493025713613665   -0.20983607129268775   -0.011153071537881018
-0.050335612495129516   -0.2540847975306975   -0.011118678080119944
-0.029247238710548188   -0.2541632288809962   -0.010654471320596604
-0.027463851042158465   -0.20932811865348466   -0.010672634278240266
-0.028899604161248538   -0.2544050578977206   -0.010567337086993842
-0.050493025713613665   -0.20983607129268775   -0.011153071537881018
-0.02726077216039784   -0.20957160506096006   -0.010534258997893725
-0.028899604161248538   -0.2544050578977206   -0.010567337086993842
-0.027463851042158465   -0.20932811865348466   -0.010672634278240266
-0.050493025713613665   -0.20983607129268775   -0.011153071537881018
-0.028899604161248538   -0.2544050578977206   -0.010567337086993842
-0.04993378499655274   -0.2544557753135286   -0.011229938390356811
-0.050335612495129516   -0.2540847975306975   -0.011118678080119944
-0.050493025713613665   -0.20983607129268775   -0.011153071537881018
-0.028899604161248538   -0.2544050578977206   -0.010567337086993842
-0.050335612495129516   -0.2540847975306975   -0.011118678080119944
-0.027463851042158465   -0.20932811865348466   -0.010672634278240266
-0.050493025713613665   -0.20983607129268775   -0.011153071537881018
-0.04993378499655274   -0.2544557753135286   -0.011229938390356811
-0.02726077216039784   -0.20957160506096006   -0.010534258997893725
-0.05022051430508296   -0.21028590728925858   -0.01114208841568958
-0.04993378499655274   -0.2544557753135286   -0.011229938390356811
-0.028899604161248538   -0.2544050578977206   -0.010567337086993842
-0.02726077216039784   -0.20957160506096006   -0.010534258997893725
-0.02854226947580447   -0.254755575599863   -0.010530932058799732
-0.05022051430508296   -0.21028590728925858   -0.01114208841568958
-0.02704170950261454   -0.20985852132262933   -0.010445235837036989
-0.02854226947580447   -0.254755575599863   -0.010530932058799732
-0.02726077216039784   -0.20957160506096006   -0.010534258997893725
-0.05022051430508296   -0.21028590728925858   -0.01114208841568958
-0.02854226947580447   -0.254755575599863   -0.010530932058799732
-0.04950232651170537   -0.2549590754319127   -0.011391669991766957
-0.04993378499655274   -0.2544557753135286   -0.011229938390356811
-0.05022051430508296   -0.21028590728925858   -0.01114208841568958
-0.02854226947580447   -0.254755575599863   -0.010530932058799732
-0.04993378499655274   -0.2544557753135286   -0.011229938390356811
-0.02726077216039784   -0.20957160506096006   -0.010534258997893725
-0.027643130246779633   -0.20912730458760262   -0.010858838680655281
-0.02957027194784762   -0.2540269908914799   -0.010789997588638602
-0.005107708858388718   -0.20900530379777324   -0.010670170595897142
-0.027463851042158465   -0.20932811865348466   -0.010672634278240266
-0.02957027194784762   -0.2540269908914799   -0.010789997588638602
-0.009147764438147006   -0.2538731238660981   -0.01074387508888355
-0.005107708858388718   -0.20900530379777324   -0.010670170595897142
-0.008790409426020307   -0.25387731883406744   -0.010417327340224066
-0.027463851042158465   -0.20932811865348466   -0.010672634278240266
-0.004895226485229186   -0.2090528223142726   -0.010407289164449187
-0.008790409426020307   -0.25387731883406744   -0.010417327340224066
-0.005107708858388718   -0.20900530379777324   -0.010670170595897142
-0.027463851042158465   -0.20932811865348466   -0.010672634278240266
-0.008790409426020307   -0.25387731883406744   -0.010417327340224066
-0.029247238710548188   -0.2541632288809962   -0.010654471320596604
-0.02957027194784762   -0.2540269908914799   -0.010789997588638602
-0.027463851042158465   -0.20932811865348466   -0.010672634278240266
-0.008790409426020307   -0.25387731883406744   -0.010417327340224066
-0.02957027194784762   -0.2540269908914799   -0.010789997588638602
-0.005107708858388718   -0.20900530379777324   -0.010670170595897142
-0.027463851042158465   -0.20932811865348466   -0.010672634278240266
-0.029247238710548188   -0.2541632288809962   -0.010654471320596604
-0.004895226485229186   -0.2090528223142726   -0.010407289164449187
-0.02726077216039784   -0.20957160506096006   -0.010534258997893725
-0.029247238710548188   -0.2541632288809962   -0.010654471320596604
-0.008790409426020307   -0.25387731883406744   -0.010417327340224066
-0.004895226485229186   -0.2090528223142726   -0.010407289164449187
-0.008442516544754227   -0.25397925440663877   -0.010139271454130386
-0.02726077216039784   -0.20957160506096006   -0.010534258997893725
-0.004694396046984149   -0.20913960843443133   -0.010191875668160226
-0.008442516544754227   -0.25397925440663877   -0.010139271454130386
-0.004895226485229186   -0.2090528223142726   -0.010407289164449187
-0.02726077216039784   -0.20957160506096006   -0.010534258997893725
-0.008442516544754227   -0.25397925440663877   -0.010139271454130386
-0.028899604161248538   -0.2544050578977206   -0.010567337086993842
-0.029247238710548188   -0.2541632288809962   -0.010654471320596604
-0.02726077216039784   -0.20957160506096006   -0.010534258997893725
-0.008442516544754227   -0.25397925440663877   -0.010139271454130386
-0.029247238710548188   -0.2541632288809962   -0.010654471320596604
-0.004895226485229186   -0.2090528223142726   -0.010407289164449187
-0.02726077216039784   -0.20957160506096006   -0.010534258997893725
-0.028899604161248538   -0.2544050578977206   -0.010567337086993842
-0.004694396046984149   -0.20913960843443133   -0.010191875668160226
-0.02704170950261454   -0.20985852132262933   -0.010445235837036989
-0.028899604161248538   -0.2544050578977206   -0.010567337086993842
-0.008442516544754227   -0.25397925440663877   -0.010139271454130386
-0.004694396046984149   -0.20913960843443133   -0.010191875668160226
-0.008132397462181364   -0.25418747146758536   -0.009911402238679238
-0.02704170950261454   -0.20985852132262933   -0.010445235837036989
-0.004524536037772226   -0.20926767264047205   -0.010025600406870545
-0.008132397462181364   -0.25418747146758536   -0.009911402238679238
-0.004694396046984149   -0.20913960843443133   -0.010191875668160226
-0.02704170950261454   -0.20985852132262933   -0.010445235837036989
-0.008132397462181364   -0.25418747146758536   -0.009911402238679238
-0.02854226947580447   -0.254755575599863   -0.010530932058799732
-0.028899604161248538   -0.2544050578977206   -0.010567337086993842
-0.02704170950261454   -0.20985852132262933   -0.010445235837036989
-0.008132397462181364   -0.25418747146758536   -0.009911402238679238
-0.028899604161248538   -0.2544050578977206   -0.010567337086993842
-0.004694396046984149   -0.20913960843443133   -0.010191875668160226
-0.005107708858388718   -0.20900530379777324   -0.010670170595897142
-0.009147764438147006   -0.2538731238660981   -0.01074387508888355
0.018109045781542522   -0.2087336727005036   -0.010759248158661755
-0.004895226485229186   -0.2090528223142726   -0.010407289164449187
-0.009147764438147006   -0.2538731238660981   -0.01074387508888355
0.011984307914949775   -0.25337300147420705   -0.0109353602042017
0.018109045781542522   -0.2087336727005036   -0.010759248158661755
0.012421114911269755   -0.25323627020942735   -0.010419695948445563
-0.004895226485229186   -0.2090528223142726   -0.010407289164449187
0.01838056341565402   -0.20862749429344385   -0.010421140304766544
0.012421114911269755   -0.25323627020942735   -0.010419695948445563
0.018109045781542522   -0.2087336727005036   -0.010759248158661755
-0.004895226485229186   -0.2090528223142726   -0.010407289164449187
0.012421114911269755   -0.25323627020942735   -0.010419695948445563
-0.008790409426020307   -0.25387731883406744   -0.010417327340224066
-0.009147764438147006   -0.2538731238660981   -0.01074387508888355
-0.004895226485229186   -0.2090528223142726   -0.010407289164449187
0.012421114911269755   -0.25323627020942735   -0.010419695948445563
-0.009147764438147006   -0.2538731238660981   -0.01074387508888355
0.018109045781542522   -0.2087336727005036   -0.010759248158661755
-0.004895226485229186   -0.2090528223142726   -0.010407289164449187
-0.008790409426020307   -0.25387731883406744   -0.010417327340224066
0.01838056341565402   -0.20862749429344385   -0.010421140304766544
-0.004694396046984149   -0.20913960843443133   -0.010191875668160226
-0.008790409426020307   -0.25387731883406744   -0.010417327340224066
0.012421114911269755   -0.25323627020942735   -0.010419695948445563
0.01838056341565402   -0.20862749429344385   -0.010421140304766544
0.012868607023747512   -0.253211152102274   -0.00995565751398475
-0.004694396046984149   -0.20913960843443133   -0.010191875668160226
0.018630831186980647   -0.2085723516159692   -0.010130372854408603
0.012868607023747512   -0.253211152102274   -0.00995565751398475
0.01838056341565402   -0.20862749429344385   -0.010421140304766544
-0.004694396046984149   -0.20913960843443133   -0.010191875668160226
0.012868607023747512   -0.253211152102274   -0.00995565751398475
-0.008442516544754227   -0.25397925440663877   -0.010139271454130386
-0.008790409426020307   -0.25387731883406744   -0.010417327340224066
-0.004694396046984149   -0.20913960843443133   -0.010191875668160226
0.012868607023747512   -0.253211152102274   -0.00995565751398475
-0.008790409426020307   -0.25387731883406744   -0.010417327340224066
0.01838056341565402   -0.20862749429344385   -0.010421140304766544
-0.004694396046984149   -0.20913960843443133   -0.010191875668160226
-0.008442516544754227   -0.25397925440663877   -0.010139271454130386
0.018630831186980647   -0.2085723516159692   -0.010130372854408603
-0.004524536037772226   -0.20926767264047205   -0.010025600406870545
-0.008442516544754227   -0.25397925440663877   -0.010139271454130386
0.012868607023747512   -0.253211152102274   -0.00995565751398475
0.018630831186980647   -0.2085723516159692   -0.010130372854408603
0.013165501132554791   -0.25327696822308615   -0.009536445818945864
-0.004524536037772226   -0.20926767264047205   -0.010025600406870545
0.018763238046803975   -0.20854113550196177   -0.009883855508681857
0.013165501132554791   -0.25327696822308615   -0.009536445818945864
0.018630831186980647   -0.2085723516159692   -0.010130372854408603
-0.004524536037772226   -0.20926767264047205   -0.010025600406870545
0.013165501132554791   -0.25327696822308615   -0.009536445818945864
-0.008132397462181364   -0.25418747146758536   -0.009911402238679238
-0.008442516544754227   -0.25397925440663877   -0.010139271454130386
-0.004524536037772226   -0.20926767264047205   -0.010025600406870545
0.013165501132554791   -0.25327696822308615   -0.009536445818945864
-0.008442516544754227   -0.25397925440663877   -0.010139271454130386
0.018630831186980647   -0.2085723516159692   -0.010130372854408603
0.018109045781542522   -0.2087336727005036   -0.010759248158661755
0.011984307914949775   -0.25337300147420705   -0.0109353602042017
0.042974973350842   -0.20827808417164675   -0.011139978834534802
0.01838056341565402   -0.20862749429344385   -0.010421140304766544
0.011984307914949775   -0.25337300147420705   -0.0109353602042017
0.034477691779040545   -0.252513521666223   -0.011433380233025047
0.042974973350842   -0.20827808417164675   -0.011139978834534802
0.03563937750131313   -0.2522306804479684   -0.010683656750844674
0.01838056341565402   -0.20862749429344385   -0.010421140304766544
0.043686649944069365   -0.2080327599823072   -0.01069710307741089
0.03563937750131313   -0.2522306804479684   -0.010683656750844674
0.042974973350842   -0.20827808417164675   -0.011139978834534802
0.01838056341565402   -0.20862749429344385   -0.010421140304766544
0.03563937750131313   -0.2522306804479684   -0.010683656750844674
0.012421114911269755   -0.25323627020942735   -0.010419695948445563
0.011984307914949775   -0.25337300147420705   -0.0109353602042017
0.01838056341565402   -0.20862749429344385   -0.010421140304766544
0.03563937750131313   -0.2522306804479684   -0.010683656750844674
0.011984307914949775   -0.25337300147420705   -0.0109353602042017
0.042974973350842   -0.20827808417164675   -0.011139978834534802
0.01838056341565402   -0.20862749429344385   -0.010421140304766544
0.012421114911269755   -0.25323627020942735   -0.010419695948445563
0.043686649944069365   -0.2080327599823072   -0.01069710307741089
0.018630831186980647   -0.2085723516159692   -0.010130372854408603
0.012421114911269755   -0.25323627020942735   -0.010419695948445563
0.03563937750131313   -0.2522306804479684   -0.010683656750844674
0.043686649944069365   -0.2080327599823072   -0.01069710307741089
0.036498704086972304   -0.2521532756932874   -0.010002528169546571
0.018630831186980647   -0.2085723516159692   -0.010130372854408603
0.04417401210114315   -0.20791388869081961   -0.010321578283796826
0.036498704086972304   -0.2521532756932874   -0.010002528169546571
0.043686649944069365   -0.2080327599823072   -0.01069710307741089
0.018630831186980647   -0.2085723516159692   -0.010130372854408603
0.036498704086972304   -0.2521532756932874   -0.010002528169546571
0.012868607023747512   -0.253211152102274   -0.00995565751398475
0.012421114911269755   -0.25323627020942735   -0.010419695948445563
0.018630831186980647   -0.2085723516159692   -0.010130372854408603
0.036498704086972304   -0.2521532756932874   -0.010002528169546571
0.012421114911269755   -0.25323627020942735   -0.010419695948445563
0.043686649944069365   -0.2080327599823072   -0.01069710307741089
0.018630831186980647   -0.2085723516159692   -0.010130372854408603
0.012868607023747512   -0.253211152102274   -0.00995565751398475
0.04417401210114315   -0.20791388869081961   -0.010321578283796826
0.018763238046803975   -0.20854113550196177   -0.009883855508681857
0.012868607023747512   -0.253211152102274   -0.00995565751398475
0.036498704086972304   -0.2521532756932874   -0.010002528169546571
0.04417401210114315   -0.20791388869081961   -0.010321578283796826
0.03736827446048343   -0.252152195997464   -0.009393075770036553
0.018763238046803975   -0.20854113550196177   -0.009883855508681857
0.044604577111795135   -0.20778338225535273   -0.010016183591464835
0.03736827446048343   -0.252152195997464   -0.009393075770036553
0.04417401210114315   -0.20791388869081961   -0.010321578283796826
0.018763238046803975   -0.20854113550196177   -0.009883855508681857
0.03736827446048343   -0.252152195997464   -0.009393075770036553
0.013165501132554791   -0.25327696822308615   -0.009536445818945864
0.012868607023747512   -0.253211152102274   -0.00995565751398475
0.018763238046803975   -0.20854113550196177   -0.009883855508681857
0.03736827446048343   -0.252152195997464   -0.009393075770036553
0.012868607023747512   -0.253211152102274   -0.00995565751398475
0.04417401210114315   -0.20791388869081961   -0.010321578283796826
-0.07413661989870032   -0.2533123814619119   -0.011472167877846936
-0.06765256978983505   -0.29257022372454955   -0.010694069017429269
-0.05063191272289569   -0.25382355786496924   -0.01105639773736504
-0.07360199981054709   -0.2536650344818557   -0.011765402037687406
-0.06765256978983505   -0.29257022372454955   -0.010694069017429269
-0.04786252835875279   -0.29349505861058317   -0.010626134664981924
-0.05063191272289569   -0.25382355786496924   -0.01105639773736504
-0.04736672764427985   -0.2936290014411008   -0.010844445315348249
-0.07360199981054709   -0.2536650344818557   -0.011765402037687406
-0.050335612495129516   -0.2540847975306975   -0.011118678080119944
-0.04736672764427985   -0.2936290014411008   -0.010844445315348249
-0.05063191272289569   -0.25382355786496924   -0.01105639773736504
-0.07360199981054709   -0.2536650344818557   -0.011765402037687406
-0.04736672764427985   -0.2936290014411008   -0.010844445315348249
-0.06662188059856272   -0.29276921591891525   -0.011304317079708342
-0.06765256978983505   -0.29257022372454955   -0.010694069017429269
-0.07360199981054709   -0.2536650344818557   -0.011765402037687406
-0.04736672764427985   -0.2936290014411008   -0.010844445315348249
-0.06765256978983505   -0.29257022372454955   -0.010694069017429269
-0.05063191272289569   -0.25382355786496924   -0.01105639773736504
-0.07360199981054709   -0.2536650344818557   -0.011765402037687406
-0.06662188059856272   -0.29276921591891525   -0.011304317079708342
-0.050335612495129516   -0.2540847975306975   -0.011118678080119944
-0.07299034498428161   -0.2540966550479313   -0.012135693594999906
-0.06662188059856272   -0.29276921591891525   -0.011304317079708342
-0.04736672764427985   -0.2936290014411008   -0.010844445315348249
-0.050335612495129516   -0.2540847975306975   -0.011118678080119944
-0.04674407318880417   -0.2939490136032464   -0.011112602383245638
-0.07299034498428161   -0.2540966550479313   -0.012135693594999906
-0.04993378499655274   -0.2544557753135286   -0.011229938390356811
-0.04674407318880417   -0.2939490136032464   -0.011112602383245638
-0.050335612495129516   -0.2540847975306975   -0.011118678080119944
-0.07299034498428161   -0.2540966550479313   -0.012135693594999906
-0.04674407318880417   -0.2939490136032464   -0.011112602383245638
-0.06559278508246613   -0.2931447334637924   -0.011995742925022718
-0.06662188059856272   -0.29276921591891525   -0.011304317079708342
-0.07299034498428161   -0.2540966550479313   -0.012135693594999906
-0.04674407318880417   -0.2939490136032464   -0.011112602383245638
-0.06662188059856272   -0.29276921591891525   -0.011304317079708342
-0.050335612495129516   -0.2540847975306975   -0.011118678080119944
-0.07299034498428161   -0.2540966550479313   -0.012135693594999906
-0.06559278508246613   -0.2931447334637924   -0.011995742925022718
-0.04993378499655274   -0.2544557753135286   -0.011229938390356811
-0.07215644199217129   -0.2547530535269511   -0.012584392566792172
-0.06559278508246613   -0.2931447334637924   -0.011995742925022718
-0.04674407318880417   -0.2939490136032464   -0.011112602383245638
-0.04993378499655274   -0.2544557753135286   -0.011229938390356811
-0.04612951641955486   -0.29447325360136334   -0.011430140934243598
-0.07215644199217129   -0.2547530535269511   -0.012584392566792172
-0.04950232651170537   -0.2549590754319127   -0.011391669991766957
-0.04612951641955486   -0.29447325360136334   -0.011430140934243598
-0.04993378499655274   -0.2544557753135286   -0.011229938390356811
-0.07215644199217129   -0.2547530535269511   -0.012584392566792172
-0.04612951641955486   -0.29447325360136334   -0.011430140934243598
-0.0642742883822118   -0.29384495234089625   -0.01276676936326164
-0.06559278508246613   -0.2931447334637924   -0.011995742925022718
-0.07215644199217129   -0.2547530535269511   -0.012584392566792172
-0.04612951641955486   -0.29447325360136334   -0.011430140934243598
-0.06559278508246613   -0.2931447334637924   -0.011995742925022718
-0.04993378499655274   -0.2544557753135286   -0.011229938390356811
-0.05063191272289569   -0.25382355786496924   -0.01105639773736504
-0.04786252835875279   -0.29349505861058317   -0.010626134664981924
-0.02957027194784762   -0.2540269908914799   -0.010789997588638602
-0.050335612495129516   -0.2540847975306975   -0.011118678080119944
-0.04786252835875279   -0.29349505861058317   -0.010626134664981924
-0.030739468421588145   -0.2939302383881909   -0.010598577378534797
-0.02957027194784762   -0.2540269908914799   -0.010789997588638602
-0.030230415245009454   -0.29397446741628   -0.010501368884151749
-0.050335612495129516   -0.2540847975306975   -0.011118678080119944
-0.029247238710548188   -0.2541632288809962   -0.010654471320596604
-0.030230415245009454   -0.29397446741628   -0.010501368884151749
-0.02957027194784762   -0.2540269908914799   -0.010789997588638602
-0.050335612495129516   -0.2540847975306975   -0.011118678080119944
-0.030230415245009454   -0.29397446741628   -0.010501368884151749
-0.04736672764427985   -0.2936290014411008   -0.010844445315348249
-0.04786252835875279   -0.29349505861058317   -0.010626134664981924
-0.050335612495129516   -0.2540847975306975   -0.011118678080119944
-0.030230415245009454   -0.29397446741628   -0.010501368884151749
-0.04786252835875279   -0.29349505861058317   -0.010626134664981924
-0.02957027194784762   -0.2540269908914799   -0.010789997588638602
-0.050335612495129516   -0.2540847975306975   -0.011118678080119944
-0.04736672764427985   -0.2936290014411008   -0.010844445315348249
-0.029247238710548188   -0.2541632288809962   -0.010654471320596604
-0.04993378499655274   -0.2544557753135286   -0.011229938390356811
-0.04736672764427985   -0.2936290014411008   -0.010844445315348249
-0.030230415245009454   -0.29397446741628   -0.010501368884151749
-0.029247238710548188   -0.2541632288809962   -0.010654471320596604
-0.029705155538524746   -0.29418475739448546   -0.010452533071990946
-0.04993378499655274   -0.2544557753135286   -0.011229938390356811
-0.028899604161248538   -0.2544050578977206   -0.010567337086993842
-0.029705155538524746   -0.29418475739448546   -0.010452533071990946
-0.029247238710548188   -0.2541632288809962   -0.010654471320596604
-0.04993378499655274   -0.2544557753135286   -0.011229938390356811
-0.029705155538524746   -0.29418475739448546   -0.010452533071990946
-0.04674407318880417   -0.2939490136032464   -0.011112602383245638
-0.04736672764427985   -0.2936290014411008   -0.010844445315348249
-0.04993378499655274   -0.2544557753135286   -0.011229938390356811
-0.029705155538524746   -0.29418475739448546   -0.010452533071990946
-0.04736672764427985   -0.2936290014411008   -0.010844445315348249
-0.029247238710548188   -0.2541632288809962   -0.010654471320596604
-0.04993378499655274   -0.2544557753135286   -0.011229938390356811
-0.04674407318880417   -0.2939490136032464   -0.011112602383245638
-0.028899604161248538   -0.2544050578977206   -0.010567337086993842
-0.04950232651170537   -0.2549590754319127   -0.011391669991766957
-0.04674407318880417   -0.2939490136032464   -0.011112602383245638
-0.029705155538524746   -0.29418475739448546   -0.010452533071990946
-0.028899604161248538   -0.2544050578977206   -0.010567337086993842
-0.029180831985173118   -0.29457107849099345   -0.010451390423234381
-0.04950232651170537   -0.2549590754319127   -0.011391669991766957
-0.02854226947580447   -0.254755575599863   -0.010530932058799732
-0.029180831985173118   -0.29457107849099345   -0.010451390423234381
-0.028899604161248538   -0.2544050578977206   -0.010567337086993842
-0.04950232651170537   -0.2549590754319127   -0.011391669991766957
-0.029180831985173118   -0.29457107849099345   -0.010451390423234381
-0.04612951641955486   -0.29447325360136334   -0.011430140934243598
-0.04674407318880417   -0.2939490136032464   -0.011112602383245638
-0.04950232651170537   -0.2549590754319127   -0.011391669991766957
-0.029180831985173118   -0.29457107849099345   -0.010451390423234381
-0.04674407318880417   -0.2939490136032464   -0.011112602383245638
-0.028899604161248538   -0.2544050578977206   -0.010567337086993842
-0.02957027194784762   -0.2540269908914799   -0.010789997588638602
-0.030739468421588145   -0.2939302383881909   -0.010598577378534797
-0.009147764438147006   -0.2538731238660981   -0.01074387508888355
-0.029247238710548188   -0.2541632288809962   -0.010654471320596604
-0.030739468421588145   -0.2939302383881909   -0.010598577378534797
-0.014186194968290976   -0.29385512410009546   -0.01071986013470785
-0.009147764438147006   -0.2538731238660981   -0.01074387508888355
-0.013628565353296351   -0.2937987430779057   -0.010318242969615022
-0.029247238710548188   -0.2541632288809962   -0.010654471320596604
-0.008790409426020307   -0.25387731883406744   -0.010417327340224066
-0.013628565353296351   -0.2937987430779057   -0.010318242969615022
-0.009147764438147006   -0.2538731238660981   -0.01074387508888355
-0.029247238710548188   -0.2541632288809962   -0.010654471320596604
-0.013628565353296351   -0.2937987430779057   -0.010318242969615022
-0.030230415245009454   -0.29397446741628   -0.010501368884151749
-0.030739468421588145   -0.2939302383881909   -0.010598577378534797
-0.029247238710548188   -0.2541632288809962   -0.010654471320596604
-0.013628565353296351   -0.2937987430779057   -0.010318242969615022
-0.030739468421588145   -0.2939302383881909   -0.010598577378534797
-0.009147764438147006   -0.2538731238660981   -0.01074387508888355
-0.029247238710548188   -0.2541632288809962   -0.010654471320596604
-0.030230415245009454   -0.29397446741628   -0.010501368884151749
-0.008790409426020307   -0.25387731883406744   -0.010417327340224066
-0.028899604161248538   -0.2544050578977206   -0.010567337086993842
-0.030230415245009454   -0.29397446741628   -0.010501368884151749
-0.013628565353296351   -0.2937987430779057   -0.010318242969615022
-0.008790409426020307   -0.25387731883406744   -0.010417327340224066
-0.013087593774021772   -0.29389230228682395   -0.009968180330566614
-0.028899604161248538   -0.2544050578977206   -0.010567337086993842
-0.008442516544754227   -0.25397925440663877   -0.010139271454130386
-0.013087593774021772   -0.29389230228682395   -0.009968180330566614
-0.008790409426020307   -0.25387731883406744   -0.010417327340224066
-0.028899604161248538   -0.2544050578977206   -0.010567337086993842
-0.013087593774021772   -0.29389230228682395   -0.009968180330566614
-0.029705155538524746   -0.29418475739448546   -0.010452533071990946
-0.030230415245009454   -0.29397446741628   -0.010501368884151749
-0.028899604161248538   -0.2544050578977206   -0.010567337086993842
-0.013087593774021772   -0.29389230228682395   -0.009968180330566614
-0.030230415245009454   -0.29397446741628   -0.010501368884151749
-0.008790409426020307   -0.25387731883406744   -0.010417327340224066
-0.028899604161248538   -0.2544050578977206   -0.010567337086993842
-0.029705155538524746   -0.29418475739448546   -0.010452533071990946
-0.008442516544754227   -0.25397925440663877   -0.010139271454130386
-0.02854226947580447   -0.254755575599863   -0.010530932058799732
-0.029705155538524746   -0.29418475739448546   -0.010452533071990946
-0.013087593774021772   -0.29389230228682395   -0.009968180330566614
-0.008442516544754227   -0.25397925440663877   -0.010139271454130386
-0.012599044184584126   -0.2941579439060449   -0.009665176356993412
-0.02854226947580447   -0.254755575599863   -0.010530932058799732
-0.008132397462181364   -0.25418747146758536   -0.009911402238679238
-0.012599044184584126   -0.2941579439060449   -0.009665176356993412
-0.008442516544754227   -0.25397925440663877   -0.010139271454130386
-0.02854226947580447   -0.254755575599863   -0.010530932058799732
-0.012599044184584126   -0.2941579439060449   -0.009665176356993412
-0.029180831985173118   -0.29457107849099345   -0.010451390423234381
-0.029705155538524746   -0.29418475739448546   -0.010452533071990946
-0.02854226947580447   -0.254755575599863   -0.010530932058799732
-0.012599044184584126   -0.2941579439060449   -0.009665176356993412
-0.029705155538524746   -0.29418475739448546   -0.010452533071990946
-0.008442516544754227   -0.25397925440663877   -0.010139271454130386
-0.009147764438147006   -0.2538731238660981   -0.01074387508888355
-0.014186194968290976   -0.29385512410009546   -0.01071986013470785
0.011984307914949775   -0.25337300147420705   -0.0109353602042017
-0.008790409426020307   -0.25387731883406744   -0.010417327340224066
-0.014186194968290976   -0.29385512410009546   -0.01071986013470785
0.0031522318759006863   -0.2932515385758902   -0.011017216404831796
0.011984307914949775   -0.25337300147420705   -0.0109353602042017
0.0038301853781676286   -0.29306711539158775   -0.010312351568115845
-0.008790409426020307   -0.25387731883406744   -0.010417327340224066
0.012421114911269755   -0.25323627020942735   -0.010419695948445563
0.0038301853781676286   -0.29306711539158775   -0.010312351568115845
0.011984307914949775   -0.25337300147420705   -0.0109353602042017
-0.008790409426020307   -0.25387731883406744   -0.010417327340224066
0.0038301853781676286   -0.29306711539158775   -0.010312351568115845
-0.013628565353296351   -0.2937987430779057   -0.010318242969615022
-0.014186194968290976   -0.29385512410009546   -0.01071986013470785
-0.008790409426020307   -0.25387731883406744   -0.010417327340224066
0.0038301853781676286   -0.29306711539158775   -0.010312351568115845
-0.014186194968290976   -0.29385512410009546   -0.01071986013470785
0.011984307914949775   -0.25337300147420705   -0.0109353602042017
-0.008790409426020307   -0.25387731883406744   -0.010417327340224066
-0.013628565353296351   -0.2937987430779057   -0.010318242969615022
0.012421114911269755   -0.25323627020942735   -0.010419695948445563
-0.008442516544754227   -0.25397925440663877   -0.010139271454130386
-0.013628565353296351   -0.2937987430779057   -0.010318242969615022
0.0038301853781676286   -0.29306711539158775   -0.010312351568115845
0.012421114911269755   -0.25323627020942735   -0.010419695948445563
0.004543972459283084   -0.2930503625499958   -0.009672893569861719
-0.008442516544754227   -0.25397925440663877   -0.010139271454130386
0.012868607023747512   -0.253211152102274   -0.00995565751398475
0.004543972459283084   -0.2930503625499958   -0.009672893569861719
0.012421114911269755   -0.25323627020942735   -0.010419695948445563
-0.008442516544754227   -0.25397925440663877   -0.010139271454130386
0.004543972459283084   -0.2930503625499958   -0.009672893569861719
-0.013087593774021772   -0.29389230228682395   -0.009968180330566614
-0.013628565353296351   -0.2937987430779057   -0.010318242969615022
-0.008442516544754227   -0.25397925440663877   -0.010139271454130386
0.004543972459283084   -0.2930503625499958   -0.009672893569861719
-0.013628565353296351   -0.2937987430779057   -0.010318242969615022
0.012421114911269755   -0.25323627020942735   -0.010419695948445563
-0.008442516544754227   -0.25397925440663877   -0.010139271454130386
-0.013087593774021772   -0.29389230228682395   -0.009968180330566614
0.012868607023747512   -0.253211152102274   -0.00995565751398475
-0.008132397462181364   -0.25418747146758536   -0.009911402238679238
-0.013087593774021772   -0.29389230228682395   -0.009968180330566614
0.004543972459283084   -0.2930503625499958   -0.009672893569861719
0.012868607023747512   -0.253211152102274   -0.00995565751398475
0.005066028599005812   -0.2931937478887728   -0.009078497454757422
-0.008132397462181364   -0.25418747146758536   -0.009911402238679238
0.013165501132554791   -0.25327696822308615   -0.009536445818945864
0.005066028599005812   -0.2931937478887728   -0.009078497454757422
0.012868607023747512   -0.253211152102274   -0.00995565751398475
-0.008132397462181364   -0.25418747146758536   -0.009911402238679238
0.005066028599005812   -0.2931937478887728   -0.009078497454757422
-0.012599044184584126   -0.2941579439060449   -0.009665176356993412
-0.013087593774021772   -0.29389230228682395   -0.009968180330566614
-0.008132397462181364   -0.25418747146758536   -0.009911402238679238
0.005066028599005812   -0.2931937478887728   -0.009078497454757422
-0.013087593774021772   -0.29389230228682395   -0.009968180330566614
0.012868607023747512   -0.253211152102274   -0.00995565751398475
0.011984307914949775   -0.25337300147420705   -0.0109353602042017
0.0031522318759006863   -0.2932515385758902   -0.011017216404831796
0.034477691779040545   -0.252513521666223   -0.011433380233025047
0.012421114911269755   -0.25323627020942735   -0.010419695948445563
0.0031522318759006863   -0.2932515385758902   -0.011017216404831796
0.02165506027067067   -0.2920619635935862   -0.011656225138258777
0.034477691779040545   -0.252513521666223   -0.011433380233025047
0.02336682739691405   -0.29170745506916074   -0.010577755683438907
0.012421114911269755   -0.25323627020942735   -0.010419695948445563
0.03563937750131313   -0.2522306804479684   -0.010683656750844674
0.02336682739691405   -0.29170745506916074   -0.010577755683438907
0.034477691779040545   -0.252513521666223   -0.011433380233025047
0.012421114911269755   -0.25323627020942735   -0.010419695948445563
0.02336682739691405   -0.29170745506916074   -0.010577755683438907
0.0038301853781676286   -0.29306711539158775   -0.010312351568115845
0.0031522318759006863   -0.2932515385758902   -0.011017216404831796
0.012421114911269755   -0.25323627020942735   -0.010419695948445563
0.02336682739691405   -0.29170745506916074   -0.010577755683438907
0.0031522318759006863   -0.2932515385758902   -0.011017216404831796
0.034477691779040545   -0.252513521666223   -0.011433380233025047
0.012421114911269755   -0.25323627020942735   -0.010419695948445563
0.0038301853781676286   -0.29306711539158775   -0.010312351568115845
0.03563937750131313   -0.2522306804479684   -0.010683656750844674
0.012868607023747512   -0.253211152102274   -0.00995565751398475
0.0038301853781676286   -0.29306711539158775   -0.010312351568115845
0.02336682739691405   -0.29170745506916074   -0.010577755683438907
0.03563937750131313   -0.2522306804479684   -0.010683656750844674
0.02467888751812363   -0.29164609044822115   -0.009580374722273277
0.012868607023747512   -0.253211152102274   -0.00995565751398475
0.036498704086972304   -0.2521532756932874   -0.010002528169546571
0.02467888751812363   -0.29164609044822115   -0.009580374722273277
0.03563937750131313   -0.2522306804479684   -0.010683656750844674
0.012868607023747512   -0.253211152102274   -0.00995565751398475
0.02467888751812363   -0.29164609044822115   -0.009580374722273277
0.004543972459283084   -0.2930503625499958   -0.009672893569861719
0.0038301853781676286   -0.29306711539158775   -0.010312351568115845
0.012868607023747512   -0.253211152102274   -0.00995565751398475
0.02467888751812363   -0.29164609044822115   -0.009580374722273277
0.0038301853781676286   -0.29306711539158775   -0.010312351568115845
0.03563937750131313   -0.2522306804479684   -0.010683656750844674
0.012868607023747512   -0.253211152102274   -0.00995565751398475
0.004543972459283084   -0.2930503625499958   -0.009672893569861719
0.036498704086972304   -0.2521532756932874   -0.010002528169546571
0.013165501132554791   -0.25327696822308615   -0.009536445818945864
0.004543972459283084   -0.2930503625499958   -0.009672893569861719
0.02467888751812363   -0.29164609044822115   -0.009580374722273277
0.036498704086972304   -0.2521532756932874   -0.010002528169546571
0.02603592248775807   -0.2917503711413468   -0.008672272684248201
0.013165501132554791   -0.25327696822308615   -0.009536445818945864
0.03736827446048343   -0.252152195997464   -0.009393075770036553
0.02603592248775807   -0.2917503711413468   -0.008672272684248201
0.036498704086972304   -0.2521532756932874   -0.010002528169546571
0.013165501132554791   -0.25327696822308615   -0.009536445818945864
0.02603592248775807   -0.2917503711413468   -0.008672272684248201
0.005066028599005812   -0.2931937478887728   -0.009078497454757422
0.004543972459283084   -0.2930503625499958   -0.009672893569861719
0.013165501132554791   -0.25327696822308615   -0.009536445818945864
0.02603592248775807   -0.2917503711413468   -0.008672272684248201
0.004543972459283084   -0.2930503625499958   -0.009672893569861719
0.036498704086972304   -0.2521532756932874   -0.010002528169546571
-0.06765256978983505   -0.29257022372454955   -0.010694069017429269
-0.05661295389018056   -0.3233994025624638   -0.009698917789217918
-0.04786252835875279   -0.29349505861058317   -0.010626134664981924
-0.06662188059856272   -0.29276921591891525   -0.011304317079708342
-0.05661295389018056   -0.3233994025624638   -0.009698917789217918
-0.04253465806409778   -0.32477194111900715   -0.010111241906407392
-0.04786252835875279   -0.29349505861058317   -0.010626134664981924
-0.041817546156986116   -0.32470020352964934   -0.010447382094514228
-0.06662188059856272   -0.29276921591891525   -0.011304317079708342
-0.04736672764427985   -0.2936290014411008   -0.010844445315348249
-0.041817546156986116   -0.32470020352964934   -0.010447382094514228
-0.04786252835875279   -0.29349505861058317   -0.010626134664981924
-0.06662188059856272   -0.29276921591891525   -0.011304317079708342
-0.041817546156986116   -0.32470020352964934   -0.010447382094514228
-0.05507153884211667   -0.3233600875686452   -0.010605429229425927
-0.05661295389018056   -0.3233994025624638   -0.009698917789217918
-0.06662188059856272   -0.29276921591891525   -0.011304317079708342
-0.041817546156986116   -0.32470020352964934   -0.010447382094514228
-0.05661295389018056   -0.3233994025624638   -0.009698917789217918
-0.04786252835875279   -0.29349505861058317   -0.010626134664981924
-0.06662188059856272   -0.29276921591891525   -0.011304317079708342
-0.05507153884211667   -0.3233600875686452   -0.010605429229425927
-0.04736672764427985   -0.2936290014411008   -0.010844445315348249
-0.06559278508246613   -0.2931447334637924   -0.011995742925022718
-0.05507153884211667   -0.3233600875686452   -0.010605429229425927
-0.041817546156986116   -0.32470020352964934   -0.010447382094514228
-0.04736672764427985   -0.2936290014411008   -0.010844445315348249
-0.04097481828003058   -0.3248959300285892   -0.010834582039169897
-0.06559278508246613   -0.2931447334637924   -0.011995742925022718
-0.04674407318880417   -0.2939490136032464   -0.011112602383245638
-0.04097481828003058   -0.3248959300285892   -0.010834582039169897
-0.04736672764427985   -0.2936290014411008   -0.010844445315348249
-0.06559278508246613   -0.2931447334637924   -0.011995742925022718
-0.04097481828003058   -0.3248959300285892   -0.010834582039169897
-0.05364995249952282   -0.32360221486569696   -0.011583798480319832
-0.05507153884211667   -0.3233600875686452   -0.010605429229425927
-0.06559278508246613   -0.2931447334637924   -0.011995742925022718
-0.04097481828003058   -0.3248959300285892   -0.010834582039169897
-0.05507153884211667   -0.3233600875686452   -0.010605429229425927
-0.04736672764427985   -0.2936290014411008   -0.010844445315348249
-0.06559278508246613   -0.2931447334637924   -0.011995742925022718
-0.05364995249952282   -0.32360221486569696   -0.011583798480319832
-0.04674407318880417   -0.2939490136032464   -0.011112602383245638
-0.0642742883822118   -0.29384495234089625   -0.01276676936326164
-0.05364995249952282   -0.32360221486569696   -0.011583798480319832
-0.04097481828003058   -0.3248959300285892   -0.010834582039169897
-0.04674407318880417   -0.2939490136032464   -0.011112602383245638
-0.04021025970207915   -0.3253634727076335   -0.01126956121487586
-0.0642742883822118   -0.29384495234089625   -0.01276676936326164
-0.04612951641955486   -0.29447325360136334   -0.011430140934243598
-0.04021025970207915   -0.3253634727076335   -0.01126956121487586
-0.04674407318880417   -0.2939490136032464   -0.011112602383245638
-0.0642742883822118   -0.29384495234089625   -0.01276676936326164
-0.04021025970207915   -0.3253634727076335   -0.01126956121487586
-0.05191659596257956   -0.32425119321585083   -0.01262971091833965
-0.05364995249952282   -0.32360221486569696   -0.011583798480319832
-0.0642742883822118   -0.29384495234089625   -0.01276676936326164
-0.04021025970207915   -0.3253634727076335   -0.01126956121487586
-0.05364995249952282   -0.32360221486569696   -0.011583798480319832
-0.04674407318880417   -0.2939490136032464   -0.011112602383245638
-0.04786252835875279   -0.29349505861058317   -0.010626134664981924
-0.04253465806409778   -0.32477194111900715   -0.010111241906407392
-0.030739468421588145   -0.2939302383881909   -0.010598577378534797
-0.04736672764427985   -0.2936290014411008   -0.010844445315348249
-0.04253465806409778   -0.32477194111900715   -0.010111241906407392
-0.031047917850954728   -0.32566649300677253   -0.010433756496533029
-0.030739468421588145   -0.2939302383881909   -0.010598577378534797
-0.03031138424506427   -0.3255526387594103   -0.010330811406487938
-0.04736672764427985   -0.2936290014411008   -0.010844445315348249
-0.030230415245009454   -0.29397446741628   -0.010501368884151749
-0.03031138424506427   -0.3255526387594103   -0.010330811406487938
-0.030739468421588145   -0.2939302383881909   -0.010598577378534797
-0.04736672764427985   -0.2936290014411008   -0.010844445315348249
-0.03031138424506427   -0.3255526387594103   -0.010330811406487938
-0.041817546156986116   -0.32470020352964934   -0.010447382094514228
-0.04253465806409778   -0.32477194111900715   -0.010111241906407392
-0.04736672764427985   -0.2936290014411008   -0.010844445315348249
-0.03031138424506427   -0.3255526387594103   -0.010330811406487938
-0.04253465806409778   -0.32477194111900715   -0.010111241906407392
-0.030739468421588145   -0.2939302383881909   -0.010598577378534797
-0.04736672764427985   -0.2936290014411008   -0.010844445315348249
-0.041817546156986116   -0.32470020352964934   -0.010447382094514228
-0.030230415245009454   -0.29397446741628   -0.010501368884151749
-0.04674407318880417   -0.2939490136032464   -0.011112602383245638
-0.041817546156986116   -0.32470020352964934   -0.010447382094514228
-0.03031138424506427   -0.3255526387594103   -0.010330811406487938
-0.030230415245009454   -0.29397446741628   -0.010501368884151749
-0.02958561998081125   -0.3256694327352122   -0.01027741052634704
-0.04674407318880417   -0.2939490136032464   -0.011112602383245638
-0.029705155538524746   -0.29418475739448546   -0.010452533071990946
-0.02958561998081125   -0.3256694327352122   -0.01027741052634704
-0.030230415245009454   -0.29397446741628   -0.010501368884151749
-0.04674407318880417   -0.2939490136032464   -0.011112602383245638
-0.02958561998081125   -0.3256694327352122   -0.01027741052634704
-0.04097481828003058   -0.3248959300285892   -0.010834582039169897
-0.041817546156986116   -0.32470020352964934   -0.010447382094514228
-0.04674407318880417   -0.2939490136032464   -0.011112602383245638
-0.02958561998081125   -0.3256694327352122   -0.01027741052634704
-0.041817546156986116   -0.32470020352964934   -0.010447382094514228
-0.030230415245009454   -0.29397446741628   -0.010501368884151749
-0.04674407318880417   -0.2939490136032464   -0.011112602383245638
-0.04097481828003058   -0.3248959300285892   -0.010834582039169897
-0.029705155538524746   -0.29418475739448546   -0.010452533071990946
-0.04612951641955486   -0.29447325360136334   -0.011430140934243598
-0.04097481828003058   -0.3248959300285892   -0.010834582039169897
-0.02958561998081125   -0.3256694327352122   -0.01027741052634704
-0.029705155538524746   -0.29418475739448546   -0.010452533071990946
-0.028918268186905963   -0.3260247127486162   -0.0102840051004717
-0.04612951641955486   -0.29447325360136334   -0.011430140934243598
-0.029180831985173118   -0.29457107849099345   -0.010451390423234381
-0.028918268186905963   -0.3260247127486162   -0.0102840051004717
-0.029705155538524746   -0.29418475739448546   -0.010452533071990946
-0.04612951641955486   -0.29447325360136334   -0.011430140934243598
-0.028918268186905963   -0.3260247127486162   -0.0102840051004717
-0.04021025970207915   -0.3253634727076335   -0.01126956121487586
-0.04097481828003058   -0.3248959300285892   -0.010834582039169897
-0.04612951641955486   -0.29447325360136334   -0.011430140934243598
-0.028918268186905963   -0.3260247127486162   -0.0102840051004717
-0.04097481828003058   -0.3248959300285892   -0.010834582039169897
-0.029705155538524746   -0.29418475739448546   -0.010452533071990946
-0.030739468421588145   -0.2939302383881909   -0.010598577378534797
-0.031047917850954728   -0.32566649300677253   -0.010433756496533029
-0.014186194968290976   -0.29385512410009546   -0.01071986013470785
-0.030230415245009454   -0.29397446741628   -0.010501368884151749
-0.031047917850954728   -0.32566649300677253   -0.010433756496533029
-0.02004766163319524   -0.32614413639281703   -0.010813193124817348
-0.014186194968290976   -0.29385512410009546   -0.01071986013470785
-0.019217212360725787   -0.32598088050072604   -0.01029645960308076
-0.030230415245009454   -0.29397446741628   -0.010501368884151749
-0.013628565353296351   -0.2937987430779057   -0.010318242969615022
-0.019217212360725787   -0.32598088050072604   -0.01029645960308076
-0.014186194968290976   -0.29385512410009546   -0.01071986013470785
-0.030230415245009454   -0.29397446741628   -0.010501368884151749
-0.019217212360725787   -0.32598088050072604   -0.01029645960308076
-0.03031138424506427   -0.3255526387594103   -0.010330811406487938
-0.031047917850954728   -0.32566649300677253   -0.010433756496533029
-0.030230415245009454   -0.29397446741628   -0.010501368884151749
-0.019217212360725787   -0.32598088050072604   -0.01029645960308076
-0.031047917850954728   -0.32566649300677253   -0.010433756496533029
-0.014186194968290976   -0.29385512410009546   -0.01071986013470785
-0.030230415245009454   -0.29397446741628   -0.010501368884151749
-0.03031138424506427   -0.3255526387594103   -0.010330811406487938
-0.013628565353296351   -0.2937987430779057   -0.010318242969615022
-0.029705155538524746   -0.29418475739448546   -0.010452533071990946
-0.03031138424506427   -0.3255526387594103   -0.010330811406487938
-0.019217212360725787   -0.32598088050072604   -0.01029645960308076
-0.013628565353296351   -0.2937987430779057   -0.010318242969615022
-0.01842592885692045   -0.32602001824093363   -0.009823339198126713
-0.029705155538524746   -0.29418475739448546   -0.010452533071990946
-0.013087593774021772   -0.29389230228682395   -0.009968180330566614
-0.01842592885692045   -0.32602001824093363   -0.009823339198126713
-0.013628565353296351   -0.2937987430779057   -0.010318242969615022
-0.029705155538524746   -0.29418475739448546   -0.010452533071990946
-0.01842592885692045   -0.32602001824093363   -0.009823339198126713
-0.02958561998081125   -0.3256694327352122   -0.01027741052634704
-0.03031138424506427   -0.3255526387594103   -0.010330811406487938
-0.029705155538524746   -0.29418475739448546   -0.010452533071990946
-0.01842592885692045   -0.32602001824093363   -0.009823339198126713
-0.03031138424506427   -0.3255526387594103   -0.010330811406487938
-0.013628565353296351   -0.2937987430779057   -0.010318242969615022
-0.029705155538524746   -0.29418475739448546   -0.010452533071990946
-0.02958561998081125   -0.3256694327352122   -0.01027741052634704
-0.013087593774021772   -0.29389230228682395   -0.009968180330566614
-0.029180831985173118   -0.29457107849099345   -0.010451390423234381
-0.02958561998081125   -0.3256694327352122   -0.01027741052634704
-0.01842592885692045   -0.32602001824093363   -0.009823339198126713
-0.013087593774021772   -0.29389230228682395   -0.009968180330566614
-0.017768499486081585   -0.3263017633991877   -0.009421499427947547
-0.029180831985173118   -0.29457107849099345   -0.010451390423234381
-0.012599044184584126   -0.2941579439060449   -0.009665176356993412
-0.017768499486081585   -0.3263017633991877   -0.009421499427947547
-0.013087593774021772   -0.29389230228682395   -0.009968180330566614
-0.029180831985173118   -0.29457107849099345   -0.010451390423234381
-0.017768499486081585   -0.3263017633991877   -0.009421499427947547
-0.028918268186905963   -0.3260247127486162   -0.0102840051004717
-0.02958561998081125   -0.3256694327352122   -0.01027741052634704
-0.029180831985173118   -0.29457107849099345   -0.010451390423234381
-0.017768499486081585   -0.3263017633991877   -0.009421499427947547
-0.02958561998081125   -0.3256694327352122   -0.01027741052634704
-0.013087593774021772   -0.29389230228682395   -0.009968180330566614
-0.014186194968290976   -0.29385512410009546   -0.01071986013470785
-0.02004766163319524   -0.32614413639281703   -0.010813193124817348
0.0031522318759006863   -0.2932515385758902   -0.011017216404831796
-0.013628565353296351   -0.2937987430779057   -0.010318242969615022
-0.02004766163319524   -0.32614413639281703   -0.010813193124817348
-0.008337932181510289   -0.32603988342088736   -0.011258716992977608
0.0031522318759006863   -0.2932515385758902   -0.011017216404831796
-0.007271729241162158   -0.3257842224289765   -0.010346543630963927
-0.013628565353296351   -0.2937987430779057   -0.010318242969615022
0.0038301853781676286   -0.29306711539158775   -0.010312351568115845
-0.007271729241162158   -0.3257842224289765   -0.010346543630963927
0.0031522318759006863   -0.2932515385758902   -0.011017216404831796
-0.013628565353296351   -0.2937987430779057   -0.010318242969615022
-0.007271729241162158   -0.3257842224289765   -0.010346543630963927
-0.019217212360725787   -0.32598088050072604   -0.01029645960308076
-0.02004766163319524   -0.32614413639281703   -0.010813193124817348
-0.013628565353296351   -0.2937987430779057   -0.010318242969615022
-0.007271729241162158   -0.3257842224289765   -0.010346543630963927
-0.02004766163319524   -0.32614413639281703   -0.010813193124817348
0.0031522318759006863   -0.2932515385758902   -0.011017216404831796
-0.013628565353296351   -0.2937987430779057   -0.010318242969615022
-0.019217212360725787   -0.32598088050072604   -0.01029645960308076
0.0038301853781676286   -0.29306711539158775   -0.010312351568115845
-0.013087593774021772   -0.29389230228682395   -0.009968180330566614
-0.019217212360725787   -0.32598088050072604   -0.01029645960308076
-0.007271729241162158   -0.3257842224289765   -0.010346543630963927
0.0038301853781676286   -0.29306711539158775   -0.010312351568115845
-0.006183213930119356   -0.3257381849817428   -0.009481134422722368
-0.013087593774021772   -0.29389230228682395   -0.009968180330566614
0.004543972459283084   -0.2930503625499958   -0.009672893569861719
-0.006183213930119356   -0.3257381849817428   -0.009481134422722368
0.0038301853781676286   -0.29306711539158775   -0.010312351568115845
-0.013087593774021772   -0.29389230228682395   -0.009968180330566614
-0.006183213930119356   -0.3257381849817428   -0.009481134422722368
-0.01842592885692045   -0.32602001824093363   -0.009823339198126713
-0.019217212360725787   -0.32598088050072604   -0.01029645960308076
-0.013087593774021772   -0.29389230228682395   -0.009968180330566614
-0.006183213930119356   -0.3257381849817428   -0.009481134422722368
-0.019217212360725787   -0.32598088050072604   -0.01029645960308076
0.0038301853781676286   -0.29306711539158775   -0.010312351568115845
-0.013087593774021772   -0.29389230228682395   -0.009968180330566614
-0.01842592885692045   -0.32602001824093363   -0.009823339198126713
0.004543972459283084   -0.2930503625499958   -0.009672893569861719
-0.012599044184584126   -0.2941579439060449   -0.009665176356993412
-0.01842592885692045   -0.32602001824093363   -0.009823339198126713
-0.006183213930119356   -0.3257381849817428   -0.009481134422722368
0.004543972459283084   -0.2930503625499958   -0.009672893569861719
-0.005376042156793983   -0.3259476442321492   -0.008695951744523958
-0.012599044184584126   -0.2941579439060449   -0.009665176356993412
0.005066028599005812   -0.2931937478887728   -0.009078497454757422
-0.005376042156793983   -0.3259476442321492   -0.008695951744523958
0.004543972459283084   -0.2930503625499958   -0.009672893569861719
-0.012599044184584126   -0.2941579439060449   -0.009665176356993412
-0.005376042156793983   -0.3259476442321492   -0.008695951744523958
-0.017768499486081585   -0.3263017633991877   -0.009421499427947547
-0.01842592885692045   -0.32602001824093363   -0.009823339198126713
-0.012599044184584126   -0.2941579439060449   -0.009665176356993412
-0.005376042156793983   -0.3259476442321492   -0.008695951744523958
-0.01842592885692045   -0.32602001824093363   -0.009823339198126713
0.004543972459283084   -0.2930503625499958   -0.009672893569861719
0.0031522318759006863   -0.2932515385758902   -0.011017216404831796
-0.008337932181510289   -0.32603988342088736   -0.011258716992977608
0.02165506027067067   -0.2920619635935862   -0.011656225138258777
0.0038301853781676286   -0.29306711539158775   -0.010312351568115845
-0.008337932181510289   -0.32603988342088736   -0.011258716992977608
0.004289187482623004   -0.3249201245652919   -0.012176690209923485
0.02165506027067067   -0.2920619635935862   -0.011656225138258777
0.006762164464170959   -0.3243622000121081   -0.010683727050313695
0.0038301853781676286   -0.29306711539158775   -0.010312351568115845
0.02336682739691405   -0.29170745506916074   -0.010577755683438907
0.006762164464170959   -0.3243622000121081   -0.010683727050313695
0.02165506027067067   -0.2920619635935862   -0.011656225138258777
0.0038301853781676286   -0.29306711539158775   -0.010312351568115845
0.006762164464170959   -0.3243622000121081   -0.010683727050313695
-0.007271729241162158   -0.3257842224289765   -0.010346543630963927
-0.008337932181510289   -0.32603988342088736   -0.011258716992977608
0.0038301853781676286   -0.29306711539158775   -0.010312351568115845
0.006762164464170959   -0.3243622000121081   -0.010683727050313695
-0.008337932181510289   -0.32603988342088736   -0.011258716992977608
0.02165506027067067   -0.2920619635935862   -0.011656225138258777
0.0038301853781676286   -0.29306711539158775   -0.010312351568115845
-0.007271729241162158   -0.3257842224289765   -0.010346543630963927
0.02336682739691405   -0.29170745506916074   -0.010577755683438907
0.004543972459283084   -0.2930503625499958   -0.009672893569861719
-0.007271729241162158   -0.3257842224289765   -0.010346543630963927
0.006762164464170959   -0.3243622000121081   -0.010683727050313695
0.02336682739691405   -0.29170745506916074   -0.010577755683438907
0.008706278480820997   -0.32424843531253483   -0.009282931017348653
0.004543972459283084   -0.2930503625499958   -0.009672893569861719
0.02467888751812363   -0.29164609044822115   -0.009580374722273277
0.008706278480820997   -0.32424843531253483   -0.009282931017348653
0.02336682739691405   -0.29170745506916074   -0.010577755683438907
0.004543972459283084   -0.2930503625499958   -0.009672893569861719
0.008706278480820997   -0.32424843531253483   -0.009282931017348653
-0.006183213930119356   -0.3257381849817428   -0.009481134422722368
-0.007271729241162158   -0.3257842224289765   -0.010346543630963927
0.004543972459283084   -0.2930503625499958   -0.009672893569861719
0.008706278480820997   -0.32424843531253483   -0.009282931017348653
-0.007271729241162158   -0.3257842224289765   -0.010346543630963927
0.02336682739691405   -0.29170745506916074   -0.010577755683438907
0.004543972459283084   -0.2930503625499958   -0.009672893569861719
-0.006183213930119356   -0.3257381849817428   -0.009481134422722368
0.02467888751812363   -0.29164609044822115   -0.009580374722273277
0.005066028599005812   -0.2931937478887728   -0.009078497454757422
-0.006183213930119356   -0.3257381849817428   -0.009481134422722368
0.008706278480820997   -0.32424843531253483   -0.009282931017348653
0.02467888751812363   -0.29164609044822115   -0.009580374722273277
0.010723596194937459   -0.3243402332879901   -0.00800482623300781
0.005066028599005812   -0.2931937478887728   -0.009078497454757422
0.02603592248775807   -0.2917503711413468   -0.008672272684248201
0.010723596194937459   -0.3243402332879901   -0.00800482623300781
0.02467888751812363   -0.29164609044822115   -0.009580374722273277
0.005066028599005812   -0.2931937478887728   -0.009078497454757422
0.010723596194937459   -0.3243402332879901   -0.00800482623300781
-0.005376042156793983   -0.3259476442321492   -0.008695951744523958
-0.006183213930119356   -0.3257381849817428   -0.009481134422722368
0.005066028599005812   -0.2931937478887728   -0.009078497454757422
0.010723596194937459   -0.3243402332879901   -0.00800482623300781
-0.006183213930119356   -0.3257381849817428   -0.009481134422722368
0.02467888751812363   -0.29164609044822115   -0.009580374722273277
-0.05661295389018056   -0.3233994025624638   -0.009698917789217918
-0.041408019311529716   -0.3417033164741879   -0.00853157956457453
-0.04253465806409778   -0.32477194111900715   -0.010111241906407392
-0.05507153884211667   -0.3233600875686452   -0.010605429229425927
-0.041408019311529716   -0.3417033164741879   -0.00853157956457453
-0.03488343445905084   -0.34344156132510717   -0.009579494402722795
-0.04253465806409778   -0.32477194111900715   -0.010111241906407392
-0.03397661506088809   -0.3430956605282808   -0.009936297951768676
-0.05507153884211667   -0.3233600875686452   -0.010605429229425927
-0.041817546156986116   -0.32470020352964934   -0.010447382094514228
-0.03397661506088809   -0.3430956605282808   -0.009936297951768676
-0.04253465806409778   -0.32477194111900715   -0.010111241906407392
-0.05507153884211667   -0.3233600875686452   -0.010605429229425927
-0.03397661506088809   -0.3430956605282808   -0.009936297951768676
-0.0394841294437729   -0.3413139485669711   -0.009619744504891578
-0.041408019311529716   -0.3417033164741879   -0.00853157956457453
-0.05507153884211667   -0.3233600875686452   -0.010605429229425927
-0.03397661506088809   -0.3430956605282808   -0.009936297951768676
-0.041408019311529716   -0.3417033164741879   -0.00853157956457453
-0.04253465806409778   -0.32477194111900715   -0.010111241906407392
-0.05507153884211667   -0.3233600875686452   -0.010605429229425927
-0.0394841294437729   -0.3413139485669711   -0.009619744504891578
-0.041817546156986116   -0.32470020352964934   -0.010447382094514228
-0.05364995249952282   -0.32360221486569696   -0.011583798480319832
-0.0394841294437729   -0.3413139485669711   -0.009619744504891578
-0.03397661506088809   -0.3430956605282808   -0.009936297951768676
-0.041817546156986116   -0.32470020352964934   -0.010447382094514228
-0.03297347263619751   -0.34310952613755524   -0.010296661523844364
-0.05364995249952282   -0.32360221486569696   -0.011583798480319832
-0.04097481828003058   -0.3248959300285892   -0.010834582039169897
-0.03297347263619751   -0.34310952613755524   -0.010296661523844364
-0.041817546156986116   -0.32470020352964934   -0.010447382094514228
-0.05364995249952282   -0.32360221486569696   -0.011583798480319832
-0.03297347263619751   -0.34310952613755524   -0.010296661523844364
-0.03782389943766665   -0.34134363165810083   -0.010703433975760861
-0.0394841294437729   -0.3413139485669711   -0.009619744504891578
-0.05364995249952282   -0.32360221486569696   -0.011583798480319832
-0.03297347263619751   -0.34310952613755524   -0.010296661523844364
-0.0394841294437729   -0.3413139485669711   -0.009619744504891578
-0.041817546156986116   -0.32470020352964934   -0.010447382094514228
-0.05364995249952282   -0.32360221486569696   -0.011583798480319832
-0.03782389943766665   -0.34134363165810083   -0.010703433975760861
-0.04097481828003058   -0.3248959300285892   -0.010834582039169897
-0.05191659596257956   -0.32425119321585083   -0.01262971091833965
-0.03782389943766665   -0.34134363165810083   -0.010703433975760861
-0.03297347263619751   -0.34310952613755524   -0.010296661523844364
-0.04097481828003058   -0.3248959300285892   -0.010834582039169897
-0.03204091124805062   -0.34348467790058007   -0.01066210154518259
-0.05191659596257956   -0.32425119321585083   -0.01262971091833965
-0.04021025970207915   -0.3253634727076335   -0.01126956121487586
-0.03204091124805062   -0.34348467790058007   -0.01066210154518259
-0.04097481828003058   -0.3248959300285892   -0.010834582039169897
-0.05191659596257956   -0.32425119321585083   -0.01262971091833965
-0.03204091124805062   -0.34348467790058007   -0.01066210154518259
-0.03585559418097923   -0.34181608071380243   -0.011810556169763987
-0.03782389943766665   -0.34134363165810083   -0.010703433975760861
-0.05191659596257956   -0.32425119321585083   -0.01262971091833965
-0.03204091124805062   -0.34348467790058007   -0.01066210154518259
-0.03782389943766665   -0.34134363165810083   -0.010703433975760861
-0.04097481828003058   -0.3248959300285892   -0.010834582039169897
-0.04253465806409778   -0.32477194111900715   -0.010111241906407392
-0.03488343445905084   -0.34344156132510717   -0.009579494402722795
-0.031047917850954728   -0.32566649300677253   -0.010433756496533029
-0.041817546156986116   -0.32470020352964934   -0.010447382094514228
-0.03488343445905084   -0.34344156132510717   -0.009579494402722795
-0.030117757910624227   -0.345197738914011   -0.010506457020423755
-0.031047917850954728   -0.32566649300677253   -0.010433756496533029
-0.029159856313034842   -0.3448434515513576   -0.010253102129095578
-0.041817546156986116   -0.32470020352964934   -0.010447382094514228
-0.03031138424506427   -0.3255526387594103   -0.010330811406487938
-0.029159856313034842   -0.3448434515513576   -0.010253102129095578
-0.031047917850954728   -0.32566649300677253   -0.010433756496533029
-0.041817546156986116   -0.32470020352964934   -0.010447382094514228
-0.029159856313034842   -0.3448434515513576   -0.010253102129095578
-0.03397661506088809   -0.3430956605282808   -0.009936297951768676
-0.03488343445905084   -0.34344156132510717   -0.009579494402722795
-0.041817546156986116   -0.32470020352964934   -0.010447382094514228
-0.029159856313034842   -0.3448434515513576   -0.010253102129095578
-0.03488343445905084   -0.34344156132510717   -0.009579494402722795
-0.031047917850954728   -0.32566649300677253   -0.010433756496533029
-0.041817546156986116   -0.32470020352964934   -0.010447382094514228
-0.03397661506088809   -0.3430956605282808   -0.009936297951768676
-0.03031138424506427   -0.3255526387594103   -0.010330811406487938
-0.04097481828003058   -0.3248959300285892   -0.010834582039169897
-0.03397661506088809   -0.3430956605282808   -0.009936297951768676
-0.029159856313034842   -0.3448434515513576   -0.010253102129095578
-0.03031138424506427   -0.3255526387594103   -0.010330811406487938
-0.028234237658403626   -0.3448346952664472   -0.009996515993291257
-0.04097481828003058   -0.3248959300285892   -0.010834582039169897
-0.02958561998081125   -0.3256694327352122   -0.01027741052634704
-0.028234237658403626   -0.3448346952664472   -0.009996515993291257
-0.03031138424506427   -0.3255526387594103   -0.010330811406487938
-0.04097481828003058   -0.3248959300285892   -0.010834582039169897
-0.028234237658403626   -0.3448346952664472   -0.009996515993291257
-0.03297347263619751   -0.34310952613755524   -0.010296661523844364
-0.03397661506088809   -0.3430956605282808   -0.009936297951768676
-0.04097481828003058   -0.3248959300285892   -0.010834582039169897
-0.028234237658403626   -0.3448346952664472   -0.009996515993291257
-0.03397661506088809   -0.3430956605282808   -0.009936297951768676
-0.03031138424506427   -0.3255526387594103   -0.010330811406487938
-0.04097481828003058   -0.3248959300285892   -0.010834582039169897
-0.03297347263619751   -0.34310952613755524   -0.010296661523844364
-0.02958561998081125   -0.3256694327352122   -0.01027741052634704
-0.04021025970207915   -0.3253634727076335   -0.01126956121487586
-0.03297347263619751   -0.34310952613755524   -0.010296661523844364
-0.028234237658403626   -0.3448346952664472   -0.009996515993291257
-0.02958561998081125   -0.3256694327352122   -0.01027741052634704
-0.027268831810173956   -0.34516410826182886   -0.009749865855295418
-0.04021025970207915   -0.3253634727076335   -0.01126956121487586
-0.028918268186905963   -0.3260247127486162   -0.0102840051004717
-0.027268831810173956   -0.34516410826182886   -0.009749865855295418
-0.02958561998081125   -0.3256694327352122   -0.01027741052634704
-0.04021025970207915   -0.3253634727076335   -0.01126956121487586
-0.027268831810173956   -0.34516410826182886   -0.009749865855295418
-0.03204091124805062   -0.34348467790058007   -0.01066210154518259
-0.03297347263619751   -0.34310952613755524   -0.010296661523844364
-0.04021025970207915   -0.3253634727076335   -0.01126956121487586
-0.027268831810173956   -0.34516410826182886   -0.009749865855295418
-0.03297347263619751   -0.34310952613755524   -0.010296661523844364
-0.02958561998081125   -0.3256694327352122   -0.01027741052634704
-0.031047917850954728   -0.32566649300677253   -0.010433756496533029
-0.030117757910624227   -0.345197738914011   -0.010506457020423755
-0.02004766163319524   -0.32614413639281703   -0.010813193124817348
-0.03031138424506427   -0.3255526387594103   -0.010330811406487938
-0.030117757910624227   -0.345197738914011   -0.010506457020423755
-0.025770001945073843   -0.34732938557796406   -0.011525574539301317
-0.02004766163319524   -0.32614413639281703   -0.010813193124817348
-0.024594972445704487   -0.347023205976453   -0.01062758563908573
-0.03031138424506427   -0.3255526387594103   -0.010330811406487938
-0.019217212360725787   -0.32598088050072604   -0.01029645960308076
-0.024594972445704487   -0.347023205976453   -0.01062758563908573
-0.02004766163319524   -0.32614413639281703   -0.010813193124817348
-0.03031138424506427   -0.3255526387594103   -0.010330811406487938
-0.024594972445704487   -0.347023205976453   -0.01062758563908573
-0.029159856313034842   -0.3448434515513576   -0.010253102129095578
-0.030117757910624227   -0.345197738914011   -0.010506457020423755
-0.03031138424506427   -0.3255526387594103   -0.010330811406487938
-0.024594972445704487   -0.347023205976453   -0.01062758563908573
-0.030117757910624227   -0.345197738914011   -0.010506457020423755
-0.02004766163319524   -0.32614413639281703   -0.010813193124817348
-0.03031138424506427   -0.3255526387594103   -0.010330811406487938
-0.029159856313034842   -0.3448434515513576   -0.010253102129095578
-0.019217212360725787   -0.32598088050072604   -0.01029645960308076
-0.02958561998081125   -0.3256694327352122   -0.01027741052634704
-0.029159856313034842   -0.3448434515513576   -0.010253102129095578
-0.024594972445704487   -0.347023205976453   -0.01062758563908573
-0.019217212360725787   -0.32598088050072604   -0.01029645960308076
-0.02350703489637648   -0.3470054174947498   -0.009733128247761182
-0.02958561998081125   -0.3256694327352122   -0.01027741052634704
-0.01842592885692045   -0.32602001824093363   -0.009823339198126713
-0.02350703489637648   -0.3470054174947498   -0.009733128247761182
-0.019217212360725787   -0.32598088050072604   -0.01029645960308076
-0.02958561998081125   -0.3256694327352122   -0.01027741052634704
-0.02350703489637648   -0.3470054174947498   -0.009733128247761182
-0.028234237658403626   -0.3448346952664472   -0.009996515993291257
-0.029159856313034842   -0.3448434515513576   -0.010253102129095578
-0.02958561998081125   -0.3256694327352122   -0.01027741052634704
-0.02350703489637648   -0.3470054174947498   -0.009733128247761182
-0.029159856313034842   -0.3448434515513576   -0.010253102129095578
-0.019217212360725787   -0.32598088050072604   -0.01029645960308076
-0.02958561998081125   -0.3256694327352122   -0.01027741052634704
-0.028234237658403626   -0.3448346952664472   -0.009996515993291257
-0.01842592885692045   -0.32602001824093363   -0.009823339198126713
-0.028918268186905963   -0.3260247127486162   -0.0102840051004717
-0.028234237658403626   -0.3448346952664472   -0.009996515993291257
-0.02350703489637648   -0.3470054174947498   -0.009733128247761182
-0.01842592885692045   -0.32602001824093363   -0.009823339198126713
-0.02233794278647675   -0.34726007816700377   -0.008835833763108186
-0.028918268186905963   -0.3260247127486162   -0.0102840051004717
-0.017768499486081585   -0.3263017633991877   -0.009421499427947547
-0.02233794278647675   -0.34726007816700377   -0.008835833763108186
-0.01842592885692045   -0.32602001824093363   -0.009823339198126713
-0.028918268186905963   -0.3260247127486162   -0.0102840051004717
-0.02233794278647675   -0.34726007816700377   -0.008835833763108186
-0.027268831810173956   -0.34516410826182886   -0.009749865855295418
-0.028234237658403626   -0.3448346952664472   -0.009996515993291257
-0.028918268186905963   -0.3260247127486162   -0.0102840051004717
-0.02233794278647675   -0.34726007816700377   -0.008835833763108186
-0.028234237658403626   -0.3448346952664472   -0.009996515993291257
-0.01842592885692045   -0.32602001824093363   -0.009823339198126713
-0.02004766163319524   -0.32614413639281703   -0.010813193124817348
-0.025770001945073843   -0.34732938557796406   -0.011525574539301317
-0.008337932181510289   -0.32603988342088736   -0.011258716992977608
-0.019217212360725787   -0.32598088050072604   -0.01029645960308076
-0.025770001945073843   -0.34732938557796406   -0.011525574539301317
-0.02149107661818535   -0.35000000000000003   -0.012302014867100553
-0.008337932181510289   -0.32603988342088736   -0.011258716992977608
-0.020015033111281926   -0.35000000000000003   -0.010943246363946621
-0.019217212360725787   -0.32598088050072604   -0.01029645960308076
-0.007271729241162158   -0.3257842224289765   -0.010346543630963927
-0.020015033111281926   -0.35000000000000003   -0.010943246363946621
-0.008337932181510289   -0.32603988342088736   -0.011258716992977608
-0.019217212360725787   -0.32598088050072604   -0.01029645960308076
-0.020015033111281926   -0.35000000000000003   -0.010943246363946621
-0.024594972445704487   -0.347023205976453   -0.01062758563908573
-0.025770001945073843   -0.34732938557796406   -0.011525574539301317
-0.019217212360725787   -0.32598088050072604   -0.01029645960308076
-0.020015033111281926   -0.35000000000000003   -0.010943246363946621
-0.025770001945073843   -0.34732938557796406   -0.011525574539301317
-0.008337932181510289   -0.32603988342088736   -0.011258716992977608
-0.019217212360725787   -0.32598088050072604   -0.01029645960308076
-0.024594972445704487   -0.347023205976453   -0.01062758563908573
-0.007271729241162158   -0.3257842224289765   -0.010346543630963927
-0.01842592885692045   -0.32602001824093363   -0.009823339198126713
-0.024594972445704487   -0.347023205976453   -0.01062758563908573
-0.020015033111281926   -0.35000000000000003   -0.010943246363946621
-0.007271729241162158   -0.3257842224289765   -0.010346543630963927
-0.018533461496950007   -0.35000000000000003   -0.009568313415173581
-0.01842592885692045   -0.32602001824093363   -0.009823339198126713
-0.006183213930119356   -0.3257381849817428   -0.009481134422722368
-0.018533461496950007   -0.35000000000000003   -0.009568313415173581
-0.007271729241162158   -0.3257842224289765   -0.010346543630963927
-0.01842592885692045   -0.32602001824093363   -0.009823339198126713
-0.018533461496950007   -0.35000000000000003   -0.009568313415173581
-0.02350703489637648   -0.3470054174947498   -0.009733128247761182
-0.024594972445704487   -0.347023205976453   -0.01062758563908573
-0.01842592885692045   -0.32602001824093363   -0.009823339198126713
-0.018533461496950007   -0.35000000000000003   -0.009568313415173581
-0.024594972445704487   -0.347023205976453   -0.01062758563908573
-0.007271729241162158   -0.3257842224289765   -0.010346543630963927
-0.01842592885692045   -0.32602001824093363   -0.009823339198126713
-0.02350703489637648   -0.3470054174947498   -0.009733128247761182
-0.006183213930119356   -0.3257381849817428   -0.009481134422722368
-0.017768499486081585   -0.3263017633991877   -0.009421499427947547
-0.02350703489637648   -0.3470054174947498   -0.009733128247761182
-0.018533461496950007   -0.35000000000000003   -0.009568313415173581
-0.006183213930119356   -0.3257381849817428   -0.009481134422722368
-0.017083324259385302   -0.35000000000000003   -0.00821142962599684
-0.017768499486081585   -0.3263017633991877   -0.009421499427947547
-0.005376042156793983   -0.3259476442321492   -0.008695951744523958
-0.017083324259385302   -0.35000000000000003   -0.00821142962599684
-0.006183213930119356   -0.3257381849817428   -0.009481134422722368
-0.017768499486081585   -0.3263017633991877   -0.009421499427947547
-0.017083324259385302   -0.35000000000000003   -0.00821142962599684
-0.02233794278647675   -0.34726007816700377   -0.008835833763108186
-0.02350703489637648   -0.3470054174947498   -0.009733128247761182
-0.017768499486081585   -0.3263017633991877   -0.009421499427947547
-0.017083324259385302   -0.35000000000000003   -0.00821142962599684
-0.02350703489637648   -0.3470054174947498   -0.009733128247761182
-0.006183213930119356   -0.3257381849817428   -0.009481134422722368
-0.008337932181510289   -0.32603988342088736   -0.011258716992977608
-0.02149107661818535   -0.35000000000000003   -0.012302014867100553
0.004289187482623004   -0.3249201245652919   -0.012176690209923485
-0.007271729241162158   -0.3257842224289765   -0.010346543630963927
-0.02149107661818535   -0.35000000000000003   -0.012302014867100553
-0.01840347682575287   -0.35000000000000003   -0.01324240823860403
0.004289187482623004   -0.3249201245652919   -0.012176690209923485
-0.015329314942574305   -0.35000000000000003   -0.011279382071405797
-0.007271729241162158   -0.3257842224289765   -0.010346543630963927
0.006762164464170959   -0.3243622000121081   -0.010683727050313695
-0.015329314942574305   -0.35000000000000003   -0.011279382071405797
0.004289187482623004   -0.3249201245652919   -0.012176690209923485
-0.007271729241162158   -0.3257842224289765   -0.010346543630963927
-0.015329314942574305   -0.35000000000000003   -0.011279382071405797
-0.020015033111281926   -0.35000000000000003   -0.010943246363946621
-0.02149107661818535   -0.35000000000000003   -0.012302014867100553
-0.007271729241162158   -0.3257842224289765   -0.010346543630963927
-0.015329314942574305   -0.35000000000000003   -0.011279382071405797
-0.02149107661818535   -0.35000000000000003   -0.012302014867100553
0.004289187482623004   -0.3249201245652919   -0.012176690209923485
-0.007271729241162158   -0.3257842224289765   -0.010346543630963927
-0.020015033111281926   -0.35000000000000003   -0.010943246363946621
0.006762164464170959   -0.3243622000121081   -0.010683727050313695
-0.006183213930119356   -0.3257381849817428   -0.009481134422722368
-0.020015033111281926   -0.35000000000000003   -0.010943246363946621
-0.015329314942574305   -0.35000000000000003   -0.011279382071405797
0.006762164464170959   -0.3243622000121081   -0.010683727050313695
-0.012877594319712068   -0.35000000000000003   -0.009401349401612526
-0.006183213930119356   -0.3257381849817428   -0.009481134422722368
0.008706278480820997   -0.32424843531253483   -0.009282931017348653
-0.012877594319712068   -0.35000000000000003   -0.009401349401612526
0.006762164464170959   -0.3243622000121081   -0.010683727050313695
-0.006183213930119356   -0.3257381849817428   -0.009481134422722368
-0.012877594319712068   -0.35000000000000003   -0.009401349401612526
-0.018533461496950007   -0.35000000000000003   -0.009568313415173581
-0.020015033111281926   -0.35000000000000003   -0.010943246363946621
-0.006183213930119356   -0.3257381849817428   -0.009481134422722368
-0.012877594319712068   -0.35000000000000003   -0.009401349401612526
-0.020015033111281926   -0.35000000000000003   -0.010943246363946621
0.006762164464170959   -0.3243622000121081   -0.010683727050313695
-0.006183213930119356   -0.3257381849817428   -0.009481134422722368
-0.018533461496950007   -0.35000000000000003   -0.009568313415173581
0.008706278480820997   -0.32424843531253483   -0.009282931017348653
-0.005376042156793983   -0.3259476442321492   -0.008695951744523958
-0.018533461496950007   -0.35000000000000003   -0.009568313415173581
-0.012877594319712068   -0.35000000000000003   -0.009401349401612526
0.008706278480820997   -0.32424843531253483   -0.009282931017348653
-0.009848484057630516   -0.35000000000000003   -0.007451873514567605
-0.005376042156793983   -0.3259476442321492   -0.008695951744523958
0.010723596194937459   -0.3243402332879901   -0.00800482623300781
-0.009848484057630516   -0.35000000000000003   -0.007451873514567605
0.008706278480820997   -0.32424843531253483   -0.009282931017348653
-0.005376042156793983   -0.3259476442321492   -0.008695951744523958
-0.009848484057630516   -0.35000000000000003   -0.007451873514567605
-0.017083324259385302   -0.35000000000000003   -0.00821142962599684
-0.018533461496950007   -0.35000000000000003   -0.009568313415173581
-0.005376042156793983   -0.3259476442321492   -0.008695951744523958
-0.009848484057630516   -0.35000000000000003   -0.007451873514567605
-0.018533461496950007   -0.35000000000000003   -0.009568313415173581
0.008706278480820997   -0.32424843531253483   -0.009282931017348653
-0.041408019311529716   -0.3417033164741879   -0.00853157956457453
-0.024585509315347934   -0.34252046759818516   -0.007299989079264701
-0.03488343445905084   -0.34344156132510717   -0.009579494402722795
-0.0394841294437729   -0.3413139485669711   -0.009619744504891578
-0.024585509315347934   -0.34252046759818516   -0.007299989079264701
-0.02614521758123707   -0.34385524479021135   -0.008648935459752843
-0.03488343445905084   -0.34344156132510717   -0.009579494402722795
-0.02546029586982954   -0.34338342085757445   -0.00913739913554698
-0.0394841294437729   -0.3413139485669711   -0.009619744504891578
-0.03397661506088809   -0.3430956605282808   -0.009936297951768676
-0.02546029586982954   -0.34338342085757445   -0.00913739913554698
-0.03488343445905084   -0.34344156132510717   -0.009579494402722795
-0.0394841294437729   -0.3413139485669711   -0.009619744504891578
-0.02546029586982954   -0.34338342085757445   -0.00913739913554698
-0.02284440329878823   -0.34191500777210043   -0.008442947526691242
-0.024585509315347934   -0.34252046759818516   -0.007299989079264701
-0.0394841294437729   -0.3413139485669711   -0.009619744504891578
-0.02546029586982954   -0.34338342085757445   -0.00913739913554698
-0.024585509315347934   -0.34252046759818516   -0.007299989079264701
-0.03488343445905084   -0.34344156132510717   -0.009579494402722795
-0.0394841294437729   -0.3413139485669711   -0.009619744504891578
-0.02284440329878823   -0.34191500777210043   -0.008442947526691242
-0.03397661506088809   -0.3430956605282808   -0.009936297951768676
-0.03782389943766665   -0.34134363165810083   -0.010703433975760861
-0.02284440329878823   -0.34191500777210043   -0.008442947526691242
-0.02546029586982954   -0.34338342085757445   -0.00913739913554698
-0.03397661506088809   -0.3430956605282808   -0.009936297951768676
-0.024657694399360185   -0.3432059691561837   -0.009587525780511825
-0.03782389943766665   -0.34134363165810083   -0.010703433975760861
-0.03297347263619751   -0.34310952613755524   -0.010296661523844364
-0.024657694399360185   -0.3432059691561837   -0.009587525780511825
-0.03397661506088809   -0.3430956605282808   -0.009936297951768676
-0.03782389943766665   -0.34134363165810083   -0.010703433975760861
-0.024657694399360185   -0.3432059691561837   -0.009587525780511825
-0.021394826095485615   -0.34172490826283214   -0.009538302448394027
-0.02284440329878823   -0.34191500777210043   -0.008442947526691242
-0.03782389943766665   -0.34134363165810083   -0.010703433975760861
-0.024657694399360185   -0.3432059691561837   -0.009587525780511825
-0.02284440329878823   -0.34191500777210043   -0.008442947526691242
-0.03397661506088809   -0.3430956605282808   -0.009936297951768676
-0.03782389943766665   -0.34134363165810083   -0.010703433975760861
-0.021394826095485615   -0.34172490826283214   -0.009538302448394027
-0.03297347263619751   -0.34310952613755524   -0.010296661523844364
-0.03585559418097923   -0.34181608071380243   -0.011810556169763987
-0.021394826095485615   -0.34172490826283214   -0.009538302448394027
-0.024657694399360185   -0.3432059691561837   -0.009587525780511825
-0.03297347263619751   -0.34310952613755524   -0.010296661523844364
-0.02396969410270451   -0.34332530578243037   -0.009996904689903042
-0.03585559418097923   -0.34181608071380243   -0.011810556169763987
-0.03204091124805062   -0.34348467790058007   -0.01066210154518259
-0.02396969410270451   -0.34332530578243037   -0.009996904689903042
-0.03297347263619751   -0.34310952613755524   -0.010296661523844364
-0.03585559418097923   -0.34181608071380243   -0.011810556169763987
-0.02396969410270451   -0.34332530578243037   -0.009996904689903042
-0.019756508424937112   -0.34187395453158936   -0.010581070865194967
-0.021394826095485615   -0.34172490826283214   -0.009538302448394027
-0.03585559418097923   -0.34181608071380243   -0.011810556169763987
-0.02396969410270451   -0.34332530578243037   -0.009996904689903042
-0.021394826095485615   -0.34172490826283214   -0.009538302448394027
-0.03297347263619751   -0.34310952613755524   -0.010296661523844364
-0.03488343445905084   -0.34344156132510717   -0.009579494402722795
-0.02614521758123707   -0.34385524479021135   -0.008648935459752843
-0.030117757910624227   -0.345197738914011   -0.010506457020423755
-0.03397661506088809   -0.3430956605282808   -0.009936297951768676
-0.02614521758123707   -0.34385524479021135   -0.008648935459752843
-0.028227872375284055   -0.34468592905117124   -0.009728312055001211
-0.030117757910624227   -0.345197738914011   -0.010506457020423755
-0.027621199955897954   -0.34426485174767424   -0.009741878445108423
-0.03397661506088809   -0.3430956605282808   -0.009936297951768676
-0.029159856313034842   -0.3448434515513576   -0.010253102129095578
-0.027621199955897954   -0.34426485174767424   -0.009741878445108423
-0.030117757910624227   -0.345197738914011   -0.010506457020423755
-0.03397661506088809   -0.3430956605282808   -0.009936297951768676
-0.027621199955897954   -0.34426485174767424   -0.009741878445108423
-0.02546029586982954   -0.34338342085757445   -0.00913739913554698
-0.02614521758123707   -0.34385524479021135   -0.008648935459752843
-0.03397661506088809   -0.3430956605282808   -0.009936297951768676
-0.027621199955897954   -0.34426485174767424   -0.009741878445108423
-0.02614521758123707   -0.34385524479021135   -0.008648935459752843
-0.030117757910624227   -0.345197738914011   -0.010506457020423755
-0.03397661506088809   -0.3430956605282808   -0.009936297951768676
-0.02546029586982954   -0.34338342085757445   -0.00913739913554698
-0.029159856313034842   -0.3448434515513576   -0.010253102129095578
-0.03297347263619751   -0.34310952613755524   -0.010296661523844364
-0.02546029586982954   -0.34338342085757445   -0.00913739913554698
-0.027621199955897954   -0.34426485174767424   -0.009741878445108423
-0.029159856313034842   -0.3448434515513576   -0.010253102129095578
-0.02694573216420974   -0.34411043087542087   -0.00970573460184653
-0.03297347263619751   -0.34310952613755524   -0.010296661523844364
-0.028234237658403626   -0.3448346952664472   -0.009996515993291257
-0.02694573216420974   -0.34411043087542087   -0.00970573460184653
-0.029159856313034842   -0.3448434515513576   -0.010253102129095578
-0.03297347263619751   -0.34310952613755524   -0.010296661523844364
-0.02694573216420974   -0.34411043087542087   -0.00970573460184653
-0.024657694399360185   -0.3432059691561837   -0.009587525780511825
-0.02546029586982954   -0.34338342085757445   -0.00913739913554698
-0.03297347263619751   -0.34310952613755524   -0.010296661523844364
-0.02694573216420974   -0.34411043087542087   -0.00970573460184653
-0.02546029586982954   -0.34338342085757445   -0.00913739913554698
-0.029159856313034842   -0.3448434515513576   -0.010253102129095578
-0.03297347263619751   -0.34310952613755524   -0.010296661523844364
-0.024657694399360185   -0.3432059691561837   -0.009587525780511825
-0.028234237658403626   -0.3448346952664472   -0.009996515993291257
-0.03204091124805062   -0.34348467790058007   -0.01066210154518259
-0.024657694399360185   -0.3432059691561837   -0.009587525780511825
-0.02694573216420974   -0.34411043087542087   -0.00970573460184653
-0.028234237658403626   -0.3448346952664472   -0.009996515993291257
-0.02625872463661923   -0.3442102018075674   -0.009630596201370266
-0.03204091124805062   -0.34348467790058007   -0.01066210154518259
-0.027268831810173956   -0.34516410826182886   -0.009749865855295418
-0.02625872463661923   -0.3442102018075674   -0.009630596201370266
-0.028234237658403626   -0.3448346952664472   -0.009996515993291257
-0.03204091124805062   -0.34348467790058007   -0.01066210154518259
-0.02625872463661923   -0.3442102018075674   -0.009630596201370266
-0.02396969410270451   -0.34332530578243037   -0.009996904689903042
-0.024657694399360185   -0.3432059691561837   -0.009587525780511825
-0.03204091124805062   -0.34348467790058007   -0.01066210154518259
-0.02625872463661923   -0.3442102018075674   -0.009630596201370266
-0.024657694399360185   -0.3432059691561837   -0.009587525780511825
-0.028234237658403626   -0.3448346952664472   -0.009996515993291257
-0.030117757910624227   -0.345197738914011   -0.010506457020423755
-0.028227872375284055   -0.34468592905117124   -0.009728312055001211
-0.025770001945073843   -0.34732938557796406   -0.011525574539301317
-0.029159856313034842   -0.3448434515513576   -0.010253102129095578
-0.028227872375284055   -0.34468592905117124   -0.009728312055001211
-0.030456754597655195   -0.34504350915515575   -0.010789788035823181
-0.025770001945073843   -0.34732938557796406   -0.011525574539301317
-0.02982833924008549   -0.34464269974701317   -0.010346785012790106
-0.029159856313034842   -0.3448434515513576   -0.010253102129095578
-0.024594972445704487   -0.347023205976453   -0.01062758563908573
-0.02982833924008549   -0.34464269974701317   -0.010346785012790106
-0.025770001945073843   -0.34732938557796406   -0.011525574539301317
-0.029159856313034842   -0.3448434515513576   -0.010253102129095578
-0.02982833924008549   -0.34464269974701317   -0.010346785012790106
-0.027621199955897954   -0.34426485174767424   -0.009741878445108423
-0.028227872375284055   -0.34468592905117124   -0.009728312055001211
-0.029159856313034842   -0.3448434515513576   -0.010253102129095578
-0.02982833924008549   -0.34464269974701317   -0.010346785012790106
-0.028227872375284055   -0.34468592905117124   -0.009728312055001211
-0.025770001945073843   -0.34732938557796406   -0.011525574539301317
-0.029159856313034842   -0.3448434515513576   -0.010253102129095578
-0.027621199955897954   -0.34426485174767424   -0.009741878445108423
-0.024594972445704487   -0.347023205976453   -0.01062758563908573
-0.028234237658403626   -0.3448346952664472   -0.009996515993291257
-0.027621199955897954   -0.34426485174767424   -0.009741878445108423
-0.02982833924008549   -0.34464269974701317   -0.010346785012790106
-0.024594972445704487   -0.347023205976453   -0.01062758563908573
-0.02907397515736036   -0.34451297764284156   -0.009843259752555676
-0.028234237658403626   -0.3448346952664472   -0.009996515993291257
-0.02350703489637648   -0.3470054174947498   -0.009733128247761182
-0.02907397515736036   -0.34451297764284156   -0.009843259752555676
-0.024594972445704487   -0.347023205976453   -0.01062758563908573
-0.028234237658403626   -0.3448346952664472   -0.009996515993291257
-0.02907397515736036   -0.34451297764284156   -0.009843259752555676
-0.02694573216420974   -0.34411043087542087   -0.00970573460184653
-0.027621199955897954   -0.34426485174767424   -0.009741878445108423
-0.028234237658403626   -0.3448346952664472   -0.009996515993291257
-0.02907397515736036   -0.34451297764284156   -0.009843259752555676
-0.027621199955897954   -0.34426485174767424   -0.009741878445108423
-0.024594972445704487   -0.347023205976453   -0.01062758563908573
-0.028234237658403626   -0.3448346952664472   -0.009996515993291257
-0.02694573216420974   -0.34411043087542087   -0.00970573460184653
-0.02350703489637648   -0.3470054174947498   -0.009733128247761182
-0.027268831810173956   -0.34516410826182886   -0.009749865855295418
-0.02694573216420974   -0.34411043087542087   -0.00970573460184653
-0.02907397515736036   -0.34451297764284156   -0.009843259752555676
-0.02350703489637648   -0.3470054174947498   -0.009733128247761182
-0.02829783087071799   -0.3446110428519714   -0.009306585008824064
-0.027268831810173956   -0.34516410826182886   -0.009749865855295418
-0.02233794278647675   -0.34726007816700377   -0.008835833763108186
-0.02829783087071799   -0.3446110428519714   -0.009306585008824064
-0.02350703489637648   -0.3470054174947498   -0.009733128247761182
-0.027268831810173956   -0.34516410826182886   -0.009749865855295418
-0.02829783087071799   -0.3446110428519714   -0.009306585008824064
-0.02625872463661923   -0.3442102018075674   -0.009630596201370266
-0.02694573216420974   -0.34411043087542087   -0.00970573460184653
-0.027268831810173956   -0.34516410826182886   -0.009749865855295418
-0.02829783087071799   -0.3446110428519714   -0.009306585008824064
-0.02694573216420974   -0.34411043087542087   -0.00970573460184653
-0.02350703489637648   -0.3470054174947498   -0.009733128247761182
-0.025770001945073843   -0.34732938557796406   -0.011525574539301317
-0.030456754597655195   -0.34504350915515575   -0.010789788035823181
-0.02149107661818535   -0.35000000000000003   -0.012302014867100553
-0.024594972445704487   -0.347023205976453   -0.01062758563908573
-0.030456754597655195   -0.34504350915515575   -0.010789788035823181
-0.03368231929881415   -0.34468262455018883   -0.011795989048533248
-0.02149107661818535   -0.35000000000000003   -0.012302014867100553
-0.032861198424797726   -0.34430551027724343   -0.010918825385099086
-0.024594972445704487   -0.347023205976453   -0.01062758563908573
-0.020015033111281926   -0.35000000000000003   -0.010943246363946621
-0.032861198424797726   -0.34430551027724343   -0.010918825385099086
-0.02149107661818535   -0.35000000000000003   -0.012302014867100553
-0.024594972445704487   -0.347023205976453   -0.01062758563908573
-0.032861198424797726   -0.34430551027724343   -0.010918825385099086
-0.02982833924008549   -0.34464269974701317   -0.010346785012790106
-0.030456754597655195   -0.34504350915515575   -0.010789788035823181
-0.024594972445704487   -0.347023205976453   -0.01062758563908573
-0.032861198424797726   -0.34430551027724343   -0.010918825385099086
-0.030456754597655195   -0.34504350915515575   -0.010789788035823181
-0.02149107661818535   -0.35000000000000003   -0.012302014867100553
-0.024594972445704487   -0.347023205976453   -0.01062758563908573
-0.02982833924008549   -0.34464269974701317   -0.010346785012790106
-0.020015033111281926   -0.35000000000000003   -0.010943246363946621
-0.02350703489637648   -0.3470054174947498   -0.009733128247761182
-0.02982833924008549   -0.34464269974701317   -0.010346785012790106
-0.032861198424797726   -0.34430551027724343   -0.010918825385099086
-0.020015033111281926   -0.35000000000000003   -0.010943246363946621
-0.03177919454472054   -0.34421797569553536   -0.009974486335473343
-0.02350703489637648   -0.3470054174947498   -0.009733128247761182
-0.018533461496950007   -0.35000000000000003   -0.009568313415173581
-0.03177919454472054   -0.34421797569553536   -0.009974486335473343
-0.020015033111281926   -0.35000000000000003   -0.010943246363946621
-0.02350703489637648   -0.3470054174947498   -0.009733128247761182
-0.03177919454472054   -0.34421797569553536   -0.009974486335473343
-0.02907397515736036   -0.34451297764284156   -0.009843259752555676
-0.02982833924008549   -0.34464269974701317   -0.010346785012790106
-0.02350703489637648   -0.3470054174947498   -0.009733128247761182
-0.03177919454472054   -0.34421797569553536   -0.009974486335473343
-0.02982833924008549   -0.34464269974701317   -0.010346785012790106
-0.020015033111281926   -0.35000000000000003   -0.010943246363946621
-0.02350703489637648   -0.3470054174947498   -0.009733128247761182
-0.02907397515736036   -0.34451297764284156   -0.009843259752555676
-0.018533461496950007   -0.35000000000000003   -0.009568313415173581
-0.02233794278647675   -0.34726007816700377   -0.008835833763108186
-0.02907397515736036   -0.34451297764284156   -0.009843259752555676
-0.03177919454472054   -0.34421797569553536   -0.009974486335473343
-0.018533461496950007   -0.35000000000000003   -0.009568313415173581
-0.030759128941127523   -0.3443636128885517   -0.008993196821976085
-0.02233794278647675   -0.34726007816700377   -0.008835833763108186
-0.017083324259385302   -0.35000000000000003   -0.00821142962599684
-0.030759128941127523   -0.3443636128885517   -0.008993196821976085
-0.018533461496950007   -0.35000000000000003   -0.009568313415173581
-0.02233794278647675   -0.34726007816700377   -0.008835833763108186
-0.030759128941127523   -0.3443636128885517   -0.008993196821976085
-0.02829783087071799   -0.3446110428519714   -0.009306585008824064
-0.02907397515736036   -0.34451297764284156   -0.009843259752555676
-0.02233794278647675   -0.34726007816700377   -0.008835833763108186
-0.030759128941127523   -0.3443636128885517   -0.008993196821976085
-0.02907397515736036   -0.34451297764284156   -0.009843259752555676
-0.018533461496950007   -0.35000000000000003   -0.009568313415173581
-0.02149107661818535   -0.35000000000000003   -0.012302014867100553
-0.03368231929881415   -0.34468262455018883   -0.011795989048533248
-0.01840347682575287   -0.35000000000000003   -0.01324240823860403
-0.020015033111281926   -0.35000000000000003   -0.010943246363946621
-0.03368231929881415   -0.34468262455018883   -0.011795989048533248
-0.03992088391892878   -0.3429929765556371   -0.012858506916761195
-0.01840347682575287   -0.35000000000000003   -0.01324240823860403
-0.03775358418788077   -0.34267734171281283   -0.011419086708256346
-0.020015033111281926   -0.35000000000000003   -0.010943246363946621
-0.015329314942574305   -0.35000000000000003   -0.011279382071405797
-0.03775358418788077   -0.34267734171281283   -0.011419086708256346
-0.01840347682575287   -0.35000000000000003   -0.01324240823860403
-0.020015033111281926   -0.35000000000000003   -0.010943246363946621
-0.03775358418788077   -0.34267734171281283   -0.011419086708256346
-0.032861198424797726   -0.34430551027724343   -0.010918825385099086
-0.03368231929881415   -0.34468262455018883   -0.011795989048533248
-0.020015033111281926   -0.35000000000000003   -0.010943246363946621
-0.03775358418788077   -0.34267734171281283   -0.011419086708256346
-0.03368231929881415   -0.34468262455018883   -0.011795989048533248
-0.01840347682575287   -0.35000000000000003   -0.01324240823860403
-0.020015033111281926   -0.35000000000000003   -0.010943246363946621
-0.032861198424797726   -0.34430551027724343   -0.010918825385099086
-0.015329314942574305   -0.35000000000000003   -0.011279382071405797
-0.018533461496950007   -0.35000000000000003   -0.009568313415173581
-0.032861198424797726   -0.34430551027724343   -0.010918825385099086
-0.03775358418788077   -0.34267734171281283   -0.011419086708256346
-0.015329314942574305   -0.35000000000000003   -0.011279382071405797
-0.035759037653677335   -0.34263253130062454   -0.009881196581429172
-0.018533461496950007   -0.35000000000000003   -0.009568313415173581
-0.012877594319712068   -0.35000000000000003   -0.009401349401612526
-0.035759037653677335   -0.34263253130062454   -0.009881196581429172
-0.015329314942574305   -0.35000000000000003   -0.011279382071405797
-0.018533461496950007   -0.35000000000000003   -0.009568313415173581
-0.035759037653677335   -0.34263253130062454   -0.009881196581429172
-0.03177919454472054   -0.34421797569553536   -0.009974486335473343
-0.032861198424797726   -0.34430551027724343   -0.010918825385099086
-0.018533461496950007   -0.35000000000000003   -0.009568313415173581
-0.035759037653677335   -0.34263253130062454   -0.009881196581429172
-0.032861198424797726   -0.34430551027724343   -0.010918825385099086
-0.015329314942574305   -0.35000000000000003   -0.011279382071405797
-0.018533461496950007   -0.35000000000000003   -0.009568313415173581
-0.03177919454472054   -0.34421797569553536   -0.009974486335473343
-0.012877594319712068   -0.35000000000000003   -0.009401349401612526
-0.017083324259385302   -0.35000000000000003   -0.00821142962599684
-0.03177919454472054   -0.34421797569553536   -0.009974486335473343
-0.035759037653677335   -0.34263253130062454   -0.009881196581429172
-0.012877594319712068   -0.35000000000000003   -0.009401349401612526
-0.033240739738493445   -0.3430473703169139   -0.008271531889960998
-0.017083324259385302   -0.35000000000000003   -0.00821142962599684
-0.009848484057630516   -0.35000000000000003   -0.007451873514567605
-0.033240739738493445   -0.3430473703169139   -0.008271531889960998
-0.012877594319712068   -0.35000000000000003   -0.009401349401612526
-0.017083324259385302   -0.35000000000000003   -0.00821142962599684
-0.033240739738493445   -0.3430473703169139   -0.008271531889960998
-0.030759128941127523   -0.3443636128885517   -0.008993196821976085
-0.03177919454472054   -0.34421797569553536   -0.009974486335473343
-0.017083324259385302   -0.35000000000000003   -0.00821142962599684
-0.033240739738493445   -0.3430473703169139   -0.008271531889960998
-0.03177919454472054   -0.34421797569553536   -0.009974486335473343
-0.012877594319712068   -0.35000000000000003   -0.009401349401612526
-0.024585509315347934   -0.34252046759818516   -0.007299989079264701
-0.00982321996703194   -0.3294105444368236   -0.006313827531971744
-0.02614521758123707   -0.34385524479021135   -0.008648935459752843
-0.02284440329878823   -0.34191500777210043   -0.008442947526691242
-0.00982321996703194   -0.3294105444368236   -0.006313827531971744
-0.018671966159337007   -0.3304133959582472   -0.007745581072073735
-0.02614521758123707   -0.34385524479021135   -0.008648935459752843
-0.018186247197923732   -0.3298427434119451   -0.008180146776938065
-0.02284440329878823   -0.34191500777210043   -0.008442947526691242
-0.02546029586982954   -0.34338342085757445   -0.00913739913554698
-0.018186247197923732   -0.3298427434119451   -0.008180146776938065
-0.02614521758123707   -0.34385524479021135   -0.008648935459752843
-0.02284440329878823   -0.34191500777210043   -0.008442947526691242
-0.018186247197923732   -0.3298427434119451   -0.008180146776938065
-0.008438631596587507   -0.32870509909584045   -0.007299065789964516
-0.00982321996703194   -0.3294105444368236   -0.006313827531971744
-0.02284440329878823   -0.34191500777210043   -0.008442947526691242
-0.018186247197923732   -0.3298427434119451   -0.008180146776938065
-0.00982321996703194   -0.3294105444368236   -0.006313827531971744
-0.02614521758123707   -0.34385524479021135   -0.008648935459752843
-0.02284440329878823   -0.34191500777210043   -0.008442947526691242
-0.008438631596587507   -0.32870509909584045   -0.007299065789964516
-0.02546029586982954   -0.34338342085757445   -0.00913739913554698
-0.021394826095485615   -0.34172490826283214   -0.009538302448394027
-0.008438631596587507   -0.32870509909584045   -0.007299065789964516
-0.018186247197923732   -0.3298427434119451   -0.008180146776938065
-0.02546029586982954   -0.34338342085757445   -0.00913739913554698
-0.01764036929783711   -0.32952310018132   -0.008575023936889156
-0.021394826095485615   -0.34172490826283214   -0.009538302448394027
-0.024657694399360185   -0.3432059691561837   -0.009587525780511825
-0.01764036929783711   -0.32952310018132   -0.008575023936889156
-0.02546029586982954   -0.34338342085757445   -0.00913739913554698
-0.021394826095485615   -0.34172490826283214   -0.009538302448394027
-0.01764036929783711   -0.32952310018132   -0.008575023936889156
-0.0073492182118178664   -0.3283651713948323   -0.008225444363574521
-0.008438631596587507   -0.32870509909584045   -0.007299065789964516
-0.021394826095485615   -0.34172490826283214   -0.009538302448394027
-0.01764036929783711   -0.32952310018132   -0.008575023936889156
-0.008438631596587507   -0.32870509909584045   -0.007299065789964516
-0.02546029586982954   -0.34338342085757445   -0.00913739913554698
-0.021394826095485615   -0.34172490826283214   -0.009538302448394027
-0.0073492182118178664   -0.3283651713948323   -0.008225444363574521
-0.024657694399360185   -0.3432059691561837   -0.009587525780511825
-0.019756508424937112   -0.34187395453158936   -0.010581070865194967
-0.0073492182118178664   -0.3283651713948323   -0.008225444363574521
-0.01764036929783711   -0.32952310018132   -0.008575023936889156
-0.024657694399360185   -0.3432059691561837   -0.009587525780511825
-0.01722156718352305   -0.3294455805840582   -0.008931448294050733
-0.019756508424937112   -0.34187395453158936   -0.010581070865194967
-0.02396969410270451   -0.34332530578243037   -0.009996904689903042
-0.01722156718352305   -0.3294455805840582   -0.008931448294050733
-0.024657694399360185   -0.3432059691561837   -0.009587525780511825
-0.019756508424937112   -0.34187395453158936   -0.010581070865194967
-0.01722156718352305   -0.3294455805840582   -0.008931448294050733
-0.006161623637554326   -0.3282938702361805   -0.009090434221633942
-0.0073492182118178664   -0.3283651713948323   -0.008225444363574521
-0.019756508424937112   -0.34187395453158936   -0.010581070865194967
-0.01722156718352305   -0.3294455805840582   -0.008931448294050733
-0.0073492182118178664   -0.3283651713948323   -0.008225444363574521
-0.024657694399360185   -0.3432059691561837   -0.009587525780511825
-0.02614521758123707   -0.34385524479021135   -0.008648935459752843
-0.018671966159337007   -0.3304133959582472   -0.007745581072073735
-0.028227872375284055   -0.34468592905117124   -0.009728312055001211
-0.02546029586982954   -0.34338342085757445   -0.00913739913554698
-0.018671966159337007   -0.3304133959582472   -0.007745581072073735
-0.027391372877804483   -0.33076858405848136   -0.008914929407070449
-0.028227872375284055   -0.34468592905117124   -0.009728312055001211
-0.02698238412214724   -0.3302706061180271   -0.008939711617526679
-0.02546029586982954   -0.34338342085757445   -0.00913739913554698
-0.027621199955897954   -0.34426485174767424   -0.009741878445108423
-0.02698238412214724   -0.3302706061180271   -0.008939711617526679
-0.028227872375284055   -0.34468592905117124   -0.009728312055001211
-0.02546029586982954   -0.34338342085757445   -0.00913739913554698
-0.02698238412214724   -0.3302706061180271   -0.008939711617526679
-0.018186247197923732   -0.3298427434119451   -0.008180146776938065
-0.018671966159337007   -0.3304133959582472   -0.007745581072073735
-0.02546029586982954   -0.34338342085757445   -0.00913739913554698
-0.02698238412214724   -0.3302706061180271   -0.008939711617526679
-0.018671966159337007   -0.3304133959582472   -0.007745581072073735
-0.028227872375284055   -0.34468592905117124   -0.009728312055001211
-0.02546029586982954   -0.34338342085757445   -0.00913739913554698
-0.018186247197923732   -0.3298427434119451   -0.008180146776938065
-0.027621199955897954   -0.34426485174767424   -0.009741878445108423
-0.024657694399360185   -0.3432059691561837   -0.009587525780511825
-0.018186247197923732   -0.3298427434119451   -0.008180146776938065
-0.02698238412214724   -0.3302706061180271   -0.008939711617526679
-0.027621199955897954   -0.34426485174767424   -0.009741878445108423
-0.026559482477003554   -0.3299989493298204   -0.008927751573728583
-0.024657694399360185   -0.3432059691561837   -0.009587525780511825
-0.02694573216420974   -0.34411043087542087   -0.00970573460184653
-0.026559482477003554   -0.3299989493298204   -0.008927751573728583
-0.027621199955897954   -0.34426485174767424   -0.009741878445108423
-0.024657694399360185   -0.3432059691561837   -0.009587525780511825
-0.026559482477003554   -0.3299989493298204   -0.008927751573728583
-0.01764036929783711   -0.32952310018132   -0.008575023936889156
-0.018186247197923732   -0.3298427434119451   -0.008180146776938065
-0.024657694399360185   -0.3432059691561837   -0.009587525780511825
-0.026559482477003554   -0.3299989493298204   -0.008927751573728583
-0.018186247197923732   -0.3298427434119451   -0.008180146776938065
-0.027621199955897954   -0.34426485174767424   -0.009741878445108423
-0.024657694399360185   -0.3432059691561837   -0.009587525780511825
-0.01764036929783711   -0.32952310018132   -0.008575023936889156
-0.02694573216420974   -0.34411043087542087   -0.00970573460184653
-0.02396969410270451   -0.34332530578243037   -0.009996904689903042
-0.01764036929783711   -0.32952310018132   -0.008575023936889156
-0.026559482477003554   -0.3299989493298204   -0.008927751573728583
-0.02694573216420974   -0.34411043087542087   -0.00970573460184653
-0.026151506072670194   -0.32994246942152716   -0.008878640934457971
-0.02396969410270451   -0.34332530578243037   -0.009996904689903042
-0.02625872463661923   -0.3442102018075674   -0.009630596201370266
-0.026151506072670194   -0.32994246942152716   -0.008878640934457971
-0.02694573216420974   -0.34411043087542087   -0.00970573460184653
-0.02396969410270451   -0.34332530578243037   -0.009996904689903042
-0.026151506072670194   -0.32994246942152716   -0.008878640934457971
-0.01722156718352305   -0.3294455805840582   -0.008931448294050733
-0.01764036929783711   -0.32952310018132   -0.008575023936889156
-0.02396969410270451   -0.34332530578243037   -0.009996904689903042
-0.026151506072670194   -0.32994246942152716   -0.008878640934457971
-0.01764036929783711   -0.32952310018132   -0.008575023936889156
-0.02694573216420974   -0.34411043087542087   -0.00970573460184653
-0.028227872375284055   -0.34468592905117124   -0.009728312055001211
-0.027391372877804483   -0.33076858405848136   -0.008914929407070449
-0.030456754597655195   -0.34504350915515575   -0.010789788035823181
-0.027621199955897954   -0.34426485174767424   -0.009741878445108423
-0.027391372877804483   -0.33076858405848136   -0.008914929407070449
-0.0360481604107541   -0.3304558108415851   -0.01000894198185301
-0.030456754597655195   -0.34504350915515575   -0.010789788035823181
-0.0356423967043117   -0.3300138850518565   -0.009640938374568711
-0.027621199955897954   -0.34426485174767424   -0.009741878445108423
-0.02982833924008549   -0.34464269974701317   -0.010346785012790106
-0.0356423967043117   -0.3300138850518565   -0.009640938374568711
-0.030456754597655195   -0.34504350915515575   -0.010789788035823181
-0.027621199955897954   -0.34426485174767424   -0.009741878445108423
-0.0356423967043117   -0.3300138850518565   -0.009640938374568711
-0.02698238412214724   -0.3302706061180271   -0.008939711617526679
-0.027391372877804483   -0.33076858405848136   -0.008914929407070449
-0.027621199955897954   -0.34426485174767424   -0.009741878445108423
-0.0356423967043117   -0.3300138850518565   -0.009640938374568711
-0.027391372877804483   -0.33076858405848136   -0.008914929407070449
-0.030456754597655195   -0.34504350915515575   -0.010789788035823181
-0.027621199955897954   -0.34426485174767424   -0.009741878445108423
-0.02698238412214724   -0.3302706061180271   -0.008939711617526679
-0.02982833924008549   -0.34464269974701317   -0.010346785012790106
-0.02694573216420974   -0.34411043087542087   -0.00970573460184653
-0.02698238412214724   -0.3302706061180271   -0.008939711617526679
-0.0356423967043117   -0.3300138850518565   -0.009640938374568711
-0.02982833924008549   -0.34464269974701317   -0.010346785012790106
-0.035187016670036805   -0.3297944098894635   -0.009236707604549062
-0.02694573216420974   -0.34411043087542087   -0.00970573460184653
-0.02907397515736036   -0.34451297764284156   -0.009843259752555676
-0.035187016670036805   -0.3297944098894635   -0.009236707604549062
-0.02982833924008549   -0.34464269974701317   -0.010346785012790106
-0.02694573216420974   -0.34411043087542087   -0.00970573460184653
-0.035187016670036805   -0.3297944098894635   -0.009236707604549062
-0.026559482477003554   -0.3299989493298204   -0.008927751573728583
-0.02698238412214724   -0.3302706061180271   -0.008939711617526679
-0.02694573216420974   -0.34411043087542087   -0.00970573460184653
-0.035187016670036805   -0.3297944098894635   -0.009236707604549062
-0.02698238412214724   -0.3302706061180271   -0.008939711617526679
-0.02982833924008549   -0.34464269974701317   -0.010346785012790106
-0.02694573216420974   -0.34411043087542087   -0.00970573460184653
-0.026559482477003554   -0.3299989493298204   -0.008927751573728583
-0.02907397515736036   -0.34451297764284156   -0.009843259752555676
-0.02625872463661923   -0.3442102018075674   -0.009630596201370266
-0.026559482477003554   -0.3299989493298204   -0.008927751573728583
-0.035187016670036805   -0.3297944098894635   -0.009236707604549062
-0.02907397515736036   -0.34451297764284156   -0.009843259752555676
-0.03472943064205447   -0.32977562242340785   -0.00879183061615021
-0.02625872463661923   -0.3442102018075674   -0.009630596201370266
-0.02829783087071799   -0.3446110428519714   -0.009306585008824064
-0.03472943064205447   -0.32977562242340785   -0.00879183061615021
-0.02907397515736036   -0.34451297764284156   -0.009843259752555676
-0.02625872463661923   -0.3442102018075674   -0.009630596201370266
-0.03472943064205447   -0.32977562242340785   -0.00879183061615021
-0.026151506072670194   -0.32994246942152716   -0.008878640934457971
-0.026559482477003554   -0.3299989493298204   -0.008927751573728583
-0.02625872463661923   -0.3442102018075674   -0.009630596201370266
-0.03472943064205447   -0.32977562242340785   -0.00879183061615021
-0.026559482477003554   -0.3299989493298204   -0.008927751573728583
-0.02907397515736036   -0.34451297764284156   -0.009843259752555676
-0.030456754597655195   -0.34504350915515575   -0.010789788035823181
-0.0360481604107541   -0.3304558108415851   -0.01000894198185301
-0.03368231929881415   -0.34468262455018883   -0.011795989048533248
-0.02982833924008549   -0.34464269974701317   -0.010346785012790106
-0.0360481604107541   -0.3304558108415851   -0.01000894198185301
-0.04556535838596283   -0.32943311778269485   -0.011012579104432207
-0.03368231929881415   -0.34468262455018883   -0.011795989048533248
-0.045069543593734614   -0.32904762327650106   -0.010260879927082966
-0.02982833924008549   -0.34464269974701317   -0.010346785012790106
-0.032861198424797726   -0.34430551027724343   -0.010918825385099086
-0.045069543593734614   -0.32904762327650106   -0.010260879927082966
-0.03368231929881415   -0.34468262455018883   -0.011795989048533248
-0.02982833924008549   -0.34464269974701317   -0.010346785012790106
-0.045069543593734614   -0.32904762327650106   -0.010260879927082966
-0.0356423967043117   -0.3300138850518565   -0.009640938374568711
-0.0360481604107541   -0.3304558108415851   -0.01000894198185301
-0.02982833924008549   -0.34464269974701317   -0.010346785012790106
-0.045069543593734614   -0.32904762327650106   -0.010260879927082966
-0.0360481604107541   -0.3304558108415851   -0.01000894198185301
-0.03368231929881415   -0.34468262455018883   -0.011795989048533248
-0.02982833924008549   -0.34464269974701317   -0.010346785012790106
-0.0356423967043117   -0.3300138850518565   -0.009640938374568711
-0.032861198424797726   -0.34430551027724343   -0.010918825385099086
-0.02907397515736036   -0.34451297764284156   -0.009843259752555676
-0.0356423967043117   -0.3300138850518565   -0.009640938374568711
-0.045069543593734614   -0.32904762327650106   -0.010260879927082966
-0.032861198424797726   -0.34430551027724343   -0.010918825385099086
-0.04438585055412263   -0.32888011956743113   -0.009475522415789493
-0.02907397515736036   -0.34451297764284156   -0.009843259752555676
-0.03177919454472054   -0.34421797569553536   -0.009974486335473343
-0.04438585055412263   -0.32888011956743113   -0.009475522415789493
-0.032861198424797726   -0.34430551027724343   -0.010918825385099086
-0.02907397515736036   -0.34451297764284156   -0.009843259752555676
-0.04438585055412263   -0.32888011956743113   -0.009475522415789493
-0.035187016670036805   -0.3297944098894635   -0.009236707604549062
-0.0356423967043117   -0.3300138850518565   -0.009640938374568711
-0.02907397515736036   -0.34451297764284156   -0.009843259752555676
-0.04438585055412263   -0.32888011956743113   -0.009475522415789493
-0.0356423967043117   -0.3300138850518565   -0.009640938374568711
-0.032861198424797726   -0.34430551027724343   -0.010918825385099086
-0.02907397515736036   -0.34451297764284156   -0.009843259752555676
-0.035187016670036805   -0.3297944098894635   -0.009236707604549062
-0.03177919454472054   -0.34421797569553536   -0.009974486335473343
-0.02829783087071799   -0.3446110428519714   -0.009306585008824064
-0.035187016670036805   -0.3297944098894635   -0.009236707604549062
-0.04438585055412263   -0.32888011956743113   -0.009475522415789493
-0.03177919454472054   -0.34421797569553536   -0.009974486335473343
-0.04378762835398673   -0.32893094794062505   -0.008634385160392477
-0.02829783087071799   -0.3446110428519714   -0.009306585008824064
-0.030759128941127523   -0.3443636128885517   -0.008993196821976085
-0.04378762835398673   -0.32893094794062505   -0.008634385160392477
-0.03177919454472054   -0.34421797569553536   -0.009974486335473343
-0.02829783087071799   -0.3446110428519714   -0.009306585008824064
-0.04378762835398673   -0.32893094794062505   -0.008634385160392477
-0.03472943064205447   -0.32977562242340785   -0.00879183061615021
-0.035187016670036805   -0.3297944098894635   -0.009236707604549062
-0.02829783087071799   -0.3446110428519714   -0.009306585008824064
-0.04378762835398673   -0.32893094794062505   -0.008634385160392477
-0.035187016670036805   -0.3297944098894635   -0.009236707604549062
-0.03177919454472054   -0.34421797569553536   -0.009974486335473343
-0.03368231929881415   -0.34468262455018883   -0.011795989048533248
-0.04556535838596283   -0.32943311778269485   -0.011012579104432207
-0.03992088391892878   -0.3429929765556371   -0.012858506916761195
-0.032861198424797726   -0.34430551027724343   -0.010918825385099086
-0.04556535838596283   -0.32943311778269485   -0.011012579104432207
-0.05782254937941692   -0.3277698975731854   -0.011972013959030352
-0.03992088391892878   -0.3429929765556371   -0.012858506916761195
-0.05623861950978998   -0.32735360353496273   -0.010785622301985086
-0.032861198424797726   -0.34430551027724343   -0.010918825385099086
-0.03775358418788077   -0.34267734171281283   -0.011419086708256346
-0.05623861950978998   -0.32735360353496273   -0.010785622301985086
-0.03992088391892878   -0.3429929765556371   -0.012858506916761195
-0.032861198424797726   -0.34430551027724343   -0.010918825385099086
-0.05623861950978998   -0.32735360353496273   -0.010785622301985086
-0.045069543593734614   -0.32904762327650106   -0.010260879927082966
-0.04556535838596283   -0.32943311778269485   -0.011012579104432207
-0.032861198424797726   -0.34430551027724343   -0.010918825385099086
-0.05623861950978998   -0.32735360353496273   -0.010785622301985086
-0.04556535838596283   -0.32943311778269485   -0.011012579104432207
-0.03992088391892878   -0.3429929765556371   -0.012858506916761195
-0.032861198424797726   -0.34430551027724343   -0.010918825385099086
-0.045069543593734614   -0.32904762327650106   -0.010260879927082966
-0.03775358418788077   -0.34267734171281283   -0.011419086708256346
-0.03177919454472054   -0.34421797569553536   -0.009974486335473343
-0.045069543593734614   -0.32904762327650106   -0.010260879927082966
-0.05623861950978998   -0.32735360353496273   -0.010785622301985086
-0.03775358418788077   -0.34267734171281283   -0.011419086708256346
-0.054816196523099894   -0.32719866712896206   -0.009528845993676649
-0.03177919454472054   -0.34421797569553536   -0.009974486335473343
-0.035759037653677335   -0.34263253130062454   -0.009881196581429172
-0.054816196523099894   -0.32719866712896206   -0.009528845993676649
-0.03775358418788077   -0.34267734171281283   -0.011419086708256346
-0.03177919454472054   -0.34421797569553536   -0.009974486335473343
-0.054816196523099894   -0.32719866712896206   -0.009528845993676649
-0.04438585055412263   -0.32888011956743113   -0.009475522415789493
-0.045069543593734614   -0.32904762327650106   -0.010260879927082966
-0.03177919454472054   -0.34421797569553536   -0.009974486335473343
-0.054816196523099894   -0.32719866712896206   -0.009528845993676649
-0.045069543593734614   -0.32904762327650106   -0.010260879927082966
-0.03775358418788077   -0.34267734171281283   -0.011419086708256346
-0.03177919454472054   -0.34421797569553536   -0.009974486335473343
-0.04438585055412263   -0.32888011956743113   -0.009475522415789493
-0.035759037653677335   -0.34263253130062454   -0.009881196581429172
-0.030759128941127523   -0.3443636128885517   -0.008993196821976085
-0.04438585055412263   -0.32888011956743113   -0.009475522415789493
-0.054816196523099894   -0.32719866712896206   -0.009528845993676649
-0.035759037653677335   -0.34263253130062454   -0.009881196581429172
-0.052972324098990387   -0.3273841617721039   -0.008213731744945565
-0.030759128941127523   -0.3443636128885517   -0.008993196821976085
-0.033240739738493445   -0.3430473703169139   -0.008271531889960998
-0.052972324098990387   -0.3273841617721039   -0.008213731744945565
-0.035759037653677335   -0.34263253130062454   -0.009881196581429172
-0.030759128941127523   -0.3443636128885517   -0.008993196821976085
-0.052972324098990387   -0.3273841617721039   -0.008213731744945565
-0.04378762835398673   -0.32893094794062505   -0.008634385160392477
-0.04438585055412263   -0.32888011956743113   -0.009475522415789493
-0.030759128941127523   -0.3443636128885517   -0.008993196821976085
-0.052972324098990387   -0.3273841617721039   -0.008213731744945565
-0.04438585055412263   -0.32888011956743113   -0.009475522415789493
-0.035759037653677335   -0.34263253130062454   -0.009881196581429172
-0.00982321996703194   -0.3294105444368236   -0.006313827531971744
0.0021118799121272428   -0.3054220946453227   -0.005228110563766889
-0.018671966159337007   -0.3304133959582472   -0.007745581072073735
-0.008438631596587507   -0.32870509909584045   -0.007299065789964516
0.0021118799121272428   -0.3054220946453227   -0.005228110563766889
-0.012757183995654956   -0.3061543744097322   -0.006632765880507084
-0.018671966159337007   -0.3304133959582472   -0.007745581072073735
-0.012500822025707509   -0.30555655739750603   -0.006976359389269838
-0.008438631596587507   -0.32870509909584045   -0.007299065789964516
-0.018186247197923732   -0.3298427434119451   -0.008180146776938065
-0.012500822025707509   -0.30555655739750603   -0.006976359389269838
-0.018671966159337007   -0.3304133959582472   -0.007745581072073735
-0.008438631596587507   -0.32870509909584045   -0.007299065789964516
-0.012500822025707509   -0.30555655739750603   -0.006976359389269838
0.0030743777450730715   -0.30470598112214575   -0.006009762974799482
0.0021118799121272428   -0.3054220946453227   -0.005228110563766889
-0.008438631596587507   -0.32870509909584045   -0.007299065789964516
-0.012500822025707509   -0.30555655739750603   -0.006976359389269838
0.0021118799121272428   -0.3054220946453227   -0.005228110563766889
-0.018671966159337007   -0.3304133959582472   -0.007745581072073735
-0.008438631596587507   -0.32870509909584045   -0.007299065789964516
0.0030743777450730715   -0.30470598112214575   -0.006009762974799482
-0.018186247197923732   -0.3298427434119451   -0.008180146776938065
-0.0073492182118178664   -0.3283651713948323   -0.008225444363574521
0.0030743777450730715   -0.30470598112214575   -0.006009762974799482
-0.012500822025707509   -0.30555655739750603   -0.006976359389269838
-0.018186247197923732   -0.3298427434119451   -0.008180146776938065
-0.012209633856349966   -0.30516270302625037   -0.007279392331065613
-0.0073492182118178664   -0.3283651713948323   -0.008225444363574521
-0.01764036929783711   -0.32952310018132   -0.008575023936889156
-0.012209633856349966   -0.30516270302625037   -0.007279392331065613
-0.018186247197923732   -0.3298427434119451   -0.008180146776938065
-0.0073492182118178664   -0.3283651713948323   -0.008225444363574521
-0.012209633856349966   -0.30516270302625037   -0.007279392331065613
0.003781928975231397   -0.30428819070838853   -0.006734648116304893
0.0030743777450730715   -0.30470598112214575   -0.006009762974799482
-0.0073492182118178664   -0.3283651713948323   -0.008225444363574521
-0.012209633856349966   -0.30516270302625037   -0.007279392331065613
0.0030743777450730715   -0.30470598112214575   -0.006009762974799482
-0.018186247197923732   -0.3298427434119451   -0.008180146776938065
-0.0073492182118178664   -0.3283651713948323   -0.008225444363574521
0.003781928975231397   -0.30428819070838853   -0.006734648116304893
-0.01764036929783711   -0.32952310018132   -0.008575023936889156
-0.006161623637554326   -0.3282938702361805   -0.009090434221633942
0.003781928975231397   -0.30428819070838853   -0.006734648116304893
-0.012209633856349966   -0.30516270302625037   -0.007279392331065613
-0.01764036929783711   -0.32952310018132   -0.008575023936889156
-0.012035633925965575   -0.30496127563412406   -0.007545864311599542
-0.006161623637554326   -0.3282938702361805   -0.009090434221633942
-0.01722156718352305   -0.3294455805840582   -0.008931448294050733
-0.012035633925965575   -0.30496127563412406   -0.007545864311599542
-0.01764036929783711   -0.32952310018132   -0.008575023936889156
-0.006161623637554326   -0.3282938702361805   -0.009090434221633942
-0.012035633925965575   -0.30496127563412406   -0.007545864311599542
0.00453736677765615   -0.3040762176512235   -0.0074024551185294316
0.003781928975231397   -0.30428819070838853   -0.006734648116304893
-0.006161623637554326   -0.3282938702361805   -0.009090434221633942
-0.012035633925965575   -0.30496127563412406   -0.007545864311599542
0.003781928975231397   -0.30428819070838853   -0.006734648116304893
-0.01764036929783711   -0.32952310018132   -0.008575023936889156
-0.018671966159337007   -0.3304133959582472   -0.007745581072073735
-0.012757183995654956   -0.3061543744097322   -0.006632765880507084
-0.027391372877804483   -0.33076858405848136   -0.008914929407070449
-0.018186247197923732   -0.3298427434119451   -0.008180146776938065
-0.012757183995654956   -0.3061543744097322   -0.006632765880507084
-0.02712728042753269   -0.3062940931835185   -0.007792379982971185
-0.027391372877804483   -0.33076858405848136   -0.008914929407070449
-0.026938288498092103   -0.30578037729693064   -0.00780184538127602
-0.018186247197923732   -0.3298427434119451   -0.008180146776938065
-0.02698238412214724   -0.3302706061180271   -0.008939711617526679
-0.026938288498092103   -0.30578037729693064   -0.00780184538127602
-0.027391372877804483   -0.33076858405848136   -0.008914929407070449
-0.018186247197923732   -0.3298427434119451   -0.008180146776938065
-0.026938288498092103   -0.30578037729693064   -0.00780184538127602
-0.012500822025707509   -0.30555655739750603   -0.006976359389269838
-0.012757183995654956   -0.3061543744097322   -0.006632765880507084
-0.018186247197923732   -0.3298427434119451   -0.008180146776938065
-0.026938288498092103   -0.30578037729693064   -0.00780184538127602
-0.012757183995654956   -0.3061543744097322   -0.006632765880507084
-0.027391372877804483   -0.33076858405848136   -0.008914929407070449
-0.018186247197923732   -0.3298427434119451   -0.008180146776938065
-0.012500822025707509   -0.30555655739750603   -0.006976359389269838
-0.02698238412214724   -0.3302706061180271   -0.008939711617526679
-0.01764036929783711   -0.32952310018132   -0.008575023936889156
-0.012500822025707509   -0.30555655739750603   -0.006976359389269838
-0.026938288498092103   -0.30578037729693064   -0.00780184538127602
-0.02698238412214724   -0.3302706061180271   -0.008939711617526679
-0.026744046273343047   -0.3054492726967082   -0.007772481080035771
-0.01764036929783711   -0.32952310018132   -0.008575023936889156
-0.026559482477003554   -0.3299989493298204   -0.008927751573728583
-0.026744046273343047   -0.3054492726967082   -0.007772481080035771
-0.02698238412214724   -0.3302706061180271   -0.008939711617526679
-0.01764036929783711   -0.32952310018132   -0.008575023936889156
-0.026744046273343047   -0.3054492726967082   -0.007772481080035771
-0.012209633856349966   -0.30516270302625037   -0.007279392331065613
-0.012500822025707509   -0.30555655739750603   -0.006976359389269838
-0.01764036929783711   -0.32952310018132   -0.008575023936889156
-0.026744046273343047   -0.3054492726967082   -0.007772481080035771
-0.012500822025707509   -0.30555655739750603   -0.006976359389269838
-0.02698238412214724   -0.3302706061180271   -0.008939711617526679
-0.01764036929783711   -0.32952310018132   -0.008575023936889156
-0.012209633856349966   -0.30516270302625037   -0.007279392331065613
-0.026559482477003554   -0.3299989493298204   -0.008927751573728583
-0.01722156718352305   -0.3294455805840582   -0.008931448294050733
-0.012209633856349966   -0.30516270302625037   -0.007279392331065613
-0.026744046273343047   -0.3054492726967082   -0.007772481080035771
-0.026559482477003554   -0.3299989493298204   -0.008927751573728583
-0.026574115288666038   -0.30529767681312053   -0.007706823899215623
-0.01722156718352305   -0.3294455805840582   -0.008931448294050733
-0.026151506072670194   -0.32994246942152716   -0.008878640934457971
-0.026574115288666038   -0.30529767681312053   -0.007706823899215623
-0.026559482477003554   -0.3299989493298204   -0.008927751573728583
-0.01722156718352305   -0.3294455805840582   -0.008931448294050733
-0.026574115288666038   -0.30529767681312053   -0.007706823899215623
-0.012035633925965575   -0.30496127563412406   -0.007545864311599542
-0.012209633856349966   -0.30516270302625037   -0.007279392331065613
-0.01722156718352305   -0.3294455805840582   -0.008931448294050733
-0.026574115288666038   -0.30529767681312053   -0.007706823899215623
-0.012209633856349966   -0.30516270302625037   -0.007279392331065613
-0.026559482477003554   -0.3299989493298204   -0.008927751573728583
-0.027391372877804483   -0.33076858405848136   -0.008914929407070449
-0.02712728042753269   -0.3062940931835185   -0.007792379982971185
-0.0360481604107541   -0.3304558108415851   -0.01000894198185301
-0.02698238412214724   -0.3302706061180271   -0.008939711617526679
-0.02712728042753269   -0.3062940931835185   -0.007792379982971185
-0.041268469024835906   -0.3058378786614104   -0.008839352471228449
-0.0360481604107541   -0.3304558108415851   -0.01000894198185301
-0.041092462896550684   -0.30539446293337247   -0.008522786388172398
-0.02698238412214724   -0.3302706061180271   -0.008939711617526679
-0.0356423967043117   -0.3300138850518565   -0.009640938374568711
-0.041092462896550684   -0.30539446293337247   -0.008522786388172398
-0.0360481604107541   -0.3304558108415851   -0.01000894198185301
-0.02698238412214724   -0.3302706061180271   -0.008939711617526679
-0.041092462896550684   -0.30539446293337247   -0.008522786388172398
-0.026938288498092103   -0.30578037729693064   -0.00780184538127602
-0.02712728042753269   -0.3062940931835185   -0.007792379982971185
-0.02698238412214724   -0.3302706061180271   -0.008939711617526679
-0.041092462896550684   -0.30539446293337247   -0.008522786388172398
-0.02712728042753269   -0.3062940931835185   -0.007792379982971185
-0.0360481604107541   -0.3304558108415851   -0.01000894198185301
-0.02698238412214724   -0.3302706061180271   -0.008939711617526679
-0.026938288498092103   -0.30578037729693064   -0.00780184538127602
-0.0356423967043117   -0.3300138850518565   -0.009640938374568711
-0.026559482477003554   -0.3299989493298204   -0.008927751573728583
-0.026938288498092103   -0.30578037729693064   -0.00780184538127602
-0.041092462896550684   -0.30539446293337247   -0.008522786388172398
-0.0356423967043117   -0.3300138850518565   -0.009640938374568711
-0.0408798406090206   -0.3051316340914713   -0.008168206055393035
-0.026559482477003554   -0.3299989493298204   -0.008927751573728583
-0.035187016670036805   -0.3297944098894635   -0.009236707604549062
-0.0408798406090206   -0.3051316340914713   -0.008168206055393035
-0.0356423967043117   -0.3300138850518565   -0.009640938374568711
-0.026559482477003554   -0.3299989493298204   -0.008927751573728583
-0.0408798406090206   -0.3051316340914713   -0.008168206055393035
-0.026744046273343047   -0.3054492726967082   -0.007772481080035771
-0.026938288498092103   -0.30578037729693064   -0.00780184538127602
-0.026559482477003554   -0.3299989493298204   -0.008927751573728583
-0.0408798406090206   -0.3051316340914713   -0.008168206055393035
-0.026938288498092103   -0.30578037729693064   -0.00780184538127602
-0.0356423967043117   -0.3300138850518565   -0.009640938374568711
-0.026559482477003554   -0.3299989493298204   -0.008927751573728583
-0.026744046273343047   -0.3054492726967082   -0.007772481080035771
-0.035187016670036805   -0.3297944098894635   -0.009236707604549062
-0.026151506072670194   -0.32994246942152716   -0.008878640934457971
-0.026744046273343047   -0.3054492726967082   -0.007772481080035771
-0.0408798406090206   -0.3051316340914713   -0.008168206055393035
-0.035187016670036805   -0.3297944098894635   -0.009236707604549062
-0.040672839833388895   -0.30504083174560703   -0.0077767887007349915
-0.026151506072670194   -0.32994246942152716   -0.008878640934457971
-0.03472943064205447   -0.32977562242340785   -0.00879183061615021
-0.040672839833388895   -0.30504083174560703   -0.0077767887007349915
-0.035187016670036805   -0.3297944098894635   -0.009236707604549062
-0.026151506072670194   -0.32994246942152716   -0.008878640934457971
-0.040672839833388895   -0.30504083174560703   -0.0077767887007349915
-0.026574115288666038   -0.30529767681312053   -0.007706823899215623
-0.026744046273343047   -0.3054492726967082   -0.007772481080035771
-0.026151506072670194   -0.32994246942152716   -0.008878640934457971
-0.040672839833388895   -0.30504083174560703   -0.0077767887007349915
-0.026744046273343047   -0.3054492726967082   -0.007772481080035771
-0.035187016670036805   -0.3297944098894635   -0.009236707604549062
-0.0360481604107541   -0.3304558108415851   -0.01000894198185301
-0.041268469024835906   -0.3058378786614104   -0.008839352471228449
-0.04556535838596283   -0.32943311778269485   -0.011012579104432207
-0.0356423967043117   -0.3300138850518565   -0.009640938374568711
-0.041268469024835906   -0.3058378786614104   -0.008839352471228449
-0.05609192696659013   -0.3048023175502815   -0.009769117710479894
-0.04556535838596283   -0.32943311778269485   -0.011012579104432207
-0.055862914269278745   -0.3044263172405204   -0.00912625575315652
-0.0356423967043117   -0.3300138850518565   -0.009640938374568711
-0.045069543593734614   -0.32904762327650106   -0.010260879927082966
-0.055862914269278745   -0.3044263172405204   -0.00912625575315652
-0.04556535838596283   -0.32943311778269485   -0.011012579104432207
-0.0356423967043117   -0.3300138850518565   -0.009640938374568711
-0.055862914269278745   -0.3044263172405204   -0.00912625575315652
-0.041092462896550684   -0.30539446293337247   -0.008522786388172398
-0.041268469024835906   -0.3058378786614104   -0.008839352471228449
-0.0356423967043117   -0.3300138850518565   -0.009640938374568711
-0.055862914269278745   -0.3044263172405204   -0.00912625575315652
-0.041268469024835906   -0.3058378786614104   -0.008839352471228449
-0.04556535838596283   -0.32943311778269485   -0.011012579104432207
-0.0356423967043117   -0.3300138850518565   -0.009640938374568711
-0.041092462896550684   -0.30539446293337247   -0.008522786388172398
-0.045069543593734614   -0.32904762327650106   -0.010260879927082966
-0.035187016670036805   -0.3297944098894635   -0.009236707604549062
-0.041092462896550684   -0.30539446293337247   -0.008522786388172398
-0.055862914269278745   -0.3044263172405204   -0.00912625575315652
-0.045069543593734614   -0.32904762327650106   -0.010260879927082966
-0.05547518308754103   -0.30422539345325766   -0.008451178398532166
-0.035187016670036805   -0.3297944098894635   -0.009236707604549062
-0.04438585055412263   -0.32888011956743113   -0.009475522415789493
-0.05547518308754103   -0.30422539345325766   -0.008451178398532166
-0.045069543593734614   -0.32904762327650106   -0.010260879927082966
-0.035187016670036805   -0.3297944098894635   -0.009236707604549062
-0.05547518308754103   -0.30422539345325766   -0.008451178398532166
-0.0408798406090206   -0.3051316340914713   -0.008168206055393035
-0.041092462896550684   -0.30539446293337247   -0.008522786388172398
-0.035187016670036805   -0.3297944098894635   -0.009236707604549062
-0.05547518308754103   -0.30422539345325766   -0.008451178398532166
-0.041092462896550684   -0.30539446293337247   -0.008522786388172398
-0.045069543593734614   -0.32904762327650106   -0.010260879927082966
-0.035187016670036805   -0.3297944098894635   -0.009236707604549062
-0.0408798406090206   -0.3051316340914713   -0.008168206055393035
-0.04438585055412263   -0.32888011956743113   -0.009475522415789493
-0.03472943064205447   -0.32977562242340785   -0.00879183061615021
-0.0408798406090206   -0.3051316340914713   -0.008168206055393035
-0.05547518308754103   -0.30422539345325766   -0.008451178398532166
-0.04438585055412263   -0.32888011956743113   -0.009475522415789493
-0.055159181250100324   -0.30420996980235065   -0.007733930380807935
-0.03472943064205447   -0.32977562242340785   -0.00879183061615021
-0.04378762835398673   -0.32893094794062505   -0.008634385160392477
-0.055159181250100324   -0.30420996980235065   -0.007733930380807935
-0.04438585055412263   -0.32888011956743113   -0.009475522415789493
-0.03472943064205447   -0.32977562242340785   -0.00879183061615021
-0.055159181250100324   -0.30420996980235065   -0.007733930380807935
-0.040672839833388895   -0.30504083174560703   -0.0077767887007349915
-0.0408798406090206   -0.3051316340914713   -0.008168206055393035
-0.03472943064205447   -0.32977562242340785   -0.00879183061615021
-0.055159181250100324   -0.30420996980235065   -0.007733930380807935
-0.0408798406090206   -0.3051316340914713   -0.008168206055393035
-0.04438585055412263   -0.32888011956743113   -0.009475522415789493
-0.04556535838596283   -0.32943311778269485   -0.011012579104432207
-0.05609192696659013   -0.3048023175502815   -0.009769117710479894
-0.05782254937941692   -0.3277698975731854   -0.011972013959030352
-0.045069543593734614   -0.32904762327650106   -0.010260879927082966
-0.05609192696659013   -0.3048023175502815   -0.009769117710479894
-0.07338156148267311   -0.3033141623620343   -0.010633279784639953
-0.05782254937941692   -0.3277698975731854   -0.011972013959030352
-0.07221767124722388   -0.3029232833537347   -0.00962767669413969
-0.045069543593734614   -0.32904762327650106   -0.010260879927082966
-0.05623861950978998   -0.32735360353496273   -0.010785622301985086
-0.07221767124722388   -0.3029232833537347   -0.00962767669413969
-0.05782254937941692   -0.3277698975731854   -0.011972013959030352
-0.045069543593734614   -0.32904762327650106   -0.010260879927082966
-0.07221767124722388   -0.3029232833537347   -0.00962767669413969
-0.055862914269278745   -0.3044263172405204   -0.00912625575315652
-0.05609192696659013   -0.3048023175502815   -0.009769117710479894
-0.045069543593734614   -0.32904762327650106   -0.010260879927082966
-0.07221767124722388   -0.3029232833537347   -0.00962767669413969
-0.05609192696659013   -0.3048023175502815   -0.009769117710479894
-0.05782254937941692   -0.3277698975731854   -0.011972013959030352
-0.045069543593734614   -0.32904762327650106   -0.010260879927082966
-0.055862914269278745   -0.3044263172405204   -0.00912625575315652
-0.05623861950978998   -0.32735360353496273   -0.010785622301985086
-0.04438585055412263   -0.32888011956743113   -0.009475522415789493
-0.055862914269278745   -0.3044263172405204   -0.00912625575315652
-0.07221767124722388   -0.3029232833537347   -0.00962767669413969
-0.05623861950978998   -0.32735360353496273   -0.010785622301985086
-0.07120578341194646   -0.3027391561467761   -0.008569083026596876
-0.04438585055412263   -0.32888011956743113   -0.009475522415789493
-0.054816196523099894   -0.32719866712896206   -0.009528845993676649
-0.07120578341194646   -0.3027391561467761   -0.008569083026596876
-0.05623861950978998   -0.32735360353496273   -0.010785622301985086
-0.04438585055412263   -0.32888011956743113   -0.009475522415789493
-0.07120578341194646   -0.3027391561467761   -0.008569083026596876
-0.05547518308754103   -0.30422539345325766   -0.008451178398532166
-0.055862914269278745   -0.3044263172405204   -0.00912625575315652
-0.04438585055412263   -0.32888011956743113   -0.009475522415789493
-0.07120578341194646   -0.3027391561467761   -0.008569083026596876
-0.055862914269278745   -0.3044263172405204   -0.00912625575315652
-0.05623861950978998   -0.32735360353496273   -0.010785622301985086
-0.04438585055412263   -0.32888011956743113   -0.009475522415789493
-0.05547518308754103   -0.30422539345325766   -0.008451178398532166
-0.054816196523099894   -0.32719866712896206   -0.009528845993676649
-0.04378762835398673   -0.32893094794062505   -0.008634385160392477
-0.05547518308754103   -0.30422539345325766   -0.008451178398532166
-0.07120578341194646   -0.3027391561467761   -0.008569083026596876
-0.054816196523099894   -0.32719866712896206   -0.009528845993676649
-0.0698417571480553   -0.30283897843233687   -0.0074642683181810245
-0.04378762835398673   -0.32893094794062505   -0.008634385160392477
-0.052972324098990387   -0.3273841617721039   -0.008213731744945565
-0.0698417571480553   -0.30283897843233687   -0.0074642683181810245
-0.054816196523099894   -0.32719866712896206   -0.009528845993676649
-0.04378762835398673   -0.32893094794062505   -0.008634385160392477
-0.0698417571480553   -0.30283897843233687   -0.0074642683181810245
-0.055159181250100324   -0.30420996980235065   -0.007733930380807935
-0.05547518308754103   -0.30422539345325766   -0.008451178398532166
-0.04378762835398673   -0.32893094794062505   -0.008634385160392477
-0.0698417571480553   -0.30283897843233687   -0.0074642683181810245
-0.05547518308754103   -0.30422539345325766   -0.008451178398532166
-0.054816196523099894   -0.32719866712896206   -0.009528845993676649
0.0021118799121272428   -0.3054220946453227   -0.005228110563766889
0.011136087196460599   -0.2729512245400617   -0.003985916232910683
-0.012757183995654956   -0.3061543744097322   -0.006632765880507084
0.0030743777450730715   -0.30470598112214575   -0.006009762974799482
0.011136087196460599   -0.2729512245400617   -0.003985916232910683
-0.00850555685564475   -0.2734324879641339   -0.0053262116495622035
-0.012757183995654956   -0.3061543744097322   -0.006632765880507084
-0.008453732785816098   -0.2728379193145396   -0.005563166391294125
0.0030743777450730715   -0.30470598112214575   -0.006009762974799482
-0.012500822025707509   -0.30555655739750603   -0.006976359389269838
-0.008453732785816098   -0.2728379193145396   -0.005563166391294125
-0.012757183995654956   -0.3061543744097322   -0.006632765880507084
0.0030743777450730715   -0.30470598112214575   -0.006009762974799482
-0.008453732785816098   -0.2728379193145396   -0.005563166391294125
0.011703102038012348   -0.27225280830180765   -0.004561321439247651
0.011136087196460599   -0.2729512245400617   -0.003985916232910683
0.0030743777450730715   -0.30470598112214575   -0.006009762974799482
-0.008453732785816098   -0.2728379193145396   -0.005563166391294125
0.011136087196460599   -0.2729512245400617   -0.003985916232910683
-0.012757183995654956   -0.3061543744097322   -0.006632765880507084
0.0030743777450730715   -0.30470598112214575   -0.006009762974799482
0.011703102038012348   -0.27225280830180765   -0.004561321439247651
-0.012500822025707509   -0.30555655739750603   -0.006976359389269838
0.003781928975231397   -0.30428819070838853   -0.006734648116304893
0.011703102038012348   -0.27225280830180765   -0.004561321439247651
-0.008453732785816098   -0.2728379193145396   -0.005563166391294125
-0.012500822025707509   -0.30555655739750603   -0.006976359389269838
-0.008388053873750655   -0.2724036317808927   -0.005763188149376693
0.003781928975231397   -0.30428819070838853   -0.006734648116304893
-0.012209633856349966   -0.30516270302625037   -0.007279392331065613
-0.008388053873750655   -0.2724036317808927   -0.005763188149376693
-0.012500822025707509   -0.30555655739750603   -0.006976359389269838
0.003781928975231397   -0.30428819070838853   -0.006734648116304893
-0.008388053873750655   -0.2724036317808927   -0.005763188149376693
0.012064372542916457   -0.2717906304925216   -0.0050845656016312015
0.011703102038012348   -0.27225280830180765   -0.004561321439247651
0.003781928975231397   -0.30428819070838853   -0.006734648116304893
-0.008388053873750655   -0.2724036317808927   -0.005763188149376693
0.011703102038012348   -0.27225280830180765   -0.004561321439247651
-0.012500822025707509   -0.30555655739750603   -0.006976359389269838
0.003781928975231397   -0.30428819070838853   -0.006734648116304893
0.012064372542916457   -0.2717906304925216   -0.0050845656016312015
-0.012209633856349966   -0.30516270302625037   -0.007279392331065613
0.00453736677765615   -0.3040762176512235   -0.0074024551185294316
0.012064372542916457   -0.2717906304925216   -0.0050845656016312015
-0.008388053873750655   -0.2724036317808927   -0.005763188149376693
-0.012209633856349966   -0.30516270302625037   -0.007279392331065613
-0.008422139988639785   -0.2721159109813979   -0.005928976137230995
0.00453736677765615   -0.3040762176512235   -0.0074024551185294316
-0.012035633925965575   -0.30496127563412406   -0.007545864311599542
-0.008422139988639785   -0.2721159109813979   -0.005928976137230995
-0.012209633856349966   -0.30516270302625037   -0.007279392331065613
0.00453736677765615   -0.3040762176512235   -0.0074024551185294316
-0.008422139988639785   -0.2721159109813979   -0.005928976137230995
0.012433377730706461   -0.2714761603356076   -0.00555671385786535
0.012064372542916457   -0.2717906304925216   -0.0050845656016312015
0.00453736677765615   -0.3040762176512235   -0.0074024551185294316
-0.008422139988639785   -0.2721159109813979   -0.005928976137230995
0.012064372542916457   -0.2717906304925216   -0.0050845656016312015
-0.012209633856349966   -0.30516270302625037   -0.007279392331065613
-0.012757183995654956   -0.3061543744097322   -0.006632765880507084
-0.00850555685564475   -0.2734324879641339   -0.0053262116495622035
-0.02712728042753269   -0.3062940931835185   -0.007792379982971185
-0.012500822025707509   -0.30555655739750603   -0.006976359389269838
-0.00850555685564475   -0.2734324879641339   -0.0053262116495622035
-0.02739483783662857   -0.27343353941858023   -0.006434444321197659
-0.02712728042753269   -0.3062940931835185   -0.007792379982971185
-0.027397999816529312   -0.27292955955393366   -0.0064121588963851695
-0.012500822025707509   -0.30555655739750603   -0.006976359389269838
-0.026938288498092103   -0.30578037729693064   -0.00780184538127602
-0.027397999816529312   -0.27292955955393366   -0.0064121588963851695
-0.02712728042753269   -0.3062940931835185   -0.007792379982971185
-0.012500822025707509   -0.30555655739750603   -0.006976359389269838
-0.027397999816529312   -0.27292955955393366   -0.0064121588963851695
-0.008453732785816098   -0.2728379193145396   -0.005563166391294125
-0.00850555685564475   -0.2734324879641339   -0.0053262116495622035
-0.012500822025707509   -0.30555655739750603   -0.006976359389269838
-0.027397999816529312   -0.27292955955393366   -0.0064121588963851695
-0.00850555685564475   -0.2734324879641339   -0.0053262116495622035
-0.02712728042753269   -0.3062940931835185   -0.007792379982971185
-0.012500822025707509   -0.30555655739750603   -0.006976359389269838
-0.008453732785816098   -0.2728379193145396   -0.005563166391294125
-0.026938288498092103   -0.30578037729693064   -0.00780184538127602
-0.012209633856349966   -0.30516270302625037   -0.007279392331065613
-0.008453732785816098   -0.2728379193145396   -0.005563166391294125
-0.027397999816529312   -0.27292955955393366   -0.0064121588963851695
-0.026938288498092103   -0.30578037729693064   -0.00780184538127602
-0.027399942428269222   -0.2725669287326485   -0.006353118722927732
-0.012209633856349966   -0.30516270302625037   -0.007279392331065613
-0.026744046273343047   -0.3054492726967082   -0.007772481080035771
-0.027399942428269222   -0.2725669287326485   -0.006353118722927732
-0.026938288498092103   -0.30578037729693064   -0.00780184538127602
-0.012209633856349966   -0.30516270302625037   -0.007279392331065613
-0.027399942428269222   -0.2725669287326485   -0.006353118722927732
-0.008388053873750655   -0.2724036317808927   -0.005763188149376693
-0.008453732785816098   -0.2728379193145396   -0.005563166391294125
-0.012209633856349966   -0.30516270302625037   -0.007279392331065613
-0.027399942428269222   -0.2725669287326485   -0.006353118722927732
-0.008453732785816098   -0.2728379193145396   -0.005563166391294125
-0.026938288498092103   -0.30578037729693064   -0.00780184538127602
-0.012209633856349966   -0.30516270302625037   -0.007279392331065613
-0.008388053873750655   -0.2724036317808927   -0.005763188149376693
-0.026744046273343047   -0.3054492726967082   -0.007772481080035771
-0.012035633925965575   -0.30496127563412406   -0.007545864311599542
-0.008388053873750655   -0.2724036317808927   -0.005763188149376693
-0.027399942428269222   -0.2725669287326485   -0.006353118722927732
-0.026744046273343047   -0.3054492726967082   -0.007772481080035771
-0.027427225487262043   -0.2723458822653338   -0.006259185598531297
-0.012035633925965575   -0.30496127563412406   -0.007545864311599542
-0.026574115288666038   -0.30529767681312053   -0.007706823899215623
-0.027427225487262043   -0.2723458822653338   -0.006259185598531297
-0.026744046273343047   -0.3054492726967082   -0.007772481080035771
-0.012035633925965575   -0.30496127563412406   -0.007545864311599542
-0.027427225487262043   -0.2723458822653338   -0.006259185598531297
-0.008422139988639785   -0.2721159109813979   -0.005928976137230995
-0.008388053873750655   -0.2724036317808927   -0.005763188149376693
-0.012035633925965575   -0.30496127563412406   -0.007545864311599542
-0.027427225487262043   -0.2723458822653338   -0.006259185598531297
-0.008388053873750655   -0.2724036317808927   -0.005763188149376693
-0.026744046273343047   -0.3054492726967082   -0.007772481080035771
-0.02712728042753269   -0.3062940931835185   -0.007792379982971185
-0.02739483783662857   -0.27343353941858023   -0.006434444321197659
-0.041268469024835906   -0.3058378786614104   -0.008839352471228449
-0.026938288498092103   -0.30578037729693064   -0.00780184538127602
-0.02739483783662857   -0.27343353941858023   -0.006434444321197659
-0.04596045359677438   -0.27296451855349707   -0.0074061218462595745
-0.041268469024835906   -0.3058378786614104   -0.008839352471228449
-0.045977494824106645   -0.27254041799918227   -0.0071276862452705324
-0.026938288498092103   -0.30578037729693064   -0.00780184538127602
-0.041092462896550684   -0.30539446293337247   -0.008522786388172398
-0.045977494824106645   -0.27254041799918227   -0.0071276862452705324
-0.041268469024835906   -0.3058378786614104   -0.008839352471228449
-0.026938288498092103   -0.30578037729693064   -0.00780184538127602
-0.045977494824106645   -0.27254041799918227   -0.0071276862452705324
-0.027397999816529312   -0.27292955955393366   -0.0064121588963851695
-0.02739483783662857   -0.27343353941858023   -0.006434444321197659
-0.026938288498092103   -0.30578037729693064   -0.00780184538127602
-0.045977494824106645   -0.27254041799918227   -0.0071276862452705324
-0.02739483783662857   -0.27343353941858023   -0.006434444321197659
-0.041268469024835906   -0.3058378786614104   -0.008839352471228449
-0.026938288498092103   -0.30578037729693064   -0.00780184538127602
-0.027397999816529312   -0.27292955955393366   -0.0064121588963851695
-0.041092462896550684   -0.30539446293337247   -0.008522786388172398
-0.026744046273343047   -0.3054492726967082   -0.007772481080035771
-0.027397999816529312   -0.27292955955393366   -0.0064121588963851695
-0.045977494824106645   -0.27254041799918227   -0.0071276862452705324
-0.041092462896550684   -0.30539446293337247   -0.008522786388172398
-0.045962817309238416   -0.2722564118064798   -0.006813185530778901
-0.026744046273343047   -0.3054492726967082   -0.007772481080035771
-0.0408798406090206   -0.3051316340914713   -0.008168206055393035
-0.045962817309238416   -0.2722564118064798   -0.006813185530778901
-0.041092462896550684   -0.30539446293337247   -0.008522786388172398
-0.026744046273343047   -0.3054492726967082   -0.007772481080035771
-0.045962817309238416   -0.2722564118064798   -0.006813185530778901
-0.027399942428269222   -0.2725669287326485   -0.006353118722927732
-0.027397999816529312   -0.27292955955393366   -0.0064121588963851695
-0.026744046273343047   -0.3054492726967082   -0.007772481080035771
-0.045962817309238416   -0.2722564118064798   -0.006813185530778901
-0.027397999816529312   -0.27292955955393366   -0.0064121588963851695
-0.041092462896550684   -0.30539446293337247   -0.008522786388172398
-0.026744046273343047   -0.3054492726967082   -0.007772481080035771
-0.027399942428269222   -0.2725669287326485   -0.006353118722927732
-0.0408798406090206   -0.3051316340914713   -0.008168206055393035
-0.026574115288666038   -0.30529767681312053   -0.007706823899215623
-0.027399942428269222   -0.2725669287326485   -0.006353118722927732
-0.045962817309238416   -0.2722564118064798   -0.006813185530778901
-0.0408798406090206   -0.3051316340914713   -0.008168206055393035
-0.04595375261091136   -0.2721099952118214   -0.006463682946781938
-0.026574115288666038   -0.30529767681312053   -0.007706823899215623
-0.040672839833388895   -0.30504083174560703   -0.0077767887007349915
-0.04595375261091136   -0.2721099952118214   -0.006463682946781938
-0.0408798406090206   -0.3051316340914713   -0.008168206055393035
-0.026574115288666038   -0.30529767681312053   -0.007706823899215623
-0.04595375261091136   -0.2721099952118214   -0.006463682946781938
-0.027427225487262043   -0.2723458822653338   -0.006259185598531297
-0.027399942428269222   -0.2725669287326485   -0.006353118722927732
-0.026574115288666038   -0.30529767681312053   -0.007706823899215623
-0.04595375261091136   -0.2721099952118214   -0.006463682946781938
-0.027399942428269222   -0.2725669287326485   -0.006353118722927732
-0.0408798406090206   -0.3051316340914713   -0.008168206055393035
-0.041268469024835906   -0.3058378786614104   -0.008839352471228449
-0.04596045359677438   -0.27296451855349707   -0.0074061218462595745
-0.05609192696659013   -0.3048023175502815   -0.009769117710479894
-0.041092462896550684   -0.30539446293337247   -0.008522786388172398
-0.04596045359677438   -0.27296451855349707   -0.0074061218462595745
-0.0651066207246889   -0.27204353197690184   -0.00824264512637175
-0.05609192696659013   -0.3048023175502815   -0.009769117710479894
-0.06508521151064765   -0.2716961756277657   -0.007705093931634382
-0.041092462896550684   -0.30539446293337247   -0.008522786388172398
-0.055862914269278745   -0.3044263172405204   -0.00912625575315652
-0.06508521151064765   -0.2716961756277657   -0.007705093931634382
-0.05609192696659013   -0.3048023175502815   -0.009769117710479894
-0.041092462896550684   -0.30539446293337247   -0.008522786388172398
-0.06508521151064765   -0.2716961756277657   -0.007705093931634382
-0.045977494824106645   -0.27254041799918227   -0.0071276862452705324
-0.04596045359677438   -0.27296451855349707   -0.0074061218462595745
-0.041092462896550684   -0.30539446293337247   -0.008522786388172398
-0.06508521151064765   -0.2716961756277657   -0.007705093931634382
-0.04596045359677438   -0.27296451855349707   -0.0074061218462595745
-0.05609192696659013   -0.3048023175502815   -0.009769117710479894
-0.041092462896550684   -0.30539446293337247   -0.008522786388172398
-0.045977494824106645   -0.27254041799918227   -0.0071276862452705324
-0.055862914269278745   -0.3044263172405204   -0.00912625575315652
-0.0408798406090206   -0.3051316340914713   -0.008168206055393035
-0.045977494824106645   -0.27254041799918227   -0.0071276862452705324
-0.06508521151064765   -0.2716961756277657   -0.007705093931634382
-0.055862914269278745   -0.3044263172405204   -0.00912625575315652
-0.06492621256278369   -0.2714834472621506   -0.007136898301086056
-0.0408798406090206   -0.3051316340914713   -0.008168206055393035
-0.05547518308754103   -0.30422539345325766   -0.008451178398532166
-0.06492621256278369   -0.2714834472621506   -0.007136898301086056
-0.055862914269278745   -0.3044263172405204   -0.00912625575315652
-0.0408798406090206   -0.3051316340914713   -0.008168206055393035
-0.06492621256278369   -0.2714834472621506   -0.007136898301086056
-0.045962817309238416   -0.2722564118064798   -0.006813185530778901
-0.045977494824106645   -0.27254041799918227   -0.0071276862452705324
-0.0408798406090206   -0.3051316340914713   -0.008168206055393035
-0.06492621256278369   -0.2714834472621506   -0.007136898301086056
-0.045977494824106645   -0.27254041799918227   -0.0071276862452705324
-0.055862914269278745   -0.3044263172405204   -0.00912625575315652
-0.0408798406090206   -0.3051316340914713   -0.008168206055393035
-0.045962817309238416   -0.2722564118064798   -0.006813185530778901
-0.05547518308754103   -0.30422539345325766   -0.008451178398532166
-0.040672839833388895   -0.30504083174560703   -0.0077767887007349915
-0.045962817309238416   -0.2722564118064798   -0.006813185530778901
-0.06492621256278369   -0.2714834472621506   -0.007136898301086056
-0.05547518308754103   -0.30422539345325766   -0.008451178398532166
-0.06481958222668735   -0.27141982404506726   -0.006530913612243537
-0.040672839833388895   -0.30504083174560703   -0.0077767887007349915
-0.055159181250100324   -0.30420996980235065   -0.007733930380807935
-0.06481958222668735   -0.27141982404506726   -0.006530913612243537
-0.05547518308754103   -0.30422539345325766   -0.008451178398532166
-0.040672839833388895   -0.30504083174560703   -0.0077767887007349915
-0.06481958222668735   -0.27141982404506726   -0.006530913612243537
-0.04595375261091136   -0.2721099952118214   -0.006463682946781938
-0.045962817309238416   -0.2722564118064798   -0.006813185530778901
-0.040672839833388895   -0.30504083174560703   -0.0077767887007349915
-0.06481958222668735   -0.27141982404506726   -0.006530913612243537
-0.045962817309238416   -0.2722564118064798   -0.006813185530778901
-0.05547518308754103   -0.30422539345325766   -0.008451178398532166
-0.05609192696659013   -0.3048023175502815   -0.009769117710479894
-0.0651066207246889   -0.27204353197690184   -0.00824264512637175
-0.07338156148267311   -0.3033141623620343   -0.010633279784639953
-0.055862914269278745   -0.3044263172405204   -0.00912625575315652
-0.0651066207246889   -0.27204353197690184   -0.00824264512637175
-0.08649188372227012   -0.2707772788722414   -0.008995421195215951
-0.07338156148267311   -0.3033141623620343   -0.010633279784639953
-0.08570063724953485   -0.27043714238098215   -0.008174002464666432
-0.055862914269278745   -0.3044263172405204   -0.00912625575315652
-0.07221767124722388   -0.3029232833537347   -0.00962767669413969
-0.08570063724953485   -0.27043714238098215   -0.008174002464666432
-0.07338156148267311   -0.3033141623620343   -0.010633279784639953
-0.055862914269278745   -0.3044263172405204   -0.00912625575315652
-0.08570063724953485   -0.27043714238098215   -0.008174002464666432
-0.06508521151064765   -0.2716961756277657   -0.007705093931634382
-0.0651066207246889   -0.27204353197690184   -0.00824264512637175
-0.055862914269278745   -0.3044263172405204   -0.00912625575315652
-0.08570063724953485   -0.27043714238098215   -0.008174002464666432
-0.0651066207246889   -0.27204353197690184   -0.00824264512637175
-0.07338156148267311   -0.3033141623620343   -0.010633279784639953
-0.055862914269278745   -0.3044263172405204   -0.00912625575315652
-0.06508521151064765   -0.2716961756277657   -0.007705093931634382
-0.07221767124722388   -0.3029232833537347   -0.00962767669413969
-0.05547518308754103   -0.30422539345325766   -0.008451178398532166
-0.06508521151064765   -0.2716961756277657   -0.007705093931634382
-0.08570063724953485   -0.27043714238098215   -0.008174002464666432
-0.07221767124722388   -0.3029232833537347   -0.00962767669413969
-0.08502282265620349   -0.2702503661019723   -0.007301181645113153
-0.05547518308754103   -0.30422539345325766   -0.008451178398532166
-0.07120578341194646   -0.3027391561467761   -0.008569083026596876
-0.08502282265620349   -0.2702503661019723   -0.007301181645113153
-0.07221767124722388   -0.3029232833537347   -0.00962767669413969
-0.05547518308754103   -0.30422539345325766   -0.008451178398532166
-0.08502282265620349   -0.2702503661019723   -0.007301181645113153
-0.06492621256278369   -0.2714834472621506   -0.007136898301086056
-0.06508521151064765   -0.2716961756277657   -0.007705093931634382
-0.05547518308754103   -0.30422539345325766   -0.008451178398532166
-0.08502282265620349   -0.2702503661019723   -0.007301181645113153
-0.06508521151064765   -0.2716961756277657   -0.007705093931634382
-0.07221767124722388   -0.3029232833537347   -0.00962767669413969
-0.05547518308754103   -0.30422539345325766   -0.008451178398532166
-0.06492621256278369   -0.2714834472621506   -0.007136898301086056
-0.07120578341194646   -0.3027391561467761   -0.008569083026596876
-0.055159181250100324   -0.30420996980235065   -0.007733930380807935
-0.06492621256278369   -0.2714834472621506   -0.007136898301086056
-0.08502282265620349   -0.2702503661019723   -0.007301181645113153
-0.07120578341194646   -0.3027391561467761   -0.008569083026596876
-0.08404307125667795   -0.2703005126266635   -0.006383954787025992
-0.055159181250100324   -0.30420996980235065   -0.007733930380807935
-0.0698417571480553   -0.30283897843233687   -0.0074642683181810245
-0.08404307125667795   -0.2703005126266635   -0.006383954787025992
-0.07120578341194646   -0.3027391561467761   -0.008569083026596876
-0.055159181250100324   -0.30420996980235065   -0.007733930380807935
-0.08404307125667795   -0.2703005126266635   -0.006383954787025992
-0.06481958222668735   -0.27141982404506726   -0.006530913612243537
-0.06492621256278369   -0.2714834472621506   -0.007136898301086056
-0.055159181250100324   -0.30420996980235065   -0.007733930380807935
-0.08404307125667795   -0.2703005126266635   -0.006383954787025992
-0.06492621256278369   -0.2714834472621506   -0.007136898301086056
-0.07120578341194646   -0.3027391561467761   -0.008569083026596876
0.011136087196460599   -0.2729512245400617   -0.003985916232910683
0.01731902365022164   -0.233979203256262   -0.0026534522073549207
-0.00850555685564475   -0.2734324879641339   -0.0053262116495622035
0.011703102038012348   -0.27225280830180765   -0.004561321439247651
0.01731902365022164   -0.233979203256262   -0.0026534522073549207
-0.005942179742017246   -0.2342128090705034   -0.003914709858661001
-0.00850555685564475   -0.2734324879641339   -0.0053262116495622035
-0.006054421719461374   -0.2336325232373637   -0.004041024782748478
0.011703102038012348   -0.27225280830180765   -0.004561321439247651
-0.008453732785816098   -0.2728379193145396   -0.005563166391294125
-0.006054421719461374   -0.2336325232373637   -0.004041024782748478
-0.00850555685564475   -0.2734324879641339   -0.0053262116495622035
0.011703102038012348   -0.27225280830180765   -0.004561321439247651
-0.006054421719461374   -0.2336325232373637   -0.004041024782748478
0.017537375473098124   -0.2333063645645078   -0.003027735927797814
0.01731902365022164   -0.233979203256262   -0.0026534522073549207
0.011703102038012348   -0.27225280830180765   -0.004561321439247651
-0.006054421719461374   -0.2336325232373637   -0.004041024782748478
0.01731902365022164   -0.233979203256262   -0.0026534522073549207
-0.00850555685564475   -0.2734324879641339   -0.0053262116495622035
0.011703102038012348   -0.27225280830180765   -0.004561321439247651
0.017537375473098124   -0.2333063645645078   -0.003027735927797814
-0.008453732785816098   -0.2728379193145396   -0.005563166391294125
0.012064372542916457   -0.2717906304925216   -0.0050845656016312015
0.017537375473098124   -0.2333063645645078   -0.003027735927797814
-0.006054421719461374   -0.2336325232373637   -0.004041024782748478
-0.008453732785816098   -0.2728379193145396   -0.005563166391294125
-0.00617272746813078   -0.23317046138368117   -0.004134508857727691
0.012064372542916457   -0.2717906304925216   -0.0050845656016312015
-0.008388053873750655   -0.2724036317808927   -0.005763188149376693
-0.00617272746813078   -0.23317046138368117   -0.004134508857727691
-0.008453732785816098   -0.2728379193145396   -0.005563166391294125
0.012064372542916457   -0.2717906304925216   -0.0050845656016312015
-0.00617272746813078   -0.23317046138368117   -0.004134508857727691
0.017599635364813477   -0.2328122599137621   -0.0033536185608893272
0.017537375473098124   -0.2333063645645078   -0.003027735927797814
0.012064372542916457   -0.2717906304925216   -0.0050845656016312015
-0.00617272746813078   -0.23317046138368117   -0.004134508857727691
0.017537375473098124   -0.2333063645645078   -0.003027735927797814
-0.008453732785816098   -0.2728379193145396   -0.005563166391294125
0.012064372542916457   -0.2717906304925216   -0.0050845656016312015
0.017599635364813477   -0.2328122599137621   -0.0033536185608893272
-0.008388053873750655   -0.2724036317808927   -0.005763188149376693
0.012433377730706461   -0.2714761603356076   -0.00555671385786535
0.017599635364813477   -0.2328122599137621   -0.0033536185608893272
-0.00617272746813078   -0.23317046138368117   -0.004134508857727691
-0.008388053873750655   -0.2724036317808927   -0.005763188149376693
-0.006371616066936234   -0.23281233423456033   -0.004196279971244284
0.012433377730706461   -0.2714761603356076   -0.00555671385786535
-0.008422139988639785   -0.2721159109813979   -0.005928976137230995
-0.006371616066936234   -0.23281233423456033   -0.004196279971244284
-0.008388053873750655   -0.2724036317808927   -0.005763188149376693
0.012433377730706461   -0.2714761603356076   -0.00555671385786535
-0.006371616066936234   -0.23281233423456033   -0.004196279971244284
0.01762999703201016   -0.2324111912146821   -0.0036333730570084085
0.017599635364813477   -0.2328122599137621   -0.0033536185608893272
0.012433377730706461   -0.2714761603356076   -0.00555671385786535
-0.006371616066936234   -0.23281233423456033   -0.004196279971244284
0.017599635364813477   -0.2328122599137621   -0.0033536185608893272
-0.008388053873750655   -0.2724036317808927   -0.005763188149376693
-0.00850555685564475   -0.2734324879641339   -0.0053262116495622035
-0.005942179742017246   -0.2342128090705034   -0.003914709858661001
-0.02739483783662857   -0.27343353941858023   -0.006434444321197659
-0.008453732785816098   -0.2728379193145396   -0.005563166391294125
-0.005942179742017246   -0.2342128090705034   -0.003914709858661001
-0.02823066038689288   -0.23408862884099033   -0.004956720276855013
-0.02739483783662857   -0.27343353941858023   -0.006434444321197659
-0.028384451488501508   -0.23360236142026358   -0.004896511684593535
-0.008453732785816098   -0.2728379193145396   -0.005563166391294125
-0.027397999816529312   -0.27292955955393366   -0.0064121588963851695
-0.028384451488501508   -0.23360236142026358   -0.004896511684593535
-0.02739483783662857   -0.27343353941858023   -0.006434444321197659
-0.008453732785816098   -0.2728379193145396   -0.005563166391294125
-0.028384451488501508   -0.23360236142026358   -0.004896511684593535
-0.006054421719461374   -0.2336325232373637   -0.004041024782748478
-0.005942179742017246   -0.2342128090705034   -0.003914709858661001
-0.008453732785816098   -0.2728379193145396   -0.005563166391294125
-0.028384451488501508   -0.23360236142026358   -0.004896511684593535
-0.005942179742017246   -0.2342128090705034   -0.003914709858661001
-0.02739483783662857   -0.27343353941858023   -0.006434444321197659
-0.008453732785816098   -0.2728379193145396   -0.005563166391294125
-0.006054421719461374   -0.2336325232373637   -0.004041024782748478
-0.027397999816529312   -0.27292955955393366   -0.0064121588963851695
-0.008388053873750655   -0.2724036317808927   -0.005763188149376693
-0.006054421719461374   -0.2336325232373637   -0.004041024782748478
-0.028384451488501508   -0.23360236142026358   -0.004896511684593535
-0.027397999816529312   -0.27292955955393366   -0.0064121588963851695
-0.02854033694645514   -0.2332174713266621   -0.0048025377470662985
-0.008388053873750655   -0.2724036317808927   -0.005763188149376693
-0.027399942428269222   -0.2725669287326485   -0.006353118722927732
-0.02854033694645514   -0.2332174713266621   -0.0048025377470662985
-0.027397999816529312   -0.27292955955393366   -0.0064121588963851695
-0.008388053873750655   -0.2724036317808927   -0.005763188149376693
-0.02854033694645514   -0.2332174713266621   -0.0048025377470662985
-0.00617272746813078   -0.23317046138368117   -0.004134508857727691
-0.006054421719461374   -0.2336325232373637   -0.004041024782748478
-0.008388053873750655   -0.2724036317808927   -0.005763188149376693
-0.02854033694645514   -0.2332174713266621   -0.0048025377470662985
-0.006054421719461374   -0.2336325232373637   -0.004041024782748478
-0.027397999816529312   -0.27292955955393366   -0.0064121588963851695
-0.008388053873750655   -0.2724036317808927   -0.005763188149376693
-0.00617272746813078   -0.23317046138368117   -0.004134508857727691
-0.027399942428269222   -0.2725669287326485   -0.006353118722927732
-0.008422139988639785   -0.2721159109813979   -0.005928976137230995
-0.00617272746813078   -0.23317046138368117   -0.004134508857727691
-0.02854033694645514   -0.2332174713266621   -0.0048025377470662985
-0.027399942428269222   -0.2725669287326485   -0.006353118722927732
-0.0287202204437964   -0.23293569738066777   -0.00467638436260661
-0.008422139988639785   -0.2721159109813979   -0.005928976137230995
-0.027427225487262043   -0.2723458822653338   -0.006259185598531297
-0.0287202204437964   -0.23293569738066777   -0.00467638436260661
-0.027399942428269222   -0.2725669287326485   -0.006353118722927732
-0.008422139988639785   -0.2721159109813979   -0.005928976137230995
-0.0287202204437964   -0.23293569738066777   -0.00467638436260661
-0.006371616066936234   -0.23281233423456033   -0.004196279971244284
-0.00617272746813078   -0.23317046138368117   -0.004134508857727691
-0.008422139988639785   -0.2721159109813979   -0.005928976137230995
-0.0287202204437964   -0.23293569738066777   -0.00467638436260661
-0.00617272746813078   -0.23317046138368117   -0.004134508857727691
-0.027399942428269222   -0.2725669287326485   -0.006353118722927732
-0.02739483783662857   -0.27343353941858023   -0.006434444321197659
-0.02823066038689288   -0.23408862884099033   -0.004956720276855013
-0.04596045359677438   -0.27296451855349707   -0.0074061218462595745
-0.027397999816529312   -0.27292955955393366   -0.0064121588963851695
-0.02823066038689288   -0.23408862884099033   -0.004956720276855013
-0.05014048502682627   -0.23362788828310388   -0.005849894644511997
-0.04596045359677438   -0.27296451855349707   -0.0074061218462595745
-0.05030599335638272   -0.23322732190162587   -0.005603980400733498
-0.027397999816529312   -0.27292955955393366   -0.0064121588963851695
-0.045977494824106645   -0.27254041799918227   -0.0071276862452705324
-0.05030599335638272   -0.23322732190162587   -0.005603980400733498
-0.04596045359677438   -0.27296451855349707   -0.0074061218462595745
-0.027397999816529312   -0.27292955955393366   -0.0064121588963851695
-0.05030599335638272   -0.23322732190162587   -0.005603980400733498
-0.028384451488501508   -0.23360236142026358   -0.004896511684593535
-0.02823066038689288   -0.23408862884099033   -0.004956720276855013
-0.027397999816529312   -0.27292955955393366   -0.0064121588963851695
-0.05030599335638272   -0.23322732190162587   -0.005603980400733498
-0.02823066038689288   -0.23408862884099033   -0.004956720276855013
-0.04596045359677438   -0.27296451855349707   -0.0074061218462595745
-0.027397999816529312   -0.27292955955393366   -0.0064121588963851695
-0.028384451488501508   -0.23360236142026358   -0.004896511684593535
-0.045977494824106645   -0.27254041799918227   -0.0071276862452705324
-0.027399942428269222   -0.2725669287326485   -0.006353118722927732
-0.028384451488501508   -0.23360236142026358   -0.004896511684593535
-0.05030599335638272   -0.23322732190162587   -0.005603980400733498
-0.045977494824106645   -0.27254041799918227   -0.0071276862452705324
-0.050443411167784856   -0.23292715821919008   -0.005324877909383354
-0.027399942428269222   -0.2725669287326485   -0.006353118722927732
-0.045962817309238416   -0.2722564118064798   -0.006813185530778901
-0.050443411167784856   -0.23292715821919008   -0.005324877909383354
-0.045977494824106645   -0.27254041799918227   -0.0071276862452705324
-0.027399942428269222   -0.2725669287326485   -0.006353118722927732
-0.050443411167784856   -0.23292715821919008   -0.005324877909383354
-0.02854033694645514   -0.2332174713266621   -0.0048025377470662985
-0.028384451488501508   -0.23360236142026358   -0.004896511684593535
-0.027399942428269222   -0.2725669287326485   -0.006353118722927732
-0.050443411167784856   -0.23292715821919008   -0.005324877909383354
-0.028384451488501508   -0.23360236142026358   -0.004896511684593535
-0.045977494824106645   -0.27254041799918227   -0.0071276862452705324
-0.027399942428269222   -0.2725669287326485   -0.006353118722927732
-0.02854033694645514   -0.2332174713266621   -0.0048025377470662985
-0.045962817309238416   -0.2722564118064798   -0.006813185530778901
-0.027427225487262043   -0.2723458822653338   -0.006259185598531297
-0.02854033694645514   -0.2332174713266621   -0.0048025377470662985
-0.050443411167784856   -0.23292715821919008   -0.005324877909383354
-0.045962817309238416   -0.2722564118064798   -0.006813185530778901
-0.05058472857361943   -0.2327269915776999   -0.005013577642388883
-0.027427225487262043   -0.2723458822653338   -0.006259185598531297
-0.04595375261091136   -0.2721099952118214   -0.006463682946781938
-0.05058472857361943   -0.2327269915776999   -0.005013577642388883
-0.045962817309238416   -0.2722564118064798   -0.006813185530778901
-0.027427225487262043   -0.2723458822653338   -0.006259185598531297
-0.05058472857361943   -0.2327269915776999   -0.005013577642388883
-0.0287202204437964   -0.23293569738066777   -0.00467638436260661
-0.02854033694645514   -0.2332174713266621   -0.0048025377470662985
-0.027427225487262043   -0.2723458822653338   -0.006259185598531297
-0.05058472857361943   -0.2327269915776999   -0.005013577642388883
-0.02854033694645514   -0.2332174713266621   -0.0048025377470662985
-0.045962817309238416   -0.2722564118064798   -0.006813185530778901
-0.04596045359677438   -0.27296451855349707   -0.0074061218462595745
-0.05014048502682627   -0.23362788828310388   -0.005849894644511997
-0.0651066207246889   -0.27204353197690184   -0.00824264512637175
-0.045977494824106645   -0.27254041799918227   -0.0071276862452705324
-0.05014048502682627   -0.23362788828310388   -0.005849894644511997
-0.07257166568106163   -0.23283993497603847   -0.0065972813805081024
-0.0651066207246889   -0.27204353197690184   -0.00824264512637175
-0.07270934466310951   -0.2325232779520923   -0.006163173891727423
-0.045977494824106645   -0.27254041799918227   -0.0071276862452705324
-0.06508521151064765   -0.2716961756277657   -0.007705093931634382
-0.07270934466310951   -0.2325232779520923   -0.006163173891727423
-0.0651066207246889   -0.27204353197690184   -0.00824264512637175
-0.045977494824106645   -0.27254041799918227   -0.0071276862452705324
-0.07270934466310951   -0.2325232779520923   -0.006163173891727423
-0.05030599335638272   -0.23322732190162587   -0.005603980400733498
-0.05014048502682627   -0.23362788828310388   -0.005849894644511997
-0.045977494824106645   -0.27254041799918227   -0.0071276862452705324
-0.07270934466310951   -0.2325232779520923   -0.006163173891727423
-0.05014048502682627   -0.23362788828310388   -0.005849894644511997
-0.0651066207246889   -0.27204353197690184   -0.00824264512637175
-0.045977494824106645   -0.27254041799918227   -0.0071276862452705324
-0.05030599335638272   -0.23322732190162587   -0.005603980400733498
-0.06508521151064765   -0.2716961756277657   -0.007705093931634382
-0.045962817309238416   -0.2722564118064798   -0.006813185530778901
-0.05030599335638272   -0.23322732190162587   -0.005603980400733498
-0.07270934466310951   -0.2325232779520923   -0.006163173891727423
-0.06508521151064765   -0.2716961756277657   -0.007705093931634382
-0.07272954454196341   -0.23230055377953643   -0.005700477485632583
-0.045962817309238416   -0.2722564118064798   -0.006813185530778901
-0.06492621256278369   -0.2714834472621506   -0.007136898301086056
-0.07272954454196341   -0.23230055377953643   -0.005700477485632583
-0.06508521151064765   -0.2716961756277657   -0.007705093931634382
-0.045962817309238416   -0.2722564118064798   -0.006813185530778901
-0.07272954454196341   -0.23230055377953643   -0.005700477485632583
-0.050443411167784856   -0.23292715821919008   -0.005324877909383354
-0.05030599335638272   -0.23322732190162587   -0.005603980400733498
-0.045962817309238416   -0.2722564118064798   -0.006813185530778901
-0.07272954454196341   -0.23230055377953643   -0.005700477485632583
-0.05030599335638272   -0.23322732190162587   -0.005603980400733498
-0.06508521151064765   -0.2716961756277657   -0.007705093931634382
-0.045962817309238416   -0.2722564118064798   -0.006813185530778901
-0.050443411167784856   -0.23292715821919008   -0.005324877909383354
-0.06492621256278369   -0.2714834472621506   -0.007136898301086056
-0.04595375261091136   -0.2721099952118214   -0.006463682946781938
-0.050443411167784856   -0.23292715821919008   -0.005324877909383354
-0.07272954454196341   -0.23230055377953643   -0.005700477485632583
-0.06492621256278369   -0.2714834472621506   -0.007136898301086056
-0.07278248806924495   -0.23218675566151406   -0.005203158974175999
-0.04595375261091136   -0.2721099952118214   -0.006463682946781938
-0.06481958222668735   -0.27141982404506726   -0.006530913612243537
-0.07278248806924495   -0.23218675566151406   -0.005203158974175999
-0.06492621256278369   -0.2714834472621506   -0.007136898301086056
-0.04595375261091136   -0.2721099952118214   -0.006463682946781938
-0.07278248806924495   -0.23218675566151406   -0.005203158974175999
-0.05058472857361943   -0.2327269915776999   -0.005013577642388883
-0.050443411167784856   -0.23292715821919008   -0.005324877909383354
-0.04595375261091136   -0.2721099952118214   -0.006463682946781938
-0.07278248806924495   -0.23218675566151406   -0.005203158974175999
-0.050443411167784856   -0.23292715821919008   -0.005324877909383354
-0.06492621256278369   -0.2714834472621506   -0.007136898301086056
-0.0651066207246889   -0.27204353197690184   -0.00824264512637175
-0.07257166568106163   -0.23283993497603847   -0.0065972813805081024
-0.08649188372227012   -0.2707772788722414   -0.008995421195215951
-0.06508521151064765   -0.2716961756277657   -0.007705093931634382
-0.07257166568106163   -0.23283993497603847   -0.0065972813805081024
-0.09702814523846548   -0.23180933061967965   -0.0072355631661406555
-0.08649188372227012   -0.2707772788722414   -0.008995421195215951
-0.09656887898423763   -0.23152011092569413   -0.0066033944257072675
-0.06508521151064765   -0.2716961756277657   -0.007705093931634382
-0.08570063724953485   -0.27043714238098215   -0.008174002464666432
-0.09656887898423763   -0.23152011092569413   -0.0066033944257072675
-0.08649188372227012   -0.2707772788722414   -0.008995421195215951
-0.06508521151064765   -0.2716961756277657   -0.007705093931634382
-0.09656887898423763   -0.23152011092569413   -0.0066033944257072675
-0.07270934466310951   -0.2325232779520923   -0.006163173891727423
-0.07257166568106163   -0.23283993497603847   -0.0065972813805081024
-0.06508521151064765   -0.2716961756277657   -0.007705093931634382
-0.09656887898423763   -0.23152011092569413   -0.0066033944257072675
-0.07257166568106163   -0.23283993497603847   -0.0065972813805081024
-0.08649188372227012   -0.2707772788722414   -0.008995421195215951
-0.06508521151064765   -0.2716961756277657   -0.007705093931634382
-0.07270934466310951   -0.2325232779520923   -0.006163173891727423
-0.08570063724953485   -0.27043714238098215   -0.008174002464666432
-0.06492621256278369   -0.2714834472621506   -0.007136898301086056
-0.07270934466310951   -0.2325232779520923   -0.006163173891727423
-0.09656887898423763   -0.23152011092569413   -0.0066033944257072675
-0.08570063724953485   -0.27043714238098215   -0.008174002464666432
-0.09618114481715952   -0.23133017088730465   -0.005921373101461601
-0.06492621256278369   -0.2714834472621506   -0.007136898301086056
-0.08502282265620349   -0.2702503661019723   -0.007301181645113153
-0.09618114481715952   -0.23133017088730465   -0.005921373101461601
-0.08570063724953485   -0.27043714238098215   -0.008174002464666432
-0.06492621256278369   -0.2714834472621506   -0.007136898301086056
-0.09618114481715952   -0.23133017088730465   -0.005921373101461601
-0.07272954454196341   -0.23230055377953643   -0.005700477485632583
-0.07270934466310951   -0.2325232779520923   -0.006163173891727423
-0.06492621256278369   -0.2714834472621506   -0.007136898301086056
-0.09618114481715952   -0.23133017088730465   -0.005921373101461601
-0.07270934466310951   -0.2325232779520923   -0.006163173891727423
-0.08570063724953485   -0.27043714238098215   -0.008174002464666432
-0.06492621256278369   -0.2714834472621506   -0.007136898301086056
-0.07272954454196341   -0.23230055377953643   -0.005700477485632583
-0.08502282265620349   -0.2702503661019723   -0.007301181645113153
-0.06481958222668735   -0.27141982404506726   -0.006530913612243537
-0.07272954454196341   -0.23230055377953643   -0.005700477485632583
-0.09618114481715952   -0.23133017088730465   -0.005921373101461601
-0.08502282265620349   -0.2702503661019723   -0.007301181645113153
-0.09553826425469515   -0.23132580098398545   -0.005195694943086881
-0.06481958222668735   -0.27141982404506726   -0.006530913612243537
-0.08404307125667795   -0.2703005126266635   -0.006383954787025992
-0.09553826425469515   -0.23132580098398545   -0.005195694943086881
-0.08502282265620349   -0.2702503661019723   -0.007301181645113153
-0.06481958222668735   -0.27141982404506726   -0.006530913612243537
-0.09553826425469515   -0.23132580098398545   -0.005195694943086881
-0.07278248806924495   -0.23218675566151406   -0.005203158974175999
-0.07272954454196341   -0.23230055377953643   -0.005700477485632583
-0.06481958222668735   -0.27141982404506726   -0.006530913612243537
-0.09553826425469515   -0.23132580098398545   -0.005195694943086881
-0.07272954454196341   -0.23230055377953643   -0.005700477485632583
-0.08502282265620349   -0.2702503661019723   -0.007301181645113153
0.01731902365022164   -0.233979203256262   -0.0026534522073549207
0.020715036166425147   -0.19032532946267047   -0.001346261345532174
-0.005942179742017246   -0.2342128090705034   -0.003914709858661001
0.017537375473098124   -0.2333063645645078   -0.003027735927797814
0.020715036166425147   -0.19032532946267047   -0.001346261345532174
-0.005068809285226542   -0.19031483094747326   -0.0025169789329414502
-0.005942179742017246   -0.2342128090705034   -0.003914709858661001
-0.005303165767755302   -0.18975305526257222   -0.002531738755183833
0.017537375473098124   -0.2333063645645078   -0.003027735927797814
-0.006054421719461374   -0.2336325232373637   -0.004041024782748478
-0.005303165767755302   -0.18975305526257222   -0.002531738755183833
-0.005942179742017246   -0.2342128090705034   -0.003914709858661001
0.017537375473098124   -0.2333063645645078   -0.003027735927797814
-0.005303165767755302   -0.18975305526257222   -0.002531738755183833
0.02063197742166723   -0.18968083808038294   -0.0015225361063424929
0.020715036166425147   -0.19032532946267047   -0.001346261345532174
0.017537375473098124   -0.2333063645645078   -0.003027735927797814
-0.005303165767755302   -0.18975305526257222   -0.002531738755183833
0.020715036166425147   -0.19032532946267047   -0.001346261345532174
-0.005942179742017246   -0.2342128090705034   -0.003914709858661001
0.017537375473098124   -0.2333063645645078   -0.003027735927797814
0.02063197742166723   -0.18968083808038294   -0.0015225361063424929
-0.006054421719461374   -0.2336325232373637   -0.004041024782748478
0.017599635364813477   -0.2328122599137621   -0.0033536185608893272
0.02063197742166723   -0.18968083808038294   -0.0015225361063424929
-0.005303165767755302   -0.18975305526257222   -0.002531738755183833
-0.006054421719461374   -0.2336325232373637   -0.004041024782748478
-0.005563508518267818   -0.18926690544129704   -0.0025175257784310835
0.017599635364813477   -0.2328122599137621   -0.0033536185608893272
-0.00617272746813078   -0.23317046138368117   -0.004134508857727691
-0.005563508518267818   -0.18926690544129704   -0.0025175257784310835
-0.006054421719461374   -0.2336325232373637   -0.004041024782748478
0.017599635364813477   -0.2328122599137621   -0.0033536185608893272
-0.005563508518267818   -0.18926690544129704   -0.0025175257784310835
0.020439356800829193   -0.18915876502056808   -0.0016523735881476594
0.02063197742166723   -0.18968083808038294   -0.0015225361063424929
0.017599635364813477   -0.2328122599137621   -0.0033536185608893272
-0.005563508518267818   -0.18926690544129704   -0.0025175257784310835
0.02063197742166723   -0.18968083808038294   -0.0015225361063424929
-0.006054421719461374   -0.2336325232373637   -0.004041024782748478
0.017599635364813477   -0.2328122599137621   -0.0033536185608893272
0.020439356800829193   -0.18915876502056808   -0.0016523735881476594
-0.00617272746813078   -0.23317046138368117   -0.004134508857727691
0.01762999703201016   -0.2324111912146821   -0.0036333730570084085
0.020439356800829193   -0.18915876502056808   -0.0016523735881476594
-0.005563508518267818   -0.18926690544129704   -0.0025175257784310835
-0.00617272746813078   -0.23317046138368117   -0.004134508857727691
-0.005885315323585129   -0.18884400039529264   -0.002473197820101884
0.01762999703201016   -0.2324111912146821   -0.0036333730570084085
-0.006371616066936234   -0.23281233423456033   -0.004196279971244284
-0.005885315323585129   -0.18884400039529264   -0.002473197820101884
-0.00617272746813078   -0.23317046138368117   -0.004134508857727691
0.01762999703201016   -0.2324111912146821   -0.0036333730570084085
-0.005885315323585129   -0.18884400039529264   -0.002473197820101884
0.020171713402717617   -0.18867553088573338   -0.0017390153409007436
0.020439356800829193   -0.18915876502056808   -0.0016523735881476594
0.01762999703201016   -0.2324111912146821   -0.0036333730570084085
-0.005885315323585129   -0.18884400039529264   -0.002473197820101884
0.020439356800829193   -0.18915876502056808   -0.0016523735881476594
-0.00617272746813078   -0.23317046138368117   -0.004134508857727691
-0.005942179742017246   -0.2342128090705034   -0.003914709858661001
-0.005068809285226542   -0.19031483094747326   -0.0025169789329414502
-0.02823066038689288   -0.23408862884099033   -0.004956720276855013
-0.006054421719461374   -0.2336325232373637   -0.004041024782748478
-0.005068809285226542   -0.19031483094747326   -0.0025169789329414502
-0.029657993147034274   -0.19008065211820152   -0.003487072147896757
-0.02823066038689288   -0.23408862884099033   -0.004956720276855013
-0.029918906108885496   -0.18961269109368833   -0.0033859678703913234
-0.006054421719461374   -0.2336325232373637   -0.004041024782748478
-0.028384451488501508   -0.23360236142026358   -0.004896511684593535
-0.029918906108885496   -0.18961269109368833   -0.0033859678703913234
-0.02823066038689288   -0.23408862884099033   -0.004956720276855013
-0.006054421719461374   -0.2336325232373637   -0.004041024782748478
-0.029918906108885496   -0.18961269109368833   -0.0033859678703913234
-0.005303165767755302   -0.18975305526257222   -0.002531738755183833
-0.005068809285226542   -0.19031483094747326   -0.0025169789329414502
-0.006054421719461374   -0.2336325232373637   -0.004041024782748478
-0.029918906108885496   -0.18961269109368833   -0.0033859678703913234
-0.005068809285226542   -0.19031483094747326   -0.0025169789329414502
-0.02823066038689288   -0.23408862884099033   -0.004956720276855013
-0.006054421719461374   -0.2336325232373637   -0.004041024782748478
-0.005303165767755302   -0.18975305526257222   -0.002531738755183833
-0.028384451488501508   -0.23360236142026358   -0.004896511684593535
-0.00617272746813078   -0.23317046138368117   -0.004134508857727691
-0.005303165767755302   -0.18975305526257222   -0.002531738755183833
-0.029918906108885496   -0.18961269109368833   -0.0033859678703913234
-0.028384451488501508   -0.23360236142026358   -0.004896511684593535
-0.030184977346977185   -0.18920630444681832   -0.0032547195962940667
-0.00617272746813078   -0.23317046138368117   -0.004134508857727691
-0.02854033694645514   -0.2332174713266621   -0.0048025377470662985
-0.030184977346977185   -0.18920630444681832   -0.0032547195962940667
-0.028384451488501508   -0.23360236142026358   -0.004896511684593535
-0.00617272746813078   -0.23317046138368117   -0.004134508857727691
-0.030184977346977185   -0.18920630444681832   -0.0032547195962940667
-0.005563508518267818   -0.18926690544129704   -0.0025175257784310835
-0.005303165767755302   -0.18975305526257222   -0.002531738755183833
-0.00617272746813078   -0.23317046138368117   -0.004134508857727691
-0.030184977346977185   -0.18920630444681832   -0.0032547195962940667
-0.005303165767755302   -0.18975305526257222   -0.002531738755183833
-0.028384451488501508   -0.23360236142026358   -0.004896511684593535
-0.00617272746813078   -0.23317046138368117   -0.004134508857727691
-0.005563508518267818   -0.18926690544129704   -0.0025175257784310835
-0.02854033694645514   -0.2332174713266621   -0.0048025377470662985
-0.006371616066936234   -0.23281233423456033   -0.004196279971244284
-0.005563508518267818   -0.18926690544129704   -0.0025175257784310835
-0.030184977346977185   -0.18920630444681832   -0.0032547195962940667
-0.02854033694645514   -0.2332174713266621   -0.0048025377470662985
-0.030473329455600304   -0.18886522364656436   -0.0030946998026037424
-0.006371616066936234   -0.23281233423456033   -0.004196279971244284
-0.0287202204437964   -0.23293569738066777   -0.00467638436260661
-0.030473329455600304   -0.18886522364656436   -0.0030946998026037424
-0.02854033694645514   -0.2332174713266621   -0.0048025377470662985
-0.006371616066936234   -0.23281233423456033   -0.004196279971244284
-0.030473329455600304   -0.18886522364656436   -0.0030946998026037424
-0.005885315323585129   -0.18884400039529264   -0.002473197820101884
-0.005563508518267818   -0.18926690544129704   -0.0025175257784310835
-0.006371616066936234   -0.23281233423456033   -0.004196279971244284
-0.030473329455600304   -0.18886522364656436   -0.0030946998026037424
-0.005563508518267818   -0.18926690544129704   -0.0025175257784310835
-0.02854033694645514   -0.2332174713266621   -0.0048025377470662985
-0.02823066038689288   -0.23408862884099033   -0.004956720276855013
-0.029657993147034274   -0.19008065211820152   -0.003487072147896757
-0.05014048502682627   -0.23362788828310388   -0.005849894644511997
-0.028384451488501508   -0.23360236142026358   -0.004896511684593535
-0.029657993147034274   -0.19008065211820152   -0.003487072147896757
-0.05383120807851504   -0.18964713774901212   -0.004307649093170283
-0.05014048502682627   -0.23362788828310388   -0.005849894644511997
-0.05409936195613138   -0.18926592815507307   -0.004090767616212274
-0.028384451488501508   -0.23360236142026358   -0.004896511684593535
-0.05030599335638272   -0.23322732190162587   -0.005603980400733498
-0.05409936195613138   -0.18926592815507307   -0.004090767616212274
-0.05014048502682627   -0.23362788828310388   -0.005849894644511997
-0.028384451488501508   -0.23360236142026358   -0.004896511684593535
-0.05409936195613138   -0.18926592815507307   -0.004090767616212274
-0.029918906108885496   -0.18961269109368833   -0.0033859678703913234
-0.029657993147034274   -0.19008065211820152   -0.003487072147896757
-0.028384451488501508   -0.23360236142026358   -0.004896511684593535
-0.05409936195613138   -0.18926592815507307   -0.004090767616212274
-0.029657993147034274   -0.19008065211820152   -0.003487072147896757
-0.05014048502682627   -0.23362788828310388   -0.005849894644511997
-0.028384451488501508   -0.23360236142026358   -0.004896511684593535
-0.029918906108885496   -0.18961269109368833   -0.0033859678703913234
-0.05030599335638272   -0.23322732190162587   -0.005603980400733498
-0.02854033694645514   -0.2332174713266621   -0.0048025377470662985
-0.029918906108885496   -0.18961269109368833   -0.0033859678703913234
-0.05409936195613138   -0.18926592815507307   -0.004090767616212274
-0.05030599335638272   -0.23322732190162587   -0.005603980400733498
-0.054342843678429224   -0.1889458564334505   -0.003844431578329752
-0.02854033694645514   -0.2332174713266621   -0.0048025377470662985
-0.050443411167784856   -0.23292715821919008   -0.005324877909383354
-0.054342843678429224   -0.1889458564334505   -0.003844431578329752
-0.05030599335638272   -0.23322732190162587   -0.005603980400733498
-0.02854033694645514   -0.2332174713266621   -0.0048025377470662985
-0.054342843678429224   -0.1889458564334505   -0.003844431578329752
-0.030184977346977185   -0.18920630444681832   -0.0032547195962940667
-0.029918906108885496   -0.18961269109368833   -0.0033859678703913234
-0.02854033694645514   -0.2332174713266621   -0.0048025377470662985
-0.054342843678429224   -0.1889458564334505   -0.003844431578329752
-0.029918906108885496   -0.18961269109368833   -0.0033859678703913234
-0.05030599335638272   -0.23322732190162587   -0.005603980400733498
-0.02854033694645514   -0.2332174713266621   -0.0048025377470662985
-0.030184977346977185   -0.18920630444681832   -0.0032547195962940667
-0.050443411167784856   -0.23292715821919008   -0.005324877909383354
-0.0287202204437964   -0.23293569738066777   -0.00467638436260661
-0.030184977346977185   -0.18920630444681832   -0.0032547195962940667
-0.054342843678429224   -0.1889458564334505   -0.003844431578329752
-0.050443411167784856   -0.23292715821919008   -0.005324877909383354
-0.05458860451887043   -0.18868749308043198   -0.0035697797033717813
-0.0287202204437964   -0.23293569738066777   -0.00467638436260661
-0.05058472857361943   -0.2327269915776999   -0.005013577642388883
-0.05458860451887043   -0.18868749308043198   -0.0035697797033717813
-0.050443411167784856   -0.23292715821919008   -0.005324877909383354
-0.0287202204437964   -0.23293569738066777   -0.00467638436260661
-0.05458860451887043   -0.18868749308043198   -0.0035697797033717813
-0.030473329455600304   -0.18886522364656436   -0.0030946998026037424
-0.030184977346977185   -0.18920630444681832   -0.0032547195962940667
-0.0287202204437964   -0.23293569738066777   -0.00467638436260661
-0.05458860451887043   -0.18868749308043198   -0.0035697797033717813
-0.030184977346977185   -0.18920630444681832   -0.0032547195962940667
-0.050443411167784856   -0.23292715821919008   -0.005324877909383354
-0.05014048502682627   -0.23362788828310388   -0.005849894644511997
-0.05383120807851504   -0.18964713774901212   -0.004307649093170283
-0.07257166568106163   -0.23283993497603847   -0.0065972813805081024
-0.05030599335638272   -0.23322732190162587   -0.005603980400733498
-0.05383120807851504   -0.18964713774901212   -0.004307649093170283
-0.07848223193935909   -0.18900499607733684   -0.0049802986162402205
-0.07257166568106163   -0.23283993497603847   -0.0065972813805081024
-0.07873164044424302   -0.18871139496008082   -0.0046467769459591895
-0.05030599335638272   -0.23322732190162587   -0.005603980400733498
-0.07270934466310951   -0.2325232779520923   -0.006163173891727423
-0.07873164044424302   -0.18871139496008082   -0.0046467769459591895
-0.07257166568106163   -0.23283993497603847   -0.0065972813805081024
-0.05030599335638272   -0.23322732190162587   -0.005603980400733498
-0.07873164044424302   -0.18871139496008082   -0.0046467769459591895
-0.05409936195613138   -0.18926592815507307   -0.004090767616212274
-0.05383120807851504   -0.18964713774901212   -0.004307649093170283
-0.05030599335638272   -0.23322732190162587   -0.005603980400733498
-0.07873164044424302   -0.18871139496008082   -0.0046467769459591895
-0.05383120807851504   -0.18964713774901212   -0.004307649093170283
-0.07257166568106163   -0.23283993497603847   -0.0065972813805081024
-0.05030599335638272   -0.23322732190162587   -0.005603980400733498
-0.05409936195613138   -0.18926592815507307   -0.004090767616212274
-0.07270934466310951   -0.2325232779520923   -0.006163173891727423
-0.050443411167784856   -0.23292715821919008   -0.005324877909383354
-0.05409936195613138   -0.18926592815507307   -0.004090767616212274
-0.07873164044424302   -0.18871139496008082   -0.0046467769459591895
-0.07270934466310951   -0.2325232779520923   -0.006163173891727423
-0.07888434203214244   -0.1884707985599855   -0.0042878102446973106
-0.050443411167784856   -0.23292715821919008   -0.005324877909383354
-0.07272954454196341   -0.23230055377953643   -0.005700477485632583
-0.07888434203214244   -0.1884707985599855   -0.0042878102446973106
-0.07270934466310951   -0.2325232779520923   -0.006163173891727423
-0.050443411167784856   -0.23292715821919008   -0.005324877909383354
-0.07888434203214244   -0.1884707985599855   -0.0042878102446973106
-0.054342843678429224   -0.1889458564334505   -0.003844431578329752
-0.05409936195613138   -0.18926592815507307   -0.004090767616212274
-0.050443411167784856   -0.23292715821919008   -0.005324877909383354
-0.07888434203214244   -0.1884707985599855   -0.0042878102446973106
-0.05409936195613138   -0.18926592815507307   -0.004090767616212274
-0.07270934466310951   -0.2325232779520923   -0.006163173891727423
-0.050443411167784856   -0.23292715821919008   -0.005324877909383354
-0.054342843678429224   -0.1889458564334505   -0.003844431578329752
-0.07272954454196341   -0.23230055377953643   -0.005700477485632583
-0.05058472857361943   -0.2327269915776999   -0.005013577642388883
-0.054342843678429224   -0.1889458564334505   -0.003844431578329752
-0.07888434203214244   -0.1884707985599855   -0.0042878102446973106
-0.07272954454196341   -0.23230055377953643   -0.005700477485632583
-0.07905121871201735   -0.18829718192626857   -0.0038981206296982355
-0.05058472857361943   -0.2327269915776999   -0.005013577642388883
-0.07278248806924495   -0.23218675566151406   -0.005203158974175999
-0.07905121871201735   -0.18829718192626857   -0.0038981206296982355
-0.07272954454196341   -0.23230055377953643   -0.005700477485632583
-0.05058472857361943   -0.2327269915776999   -0.005013577642388883
-0.07905121871201735   -0.18829718192626857   -0.0038981206296982355
-0.05458860451887043   -0.18868749308043198   -0.0035697797033717813
-0.054342843678429224   -0.1889458564334505   -0.003844431578329752
-0.05058472857361943   -0.2327269915776999   -0.005013577642388883
-0.07905121871201735   -0.18829718192626857   -0.0038981206296982355
-0.054342843678429224   -0.1889458564334505   -0.003844431578329752
-0.07272954454196341   -0.23230055377953643   -0.005700477485632583
-0.07257166568106163   -0.23283993497603847   -0.0065972813805081024
-0.07848223193935909   -0.18900499607733684   -0.0049802986162402205
-0.09702814523846548   -0.23180933061967965   -0.0072355631661406555
-0.07270934466310951   -0.2325232779520923   -0.006163173891727423
-0.07848223193935909   -0.18900499607733684   -0.0049802986162402205
-0.1049312941622907   -0.18821784817835577   -0.005516567551166628
-0.09702814523846548   -0.23180933061967965   -0.0072355631661406555
-0.10475804850109938   -0.18796944930371723   -0.005073975898929696
-0.07270934466310951   -0.2325232779520923   -0.006163173891727423
-0.09656887898423763   -0.23152011092569413   -0.0066033944257072675
-0.10475804850109938   -0.18796944930371723   -0.005073975898929696
-0.09702814523846548   -0.23180933061967965   -0.0072355631661406555
-0.07270934466310951   -0.2325232779520923   -0.006163173891727423
-0.10475804850109938   -0.18796944930371723   -0.005073975898929696
-0.07873164044424302   -0.18871139496008082   -0.0046467769459591895
-0.07848223193935909   -0.18900499607733684   -0.0049802986162402205
-0.07270934466310951   -0.2325232779520923   -0.006163173891727423
-0.10475804850109938   -0.18796944930371723   -0.005073975898929696
-0.07848223193935909   -0.18900499607733684   -0.0049802986162402205
-0.09702814523846548   -0.23180933061967965   -0.0072355631661406555
-0.07270934466310951   -0.2325232779520923   -0.006163173891727423
-0.07873164044424302   -0.18871139496008082   -0.0046467769459591895
-0.09656887898423763   -0.23152011092569413   -0.0066033944257072675
-0.07272954454196341   -0.23230055377953643   -0.005700477485632583
-0.07873164044424302   -0.18871139496008082   -0.0046467769459591895
-0.10475804850109938   -0.18796944930371723   -0.005073975898929696
-0.09656887898423763   -0.23152011092569413   -0.0066033944257072675
-0.10461698795336989   -0.187766259691134   -0.004584700039154087
-0.07272954454196341   -0.23230055377953643   -0.005700477485632583
-0.09618114481715952   -0.23133017088730465   -0.005921373101461601
-0.10461698795336989   -0.187766259691134   -0.004584700039154087
-0.09656887898423763   -0.23152011092569413   -0.0066033944257072675
-0.07272954454196341   -0.23230055377953643   -0.005700477485632583
-0.10461698795336989   -0.187766259691134   -0.004584700039154087
-0.07888434203214244   -0.1884707985599855   -0.0042878102446973106
-0.07873164044424302   -0.18871139496008082   -0.0046467769459591895
-0.07272954454196341   -0.23230055377953643   -0.005700477485632583
-0.10461698795336989   -0.187766259691134   -0.004584700039154087
-0.07873164044424302   -0.18871139496008082   -0.0046467769459591895
-0.09656887898423763   -0.23152011092569413   -0.0066033944257072675
-0.07272954454196341   -0.23230055377953643   -0.005700477485632583
-0.07888434203214244   -0.1884707985599855   -0.0042878102446973106
-0.09618114481715952   -0.23133017088730465   -0.005921373101461601
-0.07278248806924495   -0.23218675566151406   -0.005203158974175999
-0.07888434203214244   -0.1884707985599855   -0.0042878102446973106
-0.10461698795336989   -0.187766259691134   -0.004584700039154087
-0.09618114481715952   -0.23133017088730465   -0.005921373101461601
-0.10426979586116078   -0.18769379843080974   -0.0040540756802717026
-0.07278248806924495   -0.23218675566151406   -0.005203158974175999
-0.09553826425469515   -0.23132580098398545   -0.005195694943086881
-0.10426979586116078   -0.18769379843080974   -0.0040540756802717026
-0.09618114481715952   -0.23133017088730465   -0.005921373101461601
-0.07278248806924495   -0.23218675566151406   -0.005203158974175999
-0.10426979586116078   -0.18769379843080974   -0.0040540756802717026
-0.07905121871201735   -0.18829718192626857   -0.0038981206296982355
-0.07888434203214244   -0.1884707985599855   -0.0042878102446973106
-0.07278248806924495   -0.23218675566151406   -0.005203158974175999
-0.10426979586116078   -0.18769379843080974   -0.0040540756802717026
-0.07888434203214244   -0.1884707985599855   -0.0042878102446973106
-0.09618114481715952   -0.23133017088730465   -0.005921373101461601
0.020715036166425147   -0.19032532946267047   -0.001346261345532174
0.021337062920105954   -0.14372716369576372   -0.00020034928931648912
-0.005068809285226542   -0.19031483094747326   -0.0025169789329414502
0.02063197742166723   -0.18968083808038294   -0.0015225361063424929
0.021337062920105954   -0.14372716369576372   -0.00020034928931648912
-0.005872773701577553   -0.14348317841512315   -0.0012551895559974214
-0.005068809285226542   -0.19031483094747326   -0.0025169789329414502
-0.006192719650698942   -0.14294475389323372   -0.0011589445913617244
0.02063197742166723   -0.18968083808038294   -0.0015225361063424929
-0.005303165767755302   -0.18975305526257222   -0.002531738755183833
-0.006192719650698942   -0.14294475389323372   -0.0011589445913617244
-0.005068809285226542   -0.19031483094747326   -0.0025169789329414502
0.02063197742166723   -0.18968083808038294   -0.0015225361063424929
-0.006192719650698942   -0.14294475389323372   -0.0011589445913617244
0.020992786666639417   -0.14311161259758226   -0.0001759383857670948
0.021337062920105954   -0.14372716369576372   -0.00020034928931648912
0.02063197742166723   -0.18968083808038294   -0.0015225361063424929
-0.006192719650698942   -0.14294475389323372   -0.0011589445913617244
0.021337062920105954   -0.14372716369576372   -0.00020034928931648912
-0.005068809285226542   -0.19031483094747326   -0.0025169789329414502
0.02063197742166723   -0.18968083808038294   -0.0015225361063424929
0.020992786666639417   -0.14311161259758226   -0.0001759383857670948
-0.005303165767755302   -0.18975305526257222   -0.002531738755183833
0.020439356800829193   -0.18915876502056808   -0.0016523735881476594
0.020992786666639417   -0.14311161259758226   -0.0001759383857670948
-0.006192719650698942   -0.14294475389323372   -0.0011589445913617244
-0.005303165767755302   -0.18975305526257222   -0.002531738755183833
-0.006558642461695285   -0.1424346895147944   -0.0010365528052361749
0.020439356800829193   -0.18915876502056808   -0.0016523735881476594
-0.005563508518267818   -0.18926690544129704   -0.0025175257784310835
-0.006558642461695285   -0.1424346895147944   -0.0010365528052361749
-0.005303165767755302   -0.18975305526257222   -0.002531738755183833
0.020439356800829193   -0.18915876502056808   -0.0016523735881476594
-0.006558642461695285   -0.1424346895147944   -0.0010365528052361749
0.02057388880132083   -0.14255872292832045   -9.801785202805822e-05
0.020992786666639417   -0.14311161259758226   -0.0001759383857670948
0.020439356800829193   -0.18915876502056808   -0.0016523735881476594
-0.006558642461695285   -0.1424346895147944   -0.0010365528052361749
0.020992786666639417   -0.14311161259758226   -0.0001759383857670948
-0.005303165767755302   -0.18975305526257222   -0.002531738755183833
0.020439356800829193   -0.18915876502056808   -0.0016523735881476594
0.02057388880132083   -0.14255872292832045   -9.801785202805822e-05
-0.005563508518267818   -0.18926690544129704   -0.0025175257784310835
0.020171713402717617   -0.18867553088573338   -0.0017390153409007436
0.02057388880132083   -0.14255872292832045   -9.801785202805822e-05
-0.006558642461695285   -0.1424346895147944   -0.0010365528052361749
-0.005563508518267818   -0.18926690544129704   -0.0025175257784310835
-0.006968434620956375   -0.1419461012721534   -0.0008814433285203812
0.020171713402717617   -0.18867553088573338   -0.0017390153409007436
-0.005885315323585129   -0.18884400039529264   -0.002473197820101884
-0.006968434620956375   -0.1419461012721534   -0.0008814433285203812
-0.005563508518267818   -0.18926690544129704   -0.0025175257784310835
0.020171713402717617   -0.18867553088573338   -0.0017390153409007436
-0.006968434620956375   -0.1419461012721534   -0.0008814433285203812
0.020022675618892975   -0.14197894589521762   3.096473643795424e-05
0.02057388880132083   -0.14255872292832045   -9.801785202805822e-05
0.020171713402717617   -0.18867553088573338   -0.0017390153409007436
-0.006968434620956375   -0.1419461012721534   -0.0008814433285203812
0.02057388880132083   -0.14255872292832045   -9.801785202805822e-05
-0.005563508518267818   -0.18926690544129704   -0.0025175257784310835
-0.005068809285226542   -0.19031483094747326   -0.0025169789329414502
-0.005872773701577553   -0.14348317841512315   -0.0012551895559974214
-0.029657993147034274   -0.19008065211820152   -0.003487072147896757
-0.005303165767755302   -0.18975305526257222   -0.002531738755183833
-0.005872773701577553   -0.14348317841512315   -0.0012551895559974214
-0.03165675057646457   -0.1432036384891041   -0.002151884598664977
-0.029657993147034274   -0.19008065211820152   -0.003487072147896757
-0.031981895586478196   -0.1427515441987009   -0.002007545239346177
-0.005303165767755302   -0.18975305526257222   -0.002531738755183833
-0.029918906108885496   -0.18961269109368833   -0.0033859678703913234
-0.031981895586478196   -0.1427515441987009   -0.002007545239346177
-0.029657993147034274   -0.19008065211820152   -0.003487072147896757
-0.005303165767755302   -0.18975305526257222   -0.002531738755183833
-0.031981895586478196   -0.1427515441987009   -0.002007545239346177
-0.006192719650698942   -0.14294475389323372   -0.0011589445913617244
-0.005872773701577553   -0.14348317841512315   -0.0012551895559974214
-0.005303165767755302   -0.18975305526257222   -0.002531738755183833
-0.031981895586478196   -0.1427515441987009   -0.002007545239346177
-0.005872773701577553   -0.14348317841512315   -0.0012551895559974214
-0.029657993147034274   -0.19008065211820152   -0.003487072147896757
-0.005303165767755302   -0.18975305526257222   -0.002531738755183833
-0.006192719650698942   -0.14294475389323372   -0.0011589445913617244
-0.029918906108885496   -0.18961269109368833   -0.0033859678703913234
-0.005563508518267818   -0.18926690544129704   -0.0025175257784310835
-0.006192719650698942   -0.14294475389323372   -0.0011589445913617244
-0.031981895586478196   -0.1427515441987009   -0.002007545239346177
-0.029918906108885496   -0.18961269109368833   -0.0033859678703913234
-0.032314173268245344   -0.14232150565834967   -0.0018383568906681345
-0.005563508518267818   -0.18926690544129704   -0.0025175257784310835
-0.030184977346977185   -0.18920630444681832   -0.0032547195962940667
-0.032314173268245344   -0.14232150565834967   -0.0018383568906681345
-0.029918906108885496   -0.18961269109368833   -0.0033859678703913234
-0.005563508518267818   -0.18926690544129704   -0.0025175257784310835
-0.032314173268245344   -0.14232150565834967   -0.0018383568906681345
-0.006558642461695285   -0.1424346895147944   -0.0010365528052361749
-0.006192719650698942   -0.14294475389323372   -0.0011589445913617244
-0.005563508518267818   -0.18926690544129704   -0.0025175257784310835
-0.032314173268245344   -0.14232150565834967   -0.0018383568906681345
-0.006192719650698942   -0.14294475389323372   -0.0011589445913617244
-0.029918906108885496   -0.18961269109368833   -0.0033859678703913234
-0.005563508518267818   -0.18926690544129704   -0.0025175257784310835
-0.006558642461695285   -0.1424346895147944   -0.0010365528052361749
-0.030184977346977185   -0.18920630444681832   -0.0032547195962940667
-0.005885315323585129   -0.18884400039529264   -0.002473197820101884
-0.006558642461695285   -0.1424346895147944   -0.0010365528052361749
-0.032314173268245344   -0.14232150565834967   -0.0018383568906681345
-0.030184977346977185   -0.18920630444681832   -0.0032547195962940667
-0.032667350798215256   -0.14191997184673819   -0.0016439979969208836
-0.005885315323585129   -0.18884400039529264   -0.002473197820101884
-0.030473329455600304   -0.18886522364656436   -0.0030946998026037424
-0.032667350798215256   -0.14191997184673819   -0.0016439979969208836
-0.030184977346977185   -0.18920630444681832   -0.0032547195962940667
-0.005885315323585129   -0.18884400039529264   -0.002473197820101884
-0.032667350798215256   -0.14191997184673819   -0.0016439979969208836
-0.006968434620956375   -0.1419461012721534   -0.0008814433285203812
-0.006558642461695285   -0.1424346895147944   -0.0010365528052361749
-0.005885315323585129   -0.18884400039529264   -0.002473197820101884
-0.032667350798215256   -0.14191997184673819   -0.0016439979969208836
-0.006558642461695285   -0.1424346895147944   -0.0010365528052361749
-0.030184977346977185   -0.18920630444681832   -0.0032547195962940667
-0.029657993147034274   -0.19008065211820152   -0.003487072147896757
-0.03165675057646457   -0.1432036384891041   -0.002151884598664977
-0.05383120807851504   -0.18964713774901212   -0.004307649093170283
-0.029918906108885496   -0.18961269109368833   -0.0033859678703913234
-0.03165675057646457   -0.1432036384891041   -0.002151884598664977
-0.057023783020611674   -0.1428706293230424   -0.0029157696175144427
-0.05383120807851504   -0.18964713774901212   -0.004307649093170283
-0.057346091024228815   -0.1424988026012988   -0.002723178956871882
-0.029918906108885496   -0.18961269109368833   -0.0033859678703913234
-0.05409936195613138   -0.18926592815507307   -0.004090767616212274
-0.057346091024228815   -0.1424988026012988   -0.002723178956871882
-0.05383120807851504   -0.18964713774901212   -0.004307649093170283
-0.029918906108885496   -0.18961269109368833   -0.0033859678703913234
-0.057346091024228815   -0.1424988026012988   -0.002723178956871882
-0.031981895586478196   -0.1427515441987009   -0.002007545239346177
-0.03165675057646457   -0.1432036384891041   -0.002151884598664977
-0.029918906108885496   -0.18961269109368833   -0.0033859678703913234
-0.057346091024228815   -0.1424988026012988   -0.002723178956871882
-0.03165675057646457   -0.1432036384891041   -0.002151884598664977
-0.05383120807851504   -0.18964713774901212   -0.004307649093170283
-0.029918906108885496   -0.18961269109368833   -0.0033859678703913234
-0.031981895586478196   -0.1427515441987009   -0.002007545239346177
-0.05409936195613138   -0.18926592815507307   -0.004090767616212274
-0.030184977346977185   -0.18920630444681832   -0.0032547195962940667
-0.031981895586478196   -0.1427515441987009   -0.002007545239346177
-0.057346091024228815   -0.1424988026012988   -0.002723178956871882
-0.05409936195613138   -0.18926592815507307   -0.004090767616212274
-0.05764768329514568   -0.14215037150446852   -0.002506592163498974
-0.030184977346977185   -0.18920630444681832   -0.0032547195962940667
-0.054342843678429224   -0.1889458564334505   -0.003844431578329752
-0.05764768329514568   -0.14215037150446852   -0.002506592163498974
-0.05409936195613138   -0.18926592815507307   -0.004090767616212274
-0.030184977346977185   -0.18920630444681832   -0.0032547195962940667
-0.05764768329514568   -0.14215037150446852   -0.002506592163498974
-0.032314173268245344   -0.14232150565834967   -0.0018383568906681345
-0.031981895586478196   -0.1427515441987009   -0.002007545239346177
-0.030184977346977185   -0.18920630444681832   -0.0032547195962940667
-0.05764768329514568   -0.14215037150446852   -0.002506592163498974
-0.031981895586478196   -0.1427515441987009   -0.002007545239346177
-0.05409936195613138   -0.18926592815507307   -0.004090767616212274
-0.030184977346977185   -0.18920630444681832   -0.0032547195962940667
-0.032314173268245344   -0.14232150565834967   -0.0018383568906681345
-0.054342843678429224   -0.1889458564334505   -0.003844431578329752
-0.030473329455600304   -0.18886522364656436   -0.0030946998026037424
-0.032314173268245344   -0.14232150565834967   -0.0018383568906681345
-0.05764768329514568   -0.14215037150446852   -0.002506592163498974
-0.054342843678429224   -0.1889458564334505   -0.003844431578329752
-0.05795034982195935   -0.14182633398495212   -0.002267213580318396
-0.030473329455600304   -0.18886522364656436   -0.0030946998026037424
-0.05458860451887043   -0.18868749308043198   -0.0035697797033717813
-0.05795034982195935   -0.14182633398495212   -0.002267213580318396
-0.054342843678429224   -0.1889458564334505   -0.003844431578329752
-0.030473329455600304   -0.18886522364656436   -0.0030946998026037424
-0.05795034982195935   -0.14182633398495212   -0.002267213580318396
-0.032667350798215256   -0.14191997184673819   -0.0016439979969208836
-0.032314173268245344   -0.14232150565834967   -0.0018383568906681345
-0.030473329455600304   -0.18886522364656436   -0.0030946998026037424
-0.05795034982195935   -0.14182633398495212   -0.002267213580318396
-0.032314173268245344   -0.14232150565834967   -0.0018383568906681345
-0.054342843678429224   -0.1889458564334505   -0.003844431578329752
-0.05383120807851504   -0.18964713774901212   -0.004307649093170283
-0.057023783020611674   -0.1428706293230424   -0.0029157696175144427
-0.07848223193935909   -0.18900499607733684   -0.0049802986162402205
-0.05409936195613138   -0.18926592815507307   -0.004090767616212274
-0.057023783020611674   -0.1428706293230424   -0.0029157696175144427
-0.08284749677324106   -0.14242186918566122   -0.003540353128120142
-0.07848223193935909   -0.18900499607733684   -0.0049802986162402205
-0.08315633740083583   -0.14213452303337448   -0.003300074365599809
-0.05409936195613138   -0.18926592815507307   -0.004090767616212274
-0.07873164044424302   -0.18871139496008082   -0.0046467769459591895
-0.08315633740083583   -0.14213452303337448   -0.003300074365599809
-0.07848223193935909   -0.18900499607733684   -0.0049802986162402205
-0.05409936195613138   -0.18926592815507307   -0.004090767616212274
-0.08315633740083583   -0.14213452303337448   -0.003300074365599809
-0.057346091024228815   -0.1424988026012988   -0.002723178956871882
-0.057023783020611674   -0.1428706293230424   -0.0029157696175144427
-0.05409936195613138   -0.18926592815507307   -0.004090767616212274
-0.08315633740083583   -0.14213452303337448   -0.003300074365599809
-0.057023783020611674   -0.1428706293230424   -0.0029157696175144427
-0.07848223193935909   -0.18900499607733684   -0.0049802986162402205
-0.05409936195613138   -0.18926592815507307   -0.004090767616212274
-0.057346091024228815   -0.1424988026012988   -0.002723178956871882
-0.07873164044424302   -0.18871139496008082   -0.0046467769459591895
-0.054342843678429224   -0.1889458564334505   -0.003844431578329752
-0.057346091024228815   -0.1424988026012988   -0.002723178956871882
-0.08315633740083583   -0.14213452303337448   -0.003300074365599809
-0.07873164044424302   -0.18871139496008082   -0.0046467769459591895
-0.08339159650890444   -0.14186111303516788   -0.0030398338796850293
-0.054342843678429224   -0.1889458564334505   -0.003844431578329752
-0.07888434203214244   -0.1884707985599855   -0.0042878102446973106
-0.08339159650890444   -0.14186111303516788   -0.0030398338796850293
-0.07873164044424302   -0.18871139496008082   -0.0046467769459591895
-0.054342843678429224   -0.1889458564334505   -0.003844431578329752
-0.08339159650890444   -0.14186111303516788   -0.0030398338796850293
-0.05764768329514568   -0.14215037150446852   -0.002506592163498974
-0.057346091024228815   -0.1424988026012988   -0.002723178956871882
-0.054342843678429224   -0.1889458564334505   -0.003844431578329752
-0.08339159650890444   -0.14186111303516788   -0.0030398338796850293
-0.057346091024228815   -0.1424988026012988   -0.002723178956871882
-0.07873164044424302   -0.18871139496008082   -0.0046467769459591895
-0.054342843678429224   -0.1889458564334505   -0.003844431578329752
-0.05764768329514568   -0.14215037150446852   -0.002506592163498974
-0.07888434203214244   -0.1884707985599855   -0.0042878102446973106
-0.05458860451887043   -0.18868749308043198   -0.0035697797033717813
-0.05764768329514568   -0.14215037150446852   -0.002506592163498974
-0.08339159650890444   -0.14186111303516788   -0.0030398338796850293
-0.07888434203214244   -0.1884707985599855   -0.0042878102446973106
-0.08362475609478257   -0.14161335492234428   -0.0027543584648758116
-0.05458860451887043   -0.18868749308043198   -0.0035697797033717813
-0.07905121871201735   -0.18829718192626857   -0.0038981206296982355
-0.08362475609478257   -0.14161335492234428   -0.0027543584648758116
-0.07888434203214244   -0.1884707985599855   -0.0042878102446973106
-0.05458860451887043   -0.18868749308043198   -0.0035697797033717813
-0.08362475609478257   -0.14161335492234428   -0.0027543584648758116
-0.05795034982195935   -0.14182633398495212   -0.002267213580318396
-0.05764768329514568   -0.14215037150446852   -0.002506592163498974
-0.05458860451887043   -0.18868749308043198   -0.0035697797033717813
-0.08362475609478257   -0.14161335492234428   -0.0027543584648758116
-0.05764768329514568   -0.14215037150446852   -0.002506592163498974
-0.07888434203214244   -0.1884707985599855   -0.0042878102446973106
-0.07848223193935909   -0.18900499607733684   -0.0049802986162402205
-0.08284749677324106   -0.14242186918566122   -0.003540353128120142
-0.1049312941622907   -0.18821784817835577   -0.005516567551166628
-0.07873164044424302   -0.18871139496008082   -0.0046467769459591895
-0.08284749677324106   -0.14242186918566122   -0.003540353128120142
-0.11020606736727871   -0.14189416453026715   -0.004007007176039382
-0.1049312941622907   -0.18821784817835577   -0.005516567551166628
-0.11025976725392804   -0.141663071705696   -0.0037436046736476322
-0.07873164044424302   -0.18871139496008082   -0.0046467769459591895
-0.10475804850109938   -0.18796944930371723   -0.005073975898929696
-0.11025976725392804   -0.141663071705696   -0.0037436046736476322
-0.1049312941622907   -0.18821784817835577   -0.005516567551166628
-0.07873164044424302   -0.18871139496008082   -0.0046467769459591895
-0.11025976725392804   -0.141663071705696   -0.0037436046736476322
-0.08315633740083583   -0.14213452303337448   -0.003300074365599809
-0.08284749677324106   -0.14242186918566122   -0.003540353128120142
-0.07873164044424302   -0.18871139496008082   -0.0046467769459591895
-0.11025976725392804   -0.141663071705696   -0.0037436046736476322
-0.08284749677324106   -0.14242186918566122   -0.003540353128120142
-0.1049312941622907   -0.18821784817835577   -0.005516567551166628
-0.07873164044424302   -0.18871139496008082   -0.0046467769459591895
-0.08315633740083583   -0.14213452303337448   -0.003300074365599809
-0.10475804850109938   -0.18796944930371723   -0.005073975898929696
-0.07888434203214244   -0.1884707985599855   -0.0042878102446973106
-0.08315633740083583   -0.14213452303337448   -0.003300074365599809
-0.11025976725392804   -0.141663071705696   -0.0037436046736476322
-0.10475804850109938   -0.18796944930371723   -0.005073975898929696
-0.11031387044891244   -0.14142816555388849   -0.0034399263997050592
-0.07888434203214244   -0.1884707985599855   -0.0042878102446973106
-0.10461698795336989   -0.187766259691134   -0.004584700039154087
-0.11031387044891244   -0.14142816555388849   -0.0034399263997050592
-0.10475804850109938   -0.18796944930371723   -0.005073975898929696
-0.07888434203214244   -0.1884707985599855   -0.0042878102446973106
-0.11031387044891244   -0.14142816555388849   -0.0034399263997050592
-0.08339159650890444   -0.14186111303516788   -0.0030398338796850293
-0.08315633740083583   -0.14213452303337448   -0.003300074365599809
-0.07888434203214244   -0.1884707985599855   -0.0042878102446973106
-0.11031387044891244   -0.14142816555388849   -0.0034399263997050592
-0.08315633740083583   -0.14213452303337448   -0.003300074365599809
-0.10475804850109938   -0.18796944930371723   -0.005073975898929696
-0.07888434203214244   -0.1884707985599855   -0.0042878102446973106
-0.08339159650890444   -0.14186111303516788   -0.0030398338796850293
-0.10461698795336989   -0.187766259691134   -0.004584700039154087
-0.07905121871201735   -0.18829718192626857   -0.0038981206296982355
-0.08339159650890444   -0.14186111303516788   -0.0030398338796850293
-0.11031387044891244   -0.14142816555388849   -0.0034399263997050592
-0.10461698795336989   -0.187766259691134   -0.004584700039154087
-0.11021589719425706   -0.1412681856148571   -0.0031007986233842597
-0.07905121871201735   -0.18829718192626857   -0.0038981206296982355
-0.10426979586116078   -0.18769379843080974   -0.0040540756802717026
-0.11021589719425706   -0.1412681856148571   -0.0031007986233842597
-0.10461698795336989   -0.187766259691134   -0.004584700039154087
-0.07905121871201735   -0.18829718192626857   -0.0038981206296982355
-0.11021589719425706   -0.1412681856148571   -0.0031007986233842597
-0.08362475609478257   -0.14161335492234428   -0.0027543584648758116
-0.08339159650890444   -0.14186111303516788   -0.0030398338796850293
-0.07905121871201735   -0.18829718192626857   -0.0038981206296982355
-0.11021589719425706   -0.1412681856148571   -0.0031007986233842597
-0.08339159650890444   -0.14186111303516788   -0.0030398338796850293
-0.10461698795336989   -0.187766259691134   -0.004584700039154087
0.021337062920105954   -0.14372716369576372   -0.00020034928931648912
0.01907522764476992   -0.0958107988513925   0.0005898657160052064
-0.005872773701577553   -0.14348317841512315   -0.0012551895559974214
0.020992786666639417   -0.14311161259758226   -0.0001759383857670948
0.01907522764476992   -0.0958107988513925   0.0005898657160052064
-0.008301574959340616   -0.09535484876893457   -0.0002530901427405354
-0.005872773701577553   -0.14348317841512315   -0.0012551895559974214
-0.008681736426825154   -0.09486619922055632   -5.5289336854323026e-05
0.020992786666639417   -0.14311161259758226   -0.0001759383857670948
-0.006192719650698942   -0.14294475389323372   -0.0011589445913617244
-0.008681736426825154   -0.09486619922055632   -5.5289336854323026e-05
-0.005872773701577553   -0.14348317841512315   -0.0012551895559974214
0.020992786666639417   -0.14311161259758226   -0.0001759383857670948
-0.008681736426825154   -0.09486619922055632   -5.5289336854323026e-05
0.018473115566577967   -0.09522339197831622   0.0008389063934226288
0.01907522764476992   -0.0958107988513925   0.0005898657160052064
0.020992786666639417   -0.14311161259758226   -0.0001759383857670948
-0.008681736426825154   -0.09486619922055632   -5.5289336854323026e-05
0.01907522764476992   -0.0958107988513925   0.0005898657160052064
-0.005872773701577553   -0.14348317841512315   -0.0012551895559974214
0.020992786666639417   -0.14311161259758226   -0.0001759383857670948
0.018473115566577967   -0.09522339197831622   0.0008389063934226288
-0.006192719650698942   -0.14294475389323372   -0.0011589445913617244
0.02057388880132083   -0.14255872292832045   -9.801785202805822e-05
0.018473115566577967   -0.09522339197831622   0.0008389063934226288
-0.008681736426825154   -0.09486619922055632   -5.5289336854323026e-05
-0.006192719650698942   -0.14294475389323372   -0.0011589445913617244
-0.009125899422953103   -0.09434974932718758   0.00017725913466598784
0.02057388880132083   -0.14255872292832045   -9.801785202805822e-05
-0.006558642461695285   -0.1424346895147944   -0.0010365528052361749
-0.009125899422953103   -0.09434974932718758   0.00017725913466598784
-0.006192719650698942   -0.14294475389323372   -0.0011589445913617244
0.02057388880132083   -0.14255872292832045   -9.801785202805822e-05
-0.009125899422953103   -0.09434974932718758   0.00017725913466598784
0.017803967742383565   -0.09463828706627866   0.0011940317614504848
0.018473115566577967   -0.09522339197831622   0.0008389063934226288
0.02057388880132083   -0.14255872292832045   -9.801785202805822e-05
-0.009125899422953103   -0.09434974932718758   0.00017725913466598784
0.018473115566577967   -0.09522339197831622   0.0008389063934226288
-0.006192719650698942   -0.14294475389323372   -0.0011589445913617244
0.02057388880132083   -0.14255872292832045   -9.801785202805822e-05
0.017803967742383565   -0.09463828706627866   0.0011940317614504848
-0.006558642461695285   -0.1424346895147944   -0.0010365528052361749
0.020022675618892975   -0.14197894589521762   3.096473643795424e-05
0.017803967742383565   -0.09463828706627866   0.0011940317614504848
-0.009125899422953103   -0.09434974932718758   0.00017725913466598784
-0.006558642461695285   -0.1424346895147944   -0.0010365528052361749
-0.009584672845944211   -0.09380073658091904   0.00044400206889682844
0.020022675618892975   -0.14197894589521762   3.096473643795424e-05
-0.006968434620956375   -0.1419461012721534   -0.0008814433285203812
-0.009584672845944211   -0.09380073658091904   0.00044400206889682844
-0.006558642461695285   -0.1424346895147944   -0.0010365528052361749
0.020022675618892975   -0.14197894589521762   3.096473643795424e-05
-0.009584672845944211   -0.09380073658091904   0.00044400206889682844
0.01698663547201302   -0.09392019844836345   0.001584352155913959
0.017803967742383565   -0.09463828706627866   0.0011940317614504848
0.020022675618892975   -0.14197894589521762   3.096473643795424e-05
-0.009584672845944211   -0.09380073658091904   0.00044400206889682844
0.017803967742383565   -0.09463828706627866   0.0011940317614504848
-0.006558642461695285   -0.1424346895147944   -0.0010365528052361749
-0.005872773701577553   -0.14348317841512315   -0.0012551895559974214
-0.008301574959340616   -0.09535484876893457   -0.0002530901427405354
-0.03165675057646457   -0.1432036384891041   -0.002151884598664977
-0.006192719650698942   -0.14294475389323372   -0.0011589445913617244
-0.008301574959340616   -0.09535484876893457   -0.0002530901427405354
-0.034091314958116826   -0.09523707925164322   -0.0010676593992558659
-0.03165675057646457   -0.1432036384891041   -0.002151884598664977
-0.034433865071045684   -0.09480901795171291   -0.0008850057809119916
-0.006192719650698942   -0.14294475389323372   -0.0011589445913617244
-0.031981895586478196   -0.1427515441987009   -0.002007545239346177
-0.034433865071045684   -0.09480901795171291   -0.0008850057809119916
-0.03165675057646457   -0.1432036384891041   -0.002151884598664977
-0.006192719650698942   -0.14294475389323372   -0.0011589445913617244
-0.034433865071045684   -0.09480901795171291   -0.0008850057809119916
-0.008681736426825154   -0.09486619922055632   -5.5289336854323026e-05
-0.008301574959340616   -0.09535484876893457   -0.0002530901427405354
-0.006192719650698942   -0.14294475389323372   -0.0011589445913617244
-0.034433865071045684   -0.09480901795171291   -0.0008850057809119916
-0.008301574959340616   -0.09535484876893457   -0.0002530901427405354
-0.03165675057646457   -0.1432036384891041   -0.002151884598664977
-0.006192719650698942   -0.14294475389323372   -0.0011589445913617244
-0.008681736426825154   -0.09486619922055632   -5.5289336854323026e-05
-0.031981895586478196   -0.1427515441987009   -0.002007545239346177
-0.006558642461695285   -0.1424346895147944   -0.0010365528052361749
-0.008681736426825154   -0.09486619922055632   -5.5289336854323026e-05
-0.034433865071045684   -0.09480901795171291   -0.0008850057809119916
-0.031981895586478196   -0.1427515441987009   -0.002007545239346177
-0.034787944032799736   -0.09436347252893934   -0.0006844966692910759
-0.006558642461695285   -0.1424346895147944   -0.0010365528052361749
-0.032314173268245344   -0.14232150565834967   -0.0018383568906681345
-0.034787944032799736   -0.09436347252893934   -0.0006844966692910759
-0.031981895586478196   -0.1427515441987009   -0.002007545239346177
-0.006558642461695285   -0.1424346895147944   -0.0010365528052361749
-0.034787944032799736   -0.09436347252893934   -0.0006844966692910759
-0.009125899422953103   -0.09434974932718758   0.00017725913466598784
-0.008681736426825154   -0.09486619922055632   -5.5289336854323026e-05
-0.006558642461695285   -0.1424346895147944   -0.0010365528052361749
-0.034787944032799736   -0.09436347252893934   -0.0006844966692910759
-0.008681736426825154   -0.09486619922055632   -5.5289336854323026e-05
-0.031981895586478196   -0.1427515441987009   -0.002007545239346177
-0.006558642461695285   -0.1424346895147944   -0.0010365528052361749
-0.009125899422953103   -0.09434974932718758   0.00017725913466598784
-0.032314173268245344   -0.14232150565834967   -0.0018383568906681345
-0.006968434620956375   -0.1419461012721534   -0.0008814433285203812
-0.009125899422953103   -0.09434974932718758   0.00017725913466598784
-0.034787944032799736   -0.09436347252893934   -0.0006844966692910759
-0.032314173268245344   -0.14232150565834967   -0.0018383568906681345
-0.035156295440843977   -0.0939080329650462   -0.00046250273450399967
-0.006968434620956375   -0.1419461012721534   -0.0008814433285203812
-0.032667350798215256   -0.14191997184673819   -0.0016439979969208836
-0.035156295440843977   -0.0939080329650462   -0.00046250273450399967
-0.032314173268245344   -0.14232150565834967   -0.0018383568906681345
-0.006968434620956375   -0.1419461012721534   -0.0008814433285203812
-0.035156295440843977   -0.0939080329650462   -0.00046250273450399967
-0.009584672845944211   -0.09380073658091904   0.00044400206889682844
-0.009125899422953103   -0.09434974932718758   0.00017725913466598784
-0.006968434620956375   -0.1419461012721534   -0.0008814433285203812
-0.035156295440843977   -0.0939080329650462   -0.00046250273450399967
-0.009125899422953103   -0.09434974932718758   0.00017725913466598784
-0.032314173268245344   -0.14232150565834967   -0.0018383568906681345
-0.03165675057646457   -0.1432036384891041   -0.002151884598664977
-0.034091314958116826   -0.09523707925164322   -0.0010676593992558659
-0.057023783020611674   -0.1428706293230424   -0.0029157696175144427
-0.031981895586478196   -0.1427515441987009   -0.002007545239346177
-0.034091314958116826   -0.09523707925164322   -0.0010676593992558659
-0.059623533539601634   -0.09520466714966191   -0.001805227175431455
-0.057023783020611674   -0.1428706293230424   -0.0029157696175144427
-0.0599504771614496   -0.09482818637415992   -0.001632164565200882
-0.031981895586478196   -0.1427515441987009   -0.002007545239346177
-0.057346091024228815   -0.1424988026012988   -0.002723178956871882
-0.0599504771614496   -0.09482818637415992   -0.001632164565200882
-0.057023783020611674   -0.1428706293230424   -0.0029157696175144427
-0.031981895586478196   -0.1427515441987009   -0.002007545239346177
-0.0599504771614496   -0.09482818637415992   -0.001632164565200882
-0.034433865071045684   -0.09480901795171291   -0.0008850057809119916
-0.034091314958116826   -0.09523707925164322   -0.0010676593992558659
-0.031981895586478196   -0.1427515441987009   -0.002007545239346177
-0.0599504771614496   -0.09482818637415992   -0.001632164565200882
-0.034091314958116826   -0.09523707925164322   -0.0010676593992558659
-0.057023783020611674   -0.1428706293230424   -0.0029157696175144427
-0.031981895586478196   -0.1427515441987009   -0.002007545239346177
-0.034433865071045684   -0.09480901795171291   -0.0008850057809119916
-0.057346091024228815   -0.1424988026012988   -0.002723178956871882
-0.032314173268245344   -0.14232150565834967   -0.0018383568906681345
-0.034433865071045684   -0.09480901795171291   -0.0008850057809119916
-0.0599504771614496   -0.09482818637415992   -0.001632164565200882
-0.057346091024228815   -0.1424988026012988   -0.002723178956871882
-0.06026189418961042   -0.09444443732726296   -0.001443533623623901
-0.032314173268245344   -0.14232150565834967   -0.0018383568906681345
-0.05764768329514568   -0.14215037150446852   -0.002506592163498974
-0.06026189418961042   -0.09444443732726296   -0.001443533623623901
-0.057346091024228815   -0.1424988026012988   -0.002723178956871882
-0.032314173268245344   -0.14232150565834967   -0.0018383568906681345
-0.06026189418961042   -0.09444443732726296   -0.001443533623623901
-0.034787944032799736   -0.09436347252893934   -0.0006844966692910759
-0.034433865071045684   -0.09480901795171291   -0.0008850057809119916
-0.032314173268245344   -0.14232150565834967   -0.0018383568906681345
-0.06026189418961042   -0.09444443732726296   -0.001443533623623901
-0.034433865071045684   -0.09480901795171291   -0.0008850057809119916
-0.057346091024228815   -0.1424988026012988   -0.002723178956871882
-0.032314173268245344   -0.14232150565834967   -0.0018383568906681345
-0.034787944032799736   -0.09436347252893934   -0.0006844966692910759
-0.05764768329514568   -0.14215037150446852   -0.002506592163498974
-0.032667350798215256   -0.14191997184673819   -0.0016439979969208836
-0.034787944032799736   -0.09436347252893934   -0.0006844966692910759
-0.06026189418961042   -0.09444443732726296   -0.001443533623623901
-0.05764768329514568   -0.14215037150446852   -0.002506592163498974
-0.06057014868830954   -0.09405130263215795   -0.0012402590305239877
-0.032667350798215256   -0.14191997184673819   -0.0016439979969208836
-0.05795034982195935   -0.14182633398495212   -0.002267213580318396
-0.06057014868830954   -0.09405130263215795   -0.0012402590305239877
-0.05764768329514568   -0.14215037150446852   -0.002506592163498974
-0.032667350798215256   -0.14191997184673819   -0.0016439979969208836
-0.06057014868830954   -0.09405130263215795   -0.0012402590305239877
-0.035156295440843977   -0.0939080329650462   -0.00046250273450399967
-0.034787944032799736   -0.09436347252893934   -0.0006844966692910759
-0.032667350798215256   -0.14191997184673819   -0.0016439979969208836
-0.06057014868830954   -0.09405130263215795   -0.0012402590305239877
-0.034787944032799736   -0.09436347252893934   -0.0006844966692910759
-0.05764768329514568   -0.14215037150446852   -0.002506592163498974
-0.057023783020611674   -0.1428706293230424   -0.0029157696175144427
-0.059623533539601634   -0.09520466714966191   -0.001805227175431455
-0.08284749677324106   -0.14242186918566122   -0.003540353128120142
-0.057346091024228815   -0.1424988026012988   -0.002723178956871882
-0.059623533539601634   -0.09520466714966191   -0.001805227175431455
-0.08569559554064422   -0.0950579920698666   -0.002427310989894764
-0.08284749677324106   -0.14242186918566122   -0.003540353128120142
-0.08600729716568835   -0.09474933032468894   -0.002264562608270645
-0.057346091024228815   -0.1424988026012988   -0.002723178956871882
-0.08315633740083583   -0.14213452303337448   -0.003300074365599809
-0.08600729716568835   -0.09474933032468894   -0.002264562608270645
-0.08284749677324106   -0.14242186918566122   -0.003540353128120142
-0.057346091024228815   -0.1424988026012988   -0.002723178956871882
-0.08600729716568835   -0.09474933032468894   -0.002264562608270645
-0.0599504771614496   -0.09482818637415992   -0.001632164565200882
-0.059623533539601634   -0.09520466714966191   -0.001805227175431455
-0.057346091024228815   -0.1424988026012988   -0.002723178956871882
-0.08600729716568835   -0.09474933032468894   -0.002264562608270645
-0.059623533539601634   -0.09520466714966191   -0.001805227175431455
-0.08284749677324106   -0.14242186918566122   -0.003540353128120142
-0.057346091024228815   -0.1424988026012988   -0.002723178956871882
-0.0599504771614496   -0.09482818637415992   -0.001632164565200882
-0.08315633740083583   -0.14213452303337448   -0.003300074365599809
-0.05764768329514568   -0.14215037150446852   -0.002506592163498974
-0.0599504771614496   -0.09482818637415992   -0.001632164565200882
-0.08600729716568835   -0.09474933032468894   -0.002264562608270645
-0.08315633740083583   -0.14213452303337448   -0.003300074365599809
-0.08627199672907478   -0.09442357576084173   -0.0020908906623029926
-0.05764768329514568   -0.14215037150446852   -0.002506592163498974
-0.08339159650890444   -0.14186111303516788   -0.0030398338796850293
-0.08627199672907478   -0.09442357576084173   -0.0020908906623029926
-0.08315633740083583   -0.14213452303337448   -0.003300074365599809
-0.05764768329514568   -0.14215037150446852   -0.002506592163498974
-0.08627199672907478   -0.09442357576084173   -0.0020908906623029926
-0.06026189418961042   -0.09444443732726296   -0.001443533623623901
-0.0599504771614496   -0.09482818637415992   -0.001632164565200882
-0.05764768329514568   -0.14215037150446852   -0.002506592163498974
-0.08627199672907478   -0.09442357576084173   -0.0020908906623029926
-0.0599504771614496   -0.09482818637415992   -0.001632164565200882
-0.08315633740083583   -0.14213452303337448   -0.003300074365599809
-0.05764768329514568   -0.14215037150446852   -0.002506592163498974
-0.06026189418961042   -0.09444443732726296   -0.001443533623623901
-0.08339159650890444   -0.14186111303516788   -0.0030398338796850293
-0.05795034982195935   -0.14182633398495212   -0.002267213580318396
-0.06026189418961042   -0.09444443732726296   -0.001443533623623901
-0.08627199672907478   -0.09442357576084173   -0.0020908906623029926
-0.08339159650890444   -0.14186111303516788   -0.0030398338796850293
-0.08652221072249032   -0.09408885233198684   -0.0019014117088114837
-0.05795034982195935   -0.14182633398495212   -0.002267213580318396
-0.08362475609478257   -0.14161335492234428   -0.0027543584648758116
-0.08652221072249032   -0.09408885233198684   -0.0019014117088114837
-0.08339159650890444   -0.14186111303516788   -0.0030398338796850293
-0.05795034982195935   -0.14182633398495212   -0.002267213580318396
-0.08652221072249032   -0.09408885233198684   -0.0019014117088114837
-0.06057014868830954   -0.09405130263215795   -0.0012402590305239877
-0.06026189418961042   -0.09444443732726296   -0.001443533623623901
-0.05795034982195935   -0.14182633398495212   -0.002267213580318396
-0.08652221072249032   -0.09408885233198684   -0.0019014117088114837
-0.06026189418961042   -0.09444443732726296   -0.001443533623623901
-0.08339159650890444   -0.14186111303516788   -0.0030398338796850293
-0.08284749677324106   -0.14242186918566122   -0.003540353128120142
-0.08569559554064422   -0.0950579920698666   -0.002427310989894764
-0.11020606736727871   -0.14189416453026715   -0.004007007176039382
-0.08315633740083583   -0.14213452303337448   -0.003300074365599809
-0.08569559554064422   -0.0950579920698666   -0.002427310989894764
-0.1129933265789445   -0.09481806064221328   -0.002891682328384519
-0.11020606736727871   -0.14189416453026715   -0.004007007176039382
-0.11319022658445849   -0.09455716436244985   -0.0027715168634609368
-0.08315633740083583   -0.14213452303337448   -0.003300074365599809
-0.11025976725392804   -0.141663071705696   -0.0037436046736476322
-0.11319022658445849   -0.09455716436244985   -0.0027715168634609368
-0.11020606736727871   -0.14189416453026715   -0.004007007176039382
-0.08315633740083583   -0.14213452303337448   -0.003300074365599809
-0.11319022658445849   -0.09455716436244985   -0.0027715168634609368
-0.08600729716568835   -0.09474933032468894   -0.002264562608270645
-0.08569559554064422   -0.0950579920698666   -0.002427310989894764
-0.08315633740083583   -0.14213452303337448   -0.003300074365599809
-0.11319022658445849   -0.09455716436244985   -0.0027715168634609368
-0.08569559554064422   -0.0950579920698666   -0.002427310989894764
-0.11020606736727871   -0.14189416453026715   -0.004007007176039382
-0.08315633740083583   -0.14213452303337448   -0.003300074365599809
-0.08600729716568835   -0.09474933032468894   -0.002264562608270645
-0.11025976725392804   -0.141663071705696   -0.0037436046736476322
-0.08339159650890444   -0.14186111303516788   -0.0030398338796850293
-0.08600729716568835   -0.09474933032468894   -0.002264562608270645
-0.11319022658445849   -0.09455716436244985   -0.0027715168634609368
-0.11025976725392804   -0.141663071705696   -0.0037436046736476322
-0.11337026683555725   -0.09426270035264517   -0.0026242849323645143
-0.08339159650890444   -0.14186111303516788   -0.0030398338796850293
-0.11031387044891244   -0.14142816555388849   -0.0034399263997050592
-0.11337026683555725   -0.09426270035264517   -0.0026242849323645143
-0.11025976725392804   -0.141663071705696   -0.0037436046736476322
-0.08339159650890444   -0.14186111303516788   -0.0030398338796850293
-0.11337026683555725   -0.09426270035264517   -0.0026242849323645143
-0.08627199672907478   -0.09442357576084173   -0.0020908906623029926
-0.08600729716568835   -0.09474933032468894   -0.002264562608270645
-0.08339159650890444   -0.14186111303516788   -0.0030398338796850293
-0.11337026683555725   -0.09426270035264517   -0.0026242849323645143
-0.08600729716568835   -0.09474933032468894   -0.002264562608270645
-0.11025976725392804   -0.141663071705696   -0.0037436046736476322
-0.08339159650890444   -0.14186111303516788   -0.0030398338796850293
-0.08627199672907478   -0.09442357576084173   -0.0020908906623029926
-0.11031387044891244   -0.14142816555388849   -0.0034399263997050592
-0.08362475609478257   -0.14161335492234428   -0.0027543584648758116
-0.08627199672907478   -0.09442357576084173   -0.0020908906623029926
-0.11337026683555725   -0.09426270035264517   -0.0026242849323645143
-0.11031387044891244   -0.14142816555388849   -0.0034399263997050592
-0.1134610857693371   -0.0939902401883712   -0.0024569027685129937
-0.08362475609478257   -0.14161335492234428   -0.0027543584648758116
-0.11021589719425706   -0.1412681856148571   -0.0031007986233842597
-0.1134610857693371   -0.0939902401883712   -0.0024569027685129937
-0.11031387044891244   -0.14142816555388849   -0.0034399263997050592
-0.08362475609478257   -0.14161335492234428   -0.0027543584648758116
-0.1134610857693371   -0.0939902401883712   -0.0024569027685129937
-0.08652221072249032   -0.09408885233198684   -0.0019014117088114837
-0.08627199672907478   -0.09442357576084173   -0.0020908906623029926
-0.08362475609478257   -0.14161335492234428   -0.0027543584648758116
-0.1134610857693371   -0.0939902401883712   -0.0024569027685129937
-0.08627199672907478   -0.09442357576084173   -0.0020908906623029926
-0.11031387044891244   -0.14142816555388849   -0.0034399263997050592
0.01907522764476992   -0.0958107988513925   0.0005898657160052064
0.013332250925526703   -0.04805237604752707   0.0006299147916906186
-0.008301574959340616   -0.09535484876893457   -0.0002530901427405354
0.018473115566577967   -0.09522339197831622   0.0008389063934226288
0.013332250925526703   -0.04805237604752707   0.0006299147916906186
-0.01215722785962643   -0.04741944454492658   0.0003041302680161839
-0.008301574959340616   -0.09535484876893457   -0.0002530901427405354
-0.01253404252852103   -0.04716776995985705   0.0005768872352500182
0.018473115566577967   -0.09522339197831622   0.0008389063934226288
-0.008681736426825154   -0.09486619922055632   -5.5289336854323026e-05
-0.01253404252852103   -0.04716776995985705   0.0005768872352500182
-0.008301574959340616   -0.09535484876893457   -0.0002530901427405354
0.018473115566577967   -0.09522339197831622   0.0008389063934226288
-0.01253404252852103   -0.04716776995985705   0.0005768872352500182
0.012159282757256666   -0.04743067549158287   0.0013071088050235322
0.013332250925526703   -0.04805237604752707   0.0006299147916906186
0.018473115566577967   -0.09522339197831622   0.0008389063934226288
-0.01253404252852103   -0.04716776995985705   0.0005768872352500182
0.013332250925526703   -0.04805237604752707   0.0006299147916906186
-0.008301574959340616   -0.09535484876893457   -0.0002530901427405354
0.018473115566577967   -0.09522339197831622   0.0008389063934226288
0.012159282757256666   -0.04743067549158287   0.0013071088050235322
-0.008681736426825154   -0.09486619922055632   -5.5289336854323026e-05
0.017803967742383565   -0.09463828706627866   0.0011940317614504848
0.012159282757256666   -0.04743067549158287   0.0013071088050235322
-0.01253404252852103   -0.04716776995985705   0.0005768872352500182
-0.008681736426825154   -0.09486619922055632   -5.5289336854323026e-05
-0.01302693830659083   -0.04672745394075707   0.0009074199652252256
0.017803967742383565   -0.09463828706627866   0.0011940317614504848
-0.009125899422953103   -0.09434974932718758   0.00017725913466598784
-0.01302693830659083   -0.04672745394075707   0.0009074199652252256
-0.008681736426825154   -0.09486619922055632   -5.5289336854323026e-05
0.017803967742383565   -0.09463828706627866   0.0011940317614504848
-0.01302693830659083   -0.04672745394075707   0.0009074199652252256
0.011471375284601088   -0.046918417271919144   0.0018137743390628468
0.012159282757256666   -0.04743067549158287   0.0013071088050235322
0.017803967742383565   -0.09463828706627866   0.0011940317614504848
-0.01302693830659083   -0.04672745394075707   0.0009074199652252256
0.012159282757256666   -0.04743067549158287   0.0013071088050235322
-0.008681736426825154   -0.09486619922055632   -5.5289336854323026e-05
0.017803967742383565   -0.09463828706627866   0.0011940317614504848
0.011471375284601088   -0.046918417271919144   0.0018137743390628468
-0.009125899422953103   -0.09434974932718758   0.00017725913466598784
0.01698663547201302   -0.09392019844836345   0.001584352155913959
0.011471375284601088   -0.046918417271919144   0.0018137743390628468
-0.01302693830659083   -0.04672745394075707   0.0009074199652252256
-0.009125899422953103   -0.09434974932718758   0.00017725913466598784
-0.013440307903843958   -0.04625259719517956   0.0011985250751317972
0.01698663547201302   -0.09392019844836345   0.001584352155913959
-0.009584672845944211   -0.09380073658091904   0.00044400206889682844
-0.013440307903843958   -0.04625259719517956   0.0011985250751317972
-0.009125899422953103   -0.09434974932718758   0.00017725913466598784
0.01698663547201302   -0.09392019844836345   0.001584352155913959
-0.013440307903843958   -0.04625259719517956   0.0011985250751317972
0.010591478286354799   -0.04613898110598756   0.002393315747621313
0.011471375284601088   -0.046918417271919144   0.0018137743390628468
0.01698663547201302   -0.09392019844836345   0.001584352155913959
-0.013440307903843958   -0.04625259719517956   0.0011985250751317972
0.011471375284601088   -0.046918417271919144   0.0018137743390628468
-0.009125899422953103   -0.09434974932718758   0.00017725913466598784
-0.008301574959340616   -0.09535484876893457   -0.0002530901427405354
-0.01215722785962643   -0.04741944454492658   0.0003041302680161839
-0.034091314958116826   -0.09523707925164322   -0.0010676593992558659
-0.008681736426825154   -0.09486619922055632   -5.5289336854323026e-05
-0.01215722785962643   -0.04741944454492658   0.0003041302680161839
-0.0364467638532533   -0.04811325616757038   -0.00034925688700064805
-0.034091314958116826   -0.09523707925164322   -0.0010676593992558659
-0.03679165798363066   -0.04773395537218822   -0.0001568952927482965
-0.008681736426825154   -0.09486619922055632   -5.5289336854323026e-05
-0.034433865071045684   -0.09480901795171291   -0.0008850057809119916
-0.03679165798363066   -0.04773395537218822   -0.0001568952927482965
-0.034091314958116826   -0.09523707925164322   -0.0010676593992558659
-0.008681736426825154   -0.09486619922055632   -5.5289336854323026e-05
-0.03679165798363066   -0.04773395537218822   -0.0001568952927482965
-0.01253404252852103   -0.04716776995985705   0.0005768872352500182
-0.01215722785962643   -0.04741944454492658   0.0003041302680161839
-0.008681736426825154   -0.09486619922055632   -5.5289336854323026e-05
-0.03679165798363066   -0.04773395537218822   -0.0001568952927482965
-0.01215722785962643   -0.04741944454492658   0.0003041302680161839
-0.034091314958116826   -0.09523707925164322   -0.0010676593992558659
-0.008681736426825154   -0.09486619922055632   -5.5289336854323026e-05
-0.01253404252852103   -0.04716776995985705   0.0005768872352500182
-0.034433865071045684   -0.09480901795171291   -0.0008850057809119916
-0.009125899422953103   -0.09434974932718758   0.00017725913466598784
-0.01253404252852103   -0.04716776995985705   0.0005768872352500182
-0.03679165798363066   -0.04773395537218822   -0.0001568952927482965
-0.034433865071045684   -0.09480901795171291   -0.0008850057809119916
-0.03715154464974146   -0.04730712458940195   4.6119015067504593e-05
-0.009125899422953103   -0.09434974932718758   0.00017725913466598784
-0.034787944032799736   -0.09436347252893934   -0.0006844966692910759
-0.03715154464974146   -0.04730712458940195   4.6119015067504593e-05
-0.034433865071045684   -0.09480901795171291   -0.0008850057809119916
-0.009125899422953103   -0.09434974932718758   0.00017725913466598784
-0.03715154464974146   -0.04730712458940195   4.6119015067504593e-05
-0.01302693830659083   -0.04672745394075707   0.0009074199652252256
-0.01253404252852103   -0.04716776995985705   0.0005768872352500182
-0.009125899422953103   -0.09434974932718758   0.00017725913466598784
-0.03715154464974146   -0.04730712458940195   4.6119015067504593e-05
-0.01253404252852103   -0.04716776995985705   0.0005768872352500182
-0.034433865071045684   -0.09480901795171291   -0.0008850057809119916
-0.009125899422953103   -0.09434974932718758   0.00017725913466598784
-0.01302693830659083   -0.04672745394075707   0.0009074199652252256
-0.034787944032799736   -0.09436347252893934   -0.0006844966692910759
-0.009584672845944211   -0.09380073658091904   0.00044400206889682844
-0.01302693830659083   -0.04672745394075707   0.0009074199652252256
-0.03715154464974146   -0.04730712458940195   4.6119015067504593e-05
-0.034787944032799736   -0.09436347252893934   -0.0006844966692910759
-0.03749268107646589   -0.04683933524210047   0.00026967595768440415
-0.009584672845944211   -0.09380073658091904   0.00044400206889682844
-0.035156295440843977   -0.0939080329650462   -0.00046250273450399967
-0.03749268107646589   -0.04683933524210047   0.00026967595768440415
-0.034787944032799736   -0.09436347252893934   -0.0006844966692910759
-0.009584672845944211   -0.09380073658091904   0.00044400206889682844
-0.03749268107646589   -0.04683933524210047   0.00026967595768440415
-0.013440307903843958   -0.04625259719517956   0.0011985250751317972
-0.01302693830659083   -0.04672745394075707   0.0009074199652252256
-0.009584672845944211   -0.09380073658091904   0.00044400206889682844
-0.03749268107646589   -0.04683933524210047   0.00026967595768440415
-0.01302693830659083   -0.04672745394075707   0.0009074199652252256
-0.034787944032799736   -0.09436347252893934   -0.0006844966692910759
-0.034091314958116826   -0.09523707925164322   -0.0010676593992558659
-0.0364467638532533   -0.04811325616757038   -0.00034925688700064805
-0.059623533539601634   -0.09520466714966191   -0.001805227175431455
-0.034433865071045684   -0.09480901795171291   -0.0008850057809119916
-0.0364467638532533   -0.04811325616757038   -0.00034925688700064805
-0.061344784737723534   -0.04865504720830219   -0.0010698115048669947
-0.059623533539601634   -0.09520466714966191   -0.001805227175431455
-0.061653639961432936   -0.04826604847482593   -0.0009214558831833212
-0.034433865071045684   -0.09480901795171291   -0.0008850057809119916
-0.0599504771614496   -0.09482818637415992   -0.001632164565200882
-0.061653639961432936   -0.04826604847482593   -0.0009214558831833212
-0.059623533539601634   -0.09520466714966191   -0.001805227175431455
-0.034433865071045684   -0.09480901795171291   -0.0008850057809119916
-0.061653639961432936   -0.04826604847482593   -0.0009214558831833212
-0.03679165798363066   -0.04773395537218822   -0.0001568952927482965
-0.0364467638532533   -0.04811325616757038   -0.00034925688700064805
-0.034433865071045684   -0.09480901795171291   -0.0008850057809119916
-0.061653639961432936   -0.04826604847482593   -0.0009214558831833212
-0.0364467638532533   -0.04811325616757038   -0.00034925688700064805
-0.059623533539601634   -0.09520466714966191   -0.001805227175431455
-0.034433865071045684   -0.09480901795171291   -0.0008850057809119916
-0.03679165798363066   -0.04773395537218822   -0.0001568952927482965
-0.0599504771614496   -0.09482818637415992   -0.001632164565200882
-0.034787944032799736   -0.09436347252893934   -0.0006844966692910759
-0.03679165798363066   -0.04773395537218822   -0.0001568952927482965
-0.061653639961432936   -0.04826604847482593   -0.0009214558831833212
-0.0599504771614496   -0.09482818637415992   -0.001632164565200882
-0.061948628053355374   -0.04785583691465912   -0.0007739903734876184
-0.034787944032799736   -0.09436347252893934   -0.0006844966692910759
-0.06026189418961042   -0.09444443732726296   -0.001443533623623901
-0.061948628053355374   -0.04785583691465912   -0.0007739903734876184
-0.0599504771614496   -0.09482818637415992   -0.001632164565200882
-0.034787944032799736   -0.09436347252893934   -0.0006844966692910759
-0.061948628053355374   -0.04785583691465912   -0.0007739903734876184
-0.03715154464974146   -0.04730712458940195   4.6119015067504593e-05
-0.03679165798363066   -0.04773395537218822   -0.0001568952927482965
-0.034787944032799736   -0.09436347252893934   -0.0006844966692910759
-0.061948628053355374   -0.04785583691465912   -0.0007739903734876184
-0.03679165798363066   -0.04773395537218822   -0.0001568952927482965
-0.0599504771614496   -0.09482818637415992   -0.001632164565200882
-0.034787944032799736   -0.09436347252893934   -0.0006844966692910759
-0.03715154464974146   -0.04730712458940195   4.6119015067504593e-05
-0.06026189418961042   -0.09444443732726296   -0.001443533623623901
-0.035156295440843977   -0.0939080329650462   -0.00046250273450399967
-0.03715154464974146   -0.04730712458940195   4.6119015067504593e-05
-0.061948628053355374   -0.04785583691465912   -0.0007739903734876184
-0.06026189418961042   -0.09444443732726296   -0.001443533623623901
-0.06222000596604016   -0.04741219946555547   -0.0006138771251959446
-0.035156295440843977   -0.0939080329650462   -0.00046250273450399967
-0.06057014868830954   -0.09405130263215795   -0.0012402590305239877
-0.06222000596604016   -0.04741219946555547   -0.0006138771251959446
-0.06026189418961042   -0.09444443732726296   -0.001443533623623901
-0.035156295440843977   -0.0939080329650462   -0.00046250273450399967
-0.06222000596604016   -0.04741219946555547   -0.0006138771251959446
-0.03749268107646589   -0.04683933524210047   0.00026967595768440415
-0.03715154464974146   -0.04730712458940195   4.6119015067504593e-05
-0.035156295440843977   -0.0939080329650462   -0.00046250273450399967
-0.06222000596604016   -0.04741219946555547   -0.0006138771251959446
-0.03715154464974146   -0.04730712458940195   4.6119015067504593e-05
-0.06026189418961042   -0.09444443732726296   -0.001443533623623901
-0.059623533539601634   -0.09520466714966191   -0.001805227175431455
-0.061344784737723534   -0.04865504720830219   -0.0010698115048669947
-0.08569559554064422   -0.0950579920698666   -0.002427310989894764
-0.0599504771614496   -0.09482818637415992   -0.001632164565200882
-0.061344784737723534   -0.04865504720830219   -0.0010698115048669947
-0.08711698955023835   -0.04887665754401278   -0.0017358763348541595
-0.08569559554064422   -0.0950579920698666   -0.002427310989894764
-0.08739504221271564   -0.04852612428043742   -0.0016283228471100143
-0.0599504771614496   -0.09482818637415992   -0.001632164565200882
-0.08600729716568835   -0.09474933032468894   -0.002264562608270645
-0.08739504221271564   -0.04852612428043742   -0.0016283228471100143
-0.08569559554064422   -0.0950579920698666   -0.002427310989894764
-0.0599504771614496   -0.09482818637415992   -0.001632164565200882
-0.08739504221271564   -0.04852612428043742   -0.0016283228471100143
-0.061653639961432936   -0.04826604847482593   -0.0009214558831833212
-0.061344784737723534   -0.04865504720830219   -0.0010698115048669947
-0.0599504771614496   -0.09482818637415992   -0.001632164565200882
-0.08739504221271564   -0.04852612428043742   -0.0016283228471100143
-0.061344784737723534   -0.04865504720830219   -0.0010698115048669947
-0.08569559554064422   -0.0950579920698666   -0.002427310989894764
-0.0599504771614496   -0.09482818637415992   -0.001632164565200882
-0.061653639961432936   -0.04826604847482593   -0.0009214558831833212
-0.08600729716568835   -0.09474933032468894   -0.002264562608270645
-0.06026189418961042   -0.09444443732726296   -0.001443533623623901
-0.061653639961432936   -0.04826604847482593   -0.0009214558831833212
-0.08739504221271564   -0.04852612428043742   -0.0016283228471100143
-0.08600729716568835   -0.09474933032468894   -0.002264562608270645
-0.08764277666956295   -0.04814521461306178   -0.0015242131094326823
-0.06026189418961042   -0.09444443732726296   -0.001443533623623901
-0.08627199672907478   -0.09442357576084173   -0.0020908906623029926
-0.08764277666956295   -0.04814521461306178   -0.0015242131094326823
-0.08600729716568835   -0.09474933032468894   -0.002264562608270645
-0.06026189418961042   -0.09444443732726296   -0.001443533623623901
-0.08764277666956295   -0.04814521461306178   -0.0015242131094326823
-0.061948628053355374   -0.04785583691465912   -0.0007739903734876184
-0.061653639961432936   -0.04826604847482593   -0.0009214558831833212
-0.06026189418961042   -0.09444443732726296   -0.001443533623623901
-0.08764277666956295   -0.04814521461306178   -0.0015242131094326823
-0.061653639961432936   -0.04826604847482593   -0.0009214558831833212
-0.08600729716568835   -0.09474933032468894   -0.002264562608270645
-0.06026189418961042   -0.09444443732726296   -0.001443533623623901
-0.061948628053355374   -0.04785583691465912   -0.0007739903734876184
-0.08627199672907478   -0.09442357576084173   -0.0020908906623029926
-0.06057014868830954   -0.09405130263215795   -0.0012402590305239877
-0.061948628053355374   -0.04785583691465912   -0.0007739903734876184
-0.08764277666956295   -0.04814521461306178   -0.0015242131094326823
-0.08627199672907478   -0.09442357576084173   -0.0020908906623029926
-0.0878669471492012   -0.04774017257435647   -0.0014174533662026736
-0.06057014868830954   -0.09405130263215795   -0.0012402590305239877
-0.08652221072249032   -0.09408885233198684   -0.0019014117088114837
-0.0878669471492012   -0.04774017257435647   -0.0014174533662026736
-0.08627199672907478   -0.09442357576084173   -0.0020908906623029926
-0.06057014868830954   -0.09405130263215795   -0.0012402590305239877
-0.0878669471492012   -0.04774017257435647   -0.0014174533662026736
-0.06222000596604016   -0.04741219946555547   -0.0006138771251959446
-0.061948628053355374   -0.04785583691465912   -0.0007739903734876184
-0.06057014868830954   -0.09405130263215795   -0.0012402590305239877
-0.0878669471492012   -0.04774017257435647   -0.0014174533662026736
-0.061948628053355374   -0.04785583691465912   -0.0007739903734876184
-0.08627199672907478   -0.09442357576084173   -0.0020908906623029926
-0.08569559554064422   -0.0950579920698666   -0.002427310989894764
-0.08711698955023835   -0.04887665754401278   -0.0017358763348541595
-0.1129933265789445   -0.09481806064221328   -0.002891682328384519
-0.08600729716568835   -0.09474933032468894   -0.002264562608270645
-0.08711698955023835   -0.04887665754401278   -0.0017358763348541595
-0.11379418516034917   -0.04890260297042301   -0.0022917621536431574
-0.1129933265789445   -0.09481806064221328   -0.002891682328384519
-0.1140341243976936   -0.04856181845924509   -0.0022467409030813594
-0.08600729716568835   -0.09474933032468894   -0.002264562608270645
-0.11319022658445849   -0.09455716436244985   -0.0027715168634609368
-0.1140341243976936   -0.04856181845924509   -0.0022467409030813594
-0.1129933265789445   -0.09481806064221328   -0.002891682328384519
-0.08600729716568835   -0.09474933032468894   -0.002264562608270645
-0.1140341243976936   -0.04856181845924509   -0.0022467409030813594
-0.08739504221271564   -0.04852612428043742   -0.0016283228471100143
-0.08711698955023835   -0.04887665754401278   -0.0017358763348541595
-0.08600729716568835   -0.09474933032468894   -0.002264562608270645
-0.1140341243976936   -0.04856181845924509   -0.0022467409030813594
-0.08711698955023835   -0.04887665754401278   -0.0017358763348541595
-0.1129933265789445   -0.09481806064221328   -0.002891682328384519
-0.08600729716568835   -0.09474933032468894   -0.002264562608270645
-0.08739504221271564   -0.04852612428043742   -0.0016283228471100143
-0.11319022658445849   -0.09455716436244985   -0.0027715168634609368
-0.08627199672907478   -0.09442357576084173   -0.0020908906623029926
-0.08739504221271564   -0.04852612428043742   -0.0016283228471100143
-0.1140341243976936   -0.04856181845924509   -0.0022467409030813594
-0.11319022658445849   -0.09455716436244985   -0.0027715168634609368
-0.1142490876391762   -0.04819426554602724   -0.0021942999951499666
-0.08627199672907478   -0.09442357576084173   -0.0020908906623029926
-0.11337026683555725   -0.09426270035264517   -0.0026242849323645143
-0.1142490876391762   -0.04819426554602724   -0.0021942999951499666
-0.11319022658445849   -0.09455716436244985   -0.0027715168634609368
-0.08627199672907478   -0.09442357576084173   -0.0020908906623029926
-0.1142490876391762   -0.04819426554602724   -0.0021942999951499666
-0.08764277666956295   -0.04814521461306178   -0.0015242131094326823
-0.08739504221271564   -0.04852612428043742   -0.0016283228471100143
-0.08627199672907478   -0.09442357576084173   -0.0020908906623029926
-0.1142490876391762   -0.04819426554602724   -0.0021942999951499666
-0.08739504221271564   -0.04852612428043742   -0.0016283228471100143
-0.11319022658445849   -0.09455716436244985   -0.0027715168634609368
-0.08627199672907478   -0.09442357576084173   -0.0020908906623029926
-0.08764277666956295   -0.04814521461306178   -0.0015242131094326823
-0.11337026683555725   -0.09426270035264517   -0.0026242849323645143
-0.08652221072249032   -0.09408885233198684   -0.0019014117088114837
-0.08764277666956295   -0.04814521461306178   -0.0015242131094326823
-0.1142490876391762   -0.04819426554602724   -0.0021942999951499666
-0.11337026683555725   -0.09426270035264517   -0.0026242849323645143
-0.11443118989498204   -0.04780489060042303   -0.002146262225943205
-0.08652221072249032   -0.09408885233198684   -0.0019014117088114837
-0.1134610857693371   -0.0939902401883712   -0.0024569027685129937
-0.11443118989498204   -0.04780489060042303   -0.002146262225943205
-0.11337026683555725   -0.09426270035264517   -0.0026242849323645143
-0.08652221072249032   -0.09408885233198684   -0.0019014117088114837
-0.11443118989498204   -0.04780489060042303   -0.002146262225943205
-0.0878669471492012   -0.04774017257435647   -0.0014174533662026736
-0.08764277666956295   -0.04814521461306178   -0.0015242131094326823
-0.08652221072249032   -0.09408885233198684   -0.0019014117088114837
-0.11443118989498204   -0.04780489060042303   -0.002146262225943205
-0.08764277666956295   -0.04814521461306178   -0.0015242131094326823
-0.11337026683555725   -0.09426270035264517   -0.0026242849323645143
0.013332250925526703   -0.04805237604752707   0.0006299147916906186
0.0   0.0   0.0
-0.01215722785962643   -0.04741944454492658   0.0003041302680161839
0.012159282757256666   -0.04743067549158287   0.0013071088050235322
0.0   0.0   0.0
-0.015308007902674822   -0.003803461481543973   -0.0001474165377429716
-0.01215722785962643   -0.04741944454492658   0.0003041302680161839
-0.016220958007327823   -0.002940311303968742   0.00037198743633629403
0.012159282757256666   -0.04743067549158287   0.0013071088050235322
-0.01253404252852103   -0.04716776995985705   0.0005768872352500182
-0.016220958007327823   -0.002940311303968742   0.00037198743633629403
-0.01215722785962643   -0.04741944454492658   0.0003041302680161839
0.012159282757256666   -0.04743067549158287   0.0013071088050235322
-0.016220958007327823   -0.002940311303968742   0.00037198743633629403
0.0   0.0   0.0
0.0   0.0   0.0
0.012159282757256666   -0.04743067549158287   0.0013071088050235322
-0.016220958007327823   -0.002940311303968742   0.00037198743633629403
0.0   0.0   0.0
-0.01215722785962643   -0.04741944454492658   0.0003041302680161839
0.012159282757256666   -0.04743067549158287   0.0013071088050235322
0.0   0.0   0.0
-0.01253404252852103   -0.04716776995985705   0.0005768872352500182
0.011471375284601088   -0.046918417271919144   0.0018137743390628468
0.0   0.0   0.0
-0.016220958007327823   -0.002940311303968742   0.00037198743633629403
-0.01253404252852103   -0.04716776995985705   0.0005768872352500182
-0.016791576083580294   -0.002522273222354757   0.000669213165774548
0.011471375284601088   -0.046918417271919144   0.0018137743390628468
-0.01302693830659083   -0.04672745394075707   0.0009074199652252256
-0.016791576083580294   -0.002522273222354757   0.000669213165774548
-0.01253404252852103   -0.04716776995985705   0.0005768872352500182
0.011471375284601088   -0.046918417271919144   0.0018137743390628468
-0.016791576083580294   -0.002522273222354757   0.000669213165774548
0.0   0.0   0.0
0.0   0.0   0.0
0.011471375284601088   -0.046918417271919144   0.0018137743390628468
-0.016791576083580294   -0.002522273222354757   0.000669213165774548
0.0   0.0   0.0
-0.01253404252852103   -0.04716776995985705   0.0005768872352500182
0.011471375284601088   -0.046918417271919144   0.0018137743390628468
0.0   0.0   0.0
-0.01302693830659083   -0.04672745394075707   0.0009074199652252256
0.010591478286354799   -0.04613898110598756   0.002393315747621313
0.0   0.0   0.0
-0.016791576083580294   -0.002522273222354757   0.000669213165774548
-0.01302693830659083   -0.04672745394075707   0.0009074199652252256
-0.017552528299391103   -0.0019684839382301954   0.0010098800742462722
0.010591478286354799   -0.04613898110598756   0.002393315747621313
-0.013440307903843958   -0.04625259719517956   0.0011985250751317972
-0.017552528299391103   -0.0019684839382301954   0.0010098800742462722
-0.01302693830659083   -0.04672745394075707   0.0009074199652252256
0.010591478286354799   -0.04613898110598756   0.002393315747621313
-0.017552528299391103   -0.0019684839382301954   0.0010098800742462722
0.0   0.0   0.0
0.0   0.0   0.0
0.010591478286354799   -0.04613898110598756   0.002393315747621313
-0.017552528299391103   -0.0019684839382301954   0.0010098800742462722
0.0   0.0   0.0
-0.01302693830659083   -0.04672745394075707   0.0009074199652252256
-0.01215722785962643   -0.04741944454492658   0.0003041302680161839
-0.015308007902674822   -0.003803461481543973   -0.0001474165377429716
-0.0364467638532533   -0.04811325616757038   -0.00034925688700064805
-0.01253404252852103   -0.04716776995985705   0.0005768872352500182
-0.015308007902674822   -0.003803461481543973   -0.0001474165377429716
-0.037549140643086225   -0.004953398683849602   -0.0001660288669109128
-0.0364467638532533   -0.04811325616757038   -0.00034925688700064805
-0.03801648518648291   -0.004477102931040686   -3.652445157276191e-05
-0.01253404252852103   -0.04716776995985705   0.0005768872352500182
-0.03679165798363066   -0.04773395537218822   -0.0001568952927482965
-0.03801648518648291   -0.004477102931040686   -3.652445157276191e-05
-0.0364467638532533   -0.04811325616757038   -0.00034925688700064805
-0.01253404252852103   -0.04716776995985705   0.0005768872352500182
-0.03801648518648291   -0.004477102931040686   -3.652445157276191e-05
-0.016220958007327823   -0.002940311303968742   0.00037198743633629403
-0.015308007902674822   -0.003803461481543973   -0.0001474165377429716
-0.01253404252852103   -0.04716776995985705   0.0005768872352500182
-0.03801648518648291   -0.004477102931040686   -3.652445157276191e-05
-0.015308007902674822   -0.003803461481543973   -0.0001474165377429716
-0.0364467638532533   -0.04811325616757038   -0.00034925688700064805
-0.01253404252852103   -0.04716776995985705   0.0005768872352500182
-0.016220958007327823   -0.002940311303968742   0.00037198743633629403
-0.03679165798363066   -0.04773395537218822   -0.0001568952927482965
-0.01302693830659083   -0.04672745394075707   0.0009074199652252256
-0.016220958007327823   -0.002940311303968742   0.00037198743633629403
-0.03801648518648291   -0.004477102931040686   -3.652445157276191e-05
-0.03679165798363066   -0.04773395537218822   -0.0001568952927482965
-0.038480771415017   -0.003921032899106971   0.00019821351010790303
-0.01302693830659083   -0.04672745394075707   0.0009074199652252256
-0.03715154464974146   -0.04730712458940195   4.6119015067504593e-05
-0.038480771415017   -0.003921032899106971   0.00019821351010790303
-0.03679165798363066   -0.04773395537218822   -0.0001568952927482965
-0.01302693830659083   -0.04672745394075707   0.0009074199652252256
-0.038480771415017   -0.003921032899106971   0.00019821351010790303
-0.016791576083580294   -0.002522273222354757   0.000669213165774548
-0.016220958007327823   -0.002940311303968742   0.00037198743633629403
-0.01302693830659083   -0.04672745394075707   0.0009074199652252256
-0.038480771415017   -0.003921032899106971   0.00019821351010790303
-0.016220958007327823   -0.002940311303968742   0.00037198743633629403
-0.03679165798363066   -0.04773395537218822   -0.0001568952927482965
-0.01302693830659083   -0.04672745394075707   0.0009074199652252256
-0.016791576083580294   -0.002522273222354757   0.000669213165774548
-0.03715154464974146   -0.04730712458940195   4.6119015067504593e-05
-0.013440307903843958   -0.04625259719517956   0.0011985250751317972
-0.016791576083580294   -0.002522273222354757   0.000669213165774548
-0.038480771415017   -0.003921032899106971   0.00019821351010790303
-0.03715154464974146   -0.04730712458940195   4.6119015067504593e-05
-0.03899062070765325   -0.003280898514427821   0.00042124928700507536
-0.013440307903843958   -0.04625259719517956   0.0011985250751317972
-0.03749268107646589   -0.04683933524210047   0.00026967595768440415
-0.03899062070765325   -0.003280898514427821   0.00042124928700507536
-0.03715154464974146   -0.04730712458940195   4.6119015067504593e-05
-0.013440307903843958   -0.04625259719517956   0.0011985250751317972
-0.03899062070765325   -0.003280898514427821   0.00042124928700507536
-0.017552528299391103   -0.0019684839382301954   0.0010098800742462722
-0.016791576083580294   -0.002522273222354757   0.000669213165774548
-0.013440307903843958   -0.04625259719517956   0.0011985250751317972
-0.03899062070765325   -0.003280898514427821   0.00042124928700507536
-0.016791576083580294   -0.002522273222354757   0.000669213165774548
-0.03715154464974146   -0.04730712458940195   4.6119015067504593e-05
-0.0364467638532533   -0.04811325616757038   -0.00034925688700064805
-0.037549140643086225   -0.004953398683849602   -0.0001660288669109128
-0.061344784737723534   -0.04865504720830219   -0.0010698115048669947
-0.03679165798363066   -0.04773395537218822   -0.0001568952927482965
-0.037549140643086225   -0.004953398683849602   -0.0001660288669109128
-0.06195684015950019   -0.005258198192261997   -0.0006322241389919023
-0.061344784737723534   -0.04865504720830219   -0.0010698115048669947
-0.062238508409510056   -0.004881482487249537   -0.0005981790152543712
-0.03679165798363066   -0.04773395537218822   -0.0001568952927482965
-0.061653639961432936   -0.04826604847482593   -0.0009214558831833212
-0.062238508409510056   -0.004881482487249537   -0.0005981790152543712
-0.061344784737723534   -0.04865504720830219   -0.0010698115048669947
-0.03679165798363066   -0.04773395537218822   -0.0001568952927482965
-0.062238508409510056   -0.004881482487249537   -0.0005981790152543712
-0.03801648518648291   -0.004477102931040686   -3.652445157276191e-05
-0.037549140643086225   -0.004953398683849602   -0.0001660288669109128
-0.03679165798363066   -0.04773395537218822   -0.0001568952927482965
-0.062238508409510056   -0.004881482487249537   -0.0005981790152543712
-0.037549140643086225   -0.004953398683849602   -0.0001660288669109128
-0.061344784737723534   -0.04865504720830219   -0.0010698115048669947
-0.03679165798363066   -0.04773395537218822   -0.0001568952927482965
-0.03801648518648291   -0.004477102931040686   -3.652445157276191e-05
-0.061653639961432936   -0.04826604847482593   -0.0009214558831833212
-0.03715154464974146   -0.04730712458940195   4.6119015067504593e-05
-0.03801648518648291   -0.004477102931040686   -3.652445157276191e-05
-0.062238508409510056   -0.004881482487249537   -0.0005981790152543712
-0.061653639961432936   -0.04826604847482593   -0.0009214558831833212
-0.06253105063722782   -0.004446890237105046   -0.0005373831402606163
-0.03715154464974146   -0.04730712458940195   4.6119015067504593e-05
-0.061948628053355374   -0.04785583691465912   -0.0007739903734876184
-0.06253105063722782   -0.004446890237105046   -0.0005373831402606163
-0.061653639961432936   -0.04826604847482593   -0.0009214558831833212
-0.03715154464974146   -0.04730712458940195   4.6119015067504593e-05
-0.06253105063722782   -0.004446890237105046   -0.0005373831402606163
-0.038480771415017   -0.003921032899106971   0.00019821351010790303
-0.03801648518648291   -0.004477102931040686   -3.652445157276191e-05
-0.03715154464974146   -0.04730712458940195   4.6119015067504593e-05
-0.06253105063722782   -0.004446890237105046   -0.0005373831402606163
-0.03801648518648291   -0.004477102931040686   -3.652445157276191e-05
-0.061653639961432936   -0.04826604847482593   -0.0009214558831833212
-0.03715154464974146   -0.04730712458940195   4.6119015067504593e-05
-0.038480771415017   -0.003921032899106971   0.00019821351010790303
-0.061948628053355374   -0.04785583691465912   -0.0007739903734876184
-0.03749268107646589   -0.04683933524210047   0.00026967595768440415
-0.038480771415017   -0.003921032899106971   0.00019821351010790303
-0.06253105063722782   -0.004446890237105046   -0.0005373831402606163
-0.061948628053355374   -0.04785583691465912   -0.0007739903734876184
-0.06280508759884686   -0.003922514960342341   -0.0004569547294730232
-0.03749268107646589   -0.04683933524210047   0.00026967595768440415
-0.06222000596604016   -0.04741219946555547   -0.0006138771251959446
-0.06280508759884686   -0.003922514960342341   -0.0004569547294730232
-0.061948628053355374   -0.04785583691465912   -0.0007739903734876184
-0.03749268107646589   -0.04683933524210047   0.00026967595768440415
-0.06280508759884686   -0.003922514960342341   -0.0004569547294730232
-0.03899062070765325   -0.003280898514427821   0.00042124928700507536
-0.038480771415017   -0.003921032899106971   0.00019821351010790303
-0.03749268107646589   -0.04683933524210047   0.00026967595768440415
-0.06280508759884686   -0.003922514960342341   -0.0004569547294730232
-0.038480771415017   -0.003921032899106971   0.00019821351010790303
-0.061948628053355374   -0.04785583691465912   -0.0007739903734876184
-0.061344784737723534   -0.04865504720830219   -0.0010698115048669947
-0.06195684015950019   -0.005258198192261997   -0.0006322241389919023
-0.08711698955023835   -0.04887665754401278   -0.0017358763348541595
-0.061653639961432936   -0.04826604847482593   -0.0009214558831833212
-0.06195684015950019   -0.005258198192261997   -0.0006322241389919023
-0.08756495851669692   -0.005186941084217777   -0.001289118352903744
-0.08711698955023835   -0.04887665754401278   -0.0017358763348541595
-0.0877547121997432   -0.004844458287258659   -0.0012748185240626273
-0.061653639961432936   -0.04826604847482593   -0.0009214558831833212
-0.08739504221271564   -0.04852612428043742   -0.0016283228471100143
-0.0877547121997432   -0.004844458287258659   -0.0012748185240626273
-0.08711698955023835   -0.04887665754401278   -0.0017358763348541595
-0.061653639961432936   -0.04826604847482593   -0.0009214558831833212
-0.0877547121997432   -0.004844458287258659   -0.0012748185240626273
-0.062238508409510056   -0.004881482487249537   -0.0005981790152543712
-0.06195684015950019   -0.005258198192261997   -0.0006322241389919023
-0.061653639961432936   -0.04826604847482593   -0.0009214558831833212
-0.0877547121997432   -0.004844458287258659   -0.0012748185240626273
-0.06195684015950019   -0.005258198192261997   -0.0006322241389919023
-0.08711698955023835   -0.04887665754401278   -0.0017358763348541595
-0.061653639961432936   -0.04826604847482593   -0.0009214558831833212
-0.062238508409510056   -0.004881482487249537   -0.0005981790152543712
-0.08739504221271564   -0.04852612428043742   -0.0016283228471100143
-0.061948628053355374   -0.04785583691465912   -0.0007739903734876184
-0.062238508409510056   -0.004881482487249537   -0.0005981790152543712
-0.0877547121997432   -0.004844458287258659   -0.0012748185240626273
-0.08739504221271564   -0.04852612428043742   -0.0016283228471100143
-0.08795279591779165   -0.004465804051477054   -0.0012664130325342597
-0.061948628053355374   -0.04785583691465912   -0.0007739903734876184
-0.08764277666956295   -0.04814521461306178   -0.0015242131094326823
-0.08795279591779165   -0.004465804051477054   -0.0012664130325342597
-0.08739504221271564   -0.04852612428043742   -0.0016283228471100143
-0.061948628053355374   -0.04785583691465912   -0.0007739903734876184
-0.08795279591779165   -0.004465804051477054   -0.0012664130325342597
-0.06253105063722782   -0.004446890237105046   -0.0005373831402606163
-0.062238508409510056   -0.004881482487249537   -0.0005981790152543712
-0.061948628053355374   -0.04785583691465912   -0.0007739903734876184
-0.08795279591779165   -0.004465804051477054   -0.0012664130325342597
-0.062238508409510056   -0.004881482487249537   -0.0005981790152543712
-0.08739504221271564   -0.04852612428043742   -0.0016283228471100143
-0.061948628053355374   -0.04785583691465912   -0.0007739903734876184
-0.06253105063722782   -0.004446890237105046   -0.0005373831402606163
-0.08764277666956295   -0.04814521461306178   -0.0015242131094326823
-0.06222000596604016   -0.04741219946555547   -0.0006138771251959446
-0.06253105063722782   -0.004446890237105046   -0.0005373831402606163
-0.08795279591779165   -0.004465804051477054   -0.0012664130325342597
-0.08764277666956295   -0.04814521461306178   -0.0015242131094326823
-0.088100635163202   -0.004058409476136895   -0.0012648908876124094
-0.06222000596604016   -0.04741219946555547   -0.0006138771251959446
-0.0878669471492012   -0.04774017257435647   -0.0014174533662026736
-0.088100635163202   -0.004058409476136895   -0.0012648908876124094
-0.08764277666956295   -0.04814521461306178   -0.0015242131094326823
-0.06222000596604016   -0.04741219946555547   -0.0006138771251959446
-0.088100635163202   -0.004058409476136895   -0.0012648908876124094
-0.06280508759884686   -0.003922514960342341   -0.0004569547294730232
-0.06253105063722782   -0.004446890237105046   -0.0005373831402606163
-0.06222000596604016   -0.04741219946555547   -0.0006138771251959446
-0.088100635163202   -0.004058409476136895   -0.0012648908876124094
-0.06253105063722782   -0.004446890237105046   -0.0005373831402606163
-0.08764277666956295   -0.04814521461306178   -0.0015242131094326823
-0.08711698955023835   -0.04887665754401278   -0.0017358763348541595
-0.08756495851669692   -0.005186941084217777   -0.001289118352903744
-0.11379418516034917   -0.04890260297042301   -0.0022917621536431574
-0.08739504221271564   -0.04852612428043742   -0.0016283228471100143
-0.08756495851669692   -0.005186941084217777   -0.001289118352903744
-0.113870596433334   -0.005146786296122315   -0.0019345335955753243
-0.11379418516034917   -0.04890260297042301   -0.0022917621536431574
-0.11402357349237027   -0.004774329796938771   -0.001935086386797721
-0.08739504221271564   -0.04852612428043742   -0.0016283228471100143
-0.1140341243976936   -0.04856181845924509   -0.0022467409030813594
-0.11402357349237027   -0.004774329796938771   -0.001935086386797721
-0.11379418516034917   -0.04890260297042301   -0.0022917621536431574
-0.08739504221271564   -0.04852612428043742   -0.0016283228471100143
-0.11402357349237027   -0.004774329796938771   -0.001935086386797721
-0.0877547121997432   -0.004844458287258659   -0.0012748185240626273
-0.08756495851669692   -0.005186941084217777   -0.001289118352903744
-0.08739504221271564   -0.04852612428043742   -0.0016283228471100143
-0.11402357349237027   -0.004774329796938771   -0.001935086386797721
-0.08756495851669692   -0.005186941084217777   -0.001289118352903744
-0.11379418516034917   -0.04890260297042301   -0.0022917621536431574
-0.08739504221271564   -0.04852612428043742   -0.0016283228471100143
-0.0877547121997432   -0.004844458287258659   -0.0012748185240626273
-0.1140341243976936   -0.04856181845924509   -0.0022467409030813594
-0.08764277666956295   -0.04814521461306178   -0.0015242131094326823
-0.0877547121997432   -0.004844458287258659   -0.0012748185240626273
-0.11402357349237027   -0.004774329796938771   -0.001935086386797721
-0.1140341243976936   -0.04856181845924509   -0.0022467409030813594
-0.11419173019986531   -0.004403963639094774   -0.0019646107680883307
-0.08764277666956295   -0.04814521461306178   -0.0015242131094326823
-0.1142490876391762   -0.04819426554602724   -0.0021942999951499666
-0.11419173019986531   -0.004403963639094774   -0.0019646107680883307
-0.1140341243976936   -0.04856181845924509   -0.0022467409030813594
-0.08764277666956295   -0.04814521461306178   -0.0015242131094326823
-0.11419173019986531   -0.004403963639094774   -0.0019646107680883307
-0.08795279591779165   -0.004465804051477054   -0.0012664130325342597
-0.0877547121997432   -0.004844458287258659   -0.0012748185240626273
-0.08764277666956295   -0.04814521461306178   -0.0015242131094326823
-0.11419173019986531   -0.004403963639094774   -0.0019646107680883307
-0.0877547121997432   -0.004844458287258659   -0.0012748185240626273
-0.1140341243976936   -0.04856181845924509   -0.0022467409030813594
-0.08764277666956295   -0.04814521461306178   -0.0015242131094326823
-0.08795279591779165   -0.004465804051477054   -0.0012664130325342597
-0.1142490876391762   -0.04819426554602724   -0.0021942999951499666
-0.0878669471492012   -0.04774017257435647   -0.0014174533662026736
-0.08795279591779165   -0.004465804051477054   -0.0012664130325342597
-0.11419173019986531   -0.004403963639094774   -0.0019646107680883307
-0.1142490876391762   -0.04819426554602724   -0.0021942999951499666
-0.11431476094491687   -0.00400194413435299   -0.0019964079163125275
-0.0878669471492012   -0.04774017257435647   -0.0014174533662026736
-0.11443118989498204   -0.04780489060042303   -0.002146262225943205
-0.11431476094491687   -0.00400194413435299   -0.0019964079163125275
-0.1142490876391762   -0.04819426554602724   -0.0021942999951499666
-0.0878669471492012   -0.04774017257435647   -0.0014174533662026736
-0.11431476094491687   -0.00400194413435299   -0.0019964079163125275
-0.088100635163202   -0.004058409476136895   -0.0012648908876124094
-0.08795279591779165   -0.004465804051477054   -0.0012664130325342597
-0.0878669471492012   -0.04774017257435647   -0.0014174533662026736
-0.11431476094491687   -0.00400194413435299   -0.0019964079163125275
-0.08795279591779165   -0.004465804051477054   -0.0012664130325342597
-0.1142490876391762   -0.04819426554602724   -0.0021942999951499666
              </DataArray>   
          </PointData>  
       </Piece>  
   </UnstructuredGrid> 
</VTKFile> 
