<?xml version="1.0"?> 
<VTKFile type="UnstructuredGrid"> 
   <UnstructuredGrid> 
      <Piece NumberOfPoints="6000"  NumberOfCells="1500">  
          <Points>  
             <DataArray type="Float64" NumberOfComponents="3" format="ascii">   
-500.0   0.0   0.0
-450.0   0.0   0.0
-500.0   30.0   0.0
-500.0   0.0   16.666666666666668
-450.0   0.0   0.0
-450.0   30.0   0.0
-500.0   30.0   0.0
-450.0   30.0   16.666666666666668
-500.0   0.0   16.666666666666668
-500.0   30.0   16.666666666666668
-450.0   30.0   16.666666666666668
-500.0   30.0   0.0
-500.0   0.0   16.666666666666668
-450.0   30.0   16.666666666666668
-450.0   0.0   16.666666666666668
-450.0   0.0   0.0
-500.0   0.0   16.666666666666668
-450.0   30.0   16.666666666666668
-450.0   0.0   0.0
-500.0   30.0   0.0
-500.0   0.0   16.666666666666668
-450.0   0.0   16.666666666666668
-500.0   30.0   16.666666666666668
-500.0   0.0   33.333333333333336
-450.0   0.0   16.666666666666668
-450.0   30.0   16.666666666666668
-500.0   30.0   16.666666666666668
-450.0   30.0   33.333333333333336
-500.0   0.0   33.333333333333336
-500.0   30.0   33.333333333333336
-450.0   30.0   33.333333333333336
-500.0   30.0   16.666666666666668
-500.0   0.0   33.333333333333336
-450.0   30.0   33.333333333333336
-450.0   0.0   33.333333333333336
-450.0   0.0   16.666666666666668
-500.0   0.0   33.333333333333336
-450.0   30.0   33.333333333333336
-450.0   0.0   16.666666666666668
-500.0   30.0   16.666666666666668
-500.0   0.0   33.333333333333336
-450.0   0.0   33.333333333333336
-500.0   30.0   33.333333333333336
-500.0   0.0   50.0
-450.0   0.0   33.333333333333336
-450.0   30.0   33.333333333333336
-500.0   30.0   33.333333333333336
-450.0   30.0   50.0
-500.0   0.0   50.0
-500.0   30.0   50.0
-450.0   30.0   50.0
-500.0   30.0   33.333333333333336
-500.0   0.0   50.0
-450.0   30.0   50.0
-450.0   0.0   50.0
-450.0   0.0   33.333333333333336
-500.0   0.0   50.0
-450.0   30.0   50.0
-450.0   0.0   33.333333333333336
-500.0   30.0   33.333333333333336
-500.0   30.0   0.0
-450.0   30.0   0.0
-500.0   60.0   0.0
-500.0   30.0   16.666666666666668
-450.0   30.0   0.0
-450.0   60.0   0.0
-500.0   60.0   0.0
-450.0   60.0   16.666666666666668
-500.0   30.0   16.666666666666668
-500.0   60.0   16.666666666666668
-450.0   60.0   16.666666666666668
-500.0   60.0   0.0
-500.0   30.0   16.666666666666668
-450.0   60.0   16.666666666666668
-450.0   30.0   16.666666666666668
-450.0   30.0   0.0
-500.0   30.0   16.666666666666668
-450.0   60.0   16.666666666666668
-450.0   30.0   0.0
-500.0   60.0   0.0
-500.0   30.0   16.666666666666668
-450.0   30.0   16.666666666666668
-500.0   60.0   16.666666666666668
-500.0   30.0   33.333333333333336
-450.0   30.0   16.666666666666668
-450.0   60.0   16.666666666666668
-500.0   60.0   16.666666666666668
-450.0   60.0   33.333333333333336
-500.0   30.0   33.333333333333336
-500.0   60.0   33.333333333333336
-450.0   60.0   33.333333333333336
-500.0   60.0   16.666666666666668
-500.0   30.0   33.333333333333336
-450.0   60.0   33.333333333333336
-450.0   30.0   33.333333333333336
-450.0   30.0   16.666666666666668
-500.0   30.0   33.333333333333336
-450.0   60.0   33.333333333333336
-450.0   30.0   16.666666666666668
-500.0   60.0   16.666666666666668
-500.0   30.0   33.333333333333336
-450.0   30.0   33.333333333333336
-500.0   60.0   33.333333333333336
-500.0   30.0   50.0
-450.0   30.0   33.333333333333336
-450.0   60.0   33.333333333333336
-500.0   60.0   33.333333333333336
-450.0   60.0   50.0
-500.0   30.0   50.0
-500.0   60.0   50.0
-450.0   60.0   50.0
-500.0   60.0   33.333333333333336
-500.0   30.0   50.0
-450.0   60.0   50.0
-450.0   30.0   50.0
-450.0   30.0   33.333333333333336
-500.0   30.0   50.0
-450.0   60.0   50.0
-450.0   30.0   33.333333333333336
-500.0   60.0   33.333333333333336
-500.0   60.0   0.0
-450.0   60.0   0.0
-500.0   90.0   0.0
-500.0   60.0   16.666666666666668
-450.0   60.0   0.0
-450.0   90.0   0.0
-500.0   90.0   0.0
-450.0   90.0   16.666666666666668
-500.0   60.0   16.666666666666668
-500.0   90.0   16.666666666666668
-450.0   90.0   16.666666666666668
-500.0   90.0   0.0
-500.0   60.0   16.666666666666668
-450.0   90.0   16.666666666666668
-450.0   60.0   16.666666666666668
-450.0   60.0   0.0
-500.0   60.0   16.666666666666668
-450.0   90.0   16.666666666666668
-450.0   60.0   0.0
-500.0   90.0   0.0
-500.0   60.0   16.666666666666668
-450.0   60.0   16.666666666666668
-500.0   90.0   16.666666666666668
-500.0   60.0   33.333333333333336
-450.0   60.0   16.666666666666668
-450.0   90.0   16.666666666666668
-500.0   90.0   16.666666666666668
-450.0   90.0   33.333333333333336
-500.0   60.0   33.333333333333336
-500.0   90.0   33.333333333333336
-450.0   90.0   33.333333333333336
-500.0   90.0   16.666666666666668
-500.0   60.0   33.333333333333336
-450.0   90.0   33.333333333333336
-450.0   60.0   33.333333333333336
-450.0   60.0   16.666666666666668
-500.0   60.0   33.333333333333336
-450.0   90.0   33.333333333333336
-450.0   60.0   16.666666666666668
-500.0   90.0   16.666666666666668
-500.0   60.0   33.333333333333336
-450.0   60.0   33.333333333333336
-500.0   90.0   33.333333333333336
-500.0   60.0   50.0
-450.0   60.0   33.333333333333336
-450.0   90.0   33.333333333333336
-500.0   90.0   33.333333333333336
-450.0   90.0   50.0
-500.0   60.0   50.0
-500.0   90.0   50.0
-450.0   90.0   50.0
-500.0   90.0   33.333333333333336
-500.0   60.0   50.0
-450.0   90.0   50.0
-450.0   60.0   50.0
-450.0   60.0   33.333333333333336
-500.0   60.0   50.0
-450.0   90.0   50.0
-450.0   60.0   33.333333333333336
-500.0   90.0   33.333333333333336
-500.0   90.0   0.0
-450.0   90.0   0.0
-500.0   120.0   0.0
-500.0   90.0   16.666666666666668
-450.0   90.0   0.0
-450.0   120.0   0.0
-500.0   120.0   0.0
-450.0   120.0   16.666666666666668
-500.0   90.0   16.666666666666668
-500.0   120.0   16.666666666666668
-450.0   120.0   16.666666666666668
-500.0   120.0   0.0
-500.0   90.0   16.666666666666668
-450.0   120.0   16.666666666666668
-450.0   90.0   16.666666666666668
-450.0   90.0   0.0
-500.0   90.0   16.666666666666668
-450.0   120.0   16.666666666666668
-450.0   90.0   0.0
-500.0   120.0   0.0
-500.0   90.0   16.666666666666668
-450.0   90.0   16.666666666666668
-500.0   120.0   16.666666666666668
-500.0   90.0   33.333333333333336
-450.0   90.0   16.666666666666668
-450.0   120.0   16.666666666666668
-500.0   120.0   16.666666666666668
-450.0   120.0   33.333333333333336
-500.0   90.0   33.333333333333336
-500.0   120.0   33.333333333333336
-450.0   120.0   33.333333333333336
-500.0   120.0   16.666666666666668
-500.0   90.0   33.333333333333336
-450.0   120.0   33.333333333333336
-450.0   90.0   33.333333333333336
-450.0   90.0   16.666666666666668
-500.0   90.0   33.333333333333336
-450.0   120.0   33.333333333333336
-450.0   90.0   16.666666666666668
-500.0   120.0   16.666666666666668
-500.0   90.0   33.333333333333336
-450.0   90.0   33.333333333333336
-500.0   120.0   33.333333333333336
-500.0   90.0   50.0
-450.0   90.0   33.333333333333336
-450.0   120.0   33.333333333333336
-500.0   120.0   33.333333333333336
-450.0   120.0   50.0
-500.0   90.0   50.0
-500.0   120.0   50.0
-450.0   120.0   50.0
-500.0   120.0   33.333333333333336
-500.0   90.0   50.0
-450.0   120.0   50.0
-450.0   90.0   50.0
-450.0   90.0   33.333333333333336
-500.0   90.0   50.0
-450.0   120.0   50.0
-450.0   90.0   33.333333333333336
-500.0   120.0   33.333333333333336
-500.0   120.0   0.0
-450.0   120.0   0.0
-500.0   150.0   0.0
-500.0   120.0   16.666666666666668
-450.0   120.0   0.0
-450.0   150.0   0.0
-500.0   150.0   0.0
-450.0   150.0   16.666666666666668
-500.0   120.0   16.666666666666668
-500.0   150.0   16.666666666666668
-450.0   150.0   16.666666666666668
-500.0   150.0   0.0
-500.0   120.0   16.666666666666668
-450.0   150.0   16.666666666666668
-450.0   120.0   16.666666666666668
-450.0   120.0   0.0
-500.0   120.0   16.666666666666668
-450.0   150.0   16.666666666666668
-450.0   120.0   0.0
-500.0   150.0   0.0
-500.0   120.0   16.666666666666668
-450.0   120.0   16.666666666666668
-500.0   150.0   16.666666666666668
-500.0   120.0   33.333333333333336
-450.0   120.0   16.666666666666668
-450.0   150.0   16.666666666666668
-500.0   150.0   16.666666666666668
-450.0   150.0   33.333333333333336
-500.0   120.0   33.333333333333336
-500.0   150.0   33.333333333333336
-450.0   150.0   33.333333333333336
-500.0   150.0   16.666666666666668
-500.0   120.0   33.333333333333336
-450.0   150.0   33.333333333333336
-450.0   120.0   33.333333333333336
-450.0   120.0   16.666666666666668
-500.0   120.0   33.333333333333336
-450.0   150.0   33.333333333333336
-450.0   120.0   16.666666666666668
-500.0   150.0   16.666666666666668
-500.0   120.0   33.333333333333336
-450.0   120.0   33.333333333333336
-500.0   150.0   33.333333333333336
-500.0   120.0   50.0
-450.0   120.0   33.333333333333336
-450.0   150.0   33.333333333333336
-500.0   150.0   33.333333333333336
-450.0   150.0   50.0
-500.0   120.0   50.0
-500.0   150.0   50.0
-450.0   150.0   50.0
-500.0   150.0   33.333333333333336
-500.0   120.0   50.0
-450.0   150.0   50.0
-450.0   120.0   50.0
-450.0   120.0   33.333333333333336
-500.0   120.0   50.0
-450.0   150.0   50.0
-450.0   120.0   33.333333333333336
-500.0   150.0   33.333333333333336
-450.0   0.0   0.0
-400.0   0.0   0.0
-450.0   30.0   0.0
-450.0   0.0   16.666666666666668
-400.0   0.0   0.0
-400.0   30.0   0.0
-450.0   30.0   0.0
-400.0   30.0   16.666666666666668
-450.0   0.0   16.666666666666668
-450.0   30.0   16.666666666666668
-400.0   30.0   16.666666666666668
-450.0   30.0   0.0
-450.0   0.0   16.666666666666668
-400.0   30.0   16.666666666666668
-400.0   0.0   16.666666666666668
-400.0   0.0   0.0
-450.0   0.0   16.666666666666668
-400.0   30.0   16.666666666666668
-400.0   0.0   0.0
-450.0   30.0   0.0
-450.0   0.0   16.666666666666668
-400.0   0.0   16.666666666666668
-450.0   30.0   16.666666666666668
-450.0   0.0   33.333333333333336
-400.0   0.0   16.666666666666668
-400.0   30.0   16.666666666666668
-450.0   30.0   16.666666666666668
-400.0   30.0   33.333333333333336
-450.0   0.0   33.333333333333336
-450.0   30.0   33.333333333333336
-400.0   30.0   33.333333333333336
-450.0   30.0   16.666666666666668
-450.0   0.0   33.333333333333336
-400.0   30.0   33.333333333333336
-400.0   0.0   33.333333333333336
-400.0   0.0   16.666666666666668
-450.0   0.0   33.333333333333336
-400.0   30.0   33.333333333333336
-400.0   0.0   16.666666666666668
-450.0   30.0   16.666666666666668
-450.0   0.0   33.333333333333336
-400.0   0.0   33.333333333333336
-450.0   30.0   33.333333333333336
-450.0   0.0   50.0
-400.0   0.0   33.333333333333336
-400.0   30.0   33.333333333333336
-450.0   30.0   33.333333333333336
-400.0   30.0   50.0
-450.0   0.0   50.0
-450.0   30.0   50.0
-400.0   30.0   50.0
-450.0   30.0   33.333333333333336
-450.0   0.0   50.0
-400.0   30.0   50.0
-400.0   0.0   50.0
-400.0   0.0   33.333333333333336
-450.0   0.0   50.0
-400.0   30.0   50.0
-400.0   0.0   33.333333333333336
-450.0   30.0   33.333333333333336
-450.0   30.0   0.0
-400.0   30.0   0.0
-450.0   60.0   0.0
-450.0   30.0   16.666666666666668
-400.0   30.0   0.0
-400.0   60.0   0.0
-450.0   60.0   0.0
-400.0   60.0   16.666666666666668
-450.0   30.0   16.666666666666668
-450.0   60.0   16.666666666666668
-400.0   60.0   16.666666666666668
-450.0   60.0   0.0
-450.0   30.0   16.666666666666668
-400.0   60.0   16.666666666666668
-400.0   30.0   16.666666666666668
-400.0   30.0   0.0
-450.0   30.0   16.666666666666668
-400.0   60.0   16.666666666666668
-400.0   30.0   0.0
-450.0   60.0   0.0
-450.0   30.0   16.666666666666668
-400.0   30.0   16.666666666666668
-450.0   60.0   16.666666666666668
-450.0   30.0   33.333333333333336
-400.0   30.0   16.666666666666668
-400.0   60.0   16.666666666666668
-450.0   60.0   16.666666666666668
-400.0   60.0   33.333333333333336
-450.0   30.0   33.333333333333336
-450.0   60.0   33.333333333333336
-400.0   60.0   33.333333333333336
-450.0   60.0   16.666666666666668
-450.0   30.0   33.333333333333336
-400.0   60.0   33.333333333333336
-400.0   30.0   33.333333333333336
-400.0   30.0   16.666666666666668
-450.0   30.0   33.333333333333336
-400.0   60.0   33.333333333333336
-400.0   30.0   16.666666666666668
-450.0   60.0   16.666666666666668
-450.0   30.0   33.333333333333336
-400.0   30.0   33.333333333333336
-450.0   60.0   33.333333333333336
-450.0   30.0   50.0
-400.0   30.0   33.333333333333336
-400.0   60.0   33.333333333333336
-450.0   60.0   33.333333333333336
-400.0   60.0   50.0
-450.0   30.0   50.0
-450.0   60.0   50.0
-400.0   60.0   50.0
-450.0   60.0   33.333333333333336
-450.0   30.0   50.0
-400.0   60.0   50.0
-400.0   30.0   50.0
-400.0   30.0   33.333333333333336
-450.0   30.0   50.0
-400.0   60.0   50.0
-400.0   30.0   33.333333333333336
-450.0   60.0   33.333333333333336
-450.0   60.0   0.0
-400.0   60.0   0.0
-450.0   90.0   0.0
-450.0   60.0   16.666666666666668
-400.0   60.0   0.0
-400.0   90.0   0.0
-450.0   90.0   0.0
-400.0   90.0   16.666666666666668
-450.0   60.0   16.666666666666668
-450.0   90.0   16.666666666666668
-400.0   90.0   16.666666666666668
-450.0   90.0   0.0
-450.0   60.0   16.666666666666668
-400.0   90.0   16.666666666666668
-400.0   60.0   16.666666666666668
-400.0   60.0   0.0
-450.0   60.0   16.666666666666668
-400.0   90.0   16.666666666666668
-400.0   60.0   0.0
-450.0   90.0   0.0
-450.0   60.0   16.666666666666668
-400.0   60.0   16.666666666666668
-450.0   90.0   16.666666666666668
-450.0   60.0   33.333333333333336
-400.0   60.0   16.666666666666668
-400.0   90.0   16.666666666666668
-450.0   90.0   16.666666666666668
-400.0   90.0   33.333333333333336
-450.0   60.0   33.333333333333336
-450.0   90.0   33.333333333333336
-400.0   90.0   33.333333333333336
-450.0   90.0   16.666666666666668
-450.0   60.0   33.333333333333336
-400.0   90.0   33.333333333333336
-400.0   60.0   33.333333333333336
-400.0   60.0   16.666666666666668
-450.0   60.0   33.333333333333336
-400.0   90.0   33.333333333333336
-400.0   60.0   16.666666666666668
-450.0   90.0   16.666666666666668
-450.0   60.0   33.333333333333336
-400.0   60.0   33.333333333333336
-450.0   90.0   33.333333333333336
-450.0   60.0   50.0
-400.0   60.0   33.333333333333336
-400.0   90.0   33.333333333333336
-450.0   90.0   33.333333333333336
-400.0   90.0   50.0
-450.0   60.0   50.0
-450.0   90.0   50.0
-400.0   90.0   50.0
-450.0   90.0   33.333333333333336
-450.0   60.0   50.0
-400.0   90.0   50.0
-400.0   60.0   50.0
-400.0   60.0   33.333333333333336
-450.0   60.0   50.0
-400.0   90.0   50.0
-400.0   60.0   33.333333333333336
-450.0   90.0   33.333333333333336
-450.0   90.0   0.0
-400.0   90.0   0.0
-450.0   120.0   0.0
-450.0   90.0   16.666666666666668
-400.0   90.0   0.0
-400.0   120.0   0.0
-450.0   120.0   0.0
-400.0   120.0   16.666666666666668
-450.0   90.0   16.666666666666668
-450.0   120.0   16.666666666666668
-400.0   120.0   16.666666666666668
-450.0   120.0   0.0
-450.0   90.0   16.666666666666668
-400.0   120.0   16.666666666666668
-400.0   90.0   16.666666666666668
-400.0   90.0   0.0
-450.0   90.0   16.666666666666668
-400.0   120.0   16.666666666666668
-400.0   90.0   0.0
-450.0   120.0   0.0
-450.0   90.0   16.666666666666668
-400.0   90.0   16.666666666666668
-450.0   120.0   16.666666666666668
-450.0   90.0   33.333333333333336
-400.0   90.0   16.666666666666668
-400.0   120.0   16.666666666666668
-450.0   120.0   16.666666666666668
-400.0   120.0   33.333333333333336
-450.0   90.0   33.333333333333336
-450.0   120.0   33.333333333333336
-400.0   120.0   33.333333333333336
-450.0   120.0   16.666666666666668
-450.0   90.0   33.333333333333336
-400.0   120.0   33.333333333333336
-400.0   90.0   33.333333333333336
-400.0   90.0   16.666666666666668
-450.0   90.0   33.333333333333336
-400.0   120.0   33.333333333333336
-400.0   90.0   16.666666666666668
-450.0   120.0   16.666666666666668
-450.0   90.0   33.333333333333336
-400.0   90.0   33.333333333333336
-450.0   120.0   33.333333333333336
-450.0   90.0   50.0
-400.0   90.0   33.333333333333336
-400.0   120.0   33.333333333333336
-450.0   120.0   33.333333333333336
-400.0   120.0   50.0
-450.0   90.0   50.0
-450.0   120.0   50.0
-400.0   120.0   50.0
-450.0   120.0   33.333333333333336
-450.0   90.0   50.0
-400.0   120.0   50.0
-400.0   90.0   50.0
-400.0   90.0   33.333333333333336
-450.0   90.0   50.0
-400.0   120.0   50.0
-400.0   90.0   33.333333333333336
-450.0   120.0   33.333333333333336
-450.0   120.0   0.0
-400.0   120.0   0.0
-450.0   150.0   0.0
-450.0   120.0   16.666666666666668
-400.0   120.0   0.0
-400.0   150.0   0.0
-450.0   150.0   0.0
-400.0   150.0   16.666666666666668
-450.0   120.0   16.666666666666668
-450.0   150.0   16.666666666666668
-400.0   150.0   16.666666666666668
-450.0   150.0   0.0
-450.0   120.0   16.666666666666668
-400.0   150.0   16.666666666666668
-400.0   120.0   16.666666666666668
-400.0   120.0   0.0
-450.0   120.0   16.666666666666668
-400.0   150.0   16.666666666666668
-400.0   120.0   0.0
-450.0   150.0   0.0
-450.0   120.0   16.666666666666668
-400.0   120.0   16.666666666666668
-450.0   150.0   16.666666666666668
-450.0   120.0   33.333333333333336
-400.0   120.0   16.666666666666668
-400.0   150.0   16.666666666666668
-450.0   150.0   16.666666666666668
-400.0   150.0   33.333333333333336
-450.0   120.0   33.333333333333336
-450.0   150.0   33.333333333333336
-400.0   150.0   33.333333333333336
-450.0   150.0   16.666666666666668
-450.0   120.0   33.333333333333336
-400.0   150.0   33.333333333333336
-400.0   120.0   33.333333333333336
-400.0   120.0   16.666666666666668
-450.0   120.0   33.333333333333336
-400.0   150.0   33.333333333333336
-400.0   120.0   16.666666666666668
-450.0   150.0   16.666666666666668
-450.0   120.0   33.333333333333336
-400.0   120.0   33.333333333333336
-450.0   150.0   33.333333333333336
-450.0   120.0   50.0
-400.0   120.0   33.333333333333336
-400.0   150.0   33.333333333333336
-450.0   150.0   33.333333333333336
-400.0   150.0   50.0
-450.0   120.0   50.0
-450.0   150.0   50.0
-400.0   150.0   50.0
-450.0   150.0   33.333333333333336
-450.0   120.0   50.0
-400.0   150.0   50.0
-400.0   120.0   50.0
-400.0   120.0   33.333333333333336
-450.0   120.0   50.0
-400.0   150.0   50.0
-400.0   120.0   33.333333333333336
-450.0   150.0   33.333333333333336
-400.0   0.0   0.0
-350.0   0.0   0.0
-400.0   30.0   0.0
-400.0   0.0   16.666666666666668
-350.0   0.0   0.0
-350.0   30.0   0.0
-400.0   30.0   0.0
-350.0   30.0   16.666666666666668
-400.0   0.0   16.666666666666668
-400.0   30.0   16.666666666666668
-350.0   30.0   16.666666666666668
-400.0   30.0   0.0
-400.0   0.0   16.666666666666668
-350.0   30.0   16.666666666666668
-350.0   0.0   16.666666666666668
-350.0   0.0   0.0
-400.0   0.0   16.666666666666668
-350.0   30.0   16.666666666666668
-350.0   0.0   0.0
-400.0   30.0   0.0
-400.0   0.0   16.666666666666668
-350.0   0.0   16.666666666666668
-400.0   30.0   16.666666666666668
-400.0   0.0   33.333333333333336
-350.0   0.0   16.666666666666668
-350.0   30.0   16.666666666666668
-400.0   30.0   16.666666666666668
-350.0   30.0   33.333333333333336
-400.0   0.0   33.333333333333336
-400.0   30.0   33.333333333333336
-350.0   30.0   33.333333333333336
-400.0   30.0   16.666666666666668
-400.0   0.0   33.333333333333336
-350.0   30.0   33.333333333333336
-350.0   0.0   33.333333333333336
-350.0   0.0   16.666666666666668
-400.0   0.0   33.333333333333336
-350.0   30.0   33.333333333333336
-350.0   0.0   16.666666666666668
-400.0   30.0   16.666666666666668
-400.0   0.0   33.333333333333336
-350.0   0.0   33.333333333333336
-400.0   30.0   33.333333333333336
-400.0   0.0   50.0
-350.0   0.0   33.333333333333336
-350.0   30.0   33.333333333333336
-400.0   30.0   33.333333333333336
-350.0   30.0   50.0
-400.0   0.0   50.0
-400.0   30.0   50.0
-350.0   30.0   50.0
-400.0   30.0   33.333333333333336
-400.0   0.0   50.0
-350.0   30.0   50.0
-350.0   0.0   50.0
-350.0   0.0   33.333333333333336
-400.0   0.0   50.0
-350.0   30.0   50.0
-350.0   0.0   33.333333333333336
-400.0   30.0   33.333333333333336
-400.0   30.0   0.0
-350.0   30.0   0.0
-400.0   60.0   0.0
-400.0   30.0   16.666666666666668
-350.0   30.0   0.0
-350.0   60.0   0.0
-400.0   60.0   0.0
-350.0   60.0   16.666666666666668
-400.0   30.0   16.666666666666668
-400.0   60.0   16.666666666666668
-350.0   60.0   16.666666666666668
-400.0   60.0   0.0
-400.0   30.0   16.666666666666668
-350.0   60.0   16.666666666666668
-350.0   30.0   16.666666666666668
-350.0   30.0   0.0
-400.0   30.0   16.666666666666668
-350.0   60.0   16.666666666666668
-350.0   30.0   0.0
-400.0   60.0   0.0
-400.0   30.0   16.666666666666668
-350.0   30.0   16.666666666666668
-400.0   60.0   16.666666666666668
-400.0   30.0   33.333333333333336
-350.0   30.0   16.666666666666668
-350.0   60.0   16.666666666666668
-400.0   60.0   16.666666666666668
-350.0   60.0   33.333333333333336
-400.0   30.0   33.333333333333336
-400.0   60.0   33.333333333333336
-350.0   60.0   33.333333333333336
-400.0   60.0   16.666666666666668
-400.0   30.0   33.333333333333336
-350.0   60.0   33.333333333333336
-350.0   30.0   33.333333333333336
-350.0   30.0   16.666666666666668
-400.0   30.0   33.333333333333336
-350.0   60.0   33.333333333333336
-350.0   30.0   16.666666666666668
-400.0   60.0   16.666666666666668
-400.0   30.0   33.333333333333336
-350.0   30.0   33.333333333333336
-400.0   60.0   33.333333333333336
-400.0   30.0   50.0
-350.0   30.0   33.333333333333336
-350.0   60.0   33.333333333333336
-400.0   60.0   33.333333333333336
-350.0   60.0   50.0
-400.0   30.0   50.0
-400.0   60.0   50.0
-350.0   60.0   50.0
-400.0   60.0   33.333333333333336
-400.0   30.0   50.0
-350.0   60.0   50.0
-350.0   30.0   50.0
-350.0   30.0   33.333333333333336
-400.0   30.0   50.0
-350.0   60.0   50.0
-350.0   30.0   33.333333333333336
-400.0   60.0   33.333333333333336
-400.0   60.0   0.0
-350.0   60.0   0.0
-400.0   90.0   0.0
-400.0   60.0   16.666666666666668
-350.0   60.0   0.0
-350.0   90.0   0.0
-400.0   90.0   0.0
-350.0   90.0   16.666666666666668
-400.0   60.0   16.666666666666668
-400.0   90.0   16.666666666666668
-350.0   90.0   16.666666666666668
-400.0   90.0   0.0
-400.0   60.0   16.666666666666668
-350.0   90.0   16.666666666666668
-350.0   60.0   16.666666666666668
-350.0   60.0   0.0
-400.0   60.0   16.666666666666668
-350.0   90.0   16.666666666666668
-350.0   60.0   0.0
-400.0   90.0   0.0
-400.0   60.0   16.666666666666668
-350.0   60.0   16.666666666666668
-400.0   90.0   16.666666666666668
-400.0   60.0   33.333333333333336
-350.0   60.0   16.666666666666668
-350.0   90.0   16.666666666666668
-400.0   90.0   16.666666666666668
-350.0   90.0   33.333333333333336
-400.0   60.0   33.333333333333336
-400.0   90.0   33.333333333333336
-350.0   90.0   33.333333333333336
-400.0   90.0   16.666666666666668
-400.0   60.0   33.333333333333336
-350.0   90.0   33.333333333333336
-350.0   60.0   33.333333333333336
-350.0   60.0   16.666666666666668
-400.0   60.0   33.333333333333336
-350.0   90.0   33.333333333333336
-350.0   60.0   16.666666666666668
-400.0   90.0   16.666666666666668
-400.0   60.0   33.333333333333336
-350.0   60.0   33.333333333333336
-400.0   90.0   33.333333333333336
-400.0   60.0   50.0
-350.0   60.0   33.333333333333336
-350.0   90.0   33.333333333333336
-400.0   90.0   33.333333333333336
-350.0   90.0   50.0
-400.0   60.0   50.0
-400.0   90.0   50.0
-350.0   90.0   50.0
-400.0   90.0   33.333333333333336
-400.0   60.0   50.0
-350.0   90.0   50.0
-350.0   60.0   50.0
-350.0   60.0   33.333333333333336
-400.0   60.0   50.0
-350.0   90.0   50.0
-350.0   60.0   33.333333333333336
-400.0   90.0   33.333333333333336
-400.0   90.0   0.0
-350.0   90.0   0.0
-400.0   120.0   0.0
-400.0   90.0   16.666666666666668
-350.0   90.0   0.0
-350.0   120.0   0.0
-400.0   120.0   0.0
-350.0   120.0   16.666666666666668
-400.0   90.0   16.666666666666668
-400.0   120.0   16.666666666666668
-350.0   120.0   16.666666666666668
-400.0   120.0   0.0
-400.0   90.0   16.666666666666668
-350.0   120.0   16.666666666666668
-350.0   90.0   16.666666666666668
-350.0   90.0   0.0
-400.0   90.0   16.666666666666668
-350.0   120.0   16.666666666666668
-350.0   90.0   0.0
-400.0   120.0   0.0
-400.0   90.0   16.666666666666668
-350.0   90.0   16.666666666666668
-400.0   120.0   16.666666666666668
-400.0   90.0   33.333333333333336
-350.0   90.0   16.666666666666668
-350.0   120.0   16.666666666666668
-400.0   120.0   16.666666666666668
-350.0   120.0   33.333333333333336
-400.0   90.0   33.333333333333336
-400.0   120.0   33.333333333333336
-350.0   120.0   33.333333333333336
-400.0   120.0   16.666666666666668
-400.0   90.0   33.333333333333336
-350.0   120.0   33.333333333333336
-350.0   90.0   33.333333333333336
-350.0   90.0   16.666666666666668
-400.0   90.0   33.333333333333336
-350.0   120.0   33.333333333333336
-350.0   90.0   16.666666666666668
-400.0   120.0   16.666666666666668
-400.0   90.0   33.333333333333336
-350.0   90.0   33.333333333333336
-400.0   120.0   33.333333333333336
-400.0   90.0   50.0
-350.0   90.0   33.333333333333336
-350.0   120.0   33.333333333333336
-400.0   120.0   33.333333333333336
-350.0   120.0   50.0
-400.0   90.0   50.0
-400.0   120.0   50.0
-350.0   120.0   50.0
-400.0   120.0   33.333333333333336
-400.0   90.0   50.0
-350.0   120.0   50.0
-350.0   90.0   50.0
-350.0   90.0   33.333333333333336
-400.0   90.0   50.0
-350.0   120.0   50.0
-350.0   90.0   33.333333333333336
-400.0   120.0   33.333333333333336
-400.0   120.0   0.0
-350.0   120.0   0.0
-400.0   150.0   0.0
-400.0   120.0   16.666666666666668
-350.0   120.0   0.0
-350.0   150.0   0.0
-400.0   150.0   0.0
-350.0   150.0   16.666666666666668
-400.0   120.0   16.666666666666668
-400.0   150.0   16.666666666666668
-350.0   150.0   16.666666666666668
-400.0   150.0   0.0
-400.0   120.0   16.666666666666668
-350.0   150.0   16.666666666666668
-350.0   120.0   16.666666666666668
-350.0   120.0   0.0
-400.0   120.0   16.666666666666668
-350.0   150.0   16.666666666666668
-350.0   120.0   0.0
-400.0   150.0   0.0
-400.0   120.0   16.666666666666668
-350.0   120.0   16.666666666666668
-400.0   150.0   16.666666666666668
-400.0   120.0   33.333333333333336
-350.0   120.0   16.666666666666668
-350.0   150.0   16.666666666666668
-400.0   150.0   16.666666666666668
-350.0   150.0   33.333333333333336
-400.0   120.0   33.333333333333336
-400.0   150.0   33.333333333333336
-350.0   150.0   33.333333333333336
-400.0   150.0   16.666666666666668
-400.0   120.0   33.333333333333336
-350.0   150.0   33.333333333333336
-350.0   120.0   33.333333333333336
-350.0   120.0   16.666666666666668
-400.0   120.0   33.333333333333336
-350.0   150.0   33.333333333333336
-350.0   120.0   16.666666666666668
-400.0   150.0   16.666666666666668
-400.0   120.0   33.333333333333336
-350.0   120.0   33.333333333333336
-400.0   150.0   33.333333333333336
-400.0   120.0   50.0
-350.0   120.0   33.333333333333336
-350.0   150.0   33.333333333333336
-400.0   150.0   33.333333333333336
-350.0   150.0   50.0
-400.0   120.0   50.0
-400.0   150.0   50.0
-350.0   150.0   50.0
-400.0   150.0   33.333333333333336
-400.0   120.0   50.0
-350.0   150.0   50.0
-350.0   120.0   50.0
-350.0   120.0   33.333333333333336
-400.0   120.0   50.0
-350.0   150.0   50.0
-350.0   120.0   33.333333333333336
-400.0   150.0   33.333333333333336
-350.0   0.0   0.0
-300.0   0.0   0.0
-350.0   30.0   0.0
-350.0   0.0   16.666666666666668
-300.0   0.0   0.0
-300.0   30.0   0.0
-350.0   30.0   0.0
-300.0   30.0   16.666666666666668
-350.0   0.0   16.666666666666668
-350.0   30.0   16.666666666666668
-300.0   30.0   16.666666666666668
-350.0   30.0   0.0
-350.0   0.0   16.666666666666668
-300.0   30.0   16.666666666666668
-300.0   0.0   16.666666666666668
-300.0   0.0   0.0
-350.0   0.0   16.666666666666668
-300.0   30.0   16.666666666666668
-300.0   0.0   0.0
-350.0   30.0   0.0
-350.0   0.0   16.666666666666668
-300.0   0.0   16.666666666666668
-350.0   30.0   16.666666666666668
-350.0   0.0   33.333333333333336
-300.0   0.0   16.666666666666668
-300.0   30.0   16.666666666666668
-350.0   30.0   16.666666666666668
-300.0   30.0   33.333333333333336
-350.0   0.0   33.333333333333336
-350.0   30.0   33.333333333333336
-300.0   30.0   33.333333333333336
-350.0   30.0   16.666666666666668
-350.0   0.0   33.333333333333336
-300.0   30.0   33.333333333333336
-300.0   0.0   33.333333333333336
-300.0   0.0   16.666666666666668
-350.0   0.0   33.333333333333336
-300.0   30.0   33.333333333333336
-300.0   0.0   16.666666666666668
-350.0   30.0   16.666666666666668
-350.0   0.0   33.333333333333336
-300.0   0.0   33.333333333333336
-350.0   30.0   33.333333333333336
-350.0   0.0   50.0
-300.0   0.0   33.333333333333336
-300.0   30.0   33.333333333333336
-350.0   30.0   33.333333333333336
-300.0   30.0   50.0
-350.0   0.0   50.0
-350.0   30.0   50.0
-300.0   30.0   50.0
-350.0   30.0   33.333333333333336
-350.0   0.0   50.0
-300.0   30.0   50.0
-300.0   0.0   50.0
-300.0   0.0   33.333333333333336
-350.0   0.0   50.0
-300.0   30.0   50.0
-300.0   0.0   33.333333333333336
-350.0   30.0   33.333333333333336
-350.0   30.0   0.0
-300.0   30.0   0.0
-350.0   60.0   0.0
-350.0   30.0   16.666666666666668
-300.0   30.0   0.0
-300.0   60.0   0.0
-350.0   60.0   0.0
-300.0   60.0   16.666666666666668
-350.0   30.0   16.666666666666668
-350.0   60.0   16.666666666666668
-300.0   60.0   16.666666666666668
-350.0   60.0   0.0
-350.0   30.0   16.666666666666668
-300.0   60.0   16.666666666666668
-300.0   30.0   16.666666666666668
-300.0   30.0   0.0
-350.0   30.0   16.666666666666668
-300.0   60.0   16.666666666666668
-300.0   30.0   0.0
-350.0   60.0   0.0
-350.0   30.0   16.666666666666668
-300.0   30.0   16.666666666666668
-350.0   60.0   16.666666666666668
-350.0   30.0   33.333333333333336
-300.0   30.0   16.666666666666668
-300.0   60.0   16.666666666666668
-350.0   60.0   16.666666666666668
-300.0   60.0   33.333333333333336
-350.0   30.0   33.333333333333336
-350.0   60.0   33.333333333333336
-300.0   60.0   33.333333333333336
-350.0   60.0   16.666666666666668
-350.0   30.0   33.333333333333336
-300.0   60.0   33.333333333333336
-300.0   30.0   33.333333333333336
-300.0   30.0   16.666666666666668
-350.0   30.0   33.333333333333336
-300.0   60.0   33.333333333333336
-300.0   30.0   16.666666666666668
-350.0   60.0   16.666666666666668
-350.0   30.0   33.333333333333336
-300.0   30.0   33.333333333333336
-350.0   60.0   33.333333333333336
-350.0   30.0   50.0
-300.0   30.0   33.333333333333336
-300.0   60.0   33.333333333333336
-350.0   60.0   33.333333333333336
-300.0   60.0   50.0
-350.0   30.0   50.0
-350.0   60.0   50.0
-300.0   60.0   50.0
-350.0   60.0   33.333333333333336
-350.0   30.0   50.0
-300.0   60.0   50.0
-300.0   30.0   50.0
-300.0   30.0   33.333333333333336
-350.0   30.0   50.0
-300.0   60.0   50.0
-300.0   30.0   33.333333333333336
-350.0   60.0   33.333333333333336
-350.0   60.0   0.0
-300.0   60.0   0.0
-350.0   90.0   0.0
-350.0   60.0   16.666666666666668
-300.0   60.0   0.0
-300.0   90.0   0.0
-350.0   90.0   0.0
-300.0   90.0   16.666666666666668
-350.0   60.0   16.666666666666668
-350.0   90.0   16.666666666666668
-300.0   90.0   16.666666666666668
-350.0   90.0   0.0
-350.0   60.0   16.666666666666668
-300.0   90.0   16.666666666666668
-300.0   60.0   16.666666666666668
-300.0   60.0   0.0
-350.0   60.0   16.666666666666668
-300.0   90.0   16.666666666666668
-300.0   60.0   0.0
-350.0   90.0   0.0
-350.0   60.0   16.666666666666668
-300.0   60.0   16.666666666666668
-350.0   90.0   16.666666666666668
-350.0   60.0   33.333333333333336
-300.0   60.0   16.666666666666668
-300.0   90.0   16.666666666666668
-350.0   90.0   16.666666666666668
-300.0   90.0   33.333333333333336
-350.0   60.0   33.333333333333336
-350.0   90.0   33.333333333333336
-300.0   90.0   33.333333333333336
-350.0   90.0   16.666666666666668
-350.0   60.0   33.333333333333336
-300.0   90.0   33.333333333333336
-300.0   60.0   33.333333333333336
-300.0   60.0   16.666666666666668
-350.0   60.0   33.333333333333336
-300.0   90.0   33.333333333333336
-300.0   60.0   16.666666666666668
-350.0   90.0   16.666666666666668
-350.0   60.0   33.333333333333336
-300.0   60.0   33.333333333333336
-350.0   90.0   33.333333333333336
-350.0   60.0   50.0
-300.0   60.0   33.333333333333336
-300.0   90.0   33.333333333333336
-350.0   90.0   33.333333333333336
-300.0   90.0   50.0
-350.0   60.0   50.0
-350.0   90.0   50.0
-300.0   90.0   50.0
-350.0   90.0   33.333333333333336
-350.0   60.0   50.0
-300.0   90.0   50.0
-300.0   60.0   50.0
-300.0   60.0   33.333333333333336
-350.0   60.0   50.0
-300.0   90.0   50.0
-300.0   60.0   33.333333333333336
-350.0   90.0   33.333333333333336
-350.0   90.0   0.0
-300.0   90.0   0.0
-350.0   120.0   0.0
-350.0   90.0   16.666666666666668
-300.0   90.0   0.0
-300.0   120.0   0.0
-350.0   120.0   0.0
-300.0   120.0   16.666666666666668
-350.0   90.0   16.666666666666668
-350.0   120.0   16.666666666666668
-300.0   120.0   16.666666666666668
-350.0   120.0   0.0
-350.0   90.0   16.666666666666668
-300.0   120.0   16.666666666666668
-300.0   90.0   16.666666666666668
-300.0   90.0   0.0
-350.0   90.0   16.666666666666668
-300.0   120.0   16.666666666666668
-300.0   90.0   0.0
-350.0   120.0   0.0
-350.0   90.0   16.666666666666668
-300.0   90.0   16.666666666666668
-350.0   120.0   16.666666666666668
-350.0   90.0   33.333333333333336
-300.0   90.0   16.666666666666668
-300.0   120.0   16.666666666666668
-350.0   120.0   16.666666666666668
-300.0   120.0   33.333333333333336
-350.0   90.0   33.333333333333336
-350.0   120.0   33.333333333333336
-300.0   120.0   33.333333333333336
-350.0   120.0   16.666666666666668
-350.0   90.0   33.333333333333336
-300.0   120.0   33.333333333333336
-300.0   90.0   33.333333333333336
-300.0   90.0   16.666666666666668
-350.0   90.0   33.333333333333336
-300.0   120.0   33.333333333333336
-300.0   90.0   16.666666666666668
-350.0   120.0   16.666666666666668
-350.0   90.0   33.333333333333336
-300.0   90.0   33.333333333333336
-350.0   120.0   33.333333333333336
-350.0   90.0   50.0
-300.0   90.0   33.333333333333336
-300.0   120.0   33.333333333333336
-350.0   120.0   33.333333333333336
-300.0   120.0   50.0
-350.0   90.0   50.0
-350.0   120.0   50.0
-300.0   120.0   50.0
-350.0   120.0   33.333333333333336
-350.0   90.0   50.0
-300.0   120.0   50.0
-300.0   90.0   50.0
-300.0   90.0   33.333333333333336
-350.0   90.0   50.0
-300.0   120.0   50.0
-300.0   90.0   33.333333333333336
-350.0   120.0   33.333333333333336
-350.0   120.0   0.0
-300.0   120.0   0.0
-350.0   150.0   0.0
-350.0   120.0   16.666666666666668
-300.0   120.0   0.0
-300.0   150.0   0.0
-350.0   150.0   0.0
-300.0   150.0   16.666666666666668
-350.0   120.0   16.666666666666668
-350.0   150.0   16.666666666666668
-300.0   150.0   16.666666666666668
-350.0   150.0   0.0
-350.0   120.0   16.666666666666668
-300.0   150.0   16.666666666666668
-300.0   120.0   16.666666666666668
-300.0   120.0   0.0
-350.0   120.0   16.666666666666668
-300.0   150.0   16.666666666666668
-300.0   120.0   0.0
-350.0   150.0   0.0
-350.0   120.0   16.666666666666668
-300.0   120.0   16.666666666666668
-350.0   150.0   16.666666666666668
-350.0   120.0   33.333333333333336
-300.0   120.0   16.666666666666668
-300.0   150.0   16.666666666666668
-350.0   150.0   16.666666666666668
-300.0   150.0   33.333333333333336
-350.0   120.0   33.333333333333336
-350.0   150.0   33.333333333333336
-300.0   150.0   33.333333333333336
-350.0   150.0   16.666666666666668
-350.0   120.0   33.333333333333336
-300.0   150.0   33.333333333333336
-300.0   120.0   33.333333333333336
-300.0   120.0   16.666666666666668
-350.0   120.0   33.333333333333336
-300.0   150.0   33.333333333333336
-300.0   120.0   16.666666666666668
-350.0   150.0   16.666666666666668
-350.0   120.0   33.333333333333336
-300.0   120.0   33.333333333333336
-350.0   150.0   33.333333333333336
-350.0   120.0   50.0
-300.0   120.0   33.333333333333336
-300.0   150.0   33.333333333333336
-350.0   150.0   33.333333333333336
-300.0   150.0   50.0
-350.0   120.0   50.0
-350.0   150.0   50.0
-300.0   150.0   50.0
-350.0   150.0   33.333333333333336
-350.0   120.0   50.0
-300.0   150.0   50.0
-300.0   120.0   50.0
-300.0   120.0   33.333333333333336
-350.0   120.0   50.0
-300.0   150.0   50.0
-300.0   120.0   33.333333333333336
-350.0   150.0   33.333333333333336
-300.0   0.0   0.0
-250.0   0.0   0.0
-300.0   30.0   0.0
-300.0   0.0   16.666666666666668
-250.0   0.0   0.0
-250.0   30.0   0.0
-300.0   30.0   0.0
-250.0   30.0   16.666666666666668
-300.0   0.0   16.666666666666668
-300.0   30.0   16.666666666666668
-250.0   30.0   16.666666666666668
-300.0   30.0   0.0
-300.0   0.0   16.666666666666668
-250.0   30.0   16.666666666666668
-250.0   0.0   16.666666666666668
-250.0   0.0   0.0
-300.0   0.0   16.666666666666668
-250.0   30.0   16.666666666666668
-250.0   0.0   0.0
-300.0   30.0   0.0
-300.0   0.0   16.666666666666668
-250.0   0.0   16.666666666666668
-300.0   30.0   16.666666666666668
-300.0   0.0   33.333333333333336
-250.0   0.0   16.666666666666668
-250.0   30.0   16.666666666666668
-300.0   30.0   16.666666666666668
-250.0   30.0   33.333333333333336
-300.0   0.0   33.333333333333336
-300.0   30.0   33.333333333333336
-250.0   30.0   33.333333333333336
-300.0   30.0   16.666666666666668
-300.0   0.0   33.333333333333336
-250.0   30.0   33.333333333333336
-250.0   0.0   33.333333333333336
-250.0   0.0   16.666666666666668
-300.0   0.0   33.333333333333336
-250.0   30.0   33.333333333333336
-250.0   0.0   16.666666666666668
-300.0   30.0   16.666666666666668
-300.0   0.0   33.333333333333336
-250.0   0.0   33.333333333333336
-300.0   30.0   33.333333333333336
-300.0   0.0   50.0
-250.0   0.0   33.333333333333336
-250.0   30.0   33.333333333333336
-300.0   30.0   33.333333333333336
-250.0   30.0   50.0
-300.0   0.0   50.0
-300.0   30.0   50.0
-250.0   30.0   50.0
-300.0   30.0   33.333333333333336
-300.0   0.0   50.0
-250.0   30.0   50.0
-250.0   0.0   50.0
-250.0   0.0   33.333333333333336
-300.0   0.0   50.0
-250.0   30.0   50.0
-250.0   0.0   33.333333333333336
-300.0   30.0   33.333333333333336
-300.0   30.0   0.0
-250.0   30.0   0.0
-300.0   60.0   0.0
-300.0   30.0   16.666666666666668
-250.0   30.0   0.0
-250.0   60.0   0.0
-300.0   60.0   0.0
-250.0   60.0   16.666666666666668
-300.0   30.0   16.666666666666668
-300.0   60.0   16.666666666666668
-250.0   60.0   16.666666666666668
-300.0   60.0   0.0
-300.0   30.0   16.666666666666668
-250.0   60.0   16.666666666666668
-250.0   30.0   16.666666666666668
-250.0   30.0   0.0
-300.0   30.0   16.666666666666668
-250.0   60.0   16.666666666666668
-250.0   30.0   0.0
-300.0   60.0   0.0
-300.0   30.0   16.666666666666668
-250.0   30.0   16.666666666666668
-300.0   60.0   16.666666666666668
-300.0   30.0   33.333333333333336
-250.0   30.0   16.666666666666668
-250.0   60.0   16.666666666666668
-300.0   60.0   16.666666666666668
-250.0   60.0   33.333333333333336
-300.0   30.0   33.333333333333336
-300.0   60.0   33.333333333333336
-250.0   60.0   33.333333333333336
-300.0   60.0   16.666666666666668
-300.0   30.0   33.333333333333336
-250.0   60.0   33.333333333333336
-250.0   30.0   33.333333333333336
-250.0   30.0   16.666666666666668
-300.0   30.0   33.333333333333336
-250.0   60.0   33.333333333333336
-250.0   30.0   16.666666666666668
-300.0   60.0   16.666666666666668
-300.0   30.0   33.333333333333336
-250.0   30.0   33.333333333333336
-300.0   60.0   33.333333333333336
-300.0   30.0   50.0
-250.0   30.0   33.333333333333336
-250.0   60.0   33.333333333333336
-300.0   60.0   33.333333333333336
-250.0   60.0   50.0
-300.0   30.0   50.0
-300.0   60.0   50.0
-250.0   60.0   50.0
-300.0   60.0   33.333333333333336
-300.0   30.0   50.0
-250.0   60.0   50.0
-250.0   30.0   50.0
-250.0   30.0   33.333333333333336
-300.0   30.0   50.0
-250.0   60.0   50.0
-250.0   30.0   33.333333333333336
-300.0   60.0   33.333333333333336
-300.0   60.0   0.0
-250.0   60.0   0.0
-300.0   90.0   0.0
-300.0   60.0   16.666666666666668
-250.0   60.0   0.0
-250.0   90.0   0.0
-300.0   90.0   0.0
-250.0   90.0   16.666666666666668
-300.0   60.0   16.666666666666668
-300.0   90.0   16.666666666666668
-250.0   90.0   16.666666666666668
-300.0   90.0   0.0
-300.0   60.0   16.666666666666668
-250.0   90.0   16.666666666666668
-250.0   60.0   16.666666666666668
-250.0   60.0   0.0
-300.0   60.0   16.666666666666668
-250.0   90.0   16.666666666666668
-250.0   60.0   0.0
-300.0   90.0   0.0
-300.0   60.0   16.666666666666668
-250.0   60.0   16.666666666666668
-300.0   90.0   16.666666666666668
-300.0   60.0   33.333333333333336
-250.0   60.0   16.666666666666668
-250.0   90.0   16.666666666666668
-300.0   90.0   16.666666666666668
-250.0   90.0   33.333333333333336
-300.0   60.0   33.333333333333336
-300.0   90.0   33.333333333333336
-250.0   90.0   33.333333333333336
-300.0   90.0   16.666666666666668
-300.0   60.0   33.333333333333336
-250.0   90.0   33.333333333333336
-250.0   60.0   33.333333333333336
-250.0   60.0   16.666666666666668
-300.0   60.0   33.333333333333336
-250.0   90.0   33.333333333333336
-250.0   60.0   16.666666666666668
-300.0   90.0   16.666666666666668
-300.0   60.0   33.333333333333336
-250.0   60.0   33.333333333333336
-300.0   90.0   33.333333333333336
-300.0   60.0   50.0
-250.0   60.0   33.333333333333336
-250.0   90.0   33.333333333333336
-300.0   90.0   33.333333333333336
-250.0   90.0   50.0
-300.0   60.0   50.0
-300.0   90.0   50.0
-250.0   90.0   50.0
-300.0   90.0   33.333333333333336
-300.0   60.0   50.0
-250.0   90.0   50.0
-250.0   60.0   50.0
-250.0   60.0   33.333333333333336
-300.0   60.0   50.0
-250.0   90.0   50.0
-250.0   60.0   33.333333333333336
-300.0   90.0   33.333333333333336
-300.0   90.0   0.0
-250.0   90.0   0.0
-300.0   120.0   0.0
-300.0   90.0   16.666666666666668
-250.0   90.0   0.0
-250.0   120.0   0.0
-300.0   120.0   0.0
-250.0   120.0   16.666666666666668
-300.0   90.0   16.666666666666668
-300.0   120.0   16.666666666666668
-250.0   120.0   16.666666666666668
-300.0   120.0   0.0
-300.0   90.0   16.666666666666668
-250.0   120.0   16.666666666666668
-250.0   90.0   16.666666666666668
-250.0   90.0   0.0
-300.0   90.0   16.666666666666668
-250.0   120.0   16.666666666666668
-250.0   90.0   0.0
-300.0   120.0   0.0
-300.0   90.0   16.666666666666668
-250.0   90.0   16.666666666666668
-300.0   120.0   16.666666666666668
-300.0   90.0   33.333333333333336
-250.0   90.0   16.666666666666668
-250.0   120.0   16.666666666666668
-300.0   120.0   16.666666666666668
-250.0   120.0   33.333333333333336
-300.0   90.0   33.333333333333336
-300.0   120.0   33.333333333333336
-250.0   120.0   33.333333333333336
-300.0   120.0   16.666666666666668
-300.0   90.0   33.333333333333336
-250.0   120.0   33.333333333333336
-250.0   90.0   33.333333333333336
-250.0   90.0   16.666666666666668
-300.0   90.0   33.333333333333336
-250.0   120.0   33.333333333333336
-250.0   90.0   16.666666666666668
-300.0   120.0   16.666666666666668
-300.0   90.0   33.333333333333336
-250.0   90.0   33.333333333333336
-300.0   120.0   33.333333333333336
-300.0   90.0   50.0
-250.0   90.0   33.333333333333336
-250.0   120.0   33.333333333333336
-300.0   120.0   33.333333333333336
-250.0   120.0   50.0
-300.0   90.0   50.0
-300.0   120.0   50.0
-250.0   120.0   50.0
-300.0   120.0   33.333333333333336
-300.0   90.0   50.0
-250.0   120.0   50.0
-250.0   90.0   50.0
-250.0   90.0   33.333333333333336
-300.0   90.0   50.0
-250.0   120.0   50.0
-250.0   90.0   33.333333333333336
-300.0   120.0   33.333333333333336
-300.0   120.0   0.0
-250.0   120.0   0.0
-300.0   150.0   0.0
-300.0   120.0   16.666666666666668
-250.0   120.0   0.0
-250.0   150.0   0.0
-300.0   150.0   0.0
-250.0   150.0   16.666666666666668
-300.0   120.0   16.666666666666668
-300.0   150.0   16.666666666666668
-250.0   150.0   16.666666666666668
-300.0   150.0   0.0
-300.0   120.0   16.666666666666668
-250.0   150.0   16.666666666666668
-250.0   120.0   16.666666666666668
-250.0   120.0   0.0
-300.0   120.0   16.666666666666668
-250.0   150.0   16.666666666666668
-250.0   120.0   0.0
-300.0   150.0   0.0
-300.0   120.0   16.666666666666668
-250.0   120.0   16.666666666666668
-300.0   150.0   16.666666666666668
-300.0   120.0   33.333333333333336
-250.0   120.0   16.666666666666668
-250.0   150.0   16.666666666666668
-300.0   150.0   16.666666666666668
-250.0   150.0   33.333333333333336
-300.0   120.0   33.333333333333336
-300.0   150.0   33.333333333333336
-250.0   150.0   33.333333333333336
-300.0   150.0   16.666666666666668
-300.0   120.0   33.333333333333336
-250.0   150.0   33.333333333333336
-250.0   120.0   33.333333333333336
-250.0   120.0   16.666666666666668
-300.0   120.0   33.333333333333336
-250.0   150.0   33.333333333333336
-250.0   120.0   16.666666666666668
-300.0   150.0   16.666666666666668
-300.0   120.0   33.333333333333336
-250.0   120.0   33.333333333333336
-300.0   150.0   33.333333333333336
-300.0   120.0   50.0
-250.0   120.0   33.333333333333336
-250.0   150.0   33.333333333333336
-300.0   150.0   33.333333333333336
-250.0   150.0   50.0
-300.0   120.0   50.0
-300.0   150.0   50.0
-250.0   150.0   50.0
-300.0   150.0   33.333333333333336
-300.0   120.0   50.0
-250.0   150.0   50.0
-250.0   120.0   50.0
-250.0   120.0   33.333333333333336
-300.0   120.0   50.0
-250.0   150.0   50.0
-250.0   120.0   33.333333333333336
-300.0   150.0   33.333333333333336
-250.0   0.0   0.0
-200.0   0.0   0.0
-250.0   30.0   0.0
-250.0   0.0   16.666666666666668
-200.0   0.0   0.0
-200.0   30.0   0.0
-250.0   30.0   0.0
-200.0   30.0   16.666666666666668
-250.0   0.0   16.666666666666668
-250.0   30.0   16.666666666666668
-200.0   30.0   16.666666666666668
-250.0   30.0   0.0
-250.0   0.0   16.666666666666668
-200.0   30.0   16.666666666666668
-200.0   0.0   16.666666666666668
-200.0   0.0   0.0
-250.0   0.0   16.666666666666668
-200.0   30.0   16.666666666666668
-200.0   0.0   0.0
-250.0   30.0   0.0
-250.0   0.0   16.666666666666668
-200.0   0.0   16.666666666666668
-250.0   30.0   16.666666666666668
-250.0   0.0   33.333333333333336
-200.0   0.0   16.666666666666668
-200.0   30.0   16.666666666666668
-250.0   30.0   16.666666666666668
-200.0   30.0   33.333333333333336
-250.0   0.0   33.333333333333336
-250.0   30.0   33.333333333333336
-200.0   30.0   33.333333333333336
-250.0   30.0   16.666666666666668
-250.0   0.0   33.333333333333336
-200.0   30.0   33.333333333333336
-200.0   0.0   33.333333333333336
-200.0   0.0   16.666666666666668
-250.0   0.0   33.333333333333336
-200.0   30.0   33.333333333333336
-200.0   0.0   16.666666666666668
-250.0   30.0   16.666666666666668
-250.0   0.0   33.333333333333336
-200.0   0.0   33.333333333333336
-250.0   30.0   33.333333333333336
-250.0   0.0   50.0
-200.0   0.0   33.333333333333336
-200.0   30.0   33.333333333333336
-250.0   30.0   33.333333333333336
-200.0   30.0   50.0
-250.0   0.0   50.0
-250.0   30.0   50.0
-200.0   30.0   50.0
-250.0   30.0   33.333333333333336
-250.0   0.0   50.0
-200.0   30.0   50.0
-200.0   0.0   50.0
-200.0   0.0   33.333333333333336
-250.0   0.0   50.0
-200.0   30.0   50.0
-200.0   0.0   33.333333333333336
-250.0   30.0   33.333333333333336
-250.0   30.0   0.0
-200.0   30.0   0.0
-250.0   60.0   0.0
-250.0   30.0   16.666666666666668
-200.0   30.0   0.0
-200.0   60.0   0.0
-250.0   60.0   0.0
-200.0   60.0   16.666666666666668
-250.0   30.0   16.666666666666668
-250.0   60.0   16.666666666666668
-200.0   60.0   16.666666666666668
-250.0   60.0   0.0
-250.0   30.0   16.666666666666668
-200.0   60.0   16.666666666666668
-200.0   30.0   16.666666666666668
-200.0   30.0   0.0
-250.0   30.0   16.666666666666668
-200.0   60.0   16.666666666666668
-200.0   30.0   0.0
-250.0   60.0   0.0
-250.0   30.0   16.666666666666668
-200.0   30.0   16.666666666666668
-250.0   60.0   16.666666666666668
-250.0   30.0   33.333333333333336
-200.0   30.0   16.666666666666668
-200.0   60.0   16.666666666666668
-250.0   60.0   16.666666666666668
-200.0   60.0   33.333333333333336
-250.0   30.0   33.333333333333336
-250.0   60.0   33.333333333333336
-200.0   60.0   33.333333333333336
-250.0   60.0   16.666666666666668
-250.0   30.0   33.333333333333336
-200.0   60.0   33.333333333333336
-200.0   30.0   33.333333333333336
-200.0   30.0   16.666666666666668
-250.0   30.0   33.333333333333336
-200.0   60.0   33.333333333333336
-200.0   30.0   16.666666666666668
-250.0   60.0   16.666666666666668
-250.0   30.0   33.333333333333336
-200.0   30.0   33.333333333333336
-250.0   60.0   33.333333333333336
-250.0   30.0   50.0
-200.0   30.0   33.333333333333336
-200.0   60.0   33.333333333333336
-250.0   60.0   33.333333333333336
-200.0   60.0   50.0
-250.0   30.0   50.0
-250.0   60.0   50.0
-200.0   60.0   50.0
-250.0   60.0   33.333333333333336
-250.0   30.0   50.0
-200.0   60.0   50.0
-200.0   30.0   50.0
-200.0   30.0   33.333333333333336
-250.0   30.0   50.0
-200.0   60.0   50.0
-200.0   30.0   33.333333333333336
-250.0   60.0   33.333333333333336
-250.0   60.0   0.0
-200.0   60.0   0.0
-250.0   90.0   0.0
-250.0   60.0   16.666666666666668
-200.0   60.0   0.0
-200.0   90.0   0.0
-250.0   90.0   0.0
-200.0   90.0   16.666666666666668
-250.0   60.0   16.666666666666668
-250.0   90.0   16.666666666666668
-200.0   90.0   16.666666666666668
-250.0   90.0   0.0
-250.0   60.0   16.666666666666668
-200.0   90.0   16.666666666666668
-200.0   60.0   16.666666666666668
-200.0   60.0   0.0
-250.0   60.0   16.666666666666668
-200.0   90.0   16.666666666666668
-200.0   60.0   0.0
-250.0   90.0   0.0
-250.0   60.0   16.666666666666668
-200.0   60.0   16.666666666666668
-250.0   90.0   16.666666666666668
-250.0   60.0   33.333333333333336
-200.0   60.0   16.666666666666668
-200.0   90.0   16.666666666666668
-250.0   90.0   16.666666666666668
-200.0   90.0   33.333333333333336
-250.0   60.0   33.333333333333336
-250.0   90.0   33.333333333333336
-200.0   90.0   33.333333333333336
-250.0   90.0   16.666666666666668
-250.0   60.0   33.333333333333336
-200.0   90.0   33.333333333333336
-200.0   60.0   33.333333333333336
-200.0   60.0   16.666666666666668
-250.0   60.0   33.333333333333336
-200.0   90.0   33.333333333333336
-200.0   60.0   16.666666666666668
-250.0   90.0   16.666666666666668
-250.0   60.0   33.333333333333336
-200.0   60.0   33.333333333333336
-250.0   90.0   33.333333333333336
-250.0   60.0   50.0
-200.0   60.0   33.333333333333336
-200.0   90.0   33.333333333333336
-250.0   90.0   33.333333333333336
-200.0   90.0   50.0
-250.0   60.0   50.0
-250.0   90.0   50.0
-200.0   90.0   50.0
-250.0   90.0   33.333333333333336
-250.0   60.0   50.0
-200.0   90.0   50.0
-200.0   60.0   50.0
-200.0   60.0   33.333333333333336
-250.0   60.0   50.0
-200.0   90.0   50.0
-200.0   60.0   33.333333333333336
-250.0   90.0   33.333333333333336
-250.0   90.0   0.0
-200.0   90.0   0.0
-250.0   120.0   0.0
-250.0   90.0   16.666666666666668
-200.0   90.0   0.0
-200.0   120.0   0.0
-250.0   120.0   0.0
-200.0   120.0   16.666666666666668
-250.0   90.0   16.666666666666668
-250.0   120.0   16.666666666666668
-200.0   120.0   16.666666666666668
-250.0   120.0   0.0
-250.0   90.0   16.666666666666668
-200.0   120.0   16.666666666666668
-200.0   90.0   16.666666666666668
-200.0   90.0   0.0
-250.0   90.0   16.666666666666668
-200.0   120.0   16.666666666666668
-200.0   90.0   0.0
-250.0   120.0   0.0
-250.0   90.0   16.666666666666668
-200.0   90.0   16.666666666666668
-250.0   120.0   16.666666666666668
-250.0   90.0   33.333333333333336
-200.0   90.0   16.666666666666668
-200.0   120.0   16.666666666666668
-250.0   120.0   16.666666666666668
-200.0   120.0   33.333333333333336
-250.0   90.0   33.333333333333336
-250.0   120.0   33.333333333333336
-200.0   120.0   33.333333333333336
-250.0   120.0   16.666666666666668
-250.0   90.0   33.333333333333336
-200.0   120.0   33.333333333333336
-200.0   90.0   33.333333333333336
-200.0   90.0   16.666666666666668
-250.0   90.0   33.333333333333336
-200.0   120.0   33.333333333333336
-200.0   90.0   16.666666666666668
-250.0   120.0   16.666666666666668
-250.0   90.0   33.333333333333336
-200.0   90.0   33.333333333333336
-250.0   120.0   33.333333333333336
-250.0   90.0   50.0
-200.0   90.0   33.333333333333336
-200.0   120.0   33.333333333333336
-250.0   120.0   33.333333333333336
-200.0   120.0   50.0
-250.0   90.0   50.0
-250.0   120.0   50.0
-200.0   120.0   50.0
-250.0   120.0   33.333333333333336
-250.0   90.0   50.0
-200.0   120.0   50.0
-200.0   90.0   50.0
-200.0   90.0   33.333333333333336
-250.0   90.0   50.0
-200.0   120.0   50.0
-200.0   90.0   33.333333333333336
-250.0   120.0   33.333333333333336
-250.0   120.0   0.0
-200.0   120.0   0.0
-250.0   150.0   0.0
-250.0   120.0   16.666666666666668
-200.0   120.0   0.0
-200.0   150.0   0.0
-250.0   150.0   0.0
-200.0   150.0   16.666666666666668
-250.0   120.0   16.666666666666668
-250.0   150.0   16.666666666666668
-200.0   150.0   16.666666666666668
-250.0   150.0   0.0
-250.0   120.0   16.666666666666668
-200.0   150.0   16.666666666666668
-200.0   120.0   16.666666666666668
-200.0   120.0   0.0
-250.0   120.0   16.666666666666668
-200.0   150.0   16.666666666666668
-200.0   120.0   0.0
-250.0   150.0   0.0
-250.0   120.0   16.666666666666668
-200.0   120.0   16.666666666666668
-250.0   150.0   16.666666666666668
-250.0   120.0   33.333333333333336
-200.0   120.0   16.666666666666668
-200.0   150.0   16.666666666666668
-250.0   150.0   16.666666666666668
-200.0   150.0   33.333333333333336
-250.0   120.0   33.333333333333336
-250.0   150.0   33.333333333333336
-200.0   150.0   33.333333333333336
-250.0   150.0   16.666666666666668
-250.0   120.0   33.333333333333336
-200.0   150.0   33.333333333333336
-200.0   120.0   33.333333333333336
-200.0   120.0   16.666666666666668
-250.0   120.0   33.333333333333336
-200.0   150.0   33.333333333333336
-200.0   120.0   16.666666666666668
-250.0   150.0   16.666666666666668
-250.0   120.0   33.333333333333336
-200.0   120.0   33.333333333333336
-250.0   150.0   33.333333333333336
-250.0   120.0   50.0
-200.0   120.0   33.333333333333336
-200.0   150.0   33.333333333333336
-250.0   150.0   33.333333333333336
-200.0   150.0   50.0
-250.0   120.0   50.0
-250.0   150.0   50.0
-200.0   150.0   50.0
-250.0   150.0   33.333333333333336
-250.0   120.0   50.0
-200.0   150.0   50.0
-200.0   120.0   50.0
-200.0   120.0   33.333333333333336
-250.0   120.0   50.0
-200.0   150.0   50.0
-200.0   120.0   33.333333333333336
-250.0   150.0   33.333333333333336
-200.0   0.0   0.0
-150.0   0.0   0.0
-200.0   30.0   0.0
-200.0   0.0   16.666666666666668
-150.0   0.0   0.0
-150.0   30.0   0.0
-200.0   30.0   0.0
-150.0   30.0   16.666666666666668
-200.0   0.0   16.666666666666668
-200.0   30.0   16.666666666666668
-150.0   30.0   16.666666666666668
-200.0   30.0   0.0
-200.0   0.0   16.666666666666668
-150.0   30.0   16.666666666666668
-150.0   0.0   16.666666666666668
-150.0   0.0   0.0
-200.0   0.0   16.666666666666668
-150.0   30.0   16.666666666666668
-150.0   0.0   0.0
-200.0   30.0   0.0
-200.0   0.0   16.666666666666668
-150.0   0.0   16.666666666666668
-200.0   30.0   16.666666666666668
-200.0   0.0   33.333333333333336
-150.0   0.0   16.666666666666668
-150.0   30.0   16.666666666666668
-200.0   30.0   16.666666666666668
-150.0   30.0   33.333333333333336
-200.0   0.0   33.333333333333336
-200.0   30.0   33.333333333333336
-150.0   30.0   33.333333333333336
-200.0   30.0   16.666666666666668
-200.0   0.0   33.333333333333336
-150.0   30.0   33.333333333333336
-150.0   0.0   33.333333333333336
-150.0   0.0   16.666666666666668
-200.0   0.0   33.333333333333336
-150.0   30.0   33.333333333333336
-150.0   0.0   16.666666666666668
-200.0   30.0   16.666666666666668
-200.0   0.0   33.333333333333336
-150.0   0.0   33.333333333333336
-200.0   30.0   33.333333333333336
-200.0   0.0   50.0
-150.0   0.0   33.333333333333336
-150.0   30.0   33.333333333333336
-200.0   30.0   33.333333333333336
-150.0   30.0   50.0
-200.0   0.0   50.0
-200.0   30.0   50.0
-150.0   30.0   50.0
-200.0   30.0   33.333333333333336
-200.0   0.0   50.0
-150.0   30.0   50.0
-150.0   0.0   50.0
-150.0   0.0   33.333333333333336
-200.0   0.0   50.0
-150.0   30.0   50.0
-150.0   0.0   33.333333333333336
-200.0   30.0   33.333333333333336
-200.0   30.0   0.0
-150.0   30.0   0.0
-200.0   60.0   0.0
-200.0   30.0   16.666666666666668
-150.0   30.0   0.0
-150.0   60.0   0.0
-200.0   60.0   0.0
-150.0   60.0   16.666666666666668
-200.0   30.0   16.666666666666668
-200.0   60.0   16.666666666666668
-150.0   60.0   16.666666666666668
-200.0   60.0   0.0
-200.0   30.0   16.666666666666668
-150.0   60.0   16.666666666666668
-150.0   30.0   16.666666666666668
-150.0   30.0   0.0
-200.0   30.0   16.666666666666668
-150.0   60.0   16.666666666666668
-150.0   30.0   0.0
-200.0   60.0   0.0
-200.0   30.0   16.666666666666668
-150.0   30.0   16.666666666666668
-200.0   60.0   16.666666666666668
-200.0   30.0   33.333333333333336
-150.0   30.0   16.666666666666668
-150.0   60.0   16.666666666666668
-200.0   60.0   16.666666666666668
-150.0   60.0   33.333333333333336
-200.0   30.0   33.333333333333336
-200.0   60.0   33.333333333333336
-150.0   60.0   33.333333333333336
-200.0   60.0   16.666666666666668
-200.0   30.0   33.333333333333336
-150.0   60.0   33.333333333333336
-150.0   30.0   33.333333333333336
-150.0   30.0   16.666666666666668
-200.0   30.0   33.333333333333336
-150.0   60.0   33.333333333333336
-150.0   30.0   16.666666666666668
-200.0   60.0   16.666666666666668
-200.0   30.0   33.333333333333336
-150.0   30.0   33.333333333333336
-200.0   60.0   33.333333333333336
-200.0   30.0   50.0
-150.0   30.0   33.333333333333336
-150.0   60.0   33.333333333333336
-200.0   60.0   33.333333333333336
-150.0   60.0   50.0
-200.0   30.0   50.0
-200.0   60.0   50.0
-150.0   60.0   50.0
-200.0   60.0   33.333333333333336
-200.0   30.0   50.0
-150.0   60.0   50.0
-150.0   30.0   50.0
-150.0   30.0   33.333333333333336
-200.0   30.0   50.0
-150.0   60.0   50.0
-150.0   30.0   33.333333333333336
-200.0   60.0   33.333333333333336
-200.0   60.0   0.0
-150.0   60.0   0.0
-200.0   90.0   0.0
-200.0   60.0   16.666666666666668
-150.0   60.0   0.0
-150.0   90.0   0.0
-200.0   90.0   0.0
-150.0   90.0   16.666666666666668
-200.0   60.0   16.666666666666668
-200.0   90.0   16.666666666666668
-150.0   90.0   16.666666666666668
-200.0   90.0   0.0
-200.0   60.0   16.666666666666668
-150.0   90.0   16.666666666666668
-150.0   60.0   16.666666666666668
-150.0   60.0   0.0
-200.0   60.0   16.666666666666668
-150.0   90.0   16.666666666666668
-150.0   60.0   0.0
-200.0   90.0   0.0
-200.0   60.0   16.666666666666668
-150.0   60.0   16.666666666666668
-200.0   90.0   16.666666666666668
-200.0   60.0   33.333333333333336
-150.0   60.0   16.666666666666668
-150.0   90.0   16.666666666666668
-200.0   90.0   16.666666666666668
-150.0   90.0   33.333333333333336
-200.0   60.0   33.333333333333336
-200.0   90.0   33.333333333333336
-150.0   90.0   33.333333333333336
-200.0   90.0   16.666666666666668
-200.0   60.0   33.333333333333336
-150.0   90.0   33.333333333333336
-150.0   60.0   33.333333333333336
-150.0   60.0   16.666666666666668
-200.0   60.0   33.333333333333336
-150.0   90.0   33.333333333333336
-150.0   60.0   16.666666666666668
-200.0   90.0   16.666666666666668
-200.0   60.0   33.333333333333336
-150.0   60.0   33.333333333333336
-200.0   90.0   33.333333333333336
-200.0   60.0   50.0
-150.0   60.0   33.333333333333336
-150.0   90.0   33.333333333333336
-200.0   90.0   33.333333333333336
-150.0   90.0   50.0
-200.0   60.0   50.0
-200.0   90.0   50.0
-150.0   90.0   50.0
-200.0   90.0   33.333333333333336
-200.0   60.0   50.0
-150.0   90.0   50.0
-150.0   60.0   50.0
-150.0   60.0   33.333333333333336
-200.0   60.0   50.0
-150.0   90.0   50.0
-150.0   60.0   33.333333333333336
-200.0   90.0   33.333333333333336
-200.0   90.0   0.0
-150.0   90.0   0.0
-200.0   120.0   0.0
-200.0   90.0   16.666666666666668
-150.0   90.0   0.0
-150.0   120.0   0.0
-200.0   120.0   0.0
-150.0   120.0   16.666666666666668
-200.0   90.0   16.666666666666668
-200.0   120.0   16.666666666666668
-150.0   120.0   16.666666666666668
-200.0   120.0   0.0
-200.0   90.0   16.666666666666668
-150.0   120.0   16.666666666666668
-150.0   90.0   16.666666666666668
-150.0   90.0   0.0
-200.0   90.0   16.666666666666668
-150.0   120.0   16.666666666666668
-150.0   90.0   0.0
-200.0   120.0   0.0
-200.0   90.0   16.666666666666668
-150.0   90.0   16.666666666666668
-200.0   120.0   16.666666666666668
-200.0   90.0   33.333333333333336
-150.0   90.0   16.666666666666668
-150.0   120.0   16.666666666666668
-200.0   120.0   16.666666666666668
-150.0   120.0   33.333333333333336
-200.0   90.0   33.333333333333336
-200.0   120.0   33.333333333333336
-150.0   120.0   33.333333333333336
-200.0   120.0   16.666666666666668
-200.0   90.0   33.333333333333336
-150.0   120.0   33.333333333333336
-150.0   90.0   33.333333333333336
-150.0   90.0   16.666666666666668
-200.0   90.0   33.333333333333336
-150.0   120.0   33.333333333333336
-150.0   90.0   16.666666666666668
-200.0   120.0   16.666666666666668
-200.0   90.0   33.333333333333336
-150.0   90.0   33.333333333333336
-200.0   120.0   33.333333333333336
-200.0   90.0   50.0
-150.0   90.0   33.333333333333336
-150.0   120.0   33.333333333333336
-200.0   120.0   33.333333333333336
-150.0   120.0   50.0
-200.0   90.0   50.0
-200.0   120.0   50.0
-150.0   120.0   50.0
-200.0   120.0   33.333333333333336
-200.0   90.0   50.0
-150.0   120.0   50.0
-150.0   90.0   50.0
-150.0   90.0   33.333333333333336
-200.0   90.0   50.0
-150.0   120.0   50.0
-150.0   90.0   33.333333333333336
-200.0   120.0   33.333333333333336
-200.0   120.0   0.0
-150.0   120.0   0.0
-200.0   150.0   0.0
-200.0   120.0   16.666666666666668
-150.0   120.0   0.0
-150.0   150.0   0.0
-200.0   150.0   0.0
-150.0   150.0   16.666666666666668
-200.0   120.0   16.666666666666668
-200.0   150.0   16.666666666666668
-150.0   150.0   16.666666666666668
-200.0   150.0   0.0
-200.0   120.0   16.666666666666668
-150.0   150.0   16.666666666666668
-150.0   120.0   16.666666666666668
-150.0   120.0   0.0
-200.0   120.0   16.666666666666668
-150.0   150.0   16.666666666666668
-150.0   120.0   0.0
-200.0   150.0   0.0
-200.0   120.0   16.666666666666668
-150.0   120.0   16.666666666666668
-200.0   150.0   16.666666666666668
-200.0   120.0   33.333333333333336
-150.0   120.0   16.666666666666668
-150.0   150.0   16.666666666666668
-200.0   150.0   16.666666666666668
-150.0   150.0   33.333333333333336
-200.0   120.0   33.333333333333336
-200.0   150.0   33.333333333333336
-150.0   150.0   33.333333333333336
-200.0   150.0   16.666666666666668
-200.0   120.0   33.333333333333336
-150.0   150.0   33.333333333333336
-150.0   120.0   33.333333333333336
-150.0   120.0   16.666666666666668
-200.0   120.0   33.333333333333336
-150.0   150.0   33.333333333333336
-150.0   120.0   16.666666666666668
-200.0   150.0   16.666666666666668
-200.0   120.0   33.333333333333336
-150.0   120.0   33.333333333333336
-200.0   150.0   33.333333333333336
-200.0   120.0   50.0
-150.0   120.0   33.333333333333336
-150.0   150.0   33.333333333333336
-200.0   150.0   33.333333333333336
-150.0   150.0   50.0
-200.0   120.0   50.0
-200.0   150.0   50.0
-150.0   150.0   50.0
-200.0   150.0   33.333333333333336
-200.0   120.0   50.0
-150.0   150.0   50.0
-150.0   120.0   50.0
-150.0   120.0   33.333333333333336
-200.0   120.0   50.0
-150.0   150.0   50.0
-150.0   120.0   33.333333333333336
-200.0   150.0   33.333333333333336
-150.0   0.0   0.0
-100.0   0.0   0.0
-150.0   30.0   0.0
-150.0   0.0   16.666666666666668
-100.0   0.0   0.0
-100.0   30.0   0.0
-150.0   30.0   0.0
-100.0   30.0   16.666666666666668
-150.0   0.0   16.666666666666668
-150.0   30.0   16.666666666666668
-100.0   30.0   16.666666666666668
-150.0   30.0   0.0
-150.0   0.0   16.666666666666668
-100.0   30.0   16.666666666666668
-100.0   0.0   16.666666666666668
-100.0   0.0   0.0
-150.0   0.0   16.666666666666668
-100.0   30.0   16.666666666666668
-100.0   0.0   0.0
-150.0   30.0   0.0
-150.0   0.0   16.666666666666668
-100.0   0.0   16.666666666666668
-150.0   30.0   16.666666666666668
-150.0   0.0   33.333333333333336
-100.0   0.0   16.666666666666668
-100.0   30.0   16.666666666666668
-150.0   30.0   16.666666666666668
-100.0   30.0   33.333333333333336
-150.0   0.0   33.333333333333336
-150.0   30.0   33.333333333333336
-100.0   30.0   33.333333333333336
-150.0   30.0   16.666666666666668
-150.0   0.0   33.333333333333336
-100.0   30.0   33.333333333333336
-100.0   0.0   33.333333333333336
-100.0   0.0   16.666666666666668
-150.0   0.0   33.333333333333336
-100.0   30.0   33.333333333333336
-100.0   0.0   16.666666666666668
-150.0   30.0   16.666666666666668
-150.0   0.0   33.333333333333336
-100.0   0.0   33.333333333333336
-150.0   30.0   33.333333333333336
-150.0   0.0   50.0
-100.0   0.0   33.333333333333336
-100.0   30.0   33.333333333333336
-150.0   30.0   33.333333333333336
-100.0   30.0   50.0
-150.0   0.0   50.0
-150.0   30.0   50.0
-100.0   30.0   50.0
-150.0   30.0   33.333333333333336
-150.0   0.0   50.0
-100.0   30.0   50.0
-100.0   0.0   50.0
-100.0   0.0   33.333333333333336
-150.0   0.0   50.0
-100.0   30.0   50.0
-100.0   0.0   33.333333333333336
-150.0   30.0   33.333333333333336
-150.0   30.0   0.0
-100.0   30.0   0.0
-150.0   60.0   0.0
-150.0   30.0   16.666666666666668
-100.0   30.0   0.0
-100.0   60.0   0.0
-150.0   60.0   0.0
-100.0   60.0   16.666666666666668
-150.0   30.0   16.666666666666668
-150.0   60.0   16.666666666666668
-100.0   60.0   16.666666666666668
-150.0   60.0   0.0
-150.0   30.0   16.666666666666668
-100.0   60.0   16.666666666666668
-100.0   30.0   16.666666666666668
-100.0   30.0   0.0
-150.0   30.0   16.666666666666668
-100.0   60.0   16.666666666666668
-100.0   30.0   0.0
-150.0   60.0   0.0
-150.0   30.0   16.666666666666668
-100.0   30.0   16.666666666666668
-150.0   60.0   16.666666666666668
-150.0   30.0   33.333333333333336
-100.0   30.0   16.666666666666668
-100.0   60.0   16.666666666666668
-150.0   60.0   16.666666666666668
-100.0   60.0   33.333333333333336
-150.0   30.0   33.333333333333336
-150.0   60.0   33.333333333333336
-100.0   60.0   33.333333333333336
-150.0   60.0   16.666666666666668
-150.0   30.0   33.333333333333336
-100.0   60.0   33.333333333333336
-100.0   30.0   33.333333333333336
-100.0   30.0   16.666666666666668
-150.0   30.0   33.333333333333336
-100.0   60.0   33.333333333333336
-100.0   30.0   16.666666666666668
-150.0   60.0   16.666666666666668
-150.0   30.0   33.333333333333336
-100.0   30.0   33.333333333333336
-150.0   60.0   33.333333333333336
-150.0   30.0   50.0
-100.0   30.0   33.333333333333336
-100.0   60.0   33.333333333333336
-150.0   60.0   33.333333333333336
-100.0   60.0   50.0
-150.0   30.0   50.0
-150.0   60.0   50.0
-100.0   60.0   50.0
-150.0   60.0   33.333333333333336
-150.0   30.0   50.0
-100.0   60.0   50.0
-100.0   30.0   50.0
-100.0   30.0   33.333333333333336
-150.0   30.0   50.0
-100.0   60.0   50.0
-100.0   30.0   33.333333333333336
-150.0   60.0   33.333333333333336
-150.0   60.0   0.0
-100.0   60.0   0.0
-150.0   90.0   0.0
-150.0   60.0   16.666666666666668
-100.0   60.0   0.0
-100.0   90.0   0.0
-150.0   90.0   0.0
-100.0   90.0   16.666666666666668
-150.0   60.0   16.666666666666668
-150.0   90.0   16.666666666666668
-100.0   90.0   16.666666666666668
-150.0   90.0   0.0
-150.0   60.0   16.666666666666668
-100.0   90.0   16.666666666666668
-100.0   60.0   16.666666666666668
-100.0   60.0   0.0
-150.0   60.0   16.666666666666668
-100.0   90.0   16.666666666666668
-100.0   60.0   0.0
-150.0   90.0   0.0
-150.0   60.0   16.666666666666668
-100.0   60.0   16.666666666666668
-150.0   90.0   16.666666666666668
-150.0   60.0   33.333333333333336
-100.0   60.0   16.666666666666668
-100.0   90.0   16.666666666666668
-150.0   90.0   16.666666666666668
-100.0   90.0   33.333333333333336
-150.0   60.0   33.333333333333336
-150.0   90.0   33.333333333333336
-100.0   90.0   33.333333333333336
-150.0   90.0   16.666666666666668
-150.0   60.0   33.333333333333336
-100.0   90.0   33.333333333333336
-100.0   60.0   33.333333333333336
-100.0   60.0   16.666666666666668
-150.0   60.0   33.333333333333336
-100.0   90.0   33.333333333333336
-100.0   60.0   16.666666666666668
-150.0   90.0   16.666666666666668
-150.0   60.0   33.333333333333336
-100.0   60.0   33.333333333333336
-150.0   90.0   33.333333333333336
-150.0   60.0   50.0
-100.0   60.0   33.333333333333336
-100.0   90.0   33.333333333333336
-150.0   90.0   33.333333333333336
-100.0   90.0   50.0
-150.0   60.0   50.0
-150.0   90.0   50.0
-100.0   90.0   50.0
-150.0   90.0   33.333333333333336
-150.0   60.0   50.0
-100.0   90.0   50.0
-100.0   60.0   50.0
-100.0   60.0   33.333333333333336
-150.0   60.0   50.0
-100.0   90.0   50.0
-100.0   60.0   33.333333333333336
-150.0   90.0   33.333333333333336
-150.0   90.0   0.0
-100.0   90.0   0.0
-150.0   120.0   0.0
-150.0   90.0   16.666666666666668
-100.0   90.0   0.0
-100.0   120.0   0.0
-150.0   120.0   0.0
-100.0   120.0   16.666666666666668
-150.0   90.0   16.666666666666668
-150.0   120.0   16.666666666666668
-100.0   120.0   16.666666666666668
-150.0   120.0   0.0
-150.0   90.0   16.666666666666668
-100.0   120.0   16.666666666666668
-100.0   90.0   16.666666666666668
-100.0   90.0   0.0
-150.0   90.0   16.666666666666668
-100.0   120.0   16.666666666666668
-100.0   90.0   0.0
-150.0   120.0   0.0
-150.0   90.0   16.666666666666668
-100.0   90.0   16.666666666666668
-150.0   120.0   16.666666666666668
-150.0   90.0   33.333333333333336
-100.0   90.0   16.666666666666668
-100.0   120.0   16.666666666666668
-150.0   120.0   16.666666666666668
-100.0   120.0   33.333333333333336
-150.0   90.0   33.333333333333336
-150.0   120.0   33.333333333333336
-100.0   120.0   33.333333333333336
-150.0   120.0   16.666666666666668
-150.0   90.0   33.333333333333336
-100.0   120.0   33.333333333333336
-100.0   90.0   33.333333333333336
-100.0   90.0   16.666666666666668
-150.0   90.0   33.333333333333336
-100.0   120.0   33.333333333333336
-100.0   90.0   16.666666666666668
-150.0   120.0   16.666666666666668
-150.0   90.0   33.333333333333336
-100.0   90.0   33.333333333333336
-150.0   120.0   33.333333333333336
-150.0   90.0   50.0
-100.0   90.0   33.333333333333336
-100.0   120.0   33.333333333333336
-150.0   120.0   33.333333333333336
-100.0   120.0   50.0
-150.0   90.0   50.0
-150.0   120.0   50.0
-100.0   120.0   50.0
-150.0   120.0   33.333333333333336
-150.0   90.0   50.0
-100.0   120.0   50.0
-100.0   90.0   50.0
-100.0   90.0   33.333333333333336
-150.0   90.0   50.0
-100.0   120.0   50.0
-100.0   90.0   33.333333333333336
-150.0   120.0   33.333333333333336
-150.0   120.0   0.0
-100.0   120.0   0.0
-150.0   150.0   0.0
-150.0   120.0   16.666666666666668
-100.0   120.0   0.0
-100.0   150.0   0.0
-150.0   150.0   0.0
-100.0   150.0   16.666666666666668
-150.0   120.0   16.666666666666668
-150.0   150.0   16.666666666666668
-100.0   150.0   16.666666666666668
-150.0   150.0   0.0
-150.0   120.0   16.666666666666668
-100.0   150.0   16.666666666666668
-100.0   120.0   16.666666666666668
-100.0   120.0   0.0
-150.0   120.0   16.666666666666668
-100.0   150.0   16.666666666666668
-100.0   120.0   0.0
-150.0   150.0   0.0
-150.0   120.0   16.666666666666668
-100.0   120.0   16.666666666666668
-150.0   150.0   16.666666666666668
-150.0   120.0   33.333333333333336
-100.0   120.0   16.666666666666668
-100.0   150.0   16.666666666666668
-150.0   150.0   16.666666666666668
-100.0   150.0   33.333333333333336
-150.0   120.0   33.333333333333336
-150.0   150.0   33.333333333333336
-100.0   150.0   33.333333333333336
-150.0   150.0   16.666666666666668
-150.0   120.0   33.333333333333336
-100.0   150.0   33.333333333333336
-100.0   120.0   33.333333333333336
-100.0   120.0   16.666666666666668
-150.0   120.0   33.333333333333336
-100.0   150.0   33.333333333333336
-100.0   120.0   16.666666666666668
-150.0   150.0   16.666666666666668
-150.0   120.0   33.333333333333336
-100.0   120.0   33.333333333333336
-150.0   150.0   33.333333333333336
-150.0   120.0   50.0
-100.0   120.0   33.333333333333336
-100.0   150.0   33.333333333333336
-150.0   150.0   33.333333333333336
-100.0   150.0   50.0
-150.0   120.0   50.0
-150.0   150.0   50.0
-100.0   150.0   50.0
-150.0   150.0   33.333333333333336
-150.0   120.0   50.0
-100.0   150.0   50.0
-100.0   120.0   50.0
-100.0   120.0   33.333333333333336
-150.0   120.0   50.0
-100.0   150.0   50.0
-100.0   120.0   33.333333333333336
-150.0   150.0   33.333333333333336
-100.0   0.0   0.0
-50.0   0.0   0.0
-100.0   30.0   0.0
-100.0   0.0   16.666666666666668
-50.0   0.0   0.0
-50.0   30.0   0.0
-100.0   30.0   0.0
-50.0   30.0   16.666666666666668
-100.0   0.0   16.666666666666668
-100.0   30.0   16.666666666666668
-50.0   30.0   16.666666666666668
-100.0   30.0   0.0
-100.0   0.0   16.666666666666668
-50.0   30.0   16.666666666666668
-50.0   0.0   16.666666666666668
-50.0   0.0   0.0
-100.0   0.0   16.666666666666668
-50.0   30.0   16.666666666666668
-50.0   0.0   0.0
-100.0   30.0   0.0
-100.0   0.0   16.666666666666668
-50.0   0.0   16.666666666666668
-100.0   30.0   16.666666666666668
-100.0   0.0   33.333333333333336
-50.0   0.0   16.666666666666668
-50.0   30.0   16.666666666666668
-100.0   30.0   16.666666666666668
-50.0   30.0   33.333333333333336
-100.0   0.0   33.333333333333336
-100.0   30.0   33.333333333333336
-50.0   30.0   33.333333333333336
-100.0   30.0   16.666666666666668
-100.0   0.0   33.333333333333336
-50.0   30.0   33.333333333333336
-50.0   0.0   33.333333333333336
-50.0   0.0   16.666666666666668
-100.0   0.0   33.333333333333336
-50.0   30.0   33.333333333333336
-50.0   0.0   16.666666666666668
-100.0   30.0   16.666666666666668
-100.0   0.0   33.333333333333336
-50.0   0.0   33.333333333333336
-100.0   30.0   33.333333333333336
-100.0   0.0   50.0
-50.0   0.0   33.333333333333336
-50.0   30.0   33.333333333333336
-100.0   30.0   33.333333333333336
-50.0   30.0   50.0
-100.0   0.0   50.0
-100.0   30.0   50.0
-50.0   30.0   50.0
-100.0   30.0   33.333333333333336
-100.0   0.0   50.0
-50.0   30.0   50.0
-50.0   0.0   50.0
-50.0   0.0   33.333333333333336
-100.0   0.0   50.0
-50.0   30.0   50.0
-50.0   0.0   33.333333333333336
-100.0   30.0   33.333333333333336
-100.0   30.0   0.0
-50.0   30.0   0.0
-100.0   60.0   0.0
-100.0   30.0   16.666666666666668
-50.0   30.0   0.0
-50.0   60.0   0.0
-100.0   60.0   0.0
-50.0   60.0   16.666666666666668
-100.0   30.0   16.666666666666668
-100.0   60.0   16.666666666666668
-50.0   60.0   16.666666666666668
-100.0   60.0   0.0
-100.0   30.0   16.666666666666668
-50.0   60.0   16.666666666666668
-50.0   30.0   16.666666666666668
-50.0   30.0   0.0
-100.0   30.0   16.666666666666668
-50.0   60.0   16.666666666666668
-50.0   30.0   0.0
-100.0   60.0   0.0
-100.0   30.0   16.666666666666668
-50.0   30.0   16.666666666666668
-100.0   60.0   16.666666666666668
-100.0   30.0   33.333333333333336
-50.0   30.0   16.666666666666668
-50.0   60.0   16.666666666666668
-100.0   60.0   16.666666666666668
-50.0   60.0   33.333333333333336
-100.0   30.0   33.333333333333336
-100.0   60.0   33.333333333333336
-50.0   60.0   33.333333333333336
-100.0   60.0   16.666666666666668
-100.0   30.0   33.333333333333336
-50.0   60.0   33.333333333333336
-50.0   30.0   33.333333333333336
-50.0   30.0   16.666666666666668
-100.0   30.0   33.333333333333336
-50.0   60.0   33.333333333333336
-50.0   30.0   16.666666666666668
-100.0   60.0   16.666666666666668
-100.0   30.0   33.333333333333336
-50.0   30.0   33.333333333333336
-100.0   60.0   33.333333333333336
-100.0   30.0   50.0
-50.0   30.0   33.333333333333336
-50.0   60.0   33.333333333333336
-100.0   60.0   33.333333333333336
-50.0   60.0   50.0
-100.0   30.0   50.0
-100.0   60.0   50.0
-50.0   60.0   50.0
-100.0   60.0   33.333333333333336
-100.0   30.0   50.0
-50.0   60.0   50.0
-50.0   30.0   50.0
-50.0   30.0   33.333333333333336
-100.0   30.0   50.0
-50.0   60.0   50.0
-50.0   30.0   33.333333333333336
-100.0   60.0   33.333333333333336
-100.0   60.0   0.0
-50.0   60.0   0.0
-100.0   90.0   0.0
-100.0   60.0   16.666666666666668
-50.0   60.0   0.0
-50.0   90.0   0.0
-100.0   90.0   0.0
-50.0   90.0   16.666666666666668
-100.0   60.0   16.666666666666668
-100.0   90.0   16.666666666666668
-50.0   90.0   16.666666666666668
-100.0   90.0   0.0
-100.0   60.0   16.666666666666668
-50.0   90.0   16.666666666666668
-50.0   60.0   16.666666666666668
-50.0   60.0   0.0
-100.0   60.0   16.666666666666668
-50.0   90.0   16.666666666666668
-50.0   60.0   0.0
-100.0   90.0   0.0
-100.0   60.0   16.666666666666668
-50.0   60.0   16.666666666666668
-100.0   90.0   16.666666666666668
-100.0   60.0   33.333333333333336
-50.0   60.0   16.666666666666668
-50.0   90.0   16.666666666666668
-100.0   90.0   16.666666666666668
-50.0   90.0   33.333333333333336
-100.0   60.0   33.333333333333336
-100.0   90.0   33.333333333333336
-50.0   90.0   33.333333333333336
-100.0   90.0   16.666666666666668
-100.0   60.0   33.333333333333336
-50.0   90.0   33.333333333333336
-50.0   60.0   33.333333333333336
-50.0   60.0   16.666666666666668
-100.0   60.0   33.333333333333336
-50.0   90.0   33.333333333333336
-50.0   60.0   16.666666666666668
-100.0   90.0   16.666666666666668
-100.0   60.0   33.333333333333336
-50.0   60.0   33.333333333333336
-100.0   90.0   33.333333333333336
-100.0   60.0   50.0
-50.0   60.0   33.333333333333336
-50.0   90.0   33.333333333333336
-100.0   90.0   33.333333333333336
-50.0   90.0   50.0
-100.0   60.0   50.0
-100.0   90.0   50.0
-50.0   90.0   50.0
-100.0   90.0   33.333333333333336
-100.0   60.0   50.0
-50.0   90.0   50.0
-50.0   60.0   50.0
-50.0   60.0   33.333333333333336
-100.0   60.0   50.0
-50.0   90.0   50.0
-50.0   60.0   33.333333333333336
-100.0   90.0   33.333333333333336
-100.0   90.0   0.0
-50.0   90.0   0.0
-100.0   120.0   0.0
-100.0   90.0   16.666666666666668
-50.0   90.0   0.0
-50.0   120.0   0.0
-100.0   120.0   0.0
-50.0   120.0   16.666666666666668
-100.0   90.0   16.666666666666668
-100.0   120.0   16.666666666666668
-50.0   120.0   16.666666666666668
-100.0   120.0   0.0
-100.0   90.0   16.666666666666668
-50.0   120.0   16.666666666666668
-50.0   90.0   16.666666666666668
-50.0   90.0   0.0
-100.0   90.0   16.666666666666668
-50.0   120.0   16.666666666666668
-50.0   90.0   0.0
-100.0   120.0   0.0
-100.0   90.0   16.666666666666668
-50.0   90.0   16.666666666666668
-100.0   120.0   16.666666666666668
-100.0   90.0   33.333333333333336
-50.0   90.0   16.666666666666668
-50.0   120.0   16.666666666666668
-100.0   120.0   16.666666666666668
-50.0   120.0   33.333333333333336
-100.0   90.0   33.333333333333336
-100.0   120.0   33.333333333333336
-50.0   120.0   33.333333333333336
-100.0   120.0   16.666666666666668
-100.0   90.0   33.333333333333336
-50.0   120.0   33.333333333333336
-50.0   90.0   33.333333333333336
-50.0   90.0   16.666666666666668
-100.0   90.0   33.333333333333336
-50.0   120.0   33.333333333333336
-50.0   90.0   16.666666666666668
-100.0   120.0   16.666666666666668
-100.0   90.0   33.333333333333336
-50.0   90.0   33.333333333333336
-100.0   120.0   33.333333333333336
-100.0   90.0   50.0
-50.0   90.0   33.333333333333336
-50.0   120.0   33.333333333333336
-100.0   120.0   33.333333333333336
-50.0   120.0   50.0
-100.0   90.0   50.0
-100.0   120.0   50.0
-50.0   120.0   50.0
-100.0   120.0   33.333333333333336
-100.0   90.0   50.0
-50.0   120.0   50.0
-50.0   90.0   50.0
-50.0   90.0   33.333333333333336
-100.0   90.0   50.0
-50.0   120.0   50.0
-50.0   90.0   33.333333333333336
-100.0   120.0   33.333333333333336
-100.0   120.0   0.0
-50.0   120.0   0.0
-100.0   150.0   0.0
-100.0   120.0   16.666666666666668
-50.0   120.0   0.0
-50.0   150.0   0.0
-100.0   150.0   0.0
-50.0   150.0   16.666666666666668
-100.0   120.0   16.666666666666668
-100.0   150.0   16.666666666666668
-50.0   150.0   16.666666666666668
-100.0   150.0   0.0
-100.0   120.0   16.666666666666668
-50.0   150.0   16.666666666666668
-50.0   120.0   16.666666666666668
-50.0   120.0   0.0
-100.0   120.0   16.666666666666668
-50.0   150.0   16.666666666666668
-50.0   120.0   0.0
-100.0   150.0   0.0
-100.0   120.0   16.666666666666668
-50.0   120.0   16.666666666666668
-100.0   150.0   16.666666666666668
-100.0   120.0   33.333333333333336
-50.0   120.0   16.666666666666668
-50.0   150.0   16.666666666666668
-100.0   150.0   16.666666666666668
-50.0   150.0   33.333333333333336
-100.0   120.0   33.333333333333336
-100.0   150.0   33.333333333333336
-50.0   150.0   33.333333333333336
-100.0   150.0   16.666666666666668
-100.0   120.0   33.333333333333336
-50.0   150.0   33.333333333333336
-50.0   120.0   33.333333333333336
-50.0   120.0   16.666666666666668
-100.0   120.0   33.333333333333336
-50.0   150.0   33.333333333333336
-50.0   120.0   16.666666666666668
-100.0   150.0   16.666666666666668
-100.0   120.0   33.333333333333336
-50.0   120.0   33.333333333333336
-100.0   150.0   33.333333333333336
-100.0   120.0   50.0
-50.0   120.0   33.333333333333336
-50.0   150.0   33.333333333333336
-100.0   150.0   33.333333333333336
-50.0   150.0   50.0
-100.0   120.0   50.0
-100.0   150.0   50.0
-50.0   150.0   50.0
-100.0   150.0   33.333333333333336
-100.0   120.0   50.0
-50.0   150.0   50.0
-50.0   120.0   50.0
-50.0   120.0   33.333333333333336
-100.0   120.0   50.0
-50.0   150.0   50.0
-50.0   120.0   33.333333333333336
-100.0   150.0   33.333333333333336
-50.0   0.0   0.0
0.0   0.0   0.0
-50.0   30.0   0.0
-50.0   0.0   16.666666666666668
0.0   0.0   0.0
0.0   30.0   0.0
-50.0   30.0   0.0
0.0   30.0   16.666666666666668
-50.0   0.0   16.666666666666668
-50.0   30.0   16.666666666666668
0.0   30.0   16.666666666666668
-50.0   30.0   0.0
-50.0   0.0   16.666666666666668
0.0   30.0   16.666666666666668
0.0   0.0   16.666666666666668
0.0   0.0   0.0
-50.0   0.0   16.666666666666668
0.0   30.0   16.666666666666668
0.0   0.0   0.0
-50.0   30.0   0.0
-50.0   0.0   16.666666666666668
0.0   0.0   16.666666666666668
-50.0   30.0   16.666666666666668
-50.0   0.0   33.333333333333336
0.0   0.0   16.666666666666668
0.0   30.0   16.666666666666668
-50.0   30.0   16.666666666666668
0.0   30.0   33.333333333333336
-50.0   0.0   33.333333333333336
-50.0   30.0   33.333333333333336
0.0   30.0   33.333333333333336
-50.0   30.0   16.666666666666668
-50.0   0.0   33.333333333333336
0.0   30.0   33.333333333333336
0.0   0.0   33.333333333333336
0.0   0.0   16.666666666666668
-50.0   0.0   33.333333333333336
0.0   30.0   33.333333333333336
0.0   0.0   16.666666666666668
-50.0   30.0   16.666666666666668
-50.0   0.0   33.333333333333336
0.0   0.0   33.333333333333336
-50.0   30.0   33.333333333333336
-50.0   0.0   50.0
0.0   0.0   33.333333333333336
0.0   30.0   33.333333333333336
-50.0   30.0   33.333333333333336
0.0   30.0   50.0
-50.0   0.0   50.0
-50.0   30.0   50.0
0.0   30.0   50.0
-50.0   30.0   33.333333333333336
-50.0   0.0   50.0
0.0   30.0   50.0
0.0   0.0   50.0
0.0   0.0   33.333333333333336
-50.0   0.0   50.0
0.0   30.0   50.0
0.0   0.0   33.333333333333336
-50.0   30.0   33.333333333333336
-50.0   30.0   0.0
0.0   30.0   0.0
-50.0   60.0   0.0
-50.0   30.0   16.666666666666668
0.0   30.0   0.0
0.0   60.0   0.0
-50.0   60.0   0.0
0.0   60.0   16.666666666666668
-50.0   30.0   16.666666666666668
-50.0   60.0   16.666666666666668
0.0   60.0   16.666666666666668
-50.0   60.0   0.0
-50.0   30.0   16.666666666666668
0.0   60.0   16.666666666666668
0.0   30.0   16.666666666666668
0.0   30.0   0.0
-50.0   30.0   16.666666666666668
0.0   60.0   16.666666666666668
0.0   30.0   0.0
-50.0   60.0   0.0
-50.0   30.0   16.666666666666668
0.0   30.0   16.666666666666668
-50.0   60.0   16.666666666666668
-50.0   30.0   33.333333333333336
0.0   30.0   16.666666666666668
0.0   60.0   16.666666666666668
-50.0   60.0   16.666666666666668
0.0   60.0   33.333333333333336
-50.0   30.0   33.333333333333336
-50.0   60.0   33.333333333333336
0.0   60.0   33.333333333333336
-50.0   60.0   16.666666666666668
-50.0   30.0   33.333333333333336
0.0   60.0   33.333333333333336
0.0   30.0   33.333333333333336
0.0   30.0   16.666666666666668
-50.0   30.0   33.333333333333336
0.0   60.0   33.333333333333336
0.0   30.0   16.666666666666668
-50.0   60.0   16.666666666666668
-50.0   30.0   33.333333333333336
0.0   30.0   33.333333333333336
-50.0   60.0   33.333333333333336
-50.0   30.0   50.0
0.0   30.0   33.333333333333336
0.0   60.0   33.333333333333336
-50.0   60.0   33.333333333333336
0.0   60.0   50.0
-50.0   30.0   50.0
-50.0   60.0   50.0
0.0   60.0   50.0
-50.0   60.0   33.333333333333336
-50.0   30.0   50.0
0.0   60.0   50.0
0.0   30.0   50.0
0.0   30.0   33.333333333333336
-50.0   30.0   50.0
0.0   60.0   50.0
0.0   30.0   33.333333333333336
-50.0   60.0   33.333333333333336
-50.0   60.0   0.0
0.0   60.0   0.0
-50.0   90.0   0.0
-50.0   60.0   16.666666666666668
0.0   60.0   0.0
0.0   90.0   0.0
-50.0   90.0   0.0
0.0   90.0   16.666666666666668
-50.0   60.0   16.666666666666668
-50.0   90.0   16.666666666666668
0.0   90.0   16.666666666666668
-50.0   90.0   0.0
-50.0   60.0   16.666666666666668
0.0   90.0   16.666666666666668
0.0   60.0   16.666666666666668
0.0   60.0   0.0
-50.0   60.0   16.666666666666668
0.0   90.0   16.666666666666668
0.0   60.0   0.0
-50.0   90.0   0.0
-50.0   60.0   16.666666666666668
0.0   60.0   16.666666666666668
-50.0   90.0   16.666666666666668
-50.0   60.0   33.333333333333336
0.0   60.0   16.666666666666668
0.0   90.0   16.666666666666668
-50.0   90.0   16.666666666666668
0.0   90.0   33.333333333333336
-50.0   60.0   33.333333333333336
-50.0   90.0   33.333333333333336
0.0   90.0   33.333333333333336
-50.0   90.0   16.666666666666668
-50.0   60.0   33.333333333333336
0.0   90.0   33.333333333333336
0.0   60.0   33.333333333333336
0.0   60.0   16.666666666666668
-50.0   60.0   33.333333333333336
0.0   90.0   33.333333333333336
0.0   60.0   16.666666666666668
-50.0   90.0   16.666666666666668
-50.0   60.0   33.333333333333336
0.0   60.0   33.333333333333336
-50.0   90.0   33.333333333333336
-50.0   60.0   50.0
0.0   60.0   33.333333333333336
0.0   90.0   33.333333333333336
-50.0   90.0   33.333333333333336
0.0   90.0   50.0
-50.0   60.0   50.0
-50.0   90.0   50.0
0.0   90.0   50.0
-50.0   90.0   33.333333333333336
-50.0   60.0   50.0
0.0   90.0   50.0
0.0   60.0   50.0
0.0   60.0   33.333333333333336
-50.0   60.0   50.0
0.0   90.0   50.0
0.0   60.0   33.333333333333336
-50.0   90.0   33.333333333333336
-50.0   90.0   0.0
0.0   90.0   0.0
-50.0   120.0   0.0
-50.0   90.0   16.666666666666668
0.0   90.0   0.0
0.0   120.0   0.0
-50.0   120.0   0.0
0.0   120.0   16.666666666666668
-50.0   90.0   16.666666666666668
-50.0   120.0   16.666666666666668
0.0   120.0   16.666666666666668
-50.0   120.0   0.0
-50.0   90.0   16.666666666666668
0.0   120.0   16.666666666666668
0.0   90.0   16.666666666666668
0.0   90.0   0.0
-50.0   90.0   16.666666666666668
0.0   120.0   16.666666666666668
0.0   90.0   0.0
-50.0   120.0   0.0
-50.0   90.0   16.666666666666668
0.0   90.0   16.666666666666668
-50.0   120.0   16.666666666666668
-50.0   90.0   33.333333333333336
0.0   90.0   16.666666666666668
0.0   120.0   16.666666666666668
-50.0   120.0   16.666666666666668
0.0   120.0   33.333333333333336
-50.0   90.0   33.333333333333336
-50.0   120.0   33.333333333333336
0.0   120.0   33.333333333333336
-50.0   120.0   16.666666666666668
-50.0   90.0   33.333333333333336
0.0   120.0   33.333333333333336
0.0   90.0   33.333333333333336
0.0   90.0   16.666666666666668
-50.0   90.0   33.333333333333336
0.0   120.0   33.333333333333336
0.0   90.0   16.666666666666668
-50.0   120.0   16.666666666666668
-50.0   90.0   33.333333333333336
0.0   90.0   33.333333333333336
-50.0   120.0   33.333333333333336
-50.0   90.0   50.0
0.0   90.0   33.333333333333336
0.0   120.0   33.333333333333336
-50.0   120.0   33.333333333333336
0.0   120.0   50.0
-50.0   90.0   50.0
-50.0   120.0   50.0
0.0   120.0   50.0
-50.0   120.0   33.333333333333336
-50.0   90.0   50.0
0.0   120.0   50.0
0.0   90.0   50.0
0.0   90.0   33.333333333333336
-50.0   90.0   50.0
0.0   120.0   50.0
0.0   90.0   33.333333333333336
-50.0   120.0   33.333333333333336
-50.0   120.0   0.0
0.0   120.0   0.0
-50.0   150.0   0.0
-50.0   120.0   16.666666666666668
0.0   120.0   0.0
0.0   150.0   0.0
-50.0   150.0   0.0
0.0   150.0   16.666666666666668
-50.0   120.0   16.666666666666668
-50.0   150.0   16.666666666666668
0.0   150.0   16.666666666666668
-50.0   150.0   0.0
-50.0   120.0   16.666666666666668
0.0   150.0   16.666666666666668
0.0   120.0   16.666666666666668
0.0   120.0   0.0
-50.0   120.0   16.666666666666668
0.0   150.0   16.666666666666668
0.0   120.0   0.0
-50.0   150.0   0.0
-50.0   120.0   16.666666666666668
0.0   120.0   16.666666666666668
-50.0   150.0   16.666666666666668
-50.0   120.0   33.333333333333336
0.0   120.0   16.666666666666668
0.0   150.0   16.666666666666668
-50.0   150.0   16.666666666666668
0.0   150.0   33.333333333333336
-50.0   120.0   33.333333333333336
-50.0   150.0   33.333333333333336
0.0   150.0   33.333333333333336
-50.0   150.0   16.666666666666668
-50.0   120.0   33.333333333333336
0.0   150.0   33.333333333333336
0.0   120.0   33.333333333333336
0.0   120.0   16.666666666666668
-50.0   120.0   33.333333333333336
0.0   150.0   33.333333333333336
0.0   120.0   16.666666666666668
-50.0   150.0   16.666666666666668
-50.0   120.0   33.333333333333336
0.0   120.0   33.333333333333336
-50.0   150.0   33.333333333333336
-50.0   120.0   50.0
0.0   120.0   33.333333333333336
0.0   150.0   33.333333333333336
-50.0   150.0   33.333333333333336
0.0   150.0   50.0
-50.0   120.0   50.0
-50.0   150.0   50.0
0.0   150.0   50.0
-50.0   150.0   33.333333333333336
-50.0   120.0   50.0
0.0   150.0   50.0
0.0   120.0   50.0
0.0   120.0   33.333333333333336
-50.0   120.0   50.0
0.0   150.0   50.0
0.0   120.0   33.333333333333336
-50.0   150.0   33.333333333333336
0.0   0.0   0.0
50.0   0.0   0.0
0.0   30.0   0.0
0.0   0.0   16.666666666666668
50.0   0.0   0.0
50.0   30.0   0.0
0.0   30.0   0.0
50.0   30.0   16.666666666666668
0.0   0.0   16.666666666666668
0.0   30.0   16.666666666666668
50.0   30.0   16.666666666666668
0.0   30.0   0.0
0.0   0.0   16.666666666666668
50.0   30.0   16.666666666666668
50.0   0.0   16.666666666666668
50.0   0.0   0.0
0.0   0.0   16.666666666666668
50.0   30.0   16.666666666666668
50.0   0.0   0.0
0.0   30.0   0.0
0.0   0.0   16.666666666666668
50.0   0.0   16.666666666666668
0.0   30.0   16.666666666666668
0.0   0.0   33.333333333333336
50.0   0.0   16.666666666666668
50.0   30.0   16.666666666666668
0.0   30.0   16.666666666666668
50.0   30.0   33.333333333333336
0.0   0.0   33.333333333333336
0.0   30.0   33.333333333333336
50.0   30.0   33.333333333333336
0.0   30.0   16.666666666666668
0.0   0.0   33.333333333333336
50.0   30.0   33.333333333333336
50.0   0.0   33.333333333333336
50.0   0.0   16.666666666666668
0.0   0.0   33.333333333333336
50.0   30.0   33.333333333333336
50.0   0.0   16.666666666666668
0.0   30.0   16.666666666666668
0.0   0.0   33.333333333333336
50.0   0.0   33.333333333333336
0.0   30.0   33.333333333333336
0.0   0.0   50.0
50.0   0.0   33.333333333333336
50.0   30.0   33.333333333333336
0.0   30.0   33.333333333333336
50.0   30.0   50.0
0.0   0.0   50.0
0.0   30.0   50.0
50.0   30.0   50.0
0.0   30.0   33.333333333333336
0.0   0.0   50.0
50.0   30.0   50.0
50.0   0.0   50.0
50.0   0.0   33.333333333333336
0.0   0.0   50.0
50.0   30.0   50.0
50.0   0.0   33.333333333333336
0.0   30.0   33.333333333333336
0.0   30.0   0.0
50.0   30.0   0.0
0.0   60.0   0.0
0.0   30.0   16.666666666666668
50.0   30.0   0.0
50.0   60.0   0.0
0.0   60.0   0.0
50.0   60.0   16.666666666666668
0.0   30.0   16.666666666666668
0.0   60.0   16.666666666666668
50.0   60.0   16.666666666666668
0.0   60.0   0.0
0.0   30.0   16.666666666666668
50.0   60.0   16.666666666666668
50.0   30.0   16.666666666666668
50.0   30.0   0.0
0.0   30.0   16.666666666666668
50.0   60.0   16.666666666666668
50.0   30.0   0.0
0.0   60.0   0.0
0.0   30.0   16.666666666666668
50.0   30.0   16.666666666666668
0.0   60.0   16.666666666666668
0.0   30.0   33.333333333333336
50.0   30.0   16.666666666666668
50.0   60.0   16.666666666666668
0.0   60.0   16.666666666666668
50.0   60.0   33.333333333333336
0.0   30.0   33.333333333333336
0.0   60.0   33.333333333333336
50.0   60.0   33.333333333333336
0.0   60.0   16.666666666666668
0.0   30.0   33.333333333333336
50.0   60.0   33.333333333333336
50.0   30.0   33.333333333333336
50.0   30.0   16.666666666666668
0.0   30.0   33.333333333333336
50.0   60.0   33.333333333333336
50.0   30.0   16.666666666666668
0.0   60.0   16.666666666666668
0.0   30.0   33.333333333333336
50.0   30.0   33.333333333333336
0.0   60.0   33.333333333333336
0.0   30.0   50.0
50.0   30.0   33.333333333333336
50.0   60.0   33.333333333333336
0.0   60.0   33.333333333333336
50.0   60.0   50.0
0.0   30.0   50.0
0.0   60.0   50.0
50.0   60.0   50.0
0.0   60.0   33.333333333333336
0.0   30.0   50.0
50.0   60.0   50.0
50.0   30.0   50.0
50.0   30.0   33.333333333333336
0.0   30.0   50.0
50.0   60.0   50.0
50.0   30.0   33.333333333333336
0.0   60.0   33.333333333333336
0.0   60.0   0.0
50.0   60.0   0.0
0.0   90.0   0.0
0.0   60.0   16.666666666666668
50.0   60.0   0.0
50.0   90.0   0.0
0.0   90.0   0.0
50.0   90.0   16.666666666666668
0.0   60.0   16.666666666666668
0.0   90.0   16.666666666666668
50.0   90.0   16.666666666666668
0.0   90.0   0.0
0.0   60.0   16.666666666666668
50.0   90.0   16.666666666666668
50.0   60.0   16.666666666666668
50.0   60.0   0.0
0.0   60.0   16.666666666666668
50.0   90.0   16.666666666666668
50.0   60.0   0.0
0.0   90.0   0.0
0.0   60.0   16.666666666666668
50.0   60.0   16.666666666666668
0.0   90.0   16.666666666666668
0.0   60.0   33.333333333333336
50.0   60.0   16.666666666666668
50.0   90.0   16.666666666666668
0.0   90.0   16.666666666666668
50.0   90.0   33.333333333333336
0.0   60.0   33.333333333333336
0.0   90.0   33.333333333333336
50.0   90.0   33.333333333333336
0.0   90.0   16.666666666666668
0.0   60.0   33.333333333333336
50.0   90.0   33.333333333333336
50.0   60.0   33.333333333333336
50.0   60.0   16.666666666666668
0.0   60.0   33.333333333333336
50.0   90.0   33.333333333333336
50.0   60.0   16.666666666666668
0.0   90.0   16.666666666666668
0.0   60.0   33.333333333333336
50.0   60.0   33.333333333333336
0.0   90.0   33.333333333333336
0.0   60.0   50.0
50.0   60.0   33.333333333333336
50.0   90.0   33.333333333333336
0.0   90.0   33.333333333333336
50.0   90.0   50.0
0.0   60.0   50.0
0.0   90.0   50.0
50.0   90.0   50.0
0.0   90.0   33.333333333333336
0.0   60.0   50.0
50.0   90.0   50.0
50.0   60.0   50.0
50.0   60.0   33.333333333333336
0.0   60.0   50.0
50.0   90.0   50.0
50.0   60.0   33.333333333333336
0.0   90.0   33.333333333333336
0.0   90.0   0.0
50.0   90.0   0.0
0.0   120.0   0.0
0.0   90.0   16.666666666666668
50.0   90.0   0.0
50.0   120.0   0.0
0.0   120.0   0.0
50.0   120.0   16.666666666666668
0.0   90.0   16.666666666666668
0.0   120.0   16.666666666666668
50.0   120.0   16.666666666666668
0.0   120.0   0.0
0.0   90.0   16.666666666666668
50.0   120.0   16.666666666666668
50.0   90.0   16.666666666666668
50.0   90.0   0.0
0.0   90.0   16.666666666666668
50.0   120.0   16.666666666666668
50.0   90.0   0.0
0.0   120.0   0.0
0.0   90.0   16.666666666666668
50.0   90.0   16.666666666666668
0.0   120.0   16.666666666666668
0.0   90.0   33.333333333333336
50.0   90.0   16.666666666666668
50.0   120.0   16.666666666666668
0.0   120.0   16.666666666666668
50.0   120.0   33.333333333333336
0.0   90.0   33.333333333333336
0.0   120.0   33.333333333333336
50.0   120.0   33.333333333333336
0.0   120.0   16.666666666666668
0.0   90.0   33.333333333333336
50.0   120.0   33.333333333333336
50.0   90.0   33.333333333333336
50.0   90.0   16.666666666666668
0.0   90.0   33.333333333333336
50.0   120.0   33.333333333333336
50.0   90.0   16.666666666666668
0.0   120.0   16.666666666666668
0.0   90.0   33.333333333333336
50.0   90.0   33.333333333333336
0.0   120.0   33.333333333333336
0.0   90.0   50.0
50.0   90.0   33.333333333333336
50.0   120.0   33.333333333333336
0.0   120.0   33.333333333333336
50.0   120.0   50.0
0.0   90.0   50.0
0.0   120.0   50.0
50.0   120.0   50.0
0.0   120.0   33.333333333333336
0.0   90.0   50.0
50.0   120.0   50.0
50.0   90.0   50.0
50.0   90.0   33.333333333333336
0.0   90.0   50.0
50.0   120.0   50.0
50.0   90.0   33.333333333333336
0.0   120.0   33.333333333333336
0.0   120.0   0.0
50.0   120.0   0.0
0.0   150.0   0.0
0.0   120.0   16.666666666666668
50.0   120.0   0.0
50.0   150.0   0.0
0.0   150.0   0.0
50.0   150.0   16.666666666666668
0.0   120.0   16.666666666666668
0.0   150.0   16.666666666666668
50.0   150.0   16.666666666666668
0.0   150.0   0.0
0.0   120.0   16.666666666666668
50.0   150.0   16.666666666666668
50.0   120.0   16.666666666666668
50.0   120.0   0.0
0.0   120.0   16.666666666666668
50.0   150.0   16.666666666666668
50.0   120.0   0.0
0.0   150.0   0.0
0.0   120.0   16.666666666666668
50.0   120.0   16.666666666666668
0.0   150.0   16.666666666666668
0.0   120.0   33.333333333333336
50.0   120.0   16.666666666666668
50.0   150.0   16.666666666666668
0.0   150.0   16.666666666666668
50.0   150.0   33.333333333333336
0.0   120.0   33.333333333333336
0.0   150.0   33.333333333333336
50.0   150.0   33.333333333333336
0.0   150.0   16.666666666666668
0.0   120.0   33.333333333333336
50.0   150.0   33.333333333333336
50.0   120.0   33.333333333333336
50.0   120.0   16.666666666666668
0.0   120.0   33.333333333333336
50.0   150.0   33.333333333333336
50.0   120.0   16.666666666666668
0.0   150.0   16.666666666666668
0.0   120.0   33.333333333333336
50.0   120.0   33.333333333333336
0.0   150.0   33.333333333333336
0.0   120.0   50.0
50.0   120.0   33.333333333333336
50.0   150.0   33.333333333333336
0.0   150.0   33.333333333333336
50.0   150.0   50.0
0.0   120.0   50.0
0.0   150.0   50.0
50.0   150.0   50.0
0.0   150.0   33.333333333333336
0.0   120.0   50.0
50.0   150.0   50.0
50.0   120.0   50.0
50.0   120.0   33.333333333333336
0.0   120.0   50.0
50.0   150.0   50.0
50.0   120.0   33.333333333333336
0.0   150.0   33.333333333333336
50.0   0.0   0.0
100.0   0.0   0.0
50.0   30.0   0.0
50.0   0.0   16.666666666666668
100.0   0.0   0.0
100.0   30.0   0.0
50.0   30.0   0.0
100.0   30.0   16.666666666666668
50.0   0.0   16.666666666666668
50.0   30.0   16.666666666666668
100.0   30.0   16.666666666666668
50.0   30.0   0.0
50.0   0.0   16.666666666666668
100.0   30.0   16.666666666666668
100.0   0.0   16.666666666666668
100.0   0.0   0.0
50.0   0.0   16.666666666666668
100.0   30.0   16.666666666666668
100.0   0.0   0.0
50.0   30.0   0.0
50.0   0.0   16.666666666666668
100.0   0.0   16.666666666666668
50.0   30.0   16.666666666666668
50.0   0.0   33.333333333333336
100.0   0.0   16.666666666666668
100.0   30.0   16.666666666666668
50.0   30.0   16.666666666666668
100.0   30.0   33.333333333333336
50.0   0.0   33.333333333333336
50.0   30.0   33.333333333333336
100.0   30.0   33.333333333333336
50.0   30.0   16.666666666666668
50.0   0.0   33.333333333333336
100.0   30.0   33.333333333333336
100.0   0.0   33.333333333333336
100.0   0.0   16.666666666666668
50.0   0.0   33.333333333333336
100.0   30.0   33.333333333333336
100.0   0.0   16.666666666666668
50.0   30.0   16.666666666666668
50.0   0.0   33.333333333333336
100.0   0.0   33.333333333333336
50.0   30.0   33.333333333333336
50.0   0.0   50.0
100.0   0.0   33.333333333333336
100.0   30.0   33.333333333333336
50.0   30.0   33.333333333333336
100.0   30.0   50.0
50.0   0.0   50.0
50.0   30.0   50.0
100.0   30.0   50.0
50.0   30.0   33.333333333333336
50.0   0.0   50.0
100.0   30.0   50.0
100.0   0.0   50.0
100.0   0.0   33.333333333333336
50.0   0.0   50.0
100.0   30.0   50.0
100.0   0.0   33.333333333333336
50.0   30.0   33.333333333333336
50.0   30.0   0.0
100.0   30.0   0.0
50.0   60.0   0.0
50.0   30.0   16.666666666666668
100.0   30.0   0.0
100.0   60.0   0.0
50.0   60.0   0.0
100.0   60.0   16.666666666666668
50.0   30.0   16.666666666666668
50.0   60.0   16.666666666666668
100.0   60.0   16.666666666666668
50.0   60.0   0.0
50.0   30.0   16.666666666666668
100.0   60.0   16.666666666666668
100.0   30.0   16.666666666666668
100.0   30.0   0.0
50.0   30.0   16.666666666666668
100.0   60.0   16.666666666666668
100.0   30.0   0.0
50.0   60.0   0.0
50.0   30.0   16.666666666666668
100.0   30.0   16.666666666666668
50.0   60.0   16.666666666666668
50.0   30.0   33.333333333333336
100.0   30.0   16.666666666666668
100.0   60.0   16.666666666666668
50.0   60.0   16.666666666666668
100.0   60.0   33.333333333333336
50.0   30.0   33.333333333333336
50.0   60.0   33.333333333333336
100.0   60.0   33.333333333333336
50.0   60.0   16.666666666666668
50.0   30.0   33.333333333333336
100.0   60.0   33.333333333333336
100.0   30.0   33.333333333333336
100.0   30.0   16.666666666666668
50.0   30.0   33.333333333333336
100.0   60.0   33.333333333333336
100.0   30.0   16.666666666666668
50.0   60.0   16.666666666666668
50.0   30.0   33.333333333333336
100.0   30.0   33.333333333333336
50.0   60.0   33.333333333333336
50.0   30.0   50.0
100.0   30.0   33.333333333333336
100.0   60.0   33.333333333333336
50.0   60.0   33.333333333333336
100.0   60.0   50.0
50.0   30.0   50.0
50.0   60.0   50.0
100.0   60.0   50.0
50.0   60.0   33.333333333333336
50.0   30.0   50.0
100.0   60.0   50.0
100.0   30.0   50.0
100.0   30.0   33.333333333333336
50.0   30.0   50.0
100.0   60.0   50.0
100.0   30.0   33.333333333333336
50.0   60.0   33.333333333333336
50.0   60.0   0.0
100.0   60.0   0.0
50.0   90.0   0.0
50.0   60.0   16.666666666666668
100.0   60.0   0.0
100.0   90.0   0.0
50.0   90.0   0.0
100.0   90.0   16.666666666666668
50.0   60.0   16.666666666666668
50.0   90.0   16.666666666666668
100.0   90.0   16.666666666666668
50.0   90.0   0.0
50.0   60.0   16.666666666666668
100.0   90.0   16.666666666666668
100.0   60.0   16.666666666666668
100.0   60.0   0.0
50.0   60.0   16.666666666666668
100.0   90.0   16.666666666666668
100.0   60.0   0.0
50.0   90.0   0.0
50.0   60.0   16.666666666666668
100.0   60.0   16.666666666666668
50.0   90.0   16.666666666666668
50.0   60.0   33.333333333333336
100.0   60.0   16.666666666666668
100.0   90.0   16.666666666666668
50.0   90.0   16.666666666666668
100.0   90.0   33.333333333333336
50.0   60.0   33.333333333333336
50.0   90.0   33.333333333333336
100.0   90.0   33.333333333333336
50.0   90.0   16.666666666666668
50.0   60.0   33.333333333333336
100.0   90.0   33.333333333333336
100.0   60.0   33.333333333333336
100.0   60.0   16.666666666666668
50.0   60.0   33.333333333333336
100.0   90.0   33.333333333333336
100.0   60.0   16.666666666666668
50.0   90.0   16.666666666666668
50.0   60.0   33.333333333333336
100.0   60.0   33.333333333333336
50.0   90.0   33.333333333333336
50.0   60.0   50.0
100.0   60.0   33.333333333333336
100.0   90.0   33.333333333333336
50.0   90.0   33.333333333333336
100.0   90.0   50.0
50.0   60.0   50.0
50.0   90.0   50.0
100.0   90.0   50.0
50.0   90.0   33.333333333333336
50.0   60.0   50.0
100.0   90.0   50.0
100.0   60.0   50.0
100.0   60.0   33.333333333333336
50.0   60.0   50.0
100.0   90.0   50.0
100.0   60.0   33.333333333333336
50.0   90.0   33.333333333333336
50.0   90.0   0.0
100.0   90.0   0.0
50.0   120.0   0.0
50.0   90.0   16.666666666666668
100.0   90.0   0.0
100.0   120.0   0.0
50.0   120.0   0.0
100.0   120.0   16.666666666666668
50.0   90.0   16.666666666666668
50.0   120.0   16.666666666666668
100.0   120.0   16.666666666666668
50.0   120.0   0.0
50.0   90.0   16.666666666666668
100.0   120.0   16.666666666666668
100.0   90.0   16.666666666666668
100.0   90.0   0.0
50.0   90.0   16.666666666666668
100.0   120.0   16.666666666666668
100.0   90.0   0.0
50.0   120.0   0.0
50.0   90.0   16.666666666666668
100.0   90.0   16.666666666666668
50.0   120.0   16.666666666666668
50.0   90.0   33.333333333333336
100.0   90.0   16.666666666666668
100.0   120.0   16.666666666666668
50.0   120.0   16.666666666666668
100.0   120.0   33.333333333333336
50.0   90.0   33.333333333333336
50.0   120.0   33.333333333333336
100.0   120.0   33.333333333333336
50.0   120.0   16.666666666666668
50.0   90.0   33.333333333333336
100.0   120.0   33.333333333333336
100.0   90.0   33.333333333333336
100.0   90.0   16.666666666666668
50.0   90.0   33.333333333333336
100.0   120.0   33.333333333333336
100.0   90.0   16.666666666666668
50.0   120.0   16.666666666666668
50.0   90.0   33.333333333333336
100.0   90.0   33.333333333333336
50.0   120.0   33.333333333333336
50.0   90.0   50.0
100.0   90.0   33.333333333333336
100.0   120.0   33.333333333333336
50.0   120.0   33.333333333333336
100.0   120.0   50.0
50.0   90.0   50.0
50.0   120.0   50.0
100.0   120.0   50.0
50.0   120.0   33.333333333333336
50.0   90.0   50.0
100.0   120.0   50.0
100.0   90.0   50.0
100.0   90.0   33.333333333333336
50.0   90.0   50.0
100.0   120.0   50.0
100.0   90.0   33.333333333333336
50.0   120.0   33.333333333333336
50.0   120.0   0.0
100.0   120.0   0.0
50.0   150.0   0.0
50.0   120.0   16.666666666666668
100.0   120.0   0.0
100.0   150.0   0.0
50.0   150.0   0.0
100.0   150.0   16.666666666666668
50.0   120.0   16.666666666666668
50.0   150.0   16.666666666666668
100.0   150.0   16.666666666666668
50.0   150.0   0.0
50.0   120.0   16.666666666666668
100.0   150.0   16.666666666666668
100.0   120.0   16.666666666666668
100.0   120.0   0.0
50.0   120.0   16.666666666666668
100.0   150.0   16.666666666666668
100.0   120.0   0.0
50.0   150.0   0.0
50.0   120.0   16.666666666666668
100.0   120.0   16.666666666666668
50.0   150.0   16.666666666666668
50.0   120.0   33.333333333333336
100.0   120.0   16.666666666666668
100.0   150.0   16.666666666666668
50.0   150.0   16.666666666666668
100.0   150.0   33.333333333333336
50.0   120.0   33.333333333333336
50.0   150.0   33.333333333333336
100.0   150.0   33.333333333333336
50.0   150.0   16.666666666666668
50.0   120.0   33.333333333333336
100.0   150.0   33.333333333333336
100.0   120.0   33.333333333333336
100.0   120.0   16.666666666666668
50.0   120.0   33.333333333333336
100.0   150.0   33.333333333333336
100.0   120.0   16.666666666666668
50.0   150.0   16.666666666666668
50.0   120.0   33.333333333333336
100.0   120.0   33.333333333333336
50.0   150.0   33.333333333333336
50.0   120.0   50.0
100.0   120.0   33.333333333333336
100.0   150.0   33.333333333333336
50.0   150.0   33.333333333333336
100.0   150.0   50.0
50.0   120.0   50.0
50.0   150.0   50.0
100.0   150.0   50.0
50.0   150.0   33.333333333333336
50.0   120.0   50.0
100.0   150.0   50.0
100.0   120.0   50.0
100.0   120.0   33.333333333333336
50.0   120.0   50.0
100.0   150.0   50.0
100.0   120.0   33.333333333333336
50.0   150.0   33.333333333333336
100.0   0.0   0.0
150.0   0.0   0.0
100.0   30.0   0.0
100.0   0.0   16.666666666666668
150.0   0.0   0.0
150.0   30.0   0.0
100.0   30.0   0.0
150.0   30.0   16.666666666666668
100.0   0.0   16.666666666666668
100.0   30.0   16.666666666666668
150.0   30.0   16.666666666666668
100.0   30.0   0.0
100.0   0.0   16.666666666666668
150.0   30.0   16.666666666666668
150.0   0.0   16.666666666666668
150.0   0.0   0.0
100.0   0.0   16.666666666666668
150.0   30.0   16.666666666666668
150.0   0.0   0.0
100.0   30.0   0.0
100.0   0.0   16.666666666666668
150.0   0.0   16.666666666666668
100.0   30.0   16.666666666666668
100.0   0.0   33.333333333333336
150.0   0.0   16.666666666666668
150.0   30.0   16.666666666666668
100.0   30.0   16.666666666666668
150.0   30.0   33.333333333333336
100.0   0.0   33.333333333333336
100.0   30.0   33.333333333333336
150.0   30.0   33.333333333333336
100.0   30.0   16.666666666666668
100.0   0.0   33.333333333333336
150.0   30.0   33.333333333333336
150.0   0.0   33.333333333333336
150.0   0.0   16.666666666666668
100.0   0.0   33.333333333333336
150.0   30.0   33.333333333333336
150.0   0.0   16.666666666666668
100.0   30.0   16.666666666666668
100.0   0.0   33.333333333333336
150.0   0.0   33.333333333333336
100.0   30.0   33.333333333333336
100.0   0.0   50.0
150.0   0.0   33.333333333333336
150.0   30.0   33.333333333333336
100.0   30.0   33.333333333333336
150.0   30.0   50.0
100.0   0.0   50.0
100.0   30.0   50.0
150.0   30.0   50.0
100.0   30.0   33.333333333333336
100.0   0.0   50.0
150.0   30.0   50.0
150.0   0.0   50.0
150.0   0.0   33.333333333333336
100.0   0.0   50.0
150.0   30.0   50.0
150.0   0.0   33.333333333333336
100.0   30.0   33.333333333333336
100.0   30.0   0.0
150.0   30.0   0.0
100.0   60.0   0.0
100.0   30.0   16.666666666666668
150.0   30.0   0.0
150.0   60.0   0.0
100.0   60.0   0.0
150.0   60.0   16.666666666666668
100.0   30.0   16.666666666666668
100.0   60.0   16.666666666666668
150.0   60.0   16.666666666666668
100.0   60.0   0.0
100.0   30.0   16.666666666666668
150.0   60.0   16.666666666666668
150.0   30.0   16.666666666666668
150.0   30.0   0.0
100.0   30.0   16.666666666666668
150.0   60.0   16.666666666666668
150.0   30.0   0.0
100.0   60.0   0.0
100.0   30.0   16.666666666666668
150.0   30.0   16.666666666666668
100.0   60.0   16.666666666666668
100.0   30.0   33.333333333333336
150.0   30.0   16.666666666666668
150.0   60.0   16.666666666666668
100.0   60.0   16.666666666666668
150.0   60.0   33.333333333333336
100.0   30.0   33.333333333333336
100.0   60.0   33.333333333333336
150.0   60.0   33.333333333333336
100.0   60.0   16.666666666666668
100.0   30.0   33.333333333333336
150.0   60.0   33.333333333333336
150.0   30.0   33.333333333333336
150.0   30.0   16.666666666666668
100.0   30.0   33.333333333333336
150.0   60.0   33.333333333333336
150.0   30.0   16.666666666666668
100.0   60.0   16.666666666666668
100.0   30.0   33.333333333333336
150.0   30.0   33.333333333333336
100.0   60.0   33.333333333333336
100.0   30.0   50.0
150.0   30.0   33.333333333333336
150.0   60.0   33.333333333333336
100.0   60.0   33.333333333333336
150.0   60.0   50.0
100.0   30.0   50.0
100.0   60.0   50.0
150.0   60.0   50.0
100.0   60.0   33.333333333333336
100.0   30.0   50.0
150.0   60.0   50.0
150.0   30.0   50.0
150.0   30.0   33.333333333333336
100.0   30.0   50.0
150.0   60.0   50.0
150.0   30.0   33.333333333333336
100.0   60.0   33.333333333333336
100.0   60.0   0.0
150.0   60.0   0.0
100.0   90.0   0.0
100.0   60.0   16.666666666666668
150.0   60.0   0.0
150.0   90.0   0.0
100.0   90.0   0.0
150.0   90.0   16.666666666666668
100.0   60.0   16.666666666666668
100.0   90.0   16.666666666666668
150.0   90.0   16.666666666666668
100.0   90.0   0.0
100.0   60.0   16.666666666666668
150.0   90.0   16.666666666666668
150.0   60.0   16.666666666666668
150.0   60.0   0.0
100.0   60.0   16.666666666666668
150.0   90.0   16.666666666666668
150.0   60.0   0.0
100.0   90.0   0.0
100.0   60.0   16.666666666666668
150.0   60.0   16.666666666666668
100.0   90.0   16.666666666666668
100.0   60.0   33.333333333333336
150.0   60.0   16.666666666666668
150.0   90.0   16.666666666666668
100.0   90.0   16.666666666666668
150.0   90.0   33.333333333333336
100.0   60.0   33.333333333333336
100.0   90.0   33.333333333333336
150.0   90.0   33.333333333333336
100.0   90.0   16.666666666666668
100.0   60.0   33.333333333333336
150.0   90.0   33.333333333333336
150.0   60.0   33.333333333333336
150.0   60.0   16.666666666666668
100.0   60.0   33.333333333333336
150.0   90.0   33.333333333333336
150.0   60.0   16.666666666666668
100.0   90.0   16.666666666666668
100.0   60.0   33.333333333333336
150.0   60.0   33.333333333333336
100.0   90.0   33.333333333333336
100.0   60.0   50.0
150.0   60.0   33.333333333333336
150.0   90.0   33.333333333333336
100.0   90.0   33.333333333333336
150.0   90.0   50.0
100.0   60.0   50.0
100.0   90.0   50.0
150.0   90.0   50.0
100.0   90.0   33.333333333333336
100.0   60.0   50.0
150.0   90.0   50.0
150.0   60.0   50.0
150.0   60.0   33.333333333333336
100.0   60.0   50.0
150.0   90.0   50.0
150.0   60.0   33.333333333333336
100.0   90.0   33.333333333333336
100.0   90.0   0.0
150.0   90.0   0.0
100.0   120.0   0.0
100.0   90.0   16.666666666666668
150.0   90.0   0.0
150.0   120.0   0.0
100.0   120.0   0.0
150.0   120.0   16.666666666666668
100.0   90.0   16.666666666666668
100.0   120.0   16.666666666666668
150.0   120.0   16.666666666666668
100.0   120.0   0.0
100.0   90.0   16.666666666666668
150.0   120.0   16.666666666666668
150.0   90.0   16.666666666666668
150.0   90.0   0.0
100.0   90.0   16.666666666666668
150.0   120.0   16.666666666666668
150.0   90.0   0.0
100.0   120.0   0.0
100.0   90.0   16.666666666666668
150.0   90.0   16.666666666666668
100.0   120.0   16.666666666666668
100.0   90.0   33.333333333333336
150.0   90.0   16.666666666666668
150.0   120.0   16.666666666666668
100.0   120.0   16.666666666666668
150.0   120.0   33.333333333333336
100.0   90.0   33.333333333333336
100.0   120.0   33.333333333333336
150.0   120.0   33.333333333333336
100.0   120.0   16.666666666666668
100.0   90.0   33.333333333333336
150.0   120.0   33.333333333333336
150.0   90.0   33.333333333333336
150.0   90.0   16.666666666666668
100.0   90.0   33.333333333333336
150.0   120.0   33.333333333333336
150.0   90.0   16.666666666666668
100.0   120.0   16.666666666666668
100.0   90.0   33.333333333333336
150.0   90.0   33.333333333333336
100.0   120.0   33.333333333333336
100.0   90.0   50.0
150.0   90.0   33.333333333333336
150.0   120.0   33.333333333333336
100.0   120.0   33.333333333333336
150.0   120.0   50.0
100.0   90.0   50.0
100.0   120.0   50.0
150.0   120.0   50.0
100.0   120.0   33.333333333333336
100.0   90.0   50.0
150.0   120.0   50.0
150.0   90.0   50.0
150.0   90.0   33.333333333333336
100.0   90.0   50.0
150.0   120.0   50.0
150.0   90.0   33.333333333333336
100.0   120.0   33.333333333333336
100.0   120.0   0.0
150.0   120.0   0.0
100.0   150.0   0.0
100.0   120.0   16.666666666666668
150.0   120.0   0.0
150.0   150.0   0.0
100.0   150.0   0.0
150.0   150.0   16.666666666666668
100.0   120.0   16.666666666666668
100.0   150.0   16.666666666666668
150.0   150.0   16.666666666666668
100.0   150.0   0.0
100.0   120.0   16.666666666666668
150.0   150.0   16.666666666666668
150.0   120.0   16.666666666666668
150.0   120.0   0.0
100.0   120.0   16.666666666666668
150.0   150.0   16.666666666666668
150.0   120.0   0.0
100.0   150.0   0.0
100.0   120.0   16.666666666666668
150.0   120.0   16.666666666666668
100.0   150.0   16.666666666666668
100.0   120.0   33.333333333333336
150.0   120.0   16.666666666666668
150.0   150.0   16.666666666666668
100.0   150.0   16.666666666666668
150.0   150.0   33.333333333333336
100.0   120.0   33.333333333333336
100.0   150.0   33.333333333333336
150.0   150.0   33.333333333333336
100.0   150.0   16.666666666666668
100.0   120.0   33.333333333333336
150.0   150.0   33.333333333333336
150.0   120.0   33.333333333333336
150.0   120.0   16.666666666666668
100.0   120.0   33.333333333333336
150.0   150.0   33.333333333333336
150.0   120.0   16.666666666666668
100.0   150.0   16.666666666666668
100.0   120.0   33.333333333333336
150.0   120.0   33.333333333333336
100.0   150.0   33.333333333333336
100.0   120.0   50.0
150.0   120.0   33.333333333333336
150.0   150.0   33.333333333333336
100.0   150.0   33.333333333333336
150.0   150.0   50.0
100.0   120.0   50.0
100.0   150.0   50.0
150.0   150.0   50.0
100.0   150.0   33.333333333333336
100.0   120.0   50.0
150.0   150.0   50.0
150.0   120.0   50.0
150.0   120.0   33.333333333333336
100.0   120.0   50.0
150.0   150.0   50.0
150.0   120.0   33.333333333333336
100.0   150.0   33.333333333333336
150.0   0.0   0.0
200.0   0.0   0.0
150.0   30.0   0.0
150.0   0.0   16.666666666666668
200.0   0.0   0.0
200.0   30.0   0.0
150.0   30.0   0.0
200.0   30.0   16.666666666666668
150.0   0.0   16.666666666666668
150.0   30.0   16.666666666666668
200.0   30.0   16.666666666666668
150.0   30.0   0.0
150.0   0.0   16.666666666666668
200.0   30.0   16.666666666666668
200.0   0.0   16.666666666666668
200.0   0.0   0.0
150.0   0.0   16.666666666666668
200.0   30.0   16.666666666666668
200.0   0.0   0.0
150.0   30.0   0.0
150.0   0.0   16.666666666666668
200.0   0.0   16.666666666666668
150.0   30.0   16.666666666666668
150.0   0.0   33.333333333333336
200.0   0.0   16.666666666666668
200.0   30.0   16.666666666666668
150.0   30.0   16.666666666666668
200.0   30.0   33.333333333333336
150.0   0.0   33.333333333333336
150.0   30.0   33.333333333333336
200.0   30.0   33.333333333333336
150.0   30.0   16.666666666666668
150.0   0.0   33.333333333333336
200.0   30.0   33.333333333333336
200.0   0.0   33.333333333333336
200.0   0.0   16.666666666666668
150.0   0.0   33.333333333333336
200.0   30.0   33.333333333333336
200.0   0.0   16.666666666666668
150.0   30.0   16.666666666666668
150.0   0.0   33.333333333333336
200.0   0.0   33.333333333333336
150.0   30.0   33.333333333333336
150.0   0.0   50.0
200.0   0.0   33.333333333333336
200.0   30.0   33.333333333333336
150.0   30.0   33.333333333333336
200.0   30.0   50.0
150.0   0.0   50.0
150.0   30.0   50.0
200.0   30.0   50.0
150.0   30.0   33.333333333333336
150.0   0.0   50.0
200.0   30.0   50.0
200.0   0.0   50.0
200.0   0.0   33.333333333333336
150.0   0.0   50.0
200.0   30.0   50.0
200.0   0.0   33.333333333333336
150.0   30.0   33.333333333333336
150.0   30.0   0.0
200.0   30.0   0.0
150.0   60.0   0.0
150.0   30.0   16.666666666666668
200.0   30.0   0.0
200.0   60.0   0.0
150.0   60.0   0.0
200.0   60.0   16.666666666666668
150.0   30.0   16.666666666666668
150.0   60.0   16.666666666666668
200.0   60.0   16.666666666666668
150.0   60.0   0.0
150.0   30.0   16.666666666666668
200.0   60.0   16.666666666666668
200.0   30.0   16.666666666666668
200.0   30.0   0.0
150.0   30.0   16.666666666666668
200.0   60.0   16.666666666666668
200.0   30.0   0.0
150.0   60.0   0.0
150.0   30.0   16.666666666666668
200.0   30.0   16.666666666666668
150.0   60.0   16.666666666666668
150.0   30.0   33.333333333333336
200.0   30.0   16.666666666666668
200.0   60.0   16.666666666666668
150.0   60.0   16.666666666666668
200.0   60.0   33.333333333333336
150.0   30.0   33.333333333333336
150.0   60.0   33.333333333333336
200.0   60.0   33.333333333333336
150.0   60.0   16.666666666666668
150.0   30.0   33.333333333333336
200.0   60.0   33.333333333333336
200.0   30.0   33.333333333333336
200.0   30.0   16.666666666666668
150.0   30.0   33.333333333333336
200.0   60.0   33.333333333333336
200.0   30.0   16.666666666666668
150.0   60.0   16.666666666666668
150.0   30.0   33.333333333333336
200.0   30.0   33.333333333333336
150.0   60.0   33.333333333333336
150.0   30.0   50.0
200.0   30.0   33.333333333333336
200.0   60.0   33.333333333333336
150.0   60.0   33.333333333333336
200.0   60.0   50.0
150.0   30.0   50.0
150.0   60.0   50.0
200.0   60.0   50.0
150.0   60.0   33.333333333333336
150.0   30.0   50.0
200.0   60.0   50.0
200.0   30.0   50.0
200.0   30.0   33.333333333333336
150.0   30.0   50.0
200.0   60.0   50.0
200.0   30.0   33.333333333333336
150.0   60.0   33.333333333333336
150.0   60.0   0.0
200.0   60.0   0.0
150.0   90.0   0.0
150.0   60.0   16.666666666666668
200.0   60.0   0.0
200.0   90.0   0.0
150.0   90.0   0.0
200.0   90.0   16.666666666666668
150.0   60.0   16.666666666666668
150.0   90.0   16.666666666666668
200.0   90.0   16.666666666666668
150.0   90.0   0.0
150.0   60.0   16.666666666666668
200.0   90.0   16.666666666666668
200.0   60.0   16.666666666666668
200.0   60.0   0.0
150.0   60.0   16.666666666666668
200.0   90.0   16.666666666666668
200.0   60.0   0.0
150.0   90.0   0.0
150.0   60.0   16.666666666666668
200.0   60.0   16.666666666666668
150.0   90.0   16.666666666666668
150.0   60.0   33.333333333333336
200.0   60.0   16.666666666666668
200.0   90.0   16.666666666666668
150.0   90.0   16.666666666666668
200.0   90.0   33.333333333333336
150.0   60.0   33.333333333333336
150.0   90.0   33.333333333333336
200.0   90.0   33.333333333333336
150.0   90.0   16.666666666666668
150.0   60.0   33.333333333333336
200.0   90.0   33.333333333333336
200.0   60.0   33.333333333333336
200.0   60.0   16.666666666666668
150.0   60.0   33.333333333333336
200.0   90.0   33.333333333333336
200.0   60.0   16.666666666666668
150.0   90.0   16.666666666666668
150.0   60.0   33.333333333333336
200.0   60.0   33.333333333333336
150.0   90.0   33.333333333333336
150.0   60.0   50.0
200.0   60.0   33.333333333333336
200.0   90.0   33.333333333333336
150.0   90.0   33.333333333333336
200.0   90.0   50.0
150.0   60.0   50.0
150.0   90.0   50.0
200.0   90.0   50.0
150.0   90.0   33.333333333333336
150.0   60.0   50.0
200.0   90.0   50.0
200.0   60.0   50.0
200.0   60.0   33.333333333333336
150.0   60.0   50.0
200.0   90.0   50.0
200.0   60.0   33.333333333333336
150.0   90.0   33.333333333333336
150.0   90.0   0.0
200.0   90.0   0.0
150.0   120.0   0.0
150.0   90.0   16.666666666666668
200.0   90.0   0.0
200.0   120.0   0.0
150.0   120.0   0.0
200.0   120.0   16.666666666666668
150.0   90.0   16.666666666666668
150.0   120.0   16.666666666666668
200.0   120.0   16.666666666666668
150.0   120.0   0.0
150.0   90.0   16.666666666666668
200.0   120.0   16.666666666666668
200.0   90.0   16.666666666666668
200.0   90.0   0.0
150.0   90.0   16.666666666666668
200.0   120.0   16.666666666666668
200.0   90.0   0.0
150.0   120.0   0.0
150.0   90.0   16.666666666666668
200.0   90.0   16.666666666666668
150.0   120.0   16.666666666666668
150.0   90.0   33.333333333333336
200.0   90.0   16.666666666666668
200.0   120.0   16.666666666666668
150.0   120.0   16.666666666666668
200.0   120.0   33.333333333333336
150.0   90.0   33.333333333333336
150.0   120.0   33.333333333333336
200.0   120.0   33.333333333333336
150.0   120.0   16.666666666666668
150.0   90.0   33.333333333333336
200.0   120.0   33.333333333333336
200.0   90.0   33.333333333333336
200.0   90.0   16.666666666666668
150.0   90.0   33.333333333333336
200.0   120.0   33.333333333333336
200.0   90.0   16.666666666666668
150.0   120.0   16.666666666666668
150.0   90.0   33.333333333333336
200.0   90.0   33.333333333333336
150.0   120.0   33.333333333333336
150.0   90.0   50.0
200.0   90.0   33.333333333333336
200.0   120.0   33.333333333333336
150.0   120.0   33.333333333333336
200.0   120.0   50.0
150.0   90.0   50.0
150.0   120.0   50.0
200.0   120.0   50.0
150.0   120.0   33.333333333333336
150.0   90.0   50.0
200.0   120.0   50.0
200.0   90.0   50.0
200.0   90.0   33.333333333333336
150.0   90.0   50.0
200.0   120.0   50.0
200.0   90.0   33.333333333333336
150.0   120.0   33.333333333333336
150.0   120.0   0.0
200.0   120.0   0.0
150.0   150.0   0.0
150.0   120.0   16.666666666666668
200.0   120.0   0.0
200.0   150.0   0.0
150.0   150.0   0.0
200.0   150.0   16.666666666666668
150.0   120.0   16.666666666666668
150.0   150.0   16.666666666666668
200.0   150.0   16.666666666666668
150.0   150.0   0.0
150.0   120.0   16.666666666666668
200.0   150.0   16.666666666666668
200.0   120.0   16.666666666666668
200.0   120.0   0.0
150.0   120.0   16.666666666666668
200.0   150.0   16.666666666666668
200.0   120.0   0.0
150.0   150.0   0.0
150.0   120.0   16.666666666666668
200.0   120.0   16.666666666666668
150.0   150.0   16.666666666666668
150.0   120.0   33.333333333333336
200.0   120.0   16.666666666666668
200.0   150.0   16.666666666666668
150.0   150.0   16.666666666666668
200.0   150.0   33.333333333333336
150.0   120.0   33.333333333333336
150.0   150.0   33.333333333333336
200.0   150.0   33.333333333333336
150.0   150.0   16.666666666666668
150.0   120.0   33.333333333333336
200.0   150.0   33.333333333333336
200.0   120.0   33.333333333333336
200.0   120.0   16.666666666666668
150.0   120.0   33.333333333333336
200.0   150.0   33.333333333333336
200.0   120.0   16.666666666666668
150.0   150.0   16.666666666666668
150.0   120.0   33.333333333333336
200.0   120.0   33.333333333333336
150.0   150.0   33.333333333333336
150.0   120.0   50.0
200.0   120.0   33.333333333333336
200.0   150.0   33.333333333333336
150.0   150.0   33.333333333333336
200.0   150.0   50.0
150.0   120.0   50.0
150.0   150.0   50.0
200.0   150.0   50.0
150.0   150.0   33.333333333333336
150.0   120.0   50.0
200.0   150.0   50.0
200.0   120.0   50.0
200.0   120.0   33.333333333333336
150.0   120.0   50.0
200.0   150.0   50.0
200.0   120.0   33.333333333333336
150.0   150.0   33.333333333333336
200.0   0.0   0.0
250.0   0.0   0.0
200.0   30.0   0.0
200.0   0.0   16.666666666666668
250.0   0.0   0.0
250.0   30.0   0.0
200.0   30.0   0.0
250.0   30.0   16.666666666666668
200.0   0.0   16.666666666666668
200.0   30.0   16.666666666666668
250.0   30.0   16.666666666666668
200.0   30.0   0.0
200.0   0.0   16.666666666666668
250.0   30.0   16.666666666666668
250.0   0.0   16.666666666666668
250.0   0.0   0.0
200.0   0.0   16.666666666666668
250.0   30.0   16.666666666666668
250.0   0.0   0.0
200.0   30.0   0.0
200.0   0.0   16.666666666666668
250.0   0.0   16.666666666666668
200.0   30.0   16.666666666666668
200.0   0.0   33.333333333333336
250.0   0.0   16.666666666666668
250.0   30.0   16.666666666666668
200.0   30.0   16.666666666666668
250.0   30.0   33.333333333333336
200.0   0.0   33.333333333333336
200.0   30.0   33.333333333333336
250.0   30.0   33.333333333333336
200.0   30.0   16.666666666666668
200.0   0.0   33.333333333333336
250.0   30.0   33.333333333333336
250.0   0.0   33.333333333333336
250.0   0.0   16.666666666666668
200.0   0.0   33.333333333333336
250.0   30.0   33.333333333333336
250.0   0.0   16.666666666666668
200.0   30.0   16.666666666666668
200.0   0.0   33.333333333333336
250.0   0.0   33.333333333333336
200.0   30.0   33.333333333333336
200.0   0.0   50.0
250.0   0.0   33.333333333333336
250.0   30.0   33.333333333333336
200.0   30.0   33.333333333333336
250.0   30.0   50.0
200.0   0.0   50.0
200.0   30.0   50.0
250.0   30.0   50.0
200.0   30.0   33.333333333333336
200.0   0.0   50.0
250.0   30.0   50.0
250.0   0.0   50.0
250.0   0.0   33.333333333333336
200.0   0.0   50.0
250.0   30.0   50.0
250.0   0.0   33.333333333333336
200.0   30.0   33.333333333333336
200.0   30.0   0.0
250.0   30.0   0.0
200.0   60.0   0.0
200.0   30.0   16.666666666666668
250.0   30.0   0.0
250.0   60.0   0.0
200.0   60.0   0.0
250.0   60.0   16.666666666666668
200.0   30.0   16.666666666666668
200.0   60.0   16.666666666666668
250.0   60.0   16.666666666666668
200.0   60.0   0.0
200.0   30.0   16.666666666666668
250.0   60.0   16.666666666666668
250.0   30.0   16.666666666666668
250.0   30.0   0.0
200.0   30.0   16.666666666666668
250.0   60.0   16.666666666666668
250.0   30.0   0.0
200.0   60.0   0.0
200.0   30.0   16.666666666666668
250.0   30.0   16.666666666666668
200.0   60.0   16.666666666666668
200.0   30.0   33.333333333333336
250.0   30.0   16.666666666666668
250.0   60.0   16.666666666666668
200.0   60.0   16.666666666666668
250.0   60.0   33.333333333333336
200.0   30.0   33.333333333333336
200.0   60.0   33.333333333333336
250.0   60.0   33.333333333333336
200.0   60.0   16.666666666666668
200.0   30.0   33.333333333333336
250.0   60.0   33.333333333333336
250.0   30.0   33.333333333333336
250.0   30.0   16.666666666666668
200.0   30.0   33.333333333333336
250.0   60.0   33.333333333333336
250.0   30.0   16.666666666666668
200.0   60.0   16.666666666666668
200.0   30.0   33.333333333333336
250.0   30.0   33.333333333333336
200.0   60.0   33.333333333333336
200.0   30.0   50.0
250.0   30.0   33.333333333333336
250.0   60.0   33.333333333333336
200.0   60.0   33.333333333333336
250.0   60.0   50.0
200.0   30.0   50.0
200.0   60.0   50.0
250.0   60.0   50.0
200.0   60.0   33.333333333333336
200.0   30.0   50.0
250.0   60.0   50.0
250.0   30.0   50.0
250.0   30.0   33.333333333333336
200.0   30.0   50.0
250.0   60.0   50.0
250.0   30.0   33.333333333333336
200.0   60.0   33.333333333333336
200.0   60.0   0.0
250.0   60.0   0.0
200.0   90.0   0.0
200.0   60.0   16.666666666666668
250.0   60.0   0.0
250.0   90.0   0.0
200.0   90.0   0.0
250.0   90.0   16.666666666666668
200.0   60.0   16.666666666666668
200.0   90.0   16.666666666666668
250.0   90.0   16.666666666666668
200.0   90.0   0.0
200.0   60.0   16.666666666666668
250.0   90.0   16.666666666666668
250.0   60.0   16.666666666666668
250.0   60.0   0.0
200.0   60.0   16.666666666666668
250.0   90.0   16.666666666666668
250.0   60.0   0.0
200.0   90.0   0.0
200.0   60.0   16.666666666666668
250.0   60.0   16.666666666666668
200.0   90.0   16.666666666666668
200.0   60.0   33.333333333333336
250.0   60.0   16.666666666666668
250.0   90.0   16.666666666666668
200.0   90.0   16.666666666666668
250.0   90.0   33.333333333333336
200.0   60.0   33.333333333333336
200.0   90.0   33.333333333333336
250.0   90.0   33.333333333333336
200.0   90.0   16.666666666666668
200.0   60.0   33.333333333333336
250.0   90.0   33.333333333333336
250.0   60.0   33.333333333333336
250.0   60.0   16.666666666666668
200.0   60.0   33.333333333333336
250.0   90.0   33.333333333333336
250.0   60.0   16.666666666666668
200.0   90.0   16.666666666666668
200.0   60.0   33.333333333333336
250.0   60.0   33.333333333333336
200.0   90.0   33.333333333333336
200.0   60.0   50.0
250.0   60.0   33.333333333333336
250.0   90.0   33.333333333333336
200.0   90.0   33.333333333333336
250.0   90.0   50.0
200.0   60.0   50.0
200.0   90.0   50.0
250.0   90.0   50.0
200.0   90.0   33.333333333333336
200.0   60.0   50.0
250.0   90.0   50.0
250.0   60.0   50.0
250.0   60.0   33.333333333333336
200.0   60.0   50.0
250.0   90.0   50.0
250.0   60.0   33.333333333333336
200.0   90.0   33.333333333333336
200.0   90.0   0.0
250.0   90.0   0.0
200.0   120.0   0.0
200.0   90.0   16.666666666666668
250.0   90.0   0.0
250.0   120.0   0.0
200.0   120.0   0.0
250.0   120.0   16.666666666666668
200.0   90.0   16.666666666666668
200.0   120.0   16.666666666666668
250.0   120.0   16.666666666666668
200.0   120.0   0.0
200.0   90.0   16.666666666666668
250.0   120.0   16.666666666666668
250.0   90.0   16.666666666666668
250.0   90.0   0.0
200.0   90.0   16.666666666666668
250.0   120.0   16.666666666666668
250.0   90.0   0.0
200.0   120.0   0.0
200.0   90.0   16.666666666666668
250.0   90.0   16.666666666666668
200.0   120.0   16.666666666666668
200.0   90.0   33.333333333333336
250.0   90.0   16.666666666666668
250.0   120.0   16.666666666666668
200.0   120.0   16.666666666666668
250.0   120.0   33.333333333333336
200.0   90.0   33.333333333333336
200.0   120.0   33.333333333333336
250.0   120.0   33.333333333333336
200.0   120.0   16.666666666666668
200.0   90.0   33.333333333333336
250.0   120.0   33.333333333333336
250.0   90.0   33.333333333333336
250.0   90.0   16.666666666666668
200.0   90.0   33.333333333333336
250.0   120.0   33.333333333333336
250.0   90.0   16.666666666666668
200.0   120.0   16.666666666666668
200.0   90.0   33.333333333333336
250.0   90.0   33.333333333333336
200.0   120.0   33.333333333333336
200.0   90.0   50.0
250.0   90.0   33.333333333333336
250.0   120.0   33.333333333333336
200.0   120.0   33.333333333333336
250.0   120.0   50.0
200.0   90.0   50.0
200.0   120.0   50.0
250.0   120.0   50.0
200.0   120.0   33.333333333333336
200.0   90.0   50.0
250.0   120.0   50.0
250.0   90.0   50.0
250.0   90.0   33.333333333333336
200.0   90.0   50.0
250.0   120.0   50.0
250.0   90.0   33.333333333333336
200.0   120.0   33.333333333333336
200.0   120.0   0.0
250.0   120.0   0.0
200.0   150.0   0.0
200.0   120.0   16.666666666666668
250.0   120.0   0.0
250.0   150.0   0.0
200.0   150.0   0.0
250.0   150.0   16.666666666666668
200.0   120.0   16.666666666666668
200.0   150.0   16.666666666666668
250.0   150.0   16.666666666666668
200.0   150.0   0.0
200.0   120.0   16.666666666666668
250.0   150.0   16.666666666666668
250.0   120.0   16.666666666666668
250.0   120.0   0.0
200.0   120.0   16.666666666666668
250.0   150.0   16.666666666666668
250.0   120.0   0.0
200.0   150.0   0.0
200.0   120.0   16.666666666666668
250.0   120.0   16.666666666666668
200.0   150.0   16.666666666666668
200.0   120.0   33.333333333333336
250.0   120.0   16.666666666666668
250.0   150.0   16.666666666666668
200.0   150.0   16.666666666666668
250.0   150.0   33.333333333333336
200.0   120.0   33.333333333333336
200.0   150.0   33.333333333333336
250.0   150.0   33.333333333333336
200.0   150.0   16.666666666666668
200.0   120.0   33.333333333333336
250.0   150.0   33.333333333333336
250.0   120.0   33.333333333333336
250.0   120.0   16.666666666666668
200.0   120.0   33.333333333333336
250.0   150.0   33.333333333333336
250.0   120.0   16.666666666666668
200.0   150.0   16.666666666666668
200.0   120.0   33.333333333333336
250.0   120.0   33.333333333333336
200.0   150.0   33.333333333333336
200.0   120.0   50.0
250.0   120.0   33.333333333333336
250.0   150.0   33.333333333333336
200.0   150.0   33.333333333333336
250.0   150.0   50.0
200.0   120.0   50.0
200.0   150.0   50.0
250.0   150.0   50.0
200.0   150.0   33.333333333333336
200.0   120.0   50.0
250.0   150.0   50.0
250.0   120.0   50.0
250.0   120.0   33.333333333333336
200.0   120.0   50.0
250.0   150.0   50.0
250.0   120.0   33.333333333333336
200.0   150.0   33.333333333333336
250.0   0.0   0.0
300.0   0.0   0.0
250.0   30.0   0.0
250.0   0.0   16.666666666666668
300.0   0.0   0.0
300.0   30.0   0.0
250.0   30.0   0.0
300.0   30.0   16.666666666666668
250.0   0.0   16.666666666666668
250.0   30.0   16.666666666666668
300.0   30.0   16.666666666666668
250.0   30.0   0.0
250.0   0.0   16.666666666666668
300.0   30.0   16.666666666666668
300.0   0.0   16.666666666666668
300.0   0.0   0.0
250.0   0.0   16.666666666666668
300.0   30.0   16.666666666666668
300.0   0.0   0.0
250.0   30.0   0.0
250.0   0.0   16.666666666666668
300.0   0.0   16.666666666666668
250.0   30.0   16.666666666666668
250.0   0.0   33.333333333333336
300.0   0.0   16.666666666666668
300.0   30.0   16.666666666666668
250.0   30.0   16.666666666666668
300.0   30.0   33.333333333333336
250.0   0.0   33.333333333333336
250.0   30.0   33.333333333333336
300.0   30.0   33.333333333333336
250.0   30.0   16.666666666666668
250.0   0.0   33.333333333333336
300.0   30.0   33.333333333333336
300.0   0.0   33.333333333333336
300.0   0.0   16.666666666666668
250.0   0.0   33.333333333333336
300.0   30.0   33.333333333333336
300.0   0.0   16.666666666666668
250.0   30.0   16.666666666666668
250.0   0.0   33.333333333333336
300.0   0.0   33.333333333333336
250.0   30.0   33.333333333333336
250.0   0.0   50.0
300.0   0.0   33.333333333333336
300.0   30.0   33.333333333333336
250.0   30.0   33.333333333333336
300.0   30.0   50.0
250.0   0.0   50.0
250.0   30.0   50.0
300.0   30.0   50.0
250.0   30.0   33.333333333333336
250.0   0.0   50.0
300.0   30.0   50.0
300.0   0.0   50.0
300.0   0.0   33.333333333333336
250.0   0.0   50.0
300.0   30.0   50.0
300.0   0.0   33.333333333333336
250.0   30.0   33.333333333333336
250.0   30.0   0.0
300.0   30.0   0.0
250.0   60.0   0.0
250.0   30.0   16.666666666666668
300.0   30.0   0.0
300.0   60.0   0.0
250.0   60.0   0.0
300.0   60.0   16.666666666666668
250.0   30.0   16.666666666666668
250.0   60.0   16.666666666666668
300.0   60.0   16.666666666666668
250.0   60.0   0.0
250.0   30.0   16.666666666666668
300.0   60.0   16.666666666666668
300.0   30.0   16.666666666666668
300.0   30.0   0.0
250.0   30.0   16.666666666666668
300.0   60.0   16.666666666666668
300.0   30.0   0.0
250.0   60.0   0.0
250.0   30.0   16.666666666666668
300.0   30.0   16.666666666666668
250.0   60.0   16.666666666666668
250.0   30.0   33.333333333333336
300.0   30.0   16.666666666666668
300.0   60.0   16.666666666666668
250.0   60.0   16.666666666666668
300.0   60.0   33.333333333333336
250.0   30.0   33.333333333333336
250.0   60.0   33.333333333333336
300.0   60.0   33.333333333333336
250.0   60.0   16.666666666666668
250.0   30.0   33.333333333333336
300.0   60.0   33.333333333333336
300.0   30.0   33.333333333333336
300.0   30.0   16.666666666666668
250.0   30.0   33.333333333333336
300.0   60.0   33.333333333333336
300.0   30.0   16.666666666666668
250.0   60.0   16.666666666666668
250.0   30.0   33.333333333333336
300.0   30.0   33.333333333333336
250.0   60.0   33.333333333333336
250.0   30.0   50.0
300.0   30.0   33.333333333333336
300.0   60.0   33.333333333333336
250.0   60.0   33.333333333333336
300.0   60.0   50.0
250.0   30.0   50.0
250.0   60.0   50.0
300.0   60.0   50.0
250.0   60.0   33.333333333333336
250.0   30.0   50.0
300.0   60.0   50.0
300.0   30.0   50.0
300.0   30.0   33.333333333333336
250.0   30.0   50.0
300.0   60.0   50.0
300.0   30.0   33.333333333333336
250.0   60.0   33.333333333333336
250.0   60.0   0.0
300.0   60.0   0.0
250.0   90.0   0.0
250.0   60.0   16.666666666666668
300.0   60.0   0.0
300.0   90.0   0.0
250.0   90.0   0.0
300.0   90.0   16.666666666666668
250.0   60.0   16.666666666666668
250.0   90.0   16.666666666666668
300.0   90.0   16.666666666666668
250.0   90.0   0.0
250.0   60.0   16.666666666666668
300.0   90.0   16.666666666666668
300.0   60.0   16.666666666666668
300.0   60.0   0.0
250.0   60.0   16.666666666666668
300.0   90.0   16.666666666666668
300.0   60.0   0.0
250.0   90.0   0.0
250.0   60.0   16.666666666666668
300.0   60.0   16.666666666666668
250.0   90.0   16.666666666666668
250.0   60.0   33.333333333333336
300.0   60.0   16.666666666666668
300.0   90.0   16.666666666666668
250.0   90.0   16.666666666666668
300.0   90.0   33.333333333333336
250.0   60.0   33.333333333333336
250.0   90.0   33.333333333333336
300.0   90.0   33.333333333333336
250.0   90.0   16.666666666666668
250.0   60.0   33.333333333333336
300.0   90.0   33.333333333333336
300.0   60.0   33.333333333333336
300.0   60.0   16.666666666666668
250.0   60.0   33.333333333333336
300.0   90.0   33.333333333333336
300.0   60.0   16.666666666666668
250.0   90.0   16.666666666666668
250.0   60.0   33.333333333333336
300.0   60.0   33.333333333333336
250.0   90.0   33.333333333333336
250.0   60.0   50.0
300.0   60.0   33.333333333333336
300.0   90.0   33.333333333333336
250.0   90.0   33.333333333333336
300.0   90.0   50.0
250.0   60.0   50.0
250.0   90.0   50.0
300.0   90.0   50.0
250.0   90.0   33.333333333333336
250.0   60.0   50.0
300.0   90.0   50.0
300.0   60.0   50.0
300.0   60.0   33.333333333333336
250.0   60.0   50.0
300.0   90.0   50.0
300.0   60.0   33.333333333333336
250.0   90.0   33.333333333333336
250.0   90.0   0.0
300.0   90.0   0.0
250.0   120.0   0.0
250.0   90.0   16.666666666666668
300.0   90.0   0.0
300.0   120.0   0.0
250.0   120.0   0.0
300.0   120.0   16.666666666666668
250.0   90.0   16.666666666666668
250.0   120.0   16.666666666666668
300.0   120.0   16.666666666666668
250.0   120.0   0.0
250.0   90.0   16.666666666666668
300.0   120.0   16.666666666666668
300.0   90.0   16.666666666666668
300.0   90.0   0.0
250.0   90.0   16.666666666666668
300.0   120.0   16.666666666666668
300.0   90.0   0.0
250.0   120.0   0.0
250.0   90.0   16.666666666666668
300.0   90.0   16.666666666666668
250.0   120.0   16.666666666666668
250.0   90.0   33.333333333333336
300.0   90.0   16.666666666666668
300.0   120.0   16.666666666666668
250.0   120.0   16.666666666666668
300.0   120.0   33.333333333333336
250.0   90.0   33.333333333333336
250.0   120.0   33.333333333333336
300.0   120.0   33.333333333333336
250.0   120.0   16.666666666666668
250.0   90.0   33.333333333333336
300.0   120.0   33.333333333333336
300.0   90.0   33.333333333333336
300.0   90.0   16.666666666666668
250.0   90.0   33.333333333333336
300.0   120.0   33.333333333333336
300.0   90.0   16.666666666666668
250.0   120.0   16.666666666666668
250.0   90.0   33.333333333333336
300.0   90.0   33.333333333333336
250.0   120.0   33.333333333333336
250.0   90.0   50.0
300.0   90.0   33.333333333333336
300.0   120.0   33.333333333333336
250.0   120.0   33.333333333333336
300.0   120.0   50.0
250.0   90.0   50.0
250.0   120.0   50.0
300.0   120.0   50.0
250.0   120.0   33.333333333333336
250.0   90.0   50.0
300.0   120.0   50.0
300.0   90.0   50.0
300.0   90.0   33.333333333333336
250.0   90.0   50.0
300.0   120.0   50.0
300.0   90.0   33.333333333333336
250.0   120.0   33.333333333333336
250.0   120.0   0.0
300.0   120.0   0.0
250.0   150.0   0.0
250.0   120.0   16.666666666666668
300.0   120.0   0.0
300.0   150.0   0.0
250.0   150.0   0.0
300.0   150.0   16.666666666666668
250.0   120.0   16.666666666666668
250.0   150.0   16.666666666666668
300.0   150.0   16.666666666666668
250.0   150.0   0.0
250.0   120.0   16.666666666666668
300.0   150.0   16.666666666666668
300.0   120.0   16.666666666666668
300.0   120.0   0.0
250.0   120.0   16.666666666666668
300.0   150.0   16.666666666666668
300.0   120.0   0.0
250.0   150.0   0.0
250.0   120.0   16.666666666666668
300.0   120.0   16.666666666666668
250.0   150.0   16.666666666666668
250.0   120.0   33.333333333333336
300.0   120.0   16.666666666666668
300.0   150.0   16.666666666666668
250.0   150.0   16.666666666666668
300.0   150.0   33.333333333333336
250.0   120.0   33.333333333333336
250.0   150.0   33.333333333333336
300.0   150.0   33.333333333333336
250.0   150.0   16.666666666666668
250.0   120.0   33.333333333333336
300.0   150.0   33.333333333333336
300.0   120.0   33.333333333333336
300.0   120.0   16.666666666666668
250.0   120.0   33.333333333333336
300.0   150.0   33.333333333333336
300.0   120.0   16.666666666666668
250.0   150.0   16.666666666666668
250.0   120.0   33.333333333333336
300.0   120.0   33.333333333333336
250.0   150.0   33.333333333333336
250.0   120.0   50.0
300.0   120.0   33.333333333333336
300.0   150.0   33.333333333333336
250.0   150.0   33.333333333333336
300.0   150.0   50.0
250.0   120.0   50.0
250.0   150.0   50.0
300.0   150.0   50.0
250.0   150.0   33.333333333333336
250.0   120.0   50.0
300.0   150.0   50.0
300.0   120.0   50.0
300.0   120.0   33.333333333333336
250.0   120.0   50.0
300.0   150.0   50.0
300.0   120.0   33.333333333333336
250.0   150.0   33.333333333333336
300.0   0.0   0.0
350.0   0.0   0.0
300.0   30.0   0.0
300.0   0.0   16.666666666666668
350.0   0.0   0.0
350.0   30.0   0.0
300.0   30.0   0.0
350.0   30.0   16.666666666666668
300.0   0.0   16.666666666666668
300.0   30.0   16.666666666666668
350.0   30.0   16.666666666666668
300.0   30.0   0.0
300.0   0.0   16.666666666666668
350.0   30.0   16.666666666666668
350.0   0.0   16.666666666666668
350.0   0.0   0.0
300.0   0.0   16.666666666666668
350.0   30.0   16.666666666666668
350.0   0.0   0.0
300.0   30.0   0.0
300.0   0.0   16.666666666666668
350.0   0.0   16.666666666666668
300.0   30.0   16.666666666666668
300.0   0.0   33.333333333333336
350.0   0.0   16.666666666666668
350.0   30.0   16.666666666666668
300.0   30.0   16.666666666666668
350.0   30.0   33.333333333333336
300.0   0.0   33.333333333333336
300.0   30.0   33.333333333333336
350.0   30.0   33.333333333333336
300.0   30.0   16.666666666666668
300.0   0.0   33.333333333333336
350.0   30.0   33.333333333333336
350.0   0.0   33.333333333333336
350.0   0.0   16.666666666666668
300.0   0.0   33.333333333333336
350.0   30.0   33.333333333333336
350.0   0.0   16.666666666666668
300.0   30.0   16.666666666666668
300.0   0.0   33.333333333333336
350.0   0.0   33.333333333333336
300.0   30.0   33.333333333333336
300.0   0.0   50.0
350.0   0.0   33.333333333333336
350.0   30.0   33.333333333333336
300.0   30.0   33.333333333333336
350.0   30.0   50.0
300.0   0.0   50.0
300.0   30.0   50.0
350.0   30.0   50.0
300.0   30.0   33.333333333333336
300.0   0.0   50.0
350.0   30.0   50.0
350.0   0.0   50.0
350.0   0.0   33.333333333333336
300.0   0.0   50.0
350.0   30.0   50.0
350.0   0.0   33.333333333333336
300.0   30.0   33.333333333333336
300.0   30.0   0.0
350.0   30.0   0.0
300.0   60.0   0.0
300.0   30.0   16.666666666666668
350.0   30.0   0.0
350.0   60.0   0.0
300.0   60.0   0.0
350.0   60.0   16.666666666666668
300.0   30.0   16.666666666666668
300.0   60.0   16.666666666666668
350.0   60.0   16.666666666666668
300.0   60.0   0.0
300.0   30.0   16.666666666666668
350.0   60.0   16.666666666666668
350.0   30.0   16.666666666666668
350.0   30.0   0.0
300.0   30.0   16.666666666666668
350.0   60.0   16.666666666666668
350.0   30.0   0.0
300.0   60.0   0.0
300.0   30.0   16.666666666666668
350.0   30.0   16.666666666666668
300.0   60.0   16.666666666666668
300.0   30.0   33.333333333333336
350.0   30.0   16.666666666666668
350.0   60.0   16.666666666666668
300.0   60.0   16.666666666666668
350.0   60.0   33.333333333333336
300.0   30.0   33.333333333333336
300.0   60.0   33.333333333333336
350.0   60.0   33.333333333333336
300.0   60.0   16.666666666666668
300.0   30.0   33.333333333333336
350.0   60.0   33.333333333333336
350.0   30.0   33.333333333333336
350.0   30.0   16.666666666666668
300.0   30.0   33.333333333333336
350.0   60.0   33.333333333333336
350.0   30.0   16.666666666666668
300.0   60.0   16.666666666666668
300.0   30.0   33.333333333333336
350.0   30.0   33.333333333333336
300.0   60.0   33.333333333333336
300.0   30.0   50.0
350.0   30.0   33.333333333333336
350.0   60.0   33.333333333333336
300.0   60.0   33.333333333333336
350.0   60.0   50.0
300.0   30.0   50.0
300.0   60.0   50.0
350.0   60.0   50.0
300.0   60.0   33.333333333333336
300.0   30.0   50.0
350.0   60.0   50.0
350.0   30.0   50.0
350.0   30.0   33.333333333333336
300.0   30.0   50.0
350.0   60.0   50.0
350.0   30.0   33.333333333333336
300.0   60.0   33.333333333333336
300.0   60.0   0.0
350.0   60.0   0.0
300.0   90.0   0.0
300.0   60.0   16.666666666666668
350.0   60.0   0.0
350.0   90.0   0.0
300.0   90.0   0.0
350.0   90.0   16.666666666666668
300.0   60.0   16.666666666666668
300.0   90.0   16.666666666666668
350.0   90.0   16.666666666666668
300.0   90.0   0.0
300.0   60.0   16.666666666666668
350.0   90.0   16.666666666666668
350.0   60.0   16.666666666666668
350.0   60.0   0.0
300.0   60.0   16.666666666666668
350.0   90.0   16.666666666666668
350.0   60.0   0.0
300.0   90.0   0.0
300.0   60.0   16.666666666666668
350.0   60.0   16.666666666666668
300.0   90.0   16.666666666666668
300.0   60.0   33.333333333333336
350.0   60.0   16.666666666666668
350.0   90.0   16.666666666666668
300.0   90.0   16.666666666666668
350.0   90.0   33.333333333333336
300.0   60.0   33.333333333333336
300.0   90.0   33.333333333333336
350.0   90.0   33.333333333333336
300.0   90.0   16.666666666666668
300.0   60.0   33.333333333333336
350.0   90.0   33.333333333333336
350.0   60.0   33.333333333333336
350.0   60.0   16.666666666666668
300.0   60.0   33.333333333333336
350.0   90.0   33.333333333333336
350.0   60.0   16.666666666666668
300.0   90.0   16.666666666666668
300.0   60.0   33.333333333333336
350.0   60.0   33.333333333333336
300.0   90.0   33.333333333333336
300.0   60.0   50.0
350.0   60.0   33.333333333333336
350.0   90.0   33.333333333333336
300.0   90.0   33.333333333333336
350.0   90.0   50.0
300.0   60.0   50.0
300.0   90.0   50.0
350.0   90.0   50.0
300.0   90.0   33.333333333333336
300.0   60.0   50.0
350.0   90.0   50.0
350.0   60.0   50.0
350.0   60.0   33.333333333333336
300.0   60.0   50.0
350.0   90.0   50.0
350.0   60.0   33.333333333333336
300.0   90.0   33.333333333333336
300.0   90.0   0.0
350.0   90.0   0.0
300.0   120.0   0.0
300.0   90.0   16.666666666666668
350.0   90.0   0.0
350.0   120.0   0.0
300.0   120.0   0.0
350.0   120.0   16.666666666666668
300.0   90.0   16.666666666666668
300.0   120.0   16.666666666666668
350.0   120.0   16.666666666666668
300.0   120.0   0.0
300.0   90.0   16.666666666666668
350.0   120.0   16.666666666666668
350.0   90.0   16.666666666666668
350.0   90.0   0.0
300.0   90.0   16.666666666666668
350.0   120.0   16.666666666666668
350.0   90.0   0.0
300.0   120.0   0.0
300.0   90.0   16.666666666666668
350.0   90.0   16.666666666666668
300.0   120.0   16.666666666666668
300.0   90.0   33.333333333333336
350.0   90.0   16.666666666666668
350.0   120.0   16.666666666666668
300.0   120.0   16.666666666666668
350.0   120.0   33.333333333333336
300.0   90.0   33.333333333333336
300.0   120.0   33.333333333333336
350.0   120.0   33.333333333333336
300.0   120.0   16.666666666666668
300.0   90.0   33.333333333333336
350.0   120.0   33.333333333333336
350.0   90.0   33.333333333333336
350.0   90.0   16.666666666666668
300.0   90.0   33.333333333333336
350.0   120.0   33.333333333333336
350.0   90.0   16.666666666666668
300.0   120.0   16.666666666666668
300.0   90.0   33.333333333333336
350.0   90.0   33.333333333333336
300.0   120.0   33.333333333333336
300.0   90.0   50.0
350.0   90.0   33.333333333333336
350.0   120.0   33.333333333333336
300.0   120.0   33.333333333333336
350.0   120.0   50.0
300.0   90.0   50.0
300.0   120.0   50.0
350.0   120.0   50.0
300.0   120.0   33.333333333333336
300.0   90.0   50.0
350.0   120.0   50.0
350.0   90.0   50.0
350.0   90.0   33.333333333333336
300.0   90.0   50.0
350.0   120.0   50.0
350.0   90.0   33.333333333333336
300.0   120.0   33.333333333333336
300.0   120.0   0.0
350.0   120.0   0.0
300.0   150.0   0.0
300.0   120.0   16.666666666666668
350.0   120.0   0.0
350.0   150.0   0.0
300.0   150.0   0.0
350.0   150.0   16.666666666666668
300.0   120.0   16.666666666666668
300.0   150.0   16.666666666666668
350.0   150.0   16.666666666666668
300.0   150.0   0.0
300.0   120.0   16.666666666666668
350.0   150.0   16.666666666666668
350.0   120.0   16.666666666666668
350.0   120.0   0.0
300.0   120.0   16.666666666666668
350.0   150.0   16.666666666666668
350.0   120.0   0.0
300.0   150.0   0.0
300.0   120.0   16.666666666666668
350.0   120.0   16.666666666666668
300.0   150.0   16.666666666666668
300.0   120.0   33.333333333333336
350.0   120.0   16.666666666666668
350.0   150.0   16.666666666666668
300.0   150.0   16.666666666666668
350.0   150.0   33.333333333333336
300.0   120.0   33.333333333333336
300.0   150.0   33.333333333333336
350.0   150.0   33.333333333333336
300.0   150.0   16.666666666666668
300.0   120.0   33.333333333333336
350.0   150.0   33.333333333333336
350.0   120.0   33.333333333333336
350.0   120.0   16.666666666666668
300.0   120.0   33.333333333333336
350.0   150.0   33.333333333333336
350.0   120.0   16.666666666666668
300.0   150.0   16.666666666666668
300.0   120.0   33.333333333333336
350.0   120.0   33.333333333333336
300.0   150.0   33.333333333333336
300.0   120.0   50.0
350.0   120.0   33.333333333333336
350.0   150.0   33.333333333333336
300.0   150.0   33.333333333333336
350.0   150.0   50.0
300.0   120.0   50.0
300.0   150.0   50.0
350.0   150.0   50.0
300.0   150.0   33.333333333333336
300.0   120.0   50.0
350.0   150.0   50.0
350.0   120.0   50.0
350.0   120.0   33.333333333333336
300.0   120.0   50.0
350.0   150.0   50.0
350.0   120.0   33.333333333333336
300.0   150.0   33.333333333333336
350.0   0.0   0.0
400.0   0.0   0.0
350.0   30.0   0.0
350.0   0.0   16.666666666666668
400.0   0.0   0.0
400.0   30.0   0.0
350.0   30.0   0.0
400.0   30.0   16.666666666666668
350.0   0.0   16.666666666666668
350.0   30.0   16.666666666666668
400.0   30.0   16.666666666666668
350.0   30.0   0.0
350.0   0.0   16.666666666666668
400.0   30.0   16.666666666666668
400.0   0.0   16.666666666666668
400.0   0.0   0.0
350.0   0.0   16.666666666666668
400.0   30.0   16.666666666666668
400.0   0.0   0.0
350.0   30.0   0.0
350.0   0.0   16.666666666666668
400.0   0.0   16.666666666666668
350.0   30.0   16.666666666666668
350.0   0.0   33.333333333333336
400.0   0.0   16.666666666666668
400.0   30.0   16.666666666666668
350.0   30.0   16.666666666666668
400.0   30.0   33.333333333333336
350.0   0.0   33.333333333333336
350.0   30.0   33.333333333333336
400.0   30.0   33.333333333333336
350.0   30.0   16.666666666666668
350.0   0.0   33.333333333333336
400.0   30.0   33.333333333333336
400.0   0.0   33.333333333333336
400.0   0.0   16.666666666666668
350.0   0.0   33.333333333333336
400.0   30.0   33.333333333333336
400.0   0.0   16.666666666666668
350.0   30.0   16.666666666666668
350.0   0.0   33.333333333333336
400.0   0.0   33.333333333333336
350.0   30.0   33.333333333333336
350.0   0.0   50.0
400.0   0.0   33.333333333333336
400.0   30.0   33.333333333333336
350.0   30.0   33.333333333333336
400.0   30.0   50.0
350.0   0.0   50.0
350.0   30.0   50.0
400.0   30.0   50.0
350.0   30.0   33.333333333333336
350.0   0.0   50.0
400.0   30.0   50.0
400.0   0.0   50.0
400.0   0.0   33.333333333333336
350.0   0.0   50.0
400.0   30.0   50.0
400.0   0.0   33.333333333333336
350.0   30.0   33.333333333333336
350.0   30.0   0.0
400.0   30.0   0.0
350.0   60.0   0.0
350.0   30.0   16.666666666666668
400.0   30.0   0.0
400.0   60.0   0.0
350.0   60.0   0.0
400.0   60.0   16.666666666666668
350.0   30.0   16.666666666666668
350.0   60.0   16.666666666666668
400.0   60.0   16.666666666666668
350.0   60.0   0.0
350.0   30.0   16.666666666666668
400.0   60.0   16.666666666666668
400.0   30.0   16.666666666666668
400.0   30.0   0.0
350.0   30.0   16.666666666666668
400.0   60.0   16.666666666666668
400.0   30.0   0.0
350.0   60.0   0.0
350.0   30.0   16.666666666666668
400.0   30.0   16.666666666666668
350.0   60.0   16.666666666666668
350.0   30.0   33.333333333333336
400.0   30.0   16.666666666666668
400.0   60.0   16.666666666666668
350.0   60.0   16.666666666666668
400.0   60.0   33.333333333333336
350.0   30.0   33.333333333333336
350.0   60.0   33.333333333333336
400.0   60.0   33.333333333333336
350.0   60.0   16.666666666666668
350.0   30.0   33.333333333333336
400.0   60.0   33.333333333333336
400.0   30.0   33.333333333333336
400.0   30.0   16.666666666666668
350.0   30.0   33.333333333333336
400.0   60.0   33.333333333333336
400.0   30.0   16.666666666666668
350.0   60.0   16.666666666666668
350.0   30.0   33.333333333333336
400.0   30.0   33.333333333333336
350.0   60.0   33.333333333333336
350.0   30.0   50.0
400.0   30.0   33.333333333333336
400.0   60.0   33.333333333333336
350.0   60.0   33.333333333333336
400.0   60.0   50.0
350.0   30.0   50.0
350.0   60.0   50.0
400.0   60.0   50.0
350.0   60.0   33.333333333333336
350.0   30.0   50.0
400.0   60.0   50.0
400.0   30.0   50.0
400.0   30.0   33.333333333333336
350.0   30.0   50.0
400.0   60.0   50.0
400.0   30.0   33.333333333333336
350.0   60.0   33.333333333333336
350.0   60.0   0.0
400.0   60.0   0.0
350.0   90.0   0.0
350.0   60.0   16.666666666666668
400.0   60.0   0.0
400.0   90.0   0.0
350.0   90.0   0.0
400.0   90.0   16.666666666666668
350.0   60.0   16.666666666666668
350.0   90.0   16.666666666666668
400.0   90.0   16.666666666666668
350.0   90.0   0.0
350.0   60.0   16.666666666666668
400.0   90.0   16.666666666666668
400.0   60.0   16.666666666666668
400.0   60.0   0.0
350.0   60.0   16.666666666666668
400.0   90.0   16.666666666666668
400.0   60.0   0.0
350.0   90.0   0.0
350.0   60.0   16.666666666666668
400.0   60.0   16.666666666666668
350.0   90.0   16.666666666666668
350.0   60.0   33.333333333333336
400.0   60.0   16.666666666666668
400.0   90.0   16.666666666666668
350.0   90.0   16.666666666666668
400.0   90.0   33.333333333333336
350.0   60.0   33.333333333333336
350.0   90.0   33.333333333333336
400.0   90.0   33.333333333333336
350.0   90.0   16.666666666666668
350.0   60.0   33.333333333333336
400.0   90.0   33.333333333333336
400.0   60.0   33.333333333333336
400.0   60.0   16.666666666666668
350.0   60.0   33.333333333333336
400.0   90.0   33.333333333333336
400.0   60.0   16.666666666666668
350.0   90.0   16.666666666666668
350.0   60.0   33.333333333333336
400.0   60.0   33.333333333333336
350.0   90.0   33.333333333333336
350.0   60.0   50.0
400.0   60.0   33.333333333333336
400.0   90.0   33.333333333333336
350.0   90.0   33.333333333333336
400.0   90.0   50.0
350.0   60.0   50.0
350.0   90.0   50.0
400.0   90.0   50.0
350.0   90.0   33.333333333333336
350.0   60.0   50.0
400.0   90.0   50.0
400.0   60.0   50.0
400.0   60.0   33.333333333333336
350.0   60.0   50.0
400.0   90.0   50.0
400.0   60.0   33.333333333333336
350.0   90.0   33.333333333333336
350.0   90.0   0.0
400.0   90.0   0.0
350.0   120.0   0.0
350.0   90.0   16.666666666666668
400.0   90.0   0.0
400.0   120.0   0.0
350.0   120.0   0.0
400.0   120.0   16.666666666666668
350.0   90.0   16.666666666666668
350.0   120.0   16.666666666666668
400.0   120.0   16.666666666666668
350.0   120.0   0.0
350.0   90.0   16.666666666666668
400.0   120.0   16.666666666666668
400.0   90.0   16.666666666666668
400.0   90.0   0.0
350.0   90.0   16.666666666666668
400.0   120.0   16.666666666666668
400.0   90.0   0.0
350.0   120.0   0.0
350.0   90.0   16.666666666666668
400.0   90.0   16.666666666666668
350.0   120.0   16.666666666666668
350.0   90.0   33.333333333333336
400.0   90.0   16.666666666666668
400.0   120.0   16.666666666666668
350.0   120.0   16.666666666666668
400.0   120.0   33.333333333333336
350.0   90.0   33.333333333333336
350.0   120.0   33.333333333333336
400.0   120.0   33.333333333333336
350.0   120.0   16.666666666666668
350.0   90.0   33.333333333333336
400.0   120.0   33.333333333333336
400.0   90.0   33.333333333333336
400.0   90.0   16.666666666666668
350.0   90.0   33.333333333333336
400.0   120.0   33.333333333333336
400.0   90.0   16.666666666666668
350.0   120.0   16.666666666666668
350.0   90.0   33.333333333333336
400.0   90.0   33.333333333333336
350.0   120.0   33.333333333333336
350.0   90.0   50.0
400.0   90.0   33.333333333333336
400.0   120.0   33.333333333333336
350.0   120.0   33.333333333333336
400.0   120.0   50.0
350.0   90.0   50.0
350.0   120.0   50.0
400.0   120.0   50.0
350.0   120.0   33.333333333333336
350.0   90.0   50.0
400.0   120.0   50.0
400.0   90.0   50.0
400.0   90.0   33.333333333333336
350.0   90.0   50.0
400.0   120.0   50.0
400.0   90.0   33.333333333333336
350.0   120.0   33.333333333333336
350.0   120.0   0.0
400.0   120.0   0.0
350.0   150.0   0.0
350.0   120.0   16.666666666666668
400.0   120.0   0.0
400.0   150.0   0.0
350.0   150.0   0.0
400.0   150.0   16.666666666666668
350.0   120.0   16.666666666666668
350.0   150.0   16.666666666666668
400.0   150.0   16.666666666666668
350.0   150.0   0.0
350.0   120.0   16.666666666666668
400.0   150.0   16.666666666666668
400.0   120.0   16.666666666666668
400.0   120.0   0.0
350.0   120.0   16.666666666666668
400.0   150.0   16.666666666666668
400.0   120.0   0.0
350.0   150.0   0.0
350.0   120.0   16.666666666666668
400.0   120.0   16.666666666666668
350.0   150.0   16.666666666666668
350.0   120.0   33.333333333333336
400.0   120.0   16.666666666666668
400.0   150.0   16.666666666666668
350.0   150.0   16.666666666666668
400.0   150.0   33.333333333333336
350.0   120.0   33.333333333333336
350.0   150.0   33.333333333333336
400.0   150.0   33.333333333333336
350.0   150.0   16.666666666666668
350.0   120.0   33.333333333333336
400.0   150.0   33.333333333333336
400.0   120.0   33.333333333333336
400.0   120.0   16.666666666666668
350.0   120.0   33.333333333333336
400.0   150.0   33.333333333333336
400.0   120.0   16.666666666666668
350.0   150.0   16.666666666666668
350.0   120.0   33.333333333333336
400.0   120.0   33.333333333333336
350.0   150.0   33.333333333333336
350.0   120.0   50.0
400.0   120.0   33.333333333333336
400.0   150.0   33.333333333333336
350.0   150.0   33.333333333333336
400.0   150.0   50.0
350.0   120.0   50.0
350.0   150.0   50.0
400.0   150.0   50.0
350.0   150.0   33.333333333333336
350.0   120.0   50.0
400.0   150.0   50.0
400.0   120.0   50.0
400.0   120.0   33.333333333333336
350.0   120.0   50.0
400.0   150.0   50.0
400.0   120.0   33.333333333333336
350.0   150.0   33.333333333333336
400.0   0.0   0.0
450.0   0.0   0.0
400.0   30.0   0.0
400.0   0.0   16.666666666666668
450.0   0.0   0.0
450.0   30.0   0.0
400.0   30.0   0.0
450.0   30.0   16.666666666666668
400.0   0.0   16.666666666666668
400.0   30.0   16.666666666666668
450.0   30.0   16.666666666666668
400.0   30.0   0.0
400.0   0.0   16.666666666666668
450.0   30.0   16.666666666666668
450.0   0.0   16.666666666666668
450.0   0.0   0.0
400.0   0.0   16.666666666666668
450.0   30.0   16.666666666666668
450.0   0.0   0.0
400.0   30.0   0.0
400.0   0.0   16.666666666666668
450.0   0.0   16.666666666666668
400.0   30.0   16.666666666666668
400.0   0.0   33.333333333333336
450.0   0.0   16.666666666666668
450.0   30.0   16.666666666666668
400.0   30.0   16.666666666666668
450.0   30.0   33.333333333333336
400.0   0.0   33.333333333333336
400.0   30.0   33.333333333333336
450.0   30.0   33.333333333333336
400.0   30.0   16.666666666666668
400.0   0.0   33.333333333333336
450.0   30.0   33.333333333333336
450.0   0.0   33.333333333333336
450.0   0.0   16.666666666666668
400.0   0.0   33.333333333333336
450.0   30.0   33.333333333333336
450.0   0.0   16.666666666666668
400.0   30.0   16.666666666666668
400.0   0.0   33.333333333333336
450.0   0.0   33.333333333333336
400.0   30.0   33.333333333333336
400.0   0.0   50.0
450.0   0.0   33.333333333333336
450.0   30.0   33.333333333333336
400.0   30.0   33.333333333333336
450.0   30.0   50.0
400.0   0.0   50.0
400.0   30.0   50.0
450.0   30.0   50.0
400.0   30.0   33.333333333333336
400.0   0.0   50.0
450.0   30.0   50.0
450.0   0.0   50.0
450.0   0.0   33.333333333333336
400.0   0.0   50.0
450.0   30.0   50.0
450.0   0.0   33.333333333333336
400.0   30.0   33.333333333333336
400.0   30.0   0.0
450.0   30.0   0.0
400.0   60.0   0.0
400.0   30.0   16.666666666666668
450.0   30.0   0.0
450.0   60.0   0.0
400.0   60.0   0.0
450.0   60.0   16.666666666666668
400.0   30.0   16.666666666666668
400.0   60.0   16.666666666666668
450.0   60.0   16.666666666666668
400.0   60.0   0.0
400.0   30.0   16.666666666666668
450.0   60.0   16.666666666666668
450.0   30.0   16.666666666666668
450.0   30.0   0.0
400.0   30.0   16.666666666666668
450.0   60.0   16.666666666666668
450.0   30.0   0.0
400.0   60.0   0.0
400.0   30.0   16.666666666666668
450.0   30.0   16.666666666666668
400.0   60.0   16.666666666666668
400.0   30.0   33.333333333333336
450.0   30.0   16.666666666666668
450.0   60.0   16.666666666666668
400.0   60.0   16.666666666666668
450.0   60.0   33.333333333333336
400.0   30.0   33.333333333333336
400.0   60.0   33.333333333333336
450.0   60.0   33.333333333333336
400.0   60.0   16.666666666666668
400.0   30.0   33.333333333333336
450.0   60.0   33.333333333333336
450.0   30.0   33.333333333333336
450.0   30.0   16.666666666666668
400.0   30.0   33.333333333333336
450.0   60.0   33.333333333333336
450.0   30.0   16.666666666666668
400.0   60.0   16.666666666666668
400.0   30.0   33.333333333333336
450.0   30.0   33.333333333333336
400.0   60.0   33.333333333333336
400.0   30.0   50.0
450.0   30.0   33.333333333333336
450.0   60.0   33.333333333333336
400.0   60.0   33.333333333333336
450.0   60.0   50.0
400.0   30.0   50.0
400.0   60.0   50.0
450.0   60.0   50.0
400.0   60.0   33.333333333333336
400.0   30.0   50.0
450.0   60.0   50.0
450.0   30.0   50.0
450.0   30.0   33.333333333333336
400.0   30.0   50.0
450.0   60.0   50.0
450.0   30.0   33.333333333333336
400.0   60.0   33.333333333333336
400.0   60.0   0.0
450.0   60.0   0.0
400.0   90.0   0.0
400.0   60.0   16.666666666666668
450.0   60.0   0.0
450.0   90.0   0.0
400.0   90.0   0.0
450.0   90.0   16.666666666666668
400.0   60.0   16.666666666666668
400.0   90.0   16.666666666666668
450.0   90.0   16.666666666666668
400.0   90.0   0.0
400.0   60.0   16.666666666666668
450.0   90.0   16.666666666666668
450.0   60.0   16.666666666666668
450.0   60.0   0.0
400.0   60.0   16.666666666666668
450.0   90.0   16.666666666666668
450.0   60.0   0.0
400.0   90.0   0.0
400.0   60.0   16.666666666666668
450.0   60.0   16.666666666666668
400.0   90.0   16.666666666666668
400.0   60.0   33.333333333333336
450.0   60.0   16.666666666666668
450.0   90.0   16.666666666666668
400.0   90.0   16.666666666666668
450.0   90.0   33.333333333333336
400.0   60.0   33.333333333333336
400.0   90.0   33.333333333333336
450.0   90.0   33.333333333333336
400.0   90.0   16.666666666666668
400.0   60.0   33.333333333333336
450.0   90.0   33.333333333333336
450.0   60.0   33.333333333333336
450.0   60.0   16.666666666666668
400.0   60.0   33.333333333333336
450.0   90.0   33.333333333333336
450.0   60.0   16.666666666666668
400.0   90.0   16.666666666666668
400.0   60.0   33.333333333333336
450.0   60.0   33.333333333333336
400.0   90.0   33.333333333333336
400.0   60.0   50.0
450.0   60.0   33.333333333333336
450.0   90.0   33.333333333333336
400.0   90.0   33.333333333333336
450.0   90.0   50.0
400.0   60.0   50.0
400.0   90.0   50.0
450.0   90.0   50.0
400.0   90.0   33.333333333333336
400.0   60.0   50.0
450.0   90.0   50.0
450.0   60.0   50.0
450.0   60.0   33.333333333333336
400.0   60.0   50.0
450.0   90.0   50.0
450.0   60.0   33.333333333333336
400.0   90.0   33.333333333333336
400.0   90.0   0.0
450.0   90.0   0.0
400.0   120.0   0.0
400.0   90.0   16.666666666666668
450.0   90.0   0.0
450.0   120.0   0.0
400.0   120.0   0.0
450.0   120.0   16.666666666666668
400.0   90.0   16.666666666666668
400.0   120.0   16.666666666666668
450.0   120.0   16.666666666666668
400.0   120.0   0.0
400.0   90.0   16.666666666666668
450.0   120.0   16.666666666666668
450.0   90.0   16.666666666666668
450.0   90.0   0.0
400.0   90.0   16.666666666666668
450.0   120.0   16.666666666666668
450.0   90.0   0.0
400.0   120.0   0.0
400.0   90.0   16.666666666666668
450.0   90.0   16.666666666666668
400.0   120.0   16.666666666666668
400.0   90.0   33.333333333333336
450.0   90.0   16.666666666666668
450.0   120.0   16.666666666666668
400.0   120.0   16.666666666666668
450.0   120.0   33.333333333333336
400.0   90.0   33.333333333333336
400.0   120.0   33.333333333333336
450.0   120.0   33.333333333333336
400.0   120.0   16.666666666666668
400.0   90.0   33.333333333333336
450.0   120.0   33.333333333333336
450.0   90.0   33.333333333333336
450.0   90.0   16.666666666666668
400.0   90.0   33.333333333333336
450.0   120.0   33.333333333333336
450.0   90.0   16.666666666666668
400.0   120.0   16.666666666666668
400.0   90.0   33.333333333333336
450.0   90.0   33.333333333333336
400.0   120.0   33.333333333333336
400.0   90.0   50.0
450.0   90.0   33.333333333333336
450.0   120.0   33.333333333333336
400.0   120.0   33.333333333333336
450.0   120.0   50.0
400.0   90.0   50.0
400.0   120.0   50.0
450.0   120.0   50.0
400.0   120.0   33.333333333333336
400.0   90.0   50.0
450.0   120.0   50.0
450.0   90.0   50.0
450.0   90.0   33.333333333333336
400.0   90.0   50.0
450.0   120.0   50.0
450.0   90.0   33.333333333333336
400.0   120.0   33.333333333333336
400.0   120.0   0.0
450.0   120.0   0.0
400.0   150.0   0.0
400.0   120.0   16.666666666666668
450.0   120.0   0.0
450.0   150.0   0.0
400.0   150.0   0.0
450.0   150.0   16.666666666666668
400.0   120.0   16.666666666666668
400.0   150.0   16.666666666666668
450.0   150.0   16.666666666666668
400.0   150.0   0.0
400.0   120.0   16.666666666666668
450.0   150.0   16.666666666666668
450.0   120.0   16.666666666666668
450.0   120.0   0.0
400.0   120.0   16.666666666666668
450.0   150.0   16.666666666666668
450.0   120.0   0.0
400.0   150.0   0.0
400.0   120.0   16.666666666666668
450.0   120.0   16.666666666666668
400.0   150.0   16.666666666666668
400.0   120.0   33.333333333333336
450.0   120.0   16.666666666666668
450.0   150.0   16.666666666666668
400.0   150.0   16.666666666666668
450.0   150.0   33.333333333333336
400.0   120.0   33.333333333333336
400.0   150.0   33.333333333333336
450.0   150.0   33.333333333333336
400.0   150.0   16.666666666666668
400.0   120.0   33.333333333333336
450.0   150.0   33.333333333333336
450.0   120.0   33.333333333333336
450.0   120.0   16.666666666666668
400.0   120.0   33.333333333333336
450.0   150.0   33.333333333333336
450.0   120.0   16.666666666666668
400.0   150.0   16.666666666666668
400.0   120.0   33.333333333333336
450.0   120.0   33.333333333333336
400.0   150.0   33.333333333333336
400.0   120.0   50.0
450.0   120.0   33.333333333333336
450.0   150.0   33.333333333333336
400.0   150.0   33.333333333333336
450.0   150.0   50.0
400.0   120.0   50.0
400.0   150.0   50.0
450.0   150.0   50.0
400.0   150.0   33.333333333333336
400.0   120.0   50.0
450.0   150.0   50.0
450.0   120.0   50.0
450.0   120.0   33.333333333333336
400.0   120.0   50.0
450.0   150.0   50.0
450.0   120.0   33.333333333333336
400.0   150.0   33.333333333333336
450.0   0.0   0.0
500.0   0.0   0.0
450.0   30.0   0.0
450.0   0.0   16.666666666666668
500.0   0.0   0.0
500.0   30.0   0.0
450.0   30.0   0.0
500.0   30.0   16.666666666666668
450.0   0.0   16.666666666666668
450.0   30.0   16.666666666666668
500.0   30.0   16.666666666666668
450.0   30.0   0.0
450.0   0.0   16.666666666666668
500.0   30.0   16.666666666666668
500.0   0.0   16.666666666666668
500.0   0.0   0.0
450.0   0.0   16.666666666666668
500.0   30.0   16.666666666666668
500.0   0.0   0.0
450.0   30.0   0.0
450.0   0.0   16.666666666666668
500.0   0.0   16.666666666666668
450.0   30.0   16.666666666666668
450.0   0.0   33.333333333333336
500.0   0.0   16.666666666666668
500.0   30.0   16.666666666666668
450.0   30.0   16.666666666666668
500.0   30.0   33.333333333333336
450.0   0.0   33.333333333333336
450.0   30.0   33.333333333333336
500.0   30.0   33.333333333333336
450.0   30.0   16.666666666666668
450.0   0.0   33.333333333333336
500.0   30.0   33.333333333333336
500.0   0.0   33.333333333333336
500.0   0.0   16.666666666666668
450.0   0.0   33.333333333333336
500.0   30.0   33.333333333333336
500.0   0.0   16.666666666666668
450.0   30.0   16.666666666666668
450.0   0.0   33.333333333333336
500.0   0.0   33.333333333333336
450.0   30.0   33.333333333333336
450.0   0.0   50.0
500.0   0.0   33.333333333333336
500.0   30.0   33.333333333333336
450.0   30.0   33.333333333333336
500.0   30.0   50.0
450.0   0.0   50.0
450.0   30.0   50.0
500.0   30.0   50.0
450.0   30.0   33.333333333333336
450.0   0.0   50.0
500.0   30.0   50.0
500.0   0.0   50.0
500.0   0.0   33.333333333333336
450.0   0.0   50.0
500.0   30.0   50.0
500.0   0.0   33.333333333333336
450.0   30.0   33.333333333333336
450.0   30.0   0.0
500.0   30.0   0.0
450.0   60.0   0.0
450.0   30.0   16.666666666666668
500.0   30.0   0.0
500.0   60.0   0.0
450.0   60.0   0.0
500.0   60.0   16.666666666666668
450.0   30.0   16.666666666666668
450.0   60.0   16.666666666666668
500.0   60.0   16.666666666666668
450.0   60.0   0.0
450.0   30.0   16.666666666666668
500.0   60.0   16.666666666666668
500.0   30.0   16.666666666666668
500.0   30.0   0.0
450.0   30.0   16.666666666666668
500.0   60.0   16.666666666666668
500.0   30.0   0.0
450.0   60.0   0.0
450.0   30.0   16.666666666666668
500.0   30.0   16.666666666666668
450.0   60.0   16.666666666666668
450.0   30.0   33.333333333333336
500.0   30.0   16.666666666666668
500.0   60.0   16.666666666666668
450.0   60.0   16.666666666666668
500.0   60.0   33.333333333333336
450.0   30.0   33.333333333333336
450.0   60.0   33.333333333333336
500.0   60.0   33.333333333333336
450.0   60.0   16.666666666666668
450.0   30.0   33.333333333333336
500.0   60.0   33.333333333333336
500.0   30.0   33.333333333333336
500.0   30.0   16.666666666666668
450.0   30.0   33.333333333333336
500.0   60.0   33.333333333333336
500.0   30.0   16.666666666666668
450.0   60.0   16.666666666666668
450.0   30.0   33.333333333333336
500.0   30.0   33.333333333333336
450.0   60.0   33.333333333333336
450.0   30.0   50.0
500.0   30.0   33.333333333333336
500.0   60.0   33.333333333333336
450.0   60.0   33.333333333333336
500.0   60.0   50.0
450.0   30.0   50.0
450.0   60.0   50.0
500.0   60.0   50.0
450.0   60.0   33.333333333333336
450.0   30.0   50.0
500.0   60.0   50.0
500.0   30.0   50.0
500.0   30.0   33.333333333333336
450.0   30.0   50.0
500.0   60.0   50.0
500.0   30.0   33.333333333333336
450.0   60.0   33.333333333333336
450.0   60.0   0.0
500.0   60.0   0.0
450.0   90.0   0.0
450.0   60.0   16.666666666666668
500.0   60.0   0.0
500.0   90.0   0.0
450.0   90.0   0.0
500.0   90.0   16.666666666666668
450.0   60.0   16.666666666666668
450.0   90.0   16.666666666666668
500.0   90.0   16.666666666666668
450.0   90.0   0.0
450.0   60.0   16.666666666666668
500.0   90.0   16.666666666666668
500.0   60.0   16.666666666666668
500.0   60.0   0.0
450.0   60.0   16.666666666666668
500.0   90.0   16.666666666666668
500.0   60.0   0.0
450.0   90.0   0.0
450.0   60.0   16.666666666666668
500.0   60.0   16.666666666666668
450.0   90.0   16.666666666666668
450.0   60.0   33.333333333333336
500.0   60.0   16.666666666666668
500.0   90.0   16.666666666666668
450.0   90.0   16.666666666666668
500.0   90.0   33.333333333333336
450.0   60.0   33.333333333333336
450.0   90.0   33.333333333333336
500.0   90.0   33.333333333333336
450.0   90.0   16.666666666666668
450.0   60.0   33.333333333333336
500.0   90.0   33.333333333333336
500.0   60.0   33.333333333333336
500.0   60.0   16.666666666666668
450.0   60.0   33.333333333333336
500.0   90.0   33.333333333333336
500.0   60.0   16.666666666666668
450.0   90.0   16.666666666666668
450.0   60.0   33.333333333333336
500.0   60.0   33.333333333333336
450.0   90.0   33.333333333333336
450.0   60.0   50.0
500.0   60.0   33.333333333333336
500.0   90.0   33.333333333333336
450.0   90.0   33.333333333333336
500.0   90.0   50.0
450.0   60.0   50.0
450.0   90.0   50.0
500.0   90.0   50.0
450.0   90.0   33.333333333333336
450.0   60.0   50.0
500.0   90.0   50.0
500.0   60.0   50.0
500.0   60.0   33.333333333333336
450.0   60.0   50.0
500.0   90.0   50.0
500.0   60.0   33.333333333333336
450.0   90.0   33.333333333333336
450.0   90.0   0.0
500.0   90.0   0.0
450.0   120.0   0.0
450.0   90.0   16.666666666666668
500.0   90.0   0.0
500.0   120.0   0.0
450.0   120.0   0.0
500.0   120.0   16.666666666666668
450.0   90.0   16.666666666666668
450.0   120.0   16.666666666666668
500.0   120.0   16.666666666666668
450.0   120.0   0.0
450.0   90.0   16.666666666666668
500.0   120.0   16.666666666666668
500.0   90.0   16.666666666666668
500.0   90.0   0.0
450.0   90.0   16.666666666666668
500.0   120.0   16.666666666666668
500.0   90.0   0.0
450.0   120.0   0.0
450.0   90.0   16.666666666666668
500.0   90.0   16.666666666666668
450.0   120.0   16.666666666666668
450.0   90.0   33.333333333333336
500.0   90.0   16.666666666666668
500.0   120.0   16.666666666666668
450.0   120.0   16.666666666666668
500.0   120.0   33.333333333333336
450.0   90.0   33.333333333333336
450.0   120.0   33.333333333333336
500.0   120.0   33.333333333333336
450.0   120.0   16.666666666666668
450.0   90.0   33.333333333333336
500.0   120.0   33.333333333333336
500.0   90.0   33.333333333333336
500.0   90.0   16.666666666666668
450.0   90.0   33.333333333333336
500.0   120.0   33.333333333333336
500.0   90.0   16.666666666666668
450.0   120.0   16.666666666666668
450.0   90.0   33.333333333333336
500.0   90.0   33.333333333333336
450.0   120.0   33.333333333333336
450.0   90.0   50.0
500.0   90.0   33.333333333333336
500.0   120.0   33.333333333333336
450.0   120.0   33.333333333333336
500.0   120.0   50.0
450.0   90.0   50.0
450.0   120.0   50.0
500.0   120.0   50.0
450.0   120.0   33.333333333333336
450.0   90.0   50.0
500.0   120.0   50.0
500.0   90.0   50.0
500.0   90.0   33.333333333333336
450.0   90.0   50.0
500.0   120.0   50.0
500.0   90.0   33.333333333333336
450.0   120.0   33.333333333333336
450.0   120.0   0.0
500.0   120.0   0.0
450.0   150.0   0.0
450.0   120.0   16.666666666666668
500.0   120.0   0.0
500.0   150.0   0.0
450.0   150.0   0.0
500.0   150.0   16.666666666666668
450.0   120.0   16.666666666666668
450.0   150.0   16.666666666666668
500.0   150.0   16.666666666666668
450.0   150.0   0.0
450.0   120.0   16.666666666666668
500.0   150.0   16.666666666666668
500.0   120.0   16.666666666666668
500.0   120.0   0.0
450.0   120.0   16.666666666666668
500.0   150.0   16.666666666666668
500.0   120.0   0.0
450.0   150.0   0.0
450.0   120.0   16.666666666666668
500.0   120.0   16.666666666666668
450.0   150.0   16.666666666666668
450.0   120.0   33.333333333333336
500.0   120.0   16.666666666666668
500.0   150.0   16.666666666666668
450.0   150.0   16.666666666666668
500.0   150.0   33.333333333333336
450.0   120.0   33.333333333333336
450.0   150.0   33.333333333333336
500.0   150.0   33.333333333333336
450.0   150.0   16.666666666666668
450.0   120.0   33.333333333333336
500.0   150.0   33.333333333333336
500.0   120.0   33.333333333333336
500.0   120.0   16.666666666666668
450.0   120.0   33.333333333333336
500.0   150.0   33.333333333333336
500.0   120.0   16.666666666666668
450.0   150.0   16.666666666666668
450.0   120.0   33.333333333333336
500.0   120.0   33.333333333333336
450.0   150.0   33.333333333333336
450.0   120.0   50.0
500.0   120.0   33.333333333333336
500.0   150.0   33.333333333333336
450.0   150.0   33.333333333333336
500.0   150.0   50.0
450.0   120.0   50.0
450.0   150.0   50.0
500.0   150.0   50.0
450.0   150.0   33.333333333333336
450.0   120.0   50.0
500.0   150.0   50.0
500.0   120.0   50.0
500.0   120.0   33.333333333333336
450.0   120.0   50.0
500.0   150.0   50.0
500.0   120.0   33.333333333333336
450.0   150.0   33.333333333333336
             </DataArray>   
          </Points>  
          <Cells>  
             <DataArray type="Int32" Name="connectivity" format="ascii">   
0   1   2   3
4   5   6   7
8   9   10   11
12   13   14   15
16   17   18   19
20   21   22   23
24   25   26   27
28   29   30   31
32   33   34   35
36   37   38   39
40   41   42   43
44   45   46   47
48   49   50   51
52   53   54   55
56   57   58   59
60   61   62   63
64   65   66   67
68   69   70   71
72   73   74   75
76   77   78   79
80   81   82   83
84   85   86   87
88   89   90   91
92   93   94   95
96   97   98   99
100   101   102   103
104   105   106   107
108   109   110   111
112   113   114   115
116   117   118   119
120   121   122   123
124   125   126   127
128   129   130   131
132   133   134   135
136   137   138   139
140   141   142   143
144   145   146   147
148   149   150   151
152   153   154   155
156   157   158   159
160   161   162   163
164   165   166   167
168   169   170   171
172   173   174   175
176   177   178   179
180   181   182   183
184   185   186   187
188   189   190   191
192   193   194   195
196   197   198   199
200   201   202   203
204   205   206   207
208   209   210   211
212   213   214   215
216   217   218   219
220   221   222   223
224   225   226   227
228   229   230   231
232   233   234   235
236   237   238   239
240   241   242   243
244   245   246   247
248   249   250   251
252   253   254   255
256   257   258   259
260   261   262   263
264   265   266   267
268   269   270   271
272   273   274   275
276   277   278   279
280   281   282   283
284   285   286   287
288   289   290   291
292   293   294   295
296   297   298   299
300   301   302   303
304   305   306   307
308   309   310   311
312   313   314   315
316   317   318   319
320   321   322   323
324   325   326   327
328   329   330   331
332   333   334   335
336   337   338   339
340   341   342   343
344   345   346   347
348   349   350   351
352   353   354   355
356   357   358   359
360   361   362   363
364   365   366   367
368   369   370   371
372   373   374   375
376   377   378   379
380   381   382   383
384   385   386   387
388   389   390   391
392   393   394   395
396   397   398   399
400   401   402   403
404   405   406   407
408   409   410   411
412   413   414   415
416   417   418   419
420   421   422   423
424   425   426   427
428   429   430   431
432   433   434   435
436   437   438   439
440   441   442   443
444   445   446   447
448   449   450   451
452   453   454   455
456   457   458   459
460   461   462   463
464   465   466   467
468   469   470   471
472   473   474   475
476   477   478   479
480   481   482   483
484   485   486   487
488   489   490   491
492   493   494   495
496   497   498   499
500   501   502   503
504   505   506   507
508   509   510   511
512   513   514   515
516   517   518   519
520   521   522   523
524   525   526   527
528   529   530   531
532   533   534   535
536   537   538   539
540   541   542   543
544   545   546   547
548   549   550   551
552   553   554   555
556   557   558   559
560   561   562   563
564   565   566   567
568   569   570   571
572   573   574   575
576   577   578   579
580   581   582   583
584   585   586   587
588   589   590   591
592   593   594   595
596   597   598   599
600   601   602   603
604   605   606   607
608   609   610   611
612   613   614   615
616   617   618   619
620   621   622   623
624   625   626   627
628   629   630   631
632   633   634   635
636   637   638   639
640   641   642   643
644   645   646   647
648   649   650   651
652   653   654   655
656   657   658   659
660   661   662   663
664   665   666   667
668   669   670   671
672   673   674   675
676   677   678   679
680   681   682   683
684   685   686   687
688   689   690   691
692   693   694   695
696   697   698   699
700   701   702   703
704   705   706   707
708   709   710   711
712   713   714   715
716   717   718   719
720   721   722   723
724   725   726   727
728   729   730   731
732   733   734   735
736   737   738   739
740   741   742   743
744   745   746   747
748   749   750   751
752   753   754   755
756   757   758   759
760   761   762   763
764   765   766   767
768   769   770   771
772   773   774   775
776   777   778   779
780   781   782   783
784   785   786   787
788   789   790   791
792   793   794   795
796   797   798   799
800   801   802   803
804   805   806   807
808   809   810   811
812   813   814   815
816   817   818   819
820   821   822   823
824   825   826   827
828   829   830   831
832   833   834   835
836   837   838   839
840   841   842   843
844   845   846   847
848   849   850   851
852   853   854   855
856   857   858   859
860   861   862   863
864   865   866   867
868   869   870   871
872   873   874   875
876   877   878   879
880   881   882   883
884   885   886   887
888   889   890   891
892   893   894   895
896   897   898   899
900   901   902   903
904   905   906   907
908   909   910   911
912   913   914   915
916   917   918   919
920   921   922   923
924   925   926   927
928   929   930   931
932   933   934   935
936   937   938   939
940   941   942   943
944   945   946   947
948   949   950   951
952   953   954   955
956   957   958   959
960   961   962   963
964   965   966   967
968   969   970   971
972   973   974   975
976   977   978   979
980   981   982   983
984   985   986   987
988   989   990   991
992   993   994   995
996   997   998   999
1000   1001   1002   1003
1004   1005   1006   1007
1008   1009   1010   1011
1012   1013   1014   1015
1016   1017   1018   1019
1020   1021   1022   1023
1024   1025   1026   1027
1028   1029   1030   1031
1032   1033   1034   1035
1036   1037   1038   1039
1040   1041   1042   1043
1044   1045   1046   1047
1048   1049   1050   1051
1052   1053   1054   1055
1056   1057   1058   1059
1060   1061   1062   1063
1064   1065   1066   1067
1068   1069   1070   1071
1072   1073   1074   1075
1076   1077   1078   1079
1080   1081   1082   1083
1084   1085   1086   1087
1088   1089   1090   1091
1092   1093   1094   1095
1096   1097   1098   1099
1100   1101   1102   1103
1104   1105   1106   1107
1108   1109   1110   1111
1112   1113   1114   1115
1116   1117   1118   1119
1120   1121   1122   1123
1124   1125   1126   1127
1128   1129   1130   1131
1132   1133   1134   1135
1136   1137   1138   1139
1140   1141   1142   1143
1144   1145   1146   1147
1148   1149   1150   1151
1152   1153   1154   1155
1156   1157   1158   1159
1160   1161   1162   1163
1164   1165   1166   1167
1168   1169   1170   1171
1172   1173   1174   1175
1176   1177   1178   1179
1180   1181   1182   1183
1184   1185   1186   1187
1188   1189   1190   1191
1192   1193   1194   1195
1196   1197   1198   1199
1200   1201   1202   1203
1204   1205   1206   1207
1208   1209   1210   1211
1212   1213   1214   1215
1216   1217   1218   1219
1220   1221   1222   1223
1224   1225   1226   1227
1228   1229   1230   1231
1232   1233   1234   1235
1236   1237   1238   1239
1240   1241   1242   1243
1244   1245   1246   1247
1248   1249   1250   1251
1252   1253   1254   1255
1256   1257   1258   1259
1260   1261   1262   1263
1264   1265   1266   1267
1268   1269   1270   1271
1272   1273   1274   1275
1276   1277   1278   1279
1280   1281   1282   1283
1284   1285   1286   1287
1288   1289   1290   1291
1292   1293   1294   1295
1296   1297   1298   1299
1300   1301   1302   1303
1304   1305   1306   1307
1308   1309   1310   1311
1312   1313   1314   1315
1316   1317   1318   1319
1320   1321   1322   1323
1324   1325   1326   1327
1328   1329   1330   1331
1332   1333   1334   1335
1336   1337   1338   1339
1340   1341   1342   1343
1344   1345   1346   1347
1348   1349   1350   1351
1352   1353   1354   1355
1356   1357   1358   1359
1360   1361   1362   1363
1364   1365   1366   1367
1368   1369   1370   1371
1372   1373   1374   1375
1376   1377   1378   1379
1380   1381   1382   1383
1384   1385   1386   1387
1388   1389   1390   1391
1392   1393   1394   1395
1396   1397   1398   1399
1400   1401   1402   1403
1404   1405   1406   1407
1408   1409   1410   1411
1412   1413   1414   1415
1416   1417   1418   1419
1420   1421   1422   1423
1424   1425   1426   1427
1428   1429   1430   1431
1432   1433   1434   1435
1436   1437   1438   1439
1440   1441   1442   1443
1444   1445   1446   1447
1448   1449   1450   1451
1452   1453   1454   1455
1456   1457   1458   1459
1460   1461   1462   1463
1464   1465   1466   1467
1468   1469   1470   1471
1472   1473   1474   1475
1476   1477   1478   1479
1480   1481   1482   1483
1484   1485   1486   1487
1488   1489   1490   1491
1492   1493   1494   1495
1496   1497   1498   1499
1500   1501   1502   1503
1504   1505   1506   1507
1508   1509   1510   1511
1512   1513   1514   1515
1516   1517   1518   1519
1520   1521   1522   1523
1524   1525   1526   1527
1528   1529   1530   1531
1532   1533   1534   1535
1536   1537   1538   1539
1540   1541   1542   1543
1544   1545   1546   1547
1548   1549   1550   1551
1552   1553   1554   1555
1556   1557   1558   1559
1560   1561   1562   1563
1564   1565   1566   1567
1568   1569   1570   1571
1572   1573   1574   1575
1576   1577   1578   1579
1580   1581   1582   1583
1584   1585   1586   1587
1588   1589   1590   1591
1592   1593   1594   1595
1596   1597   1598   1599
1600   1601   1602   1603
1604   1605   1606   1607
1608   1609   1610   1611
1612   1613   1614   1615
1616   1617   1618   1619
1620   1621   1622   1623
1624   1625   1626   1627
1628   1629   1630   1631
1632   1633   1634   1635
1636   1637   1638   1639
1640   1641   1642   1643
1644   1645   1646   1647
1648   1649   1650   1651
1652   1653   1654   1655
1656   1657   1658   1659
1660   1661   1662   1663
1664   1665   1666   1667
1668   1669   1670   1671
1672   1673   1674   1675
1676   1677   1678   1679
1680   1681   1682   1683
1684   1685   1686   1687
1688   1689   1690   1691
1692   1693   1694   1695
1696   1697   1698   1699
1700   1701   1702   1703
1704   1705   1706   1707
1708   1709   1710   1711
1712   1713   1714   1715
1716   1717   1718   1719
1720   1721   1722   1723
1724   1725   1726   1727
1728   1729   1730   1731
1732   1733   1734   1735
1736   1737   1738   1739
1740   1741   1742   1743
1744   1745   1746   1747
1748   1749   1750   1751
1752   1753   1754   1755
1756   1757   1758   1759
1760   1761   1762   1763
1764   1765   1766   1767
1768   1769   1770   1771
1772   1773   1774   1775
1776   1777   1778   1779
1780   1781   1782   1783
1784   1785   1786   1787
1788   1789   1790   1791
1792   1793   1794   1795
1796   1797   1798   1799
1800   1801   1802   1803
1804   1805   1806   1807
1808   1809   1810   1811
1812   1813   1814   1815
1816   1817   1818   1819
1820   1821   1822   1823
1824   1825   1826   1827
1828   1829   1830   1831
1832   1833   1834   1835
1836   1837   1838   1839
1840   1841   1842   1843
1844   1845   1846   1847
1848   1849   1850   1851
1852   1853   1854   1855
1856   1857   1858   1859
1860   1861   1862   1863
1864   1865   1866   1867
1868   1869   1870   1871
1872   1873   1874   1875
1876   1877   1878   1879
1880   1881   1882   1883
1884   1885   1886   1887
1888   1889   1890   1891
1892   1893   1894   1895
1896   1897   1898   1899
1900   1901   1902   1903
1904   1905   1906   1907
1908   1909   1910   1911
1912   1913   1914   1915
1916   1917   1918   1919
1920   1921   1922   1923
1924   1925   1926   1927
1928   1929   1930   1931
1932   1933   1934   1935
1936   1937   1938   1939
1940   1941   1942   1943
1944   1945   1946   1947
1948   1949   1950   1951
1952   1953   1954   1955
1956   1957   1958   1959
1960   1961   1962   1963
1964   1965   1966   1967
1968   1969   1970   1971
1972   1973   1974   1975
1976   1977   1978   1979
1980   1981   1982   1983
1984   1985   1986   1987
1988   1989   1990   1991
1992   1993   1994   1995
1996   1997   1998   1999
2000   2001   2002   2003
2004   2005   2006   2007
2008   2009   2010   2011
2012   2013   2014   2015
2016   2017   2018   2019
2020   2021   2022   2023
2024   2025   2026   2027
2028   2029   2030   2031
2032   2033   2034   2035
2036   2037   2038   2039
2040   2041   2042   2043
2044   2045   2046   2047
2048   2049   2050   2051
2052   2053   2054   2055
2056   2057   2058   2059
2060   2061   2062   2063
2064   2065   2066   2067
2068   2069   2070   2071
2072   2073   2074   2075
2076   2077   2078   2079
2080   2081   2082   2083
2084   2085   2086   2087
2088   2089   2090   2091
2092   2093   2094   2095
2096   2097   2098   2099
2100   2101   2102   2103
2104   2105   2106   2107
2108   2109   2110   2111
2112   2113   2114   2115
2116   2117   2118   2119
2120   2121   2122   2123
2124   2125   2126   2127
2128   2129   2130   2131
2132   2133   2134   2135
2136   2137   2138   2139
2140   2141   2142   2143
2144   2145   2146   2147
2148   2149   2150   2151
2152   2153   2154   2155
2156   2157   2158   2159
2160   2161   2162   2163
2164   2165   2166   2167
2168   2169   2170   2171
2172   2173   2174   2175
2176   2177   2178   2179
2180   2181   2182   2183
2184   2185   2186   2187
2188   2189   2190   2191
2192   2193   2194   2195
2196   2197   2198   2199
2200   2201   2202   2203
2204   2205   2206   2207
2208   2209   2210   2211
2212   2213   2214   2215
2216   2217   2218   2219
2220   2221   2222   2223
2224   2225   2226   2227
2228   2229   2230   2231
2232   2233   2234   2235
2236   2237   2238   2239
2240   2241   2242   2243
2244   2245   2246   2247
2248   2249   2250   2251
2252   2253   2254   2255
2256   2257   2258   2259
2260   2261   2262   2263
2264   2265   2266   2267
2268   2269   2270   2271
2272   2273   2274   2275
2276   2277   2278   2279
2280   2281   2282   2283
2284   2285   2286   2287
2288   2289   2290   2291
2292   2293   2294   2295
2296   2297   2298   2299
2300   2301   2302   2303
2304   2305   2306   2307
2308   2309   2310   2311
2312   2313   2314   2315
2316   2317   2318   2319
2320   2321   2322   2323
2324   2325   2326   2327
2328   2329   2330   2331
2332   2333   2334   2335
2336   2337   2338   2339
2340   2341   2342   2343
2344   2345   2346   2347
2348   2349   2350   2351
2352   2353   2354   2355
2356   2357   2358   2359
2360   2361   2362   2363
2364   2365   2366   2367
2368   2369   2370   2371
2372   2373   2374   2375
2376   2377   2378   2379
2380   2381   2382   2383
2384   2385   2386   2387
2388   2389   2390   2391
2392   2393   2394   2395
2396   2397   2398   2399
2400   2401   2402   2403
2404   2405   2406   2407
2408   2409   2410   2411
2412   2413   2414   2415
2416   2417   2418   2419
2420   2421   2422   2423
2424   2425   2426   2427
2428   2429   2430   2431
2432   2433   2434   2435
2436   2437   2438   2439
2440   2441   2442   2443
2444   2445   2446   2447
2448   2449   2450   2451
2452   2453   2454   2455
2456   2457   2458   2459
2460   2461   2462   2463
2464   2465   2466   2467
2468   2469   2470   2471
2472   2473   2474   2475
2476   2477   2478   2479
2480   2481   2482   2483
2484   2485   2486   2487
2488   2489   2490   2491
2492   2493   2494   2495
2496   2497   2498   2499
2500   2501   2502   2503
2504   2505   2506   2507
2508   2509   2510   2511
2512   2513   2514   2515
2516   2517   2518   2519
2520   2521   2522   2523
2524   2525   2526   2527
2528   2529   2530   2531
2532   2533   2534   2535
2536   2537   2538   2539
2540   2541   2542   2543
2544   2545   2546   2547
2548   2549   2550   2551
2552   2553   2554   2555
2556   2557   2558   2559
2560   2561   2562   2563
2564   2565   2566   2567
2568   2569   2570   2571
2572   2573   2574   2575
2576   2577   2578   2579
2580   2581   2582   2583
2584   2585   2586   2587
2588   2589   2590   2591
2592   2593   2594   2595
2596   2597   2598   2599
2600   2601   2602   2603
2604   2605   2606   2607
2608   2609   2610   2611
2612   2613   2614   2615
2616   2617   2618   2619
2620   2621   2622   2623
2624   2625   2626   2627
2628   2629   2630   2631
2632   2633   2634   2635
2636   2637   2638   2639
2640   2641   2642   2643
2644   2645   2646   2647
2648   2649   2650   2651
2652   2653   2654   2655
2656   2657   2658   2659
2660   2661   2662   2663
2664   2665   2666   2667
2668   2669   2670   2671
2672   2673   2674   2675
2676   2677   2678   2679
2680   2681   2682   2683
2684   2685   2686   2687
2688   2689   2690   2691
2692   2693   2694   2695
2696   2697   2698   2699
2700   2701   2702   2703
2704   2705   2706   2707
2708   2709   2710   2711
2712   2713   2714   2715
2716   2717   2718   2719
2720   2721   2722   2723
2724   2725   2726   2727
2728   2729   2730   2731
2732   2733   2734   2735
2736   2737   2738   2739
2740   2741   2742   2743
2744   2745   2746   2747
2748   2749   2750   2751
2752   2753   2754   2755
2756   2757   2758   2759
2760   2761   2762   2763
2764   2765   2766   2767
2768   2769   2770   2771
2772   2773   2774   2775
2776   2777   2778   2779
2780   2781   2782   2783
2784   2785   2786   2787
2788   2789   2790   2791
2792   2793   2794   2795
2796   2797   2798   2799
2800   2801   2802   2803
2804   2805   2806   2807
2808   2809   2810   2811
2812   2813   2814   2815
2816   2817   2818   2819
2820   2821   2822   2823
2824   2825   2826   2827
2828   2829   2830   2831
2832   2833   2834   2835
2836   2837   2838   2839
2840   2841   2842   2843
2844   2845   2846   2847
2848   2849   2850   2851
2852   2853   2854   2855
2856   2857   2858   2859
2860   2861   2862   2863
2864   2865   2866   2867
2868   2869   2870   2871
2872   2873   2874   2875
2876   2877   2878   2879
2880   2881   2882   2883
2884   2885   2886   2887
2888   2889   2890   2891
2892   2893   2894   2895
2896   2897   2898   2899
2900   2901   2902   2903
2904   2905   2906   2907
2908   2909   2910   2911
2912   2913   2914   2915
2916   2917   2918   2919
2920   2921   2922   2923
2924   2925   2926   2927
2928   2929   2930   2931
2932   2933   2934   2935
2936   2937   2938   2939
2940   2941   2942   2943
2944   2945   2946   2947
2948   2949   2950   2951
2952   2953   2954   2955
2956   2957   2958   2959
2960   2961   2962   2963
2964   2965   2966   2967
2968   2969   2970   2971
2972   2973   2974   2975
2976   2977   2978   2979
2980   2981   2982   2983
2984   2985   2986   2987
2988   2989   2990   2991
2992   2993   2994   2995
2996   2997   2998   2999
3000   3001   3002   3003
3004   3005   3006   3007
3008   3009   3010   3011
3012   3013   3014   3015
3016   3017   3018   3019
3020   3021   3022   3023
3024   3025   3026   3027
3028   3029   3030   3031
3032   3033   3034   3035
3036   3037   3038   3039
3040   3041   3042   3043
3044   3045   3046   3047
3048   3049   3050   3051
3052   3053   3054   3055
3056   3057   3058   3059
3060   3061   3062   3063
3064   3065   3066   3067
3068   3069   3070   3071
3072   3073   3074   3075
3076   3077   3078   3079
3080   3081   3082   3083
3084   3085   3086   3087
3088   3089   3090   3091
3092   3093   3094   3095
3096   3097   3098   3099
3100   3101   3102   3103
3104   3105   3106   3107
3108   3109   3110   3111
3112   3113   3114   3115
3116   3117   3118   3119
3120   3121   3122   3123
3124   3125   3126   3127
3128   3129   3130   3131
3132   3133   3134   3135
3136   3137   3138   3139
3140   3141   3142   3143
3144   3145   3146   3147
3148   3149   3150   3151
3152   3153   3154   3155
3156   3157   3158   3159
3160   3161   3162   3163
3164   3165   3166   3167
3168   3169   3170   3171
3172   3173   3174   3175
3176   3177   3178   3179
3180   3181   3182   3183
3184   3185   3186   3187
3188   3189   3190   3191
3192   3193   3194   3195
3196   3197   3198   3199
3200   3201   3202   3203
3204   3205   3206   3207
3208   3209   3210   3211
3212   3213   3214   3215
3216   3217   3218   3219
3220   3221   3222   3223
3224   3225   3226   3227
3228   3229   3230   3231
3232   3233   3234   3235
3236   3237   3238   3239
3240   3241   3242   3243
3244   3245   3246   3247
3248   3249   3250   3251
3252   3253   3254   3255
3256   3257   3258   3259
3260   3261   3262   3263
3264   3265   3266   3267
3268   3269   3270   3271
3272   3273   3274   3275
3276   3277   3278   3279
3280   3281   3282   3283
3284   3285   3286   3287
3288   3289   3290   3291
3292   3293   3294   3295
3296   3297   3298   3299
3300   3301   3302   3303
3304   3305   3306   3307
3308   3309   3310   3311
3312   3313   3314   3315
3316   3317   3318   3319
3320   3321   3322   3323
3324   3325   3326   3327
3328   3329   3330   3331
3332   3333   3334   3335
3336   3337   3338   3339
3340   3341   3342   3343
3344   3345   3346   3347
3348   3349   3350   3351
3352   3353   3354   3355
3356   3357   3358   3359
3360   3361   3362   3363
3364   3365   3366   3367
3368   3369   3370   3371
3372   3373   3374   3375
3376   3377   3378   3379
3380   3381   3382   3383
3384   3385   3386   3387
3388   3389   3390   3391
3392   3393   3394   3395
3396   3397   3398   3399
3400   3401   3402   3403
3404   3405   3406   3407
3408   3409   3410   3411
3412   3413   3414   3415
3416   3417   3418   3419
3420   3421   3422   3423
3424   3425   3426   3427
3428   3429   3430   3431
3432   3433   3434   3435
3436   3437   3438   3439
3440   3441   3442   3443
3444   3445   3446   3447
3448   3449   3450   3451
3452   3453   3454   3455
3456   3457   3458   3459
3460   3461   3462   3463
3464   3465   3466   3467
3468   3469   3470   3471
3472   3473   3474   3475
3476   3477   3478   3479
3480   3481   3482   3483
3484   3485   3486   3487
3488   3489   3490   3491
3492   3493   3494   3495
3496   3497   3498   3499
3500   3501   3502   3503
3504   3505   3506   3507
3508   3509   3510   3511
3512   3513   3514   3515
3516   3517   3518   3519
3520   3521   3522   3523
3524   3525   3526   3527
3528   3529   3530   3531
3532   3533   3534   3535
3536   3537   3538   3539
3540   3541   3542   3543
3544   3545   3546   3547
3548   3549   3550   3551
3552   3553   3554   3555
3556   3557   3558   3559
3560   3561   3562   3563
3564   3565   3566   3567
3568   3569   3570   3571
3572   3573   3574   3575
3576   3577   3578   3579
3580   3581   3582   3583
3584   3585   3586   3587
3588   3589   3590   3591
3592   3593   3594   3595
3596   3597   3598   3599
3600   3601   3602   3603
3604   3605   3606   3607
3608   3609   3610   3611
3612   3613   3614   3615
3616   3617   3618   3619
3620   3621   3622   3623
3624   3625   3626   3627
3628   3629   3630   3631
3632   3633   3634   3635
3636   3637   3638   3639
3640   3641   3642   3643
3644   3645   3646   3647
3648   3649   3650   3651
3652   3653   3654   3655
3656   3657   3658   3659
3660   3661   3662   3663
3664   3665   3666   3667
3668   3669   3670   3671
3672   3673   3674   3675
3676   3677   3678   3679
3680   3681   3682   3683
3684   3685   3686   3687
3688   3689   3690   3691
3692   3693   3694   3695
3696   3697   3698   3699
3700   3701   3702   3703
3704   3705   3706   3707
3708   3709   3710   3711
3712   3713   3714   3715
3716   3717   3718   3719
3720   3721   3722   3723
3724   3725   3726   3727
3728   3729   3730   3731
3732   3733   3734   3735
3736   3737   3738   3739
3740   3741   3742   3743
3744   3745   3746   3747
3748   3749   3750   3751
3752   3753   3754   3755
3756   3757   3758   3759
3760   3761   3762   3763
3764   3765   3766   3767
3768   3769   3770   3771
3772   3773   3774   3775
3776   3777   3778   3779
3780   3781   3782   3783
3784   3785   3786   3787
3788   3789   3790   3791
3792   3793   3794   3795
3796   3797   3798   3799
3800   3801   3802   3803
3804   3805   3806   3807
3808   3809   3810   3811
3812   3813   3814   3815
3816   3817   3818   3819
3820   3821   3822   3823
3824   3825   3826   3827
3828   3829   3830   3831
3832   3833   3834   3835
3836   3837   3838   3839
3840   3841   3842   3843
3844   3845   3846   3847
3848   3849   3850   3851
3852   3853   3854   3855
3856   3857   3858   3859
3860   3861   3862   3863
3864   3865   3866   3867
3868   3869   3870   3871
3872   3873   3874   3875
3876   3877   3878   3879
3880   3881   3882   3883
3884   3885   3886   3887
3888   3889   3890   3891
3892   3893   3894   3895
3896   3897   3898   3899
3900   3901   3902   3903
3904   3905   3906   3907
3908   3909   3910   3911
3912   3913   3914   3915
3916   3917   3918   3919
3920   3921   3922   3923
3924   3925   3926   3927
3928   3929   3930   3931
3932   3933   3934   3935
3936   3937   3938   3939
3940   3941   3942   3943
3944   3945   3946   3947
3948   3949   3950   3951
3952   3953   3954   3955
3956   3957   3958   3959
3960   3961   3962   3963
3964   3965   3966   3967
3968   3969   3970   3971
3972   3973   3974   3975
3976   3977   3978   3979
3980   3981   3982   3983
3984   3985   3986   3987
3988   3989   3990   3991
3992   3993   3994   3995
3996   3997   3998   3999
4000   4001   4002   4003
4004   4005   4006   4007
4008   4009   4010   4011
4012   4013   4014   4015
4016   4017   4018   4019
4020   4021   4022   4023
4024   4025   4026   4027
4028   4029   4030   4031
4032   4033   4034   4035
4036   4037   4038   4039
4040   4041   4042   4043
4044   4045   4046   4047
4048   4049   4050   4051
4052   4053   4054   4055
4056   4057   4058   4059
4060   4061   4062   4063
4064   4065   4066   4067
4068   4069   4070   4071
4072   4073   4074   4075
4076   4077   4078   4079
4080   4081   4082   4083
4084   4085   4086   4087
4088   4089   4090   4091
4092   4093   4094   4095
4096   4097   4098   4099
4100   4101   4102   4103
4104   4105   4106   4107
4108   4109   4110   4111
4112   4113   4114   4115
4116   4117   4118   4119
4120   4121   4122   4123
4124   4125   4126   4127
4128   4129   4130   4131
4132   4133   4134   4135
4136   4137   4138   4139
4140   4141   4142   4143
4144   4145   4146   4147
4148   4149   4150   4151
4152   4153   4154   4155
4156   4157   4158   4159
4160   4161   4162   4163
4164   4165   4166   4167
4168   4169   4170   4171
4172   4173   4174   4175
4176   4177   4178   4179
4180   4181   4182   4183
4184   4185   4186   4187
4188   4189   4190   4191
4192   4193   4194   4195
4196   4197   4198   4199
4200   4201   4202   4203
4204   4205   4206   4207
4208   4209   4210   4211
4212   4213   4214   4215
4216   4217   4218   4219
4220   4221   4222   4223
4224   4225   4226   4227
4228   4229   4230   4231
4232   4233   4234   4235
4236   4237   4238   4239
4240   4241   4242   4243
4244   4245   4246   4247
4248   4249   4250   4251
4252   4253   4254   4255
4256   4257   4258   4259
4260   4261   4262   4263
4264   4265   4266   4267
4268   4269   4270   4271
4272   4273   4274   4275
4276   4277   4278   4279
4280   4281   4282   4283
4284   4285   4286   4287
4288   4289   4290   4291
4292   4293   4294   4295
4296   4297   4298   4299
4300   4301   4302   4303
4304   4305   4306   4307
4308   4309   4310   4311
4312   4313   4314   4315
4316   4317   4318   4319
4320   4321   4322   4323
4324   4325   4326   4327
4328   4329   4330   4331
4332   4333   4334   4335
4336   4337   4338   4339
4340   4341   4342   4343
4344   4345   4346   4347
4348   4349   4350   4351
4352   4353   4354   4355
4356   4357   4358   4359
4360   4361   4362   4363
4364   4365   4366   4367
4368   4369   4370   4371
4372   4373   4374   4375
4376   4377   4378   4379
4380   4381   4382   4383
4384   4385   4386   4387
4388   4389   4390   4391
4392   4393   4394   4395
4396   4397   4398   4399
4400   4401   4402   4403
4404   4405   4406   4407
4408   4409   4410   4411
4412   4413   4414   4415
4416   4417   4418   4419
4420   4421   4422   4423
4424   4425   4426   4427
4428   4429   4430   4431
4432   4433   4434   4435
4436   4437   4438   4439
4440   4441   4442   4443
4444   4445   4446   4447
4448   4449   4450   4451
4452   4453   4454   4455
4456   4457   4458   4459
4460   4461   4462   4463
4464   4465   4466   4467
4468   4469   4470   4471
4472   4473   4474   4475
4476   4477   4478   4479
4480   4481   4482   4483
4484   4485   4486   4487
4488   4489   4490   4491
4492   4493   4494   4495
4496   4497   4498   4499
4500   4501   4502   4503
4504   4505   4506   4507
4508   4509   4510   4511
4512   4513   4514   4515
4516   4517   4518   4519
4520   4521   4522   4523
4524   4525   4526   4527
4528   4529   4530   4531
4532   4533   4534   4535
4536   4537   4538   4539
4540   4541   4542   4543
4544   4545   4546   4547
4548   4549   4550   4551
4552   4553   4554   4555
4556   4557   4558   4559
4560   4561   4562   4563
4564   4565   4566   4567
4568   4569   4570   4571
4572   4573   4574   4575
4576   4577   4578   4579
4580   4581   4582   4583
4584   4585   4586   4587
4588   4589   4590   4591
4592   4593   4594   4595
4596   4597   4598   4599
4600   4601   4602   4603
4604   4605   4606   4607
4608   4609   4610   4611
4612   4613   4614   4615
4616   4617   4618   4619
4620   4621   4622   4623
4624   4625   4626   4627
4628   4629   4630   4631
4632   4633   4634   4635
4636   4637   4638   4639
4640   4641   4642   4643
4644   4645   4646   4647
4648   4649   4650   4651
4652   4653   4654   4655
4656   4657   4658   4659
4660   4661   4662   4663
4664   4665   4666   4667
4668   4669   4670   4671
4672   4673   4674   4675
4676   4677   4678   4679
4680   4681   4682   4683
4684   4685   4686   4687
4688   4689   4690   4691
4692   4693   4694   4695
4696   4697   4698   4699
4700   4701   4702   4703
4704   4705   4706   4707
4708   4709   4710   4711
4712   4713   4714   4715
4716   4717   4718   4719
4720   4721   4722   4723
4724   4725   4726   4727
4728   4729   4730   4731
4732   4733   4734   4735
4736   4737   4738   4739
4740   4741   4742   4743
4744   4745   4746   4747
4748   4749   4750   4751
4752   4753   4754   4755
4756   4757   4758   4759
4760   4761   4762   4763
4764   4765   4766   4767
4768   4769   4770   4771
4772   4773   4774   4775
4776   4777   4778   4779
4780   4781   4782   4783
4784   4785   4786   4787
4788   4789   4790   4791
4792   4793   4794   4795
4796   4797   4798   4799
4800   4801   4802   4803
4804   4805   4806   4807
4808   4809   4810   4811
4812   4813   4814   4815
4816   4817   4818   4819
4820   4821   4822   4823
4824   4825   4826   4827
4828   4829   4830   4831
4832   4833   4834   4835
4836   4837   4838   4839
4840   4841   4842   4843
4844   4845   4846   4847
4848   4849   4850   4851
4852   4853   4854   4855
4856   4857   4858   4859
4860   4861   4862   4863
4864   4865   4866   4867
4868   4869   4870   4871
4872   4873   4874   4875
4876   4877   4878   4879
4880   4881   4882   4883
4884   4885   4886   4887
4888   4889   4890   4891
4892   4893   4894   4895
4896   4897   4898   4899
4900   4901   4902   4903
4904   4905   4906   4907
4908   4909   4910   4911
4912   4913   4914   4915
4916   4917   4918   4919
4920   4921   4922   4923
4924   4925   4926   4927
4928   4929   4930   4931
4932   4933   4934   4935
4936   4937   4938   4939
4940   4941   4942   4943
4944   4945   4946   4947
4948   4949   4950   4951
4952   4953   4954   4955
4956   4957   4958   4959
4960   4961   4962   4963
4964   4965   4966   4967
4968   4969   4970   4971
4972   4973   4974   4975
4976   4977   4978   4979
4980   4981   4982   4983
4984   4985   4986   4987
4988   4989   4990   4991
4992   4993   4994   4995
4996   4997   4998   4999
5000   5001   5002   5003
5004   5005   5006   5007
5008   5009   5010   5011
5012   5013   5014   5015
5016   5017   5018   5019
5020   5021   5022   5023
5024   5025   5026   5027
5028   5029   5030   5031
5032   5033   5034   5035
5036   5037   5038   5039
5040   5041   5042   5043
5044   5045   5046   5047
5048   5049   5050   5051
5052   5053   5054   5055
5056   5057   5058   5059
5060   5061   5062   5063
5064   5065   5066   5067
5068   5069   5070   5071
5072   5073   5074   5075
5076   5077   5078   5079
5080   5081   5082   5083
5084   5085   5086   5087
5088   5089   5090   5091
5092   5093   5094   5095
5096   5097   5098   5099
5100   5101   5102   5103
5104   5105   5106   5107
5108   5109   5110   5111
5112   5113   5114   5115
5116   5117   5118   5119
5120   5121   5122   5123
5124   5125   5126   5127
5128   5129   5130   5131
5132   5133   5134   5135
5136   5137   5138   5139
5140   5141   5142   5143
5144   5145   5146   5147
5148   5149   5150   5151
5152   5153   5154   5155
5156   5157   5158   5159
5160   5161   5162   5163
5164   5165   5166   5167
5168   5169   5170   5171
5172   5173   5174   5175
5176   5177   5178   5179
5180   5181   5182   5183
5184   5185   5186   5187
5188   5189   5190   5191
5192   5193   5194   5195
5196   5197   5198   5199
5200   5201   5202   5203
5204   5205   5206   5207
5208   5209   5210   5211
5212   5213   5214   5215
5216   5217   5218   5219
5220   5221   5222   5223
5224   5225   5226   5227
5228   5229   5230   5231
5232   5233   5234   5235
5236   5237   5238   5239
5240   5241   5242   5243
5244   5245   5246   5247
5248   5249   5250   5251
5252   5253   5254   5255
5256   5257   5258   5259
5260   5261   5262   5263
5264   5265   5266   5267
5268   5269   5270   5271
5272   5273   5274   5275
5276   5277   5278   5279
5280   5281   5282   5283
5284   5285   5286   5287
5288   5289   5290   5291
5292   5293   5294   5295
5296   5297   5298   5299
5300   5301   5302   5303
5304   5305   5306   5307
5308   5309   5310   5311
5312   5313   5314   5315
5316   5317   5318   5319
5320   5321   5322   5323
5324   5325   5326   5327
5328   5329   5330   5331
5332   5333   5334   5335
5336   5337   5338   5339
5340   5341   5342   5343
5344   5345   5346   5347
5348   5349   5350   5351
5352   5353   5354   5355
5356   5357   5358   5359
5360   5361   5362   5363
5364   5365   5366   5367
5368   5369   5370   5371
5372   5373   5374   5375
5376   5377   5378   5379
5380   5381   5382   5383
5384   5385   5386   5387
5388   5389   5390   5391
5392   5393   5394   5395
5396   5397   5398   5399
5400   5401   5402   5403
5404   5405   5406   5407
5408   5409   5410   5411
5412   5413   5414   5415
5416   5417   5418   5419
5420   5421   5422   5423
5424   5425   5426   5427
5428   5429   5430   5431
5432   5433   5434   5435
5436   5437   5438   5439
5440   5441   5442   5443
5444   5445   5446   5447
5448   5449   5450   5451
5452   5453   5454   5455
5456   5457   5458   5459
5460   5461   5462   5463
5464   5465   5466   5467
5468   5469   5470   5471
5472   5473   5474   5475
5476   5477   5478   5479
5480   5481   5482   5483
5484   5485   5486   5487
5488   5489   5490   5491
5492   5493   5494   5495
5496   5497   5498   5499
5500   5501   5502   5503
5504   5505   5506   5507
5508   5509   5510   5511
5512   5513   5514   5515
5516   5517   5518   5519
5520   5521   5522   5523
5524   5525   5526   5527
5528   5529   5530   5531
5532   5533   5534   5535
5536   5537   5538   5539
5540   5541   5542   5543
5544   5545   5546   5547
5548   5549   5550   5551
5552   5553   5554   5555
5556   5557   5558   5559
5560   5561   5562   5563
5564   5565   5566   5567
5568   5569   5570   5571
5572   5573   5574   5575
5576   5577   5578   5579
5580   5581   5582   5583
5584   5585   5586   5587
5588   5589   5590   5591
5592   5593   5594   5595
5596   5597   5598   5599
5600   5601   5602   5603
5604   5605   5606   5607
5608   5609   5610   5611
5612   5613   5614   5615
5616   5617   5618   5619
5620   5621   5622   5623
5624   5625   5626   5627
5628   5629   5630   5631
5632   5633   5634   5635
5636   5637   5638   5639
5640   5641   5642   5643
5644   5645   5646   5647
5648   5649   5650   5651
5652   5653   5654   5655
5656   5657   5658   5659
5660   5661   5662   5663
5664   5665   5666   5667
5668   5669   5670   5671
5672   5673   5674   5675
5676   5677   5678   5679
5680   5681   5682   5683
5684   5685   5686   5687
5688   5689   5690   5691
5692   5693   5694   5695
5696   5697   5698   5699
5700   5701   5702   5703
5704   5705   5706   5707
5708   5709   5710   5711
5712   5713   5714   5715
5716   5717   5718   5719
5720   5721   5722   5723
5724   5725   5726   5727
5728   5729   5730   5731
5732   5733   5734   5735
5736   5737   5738   5739
5740   5741   5742   5743
5744   5745   5746   5747
5748   5749   5750   5751
5752   5753   5754   5755
5756   5757   5758   5759
5760   5761   5762   5763
5764   5765   5766   5767
5768   5769   5770   5771
5772   5773   5774   5775
5776   5777   5778   5779
5780   5781   5782   5783
5784   5785   5786   5787
5788   5789   5790   5791
5792   5793   5794   5795
5796   5797   5798   5799
5800   5801   5802   5803
5804   5805   5806   5807
5808   5809   5810   5811
5812   5813   5814   5815
5816   5817   5818   5819
5820   5821   5822   5823
5824   5825   5826   5827
5828   5829   5830   5831
5832   5833   5834   5835
5836   5837   5838   5839
5840   5841   5842   5843
5844   5845   5846   5847
5848   5849   5850   5851
5852   5853   5854   5855
5856   5857   5858   5859
5860   5861   5862   5863
5864   5865   5866   5867
5868   5869   5870   5871
5872   5873   5874   5875
5876   5877   5878   5879
5880   5881   5882   5883
5884   5885   5886   5887
5888   5889   5890   5891
5892   5893   5894   5895
5896   5897   5898   5899
5900   5901   5902   5903
5904   5905   5906   5907
5908   5909   5910   5911
5912   5913   5914   5915
5916   5917   5918   5919
5920   5921   5922   5923
5924   5925   5926   5927
5928   5929   5930   5931
5932   5933   5934   5935
5936   5937   5938   5939
5940   5941   5942   5943
5944   5945   5946   5947
5948   5949   5950   5951
5952   5953   5954   5955
5956   5957   5958   5959
5960   5961   5962   5963
5964   5965   5966   5967
5968   5969   5970   5971
5972   5973   5974   5975
5976   5977   5978   5979
5980   5981   5982   5983
5984   5985   5986   5987
5988   5989   5990   5991
5992   5993   5994   5995
5996   5997   5998   5999
              </DataArray>   
              <DataArray type="Int32" Name="offsets" format="ascii">   
4
8
12
16
20
24
28
32
36
40
44
48
52
56
60
64
68
72
76
80
84
88
92
96
100
104
108
112
116
120
124
128
132
136
140
144
148
152
156
160
164
168
172
176
180
184
188
192
196
200
204
208
212
216
220
224
228
232
236
240
244
248
252
256
260
264
268
272
276
280
284
288
292
296
300
304
308
312
316
320
324
328
332
336
340
344
348
352
356
360
364
368
372
376
380
384
388
392
396
400
404
408
412
416
420
424
428
432
436
440
444
448
452
456
460
464
468
472
476
480
484
488
492
496
500
504
508
512
516
520
524
528
532
536
540
544
548
552
556
560
564
568
572
576
580
584
588
592
596
600
604
608
612
616
620
624
628
632
636
640
644
648
652
656
660
664
668
672
676
680
684
688
692
696
700
704
708
712
716
720
724
728
732
736
740
744
748
752
756
760
764
768
772
776
780
784
788
792
796
800
804
808
812
816
820
824
828
832
836
840
844
848
852
856
860
864
868
872
876
880
884
888
892
896
900
904
908
912
916
920
924
928
932
936
940
944
948
952
956
960
964
968
972
976
980
984
988
992
996
1000
1004
1008
1012
1016
1020
1024
1028
1032
1036
1040
1044
1048
1052
1056
1060
1064
1068
1072
1076
1080
1084
1088
1092
1096
1100
1104
1108
1112
1116
1120
1124
1128
1132
1136
1140
1144
1148
1152
1156
1160
1164
1168
1172
1176
1180
1184
1188
1192
1196
1200
1204
1208
1212
1216
1220
1224
1228
1232
1236
1240
1244
1248
1252
1256
1260
1264
1268
1272
1276
1280
1284
1288
1292
1296
1300
1304
1308
1312
1316
1320
1324
1328
1332
1336
1340
1344
1348
1352
1356
1360
1364
1368
1372
1376
1380
1384
1388
1392
1396
1400
1404
1408
1412
1416
1420
1424
1428
1432
1436
1440
1444
1448
1452
1456
1460
1464
1468
1472
1476
1480
1484
1488
1492
1496
1500
1504
1508
1512
1516
1520
1524
1528
1532
1536
1540
1544
1548
1552
1556
1560
1564
1568
1572
1576
1580
1584
1588
1592
1596
1600
1604
1608
1612
1616
1620
1624
1628
1632
1636
1640
1644
1648
1652
1656
1660
1664
1668
1672
1676
1680
1684
1688
1692
1696
1700
1704
1708
1712
1716
1720
1724
1728
1732
1736
1740
1744
1748
1752
1756
1760
1764
1768
1772
1776
1780
1784
1788
1792
1796
1800
1804
1808
1812
1816
1820
1824
1828
1832
1836
1840
1844
1848
1852
1856
1860
1864
1868
1872
1876
1880
1884
1888
1892
1896
1900
1904
1908
1912
1916
1920
1924
1928
1932
1936
1940
1944
1948
1952
1956
1960
1964
1968
1972
1976
1980
1984
1988
1992
1996
2000
2004
2008
2012
2016
2020
2024
2028
2032
2036
2040
2044
2048
2052
2056
2060
2064
2068
2072
2076
2080
2084
2088
2092
2096
2100
2104
2108
2112
2116
2120
2124
2128
2132
2136
2140
2144
2148
2152
2156
2160
2164
2168
2172
2176
2180
2184
2188
2192
2196
2200
2204
2208
2212
2216
2220
2224
2228
2232
2236
2240
2244
2248
2252
2256
2260
2264
2268
2272
2276
2280
2284
2288
2292
2296
2300
2304
2308
2312
2316
2320
2324
2328
2332
2336
2340
2344
2348
2352
2356
2360
2364
2368
2372
2376
2380
2384
2388
2392
2396
2400
2404
2408
2412
2416
2420
2424
2428
2432
2436
2440
2444
2448
2452
2456
2460
2464
2468
2472
2476
2480
2484
2488
2492
2496
2500
2504
2508
2512
2516
2520
2524
2528
2532
2536
2540
2544
2548
2552
2556
2560
2564
2568
2572
2576
2580
2584
2588
2592
2596
2600
2604
2608
2612
2616
2620
2624
2628
2632
2636
2640
2644
2648
2652
2656
2660
2664
2668
2672
2676
2680
2684
2688
2692
2696
2700
2704
2708
2712
2716
2720
2724
2728
2732
2736
2740
2744
2748
2752
2756
2760
2764
2768
2772
2776
2780
2784
2788
2792
2796
2800
2804
2808
2812
2816
2820
2824
2828
2832
2836
2840
2844
2848
2852
2856
2860
2864
2868
2872
2876
2880
2884
2888
2892
2896
2900
2904
2908
2912
2916
2920
2924
2928
2932
2936
2940
2944
2948
2952
2956
2960
2964
2968
2972
2976
2980
2984
2988
2992
2996
3000
3004
3008
3012
3016
3020
3024
3028
3032
3036
3040
3044
3048
3052
3056
3060
3064
3068
3072
3076
3080
3084
3088
3092
3096
3100
3104
3108
3112
3116
3120
3124
3128
3132
3136
3140
3144
3148
3152
3156
3160
3164
3168
3172
3176
3180
3184
3188
3192
3196
3200
3204
3208
3212
3216
3220
3224
3228
3232
3236
3240
3244
3248
3252
3256
3260
3264
3268
3272
3276
3280
3284
3288
3292
3296
3300
3304
3308
3312
3316
3320
3324
3328
3332
3336
3340
3344
3348
3352
3356
3360
3364
3368
3372
3376
3380
3384
3388
3392
3396
3400
3404
3408
3412
3416
3420
3424
3428
3432
3436
3440
3444
3448
3452
3456
3460
3464
3468
3472
3476
3480
3484
3488
3492
3496
3500
3504
3508
3512
3516
3520
3524
3528
3532
3536
3540
3544
3548
3552
3556
3560
3564
3568
3572
3576
3580
3584
3588
3592
3596
3600
3604
3608
3612
3616
3620
3624
3628
3632
3636
3640
3644
3648
3652
3656
3660
3664
3668
3672
3676
3680
3684
3688
3692
3696
3700
3704
3708
3712
3716
3720
3724
3728
3732
3736
3740
3744
3748
3752
3756
3760
3764
3768
3772
3776
3780
3784
3788
3792
3796
3800
3804
3808
3812
3816
3820
3824
3828
3832
3836
3840
3844
3848
3852
3856
3860
3864
3868
3872
3876
3880
3884
3888
3892
3896
3900
3904
3908
3912
3916
3920
3924
3928
3932
3936
3940
3944
3948
3952
3956
3960
3964
3968
3972
3976
3980
3984
3988
3992
3996
4000
4004
4008
4012
4016
4020
4024
4028
4032
4036
4040
4044
4048
4052
4056
4060
4064
4068
4072
4076
4080
4084
4088
4092
4096
4100
4104
4108
4112
4116
4120
4124
4128
4132
4136
4140
4144
4148
4152
4156
4160
4164
4168
4172
4176
4180
4184
4188
4192
4196
4200
4204
4208
4212
4216
4220
4224
4228
4232
4236
4240
4244
4248
4252
4256
4260
4264
4268
4272
4276
4280
4284
4288
4292
4296
4300
4304
4308
4312
4316
4320
4324
4328
4332
4336
4340
4344
4348
4352
4356
4360
4364
4368
4372
4376
4380
4384
4388
4392
4396
4400
4404
4408
4412
4416
4420
4424
4428
4432
4436
4440
4444
4448
4452
4456
4460
4464
4468
4472
4476
4480
4484
4488
4492
4496
4500
4504
4508
4512
4516
4520
4524
4528
4532
4536
4540
4544
4548
4552
4556
4560
4564
4568
4572
4576
4580
4584
4588
4592
4596
4600
4604
4608
4612
4616
4620
4624
4628
4632
4636
4640
4644
4648
4652
4656
4660
4664
4668
4672
4676
4680
4684
4688
4692
4696
4700
4704
4708
4712
4716
4720
4724
4728
4732
4736
4740
4744
4748
4752
4756
4760
4764
4768
4772
4776
4780
4784
4788
4792
4796
4800
4804
4808
4812
4816
4820
4824
4828
4832
4836
4840
4844
4848
4852
4856
4860
4864
4868
4872
4876
4880
4884
4888
4892
4896
4900
4904
4908
4912
4916
4920
4924
4928
4932
4936
4940
4944
4948
4952
4956
4960
4964
4968
4972
4976
4980
4984
4988
4992
4996
5000
5004
5008
5012
5016
5020
5024
5028
5032
5036
5040
5044
5048
5052
5056
5060
5064
5068
5072
5076
5080
5084
5088
5092
5096
5100
5104
5108
5112
5116
5120
5124
5128
5132
5136
5140
5144
5148
5152
5156
5160
5164
5168
5172
5176
5180
5184
5188
5192
5196
5200
5204
5208
5212
5216
5220
5224
5228
5232
5236
5240
5244
5248
5252
5256
5260
5264
5268
5272
5276
5280
5284
5288
5292
5296
5300
5304
5308
5312
5316
5320
5324
5328
5332
5336
5340
5344
5348
5352
5356
5360
5364
5368
5372
5376
5380
5384
5388
5392
5396
5400
5404
5408
5412
5416
5420
5424
5428
5432
5436
5440
5444
5448
5452
5456
5460
5464
5468
5472
5476
5480
5484
5488
5492
5496
5500
5504
5508
5512
5516
5520
5524
5528
5532
5536
5540
5544
5548
5552
5556
5560
5564
5568
5572
5576
5580
5584
5588
5592
5596
5600
5604
5608
5612
5616
5620
5624
5628
5632
5636
5640
5644
5648
5652
5656
5660
5664
5668
5672
5676
5680
5684
5688
5692
5696
5700
5704
5708
5712
5716
5720
5724
5728
5732
5736
5740
5744
5748
5752
5756
5760
5764
5768
5772
5776
5780
5784
5788
5792
5796
5800
5804
5808
5812
5816
5820
5824
5828
5832
5836
5840
5844
5848
5852
5856
5860
5864
5868
5872
5876
5880
5884
5888
5892
5896
5900
5904
5908
5912
5916
5920
5924
5928
5932
5936
5940
5944
5948
5952
5956
5960
5964
5968
5972
5976
5980
5984
5988
5992
5996
6000
              </DataArray>   
              <DataArray type="UInt8" Name="types" format="ascii">   
10
10
10
10
10
10
10
10
10
10
10
10
10
10
10
10
10
10
10
10
10
10
10
10
10
10
10
10
10
10
10
10
10
10
10
10
10
10
10
10
10
10
10
10
10
10
10
10
10
10
10
10
10
10
10
10
10
10
10
10
10
10
10
10
10
10
10
10
10
10
10
10
10
10
10
10
10
10
10
10
10
10
10
10
10
10
10
10
10
10
10
10
10
10
10
10
10
10
10
10
10
10
10
10
10
10
10
10
10
10
10
10
10
10
10
10
10
10
10
10
10
10
10
10
10
10
10
10
10
10
10
10
10
10
10
10
10
10
10
10
10
10
10
10
10
10
10
10
10
10
10
10
10
10
10
10
10
10
10
10
10
10
10
10
10
10
10
10
10
10
10
10
10
10
10
10
10
10
10
10
10
10
10
10
10
10
10
10
10
10
10
10
10
10
10
10
10
10
10
10
10
10
10
10
10
10
10
10
10
10
10
10
10
10
10
10
10
10
10
10
10
10
10
10
10
10
10
10
10
10
10
10
10
10
10
10
10
10
10
10
10
10
10
10
10
10
10
10
10
10
10
10
10
10
10
10
10
10
10
10
10
10
10
10
10
10
10
10
10
10
10
10
10
10
10
10
10
10
10
10
10
10
10
10
10
10
10
10
10
10
10
10
10
10
10
10
10
10
10
10
10
10
10
10
10
10
10
10
10
10
10
10
10
10
10
10
10
10
10
10
10
10
10
10
10
10
10
10
10
10
10
10
10
10
10
10
10
10
10
10
10
10
10
10
10
10
10
10
10
10
10
10
10
10
10
10
10
10
10
10
10
10
10
10
10
10
10
10
10
10
10
10
10
10
10
10
10
10
10
10
10
10
10
10
10
10
10
10
10
10
10
10
10
10
10
10
10
10
10
10
10
10
10
10
10
10
10
10
10
10
10
10
10
10
10
10
10
10
10
10
10
10
10
10
10
10
10
10
10
10
10
10
10
10
10
10
10
10
10
10
10
10
10
10
10
10
10
10
10
10
10
10
10
10
10
10
10
10
10
10
10
10
10
10
10
10
10
10
10
10
10
10
10
10
10
10
10
10
10
10
10
10
10
10
10
10
10
10
10
10
10
10
10
10
10
10
10
10
10
10
10
10
10
10
10
10
10
10
10
10
10
10
10
10
10
10
10
10
10
10
10
10
10
10
10
10
10
10
10
10
10
10
10
10
10
10
10
10
10
10
10
10
10
10
10
10
10
10
10
10
10
10
10
10
10
10
10
10
10
10
10
10
10
10
10
10
10
10
10
10
10
10
10
10
10
10
10
10
10
10
10
10
10
10
10
10
10
10
10
10
10
10
10
10
10
10
10
10
10
10
10
10
10
10
10
10
10
10
10
10
10
10
10
10
10
10
10
10
10
10
10
10
10
10
10
10
10
10
10
10
10
10
10
10
10
10
10
10
10
10
10
10
10
10
10
10
10
10
10
10
10
10
10
10
10
10
10
10
10
10
10
10
10
10
10
10
10
10
10
10
10
10
10
10
10
10
10
10
10
10
10
10
10
10
10
10
10
10
10
10
10
10
10
10
10
10
10
10
10
10
10
10
10
10
10
10
10
10
10
10
10
10
10
10
10
10
10
10
10
10
10
10
10
10
10
10
10
10
10
10
10
10
10
10
10
10
10
10
10
10
10
10
10
10
10
10
10
10
10
10
10
10
10
10
10
10
10
10
10
10
10
10
10
10
10
10
10
10
10
10
10
10
10
10
10
10
10
10
10
10
10
10
10
10
10
10
10
10
10
10
10
10
10
10
10
10
10
10
10
10
10
10
10
10
10
10
10
10
10
10
10
10
10
10
10
10
10
10
10
10
10
10
10
10
10
10
10
10
10
10
10
10
10
10
10
10
10
10
10
10
10
10
10
10
10
10
10
10
10
10
10
10
10
10
10
10
10
10
10
10
10
10
10
10
10
10
10
10
10
10
10
10
10
10
10
10
10
10
10
10
10
10
10
10
10
10
10
10
10
10
10
10
10
10
10
10
10
10
10
10
10
10
10
10
10
10
10
10
10
10
10
10
10
10
10
10
10
10
10
10
10
10
10
10
10
10
10
10
10
10
10
10
10
10
10
10
10
10
10
10
10
10
10
10
10
10
10
10
10
10
10
10
10
10
10
10
10
10
10
10
10
10
10
10
10
10
10
10
10
10
10
10
10
10
10
10
10
10
10
10
10
10
10
10
10
10
10
10
10
10
10
10
10
10
10
10
10
10
10
10
10
10
10
10
10
10
10
10
10
10
10
10
10
10
10
10
10
10
10
10
10
10
10
10
10
10
10
10
10
10
10
10
10
10
10
10
10
10
10
10
10
10
10
10
10
10
10
10
10
10
10
10
10
10
10
10
10
10
10
10
10
10
10
10
10
10
10
10
10
10
10
10
10
10
10
10
10
10
10
10
10
10
10
10
10
10
10
10
10
10
10
10
10
10
10
10
10
10
10
10
10
10
10
10
10
10
10
10
10
10
10
10
10
10
10
10
10
10
10
10
10
10
10
10
10
10
10
10
10
10
10
10
10
10
10
10
10
10
10
10
10
10
10
10
10
10
10
10
10
10
10
10
10
10
10
10
10
10
10
10
10
10
10
10
10
10
10
10
10
10
10
10
10
10
10
10
10
10
10
10
10
10
10
10
10
10
10
10
10
10
10
10
10
10
10
10
10
10
10
10
10
10
10
10
10
10
10
10
10
10
10
10
10
10
10
10
10
10
10
10
10
10
10
10
10
10
10
10
10
10
10
10
10
10
10
10
10
10
10
10
10
10
10
10
10
10
10
10
10
10
10
10
10
10
10
10
10
10
10
10
10
10
10
10
10
10
10
10
10
10
10
10
10
10
10
10
10
10
10
10
10
10
10
10
10
10
10
10
10
10
10
10
10
10
10
10
10
10
10
10
10
10
10
10
10
10
10
10
10
10
10
10
10
10
10
10
10
10
10
10
10
10
10
10
10
10
10
10
10
10
10
10
10
10
10
10
10
10
10
10
10
10
10
10
10
10
10
10
10
10
10
10
10
10
10
10
10
10
10
10
10
10
10
10
10
10
10
10
10
10
10
10
10
10
10
10
10
10
10
10
10
10
10
10
10
10
10
10
10
10
10
10
10
10
10
10
10
10
10
10
10
10
10
10
10
10
10
10
10
10
10
10
10
10
10
10
10
10
10
10
10
10
10
10
10
10
10
10
10
10
10
10
10
10
10
10
10
10
10
10
10
10
10
10
10
10
10
10
10
10
10
10
10
10
10
10
10
10
10
10
10
10
10
10
10
10
10
10
10
10
10
10
10
10
10
10
10
10
10
10
10
10
10
10
10
10
10
10
10
10
10
10
10
10
10
10
10
10
10
10
              </DataArray>   
          </Cells>  
          <PointData>  
             <DataArray type="Float64" NumberOfComponents="3" Name="Strains" format="ascii">   
-0.00037601007379040144   0.0   -0.0002459961281216999
-0.00037601007379040144   0.0   -0.0002459961281216999
-0.00037601007379040144   0.0   -0.0002459961281216999
-0.00037601007379040144   0.0   -0.0002459961281216999
-0.00023933964718531405   4.175819688152457e-05   6.842834349026622e-06
-0.00023933964718531405   4.175819688152457e-05   6.842834349026622e-06
-0.00023933964718531405   4.175819688152457e-05   6.842834349026622e-06
-0.00023933964718531405   4.175819688152457e-05   6.842834349026622e-06
-0.00023466034591180398   0.0   -0.0002320690929597796
-0.00023466034591180398   0.0   -0.0002320690929597796
-0.00023466034591180398   0.0   -0.0002320690929597796
-0.00023466034591180398   0.0   -0.0002320690929597796
-0.0003935791912424588   5.006258581285159e-05   2.7580977702683926e-06
-0.0003935791912424588   5.006258581285159e-05   2.7580977702683926e-06
-0.0003935791912424588   5.006258581285159e-05   2.7580977702683926e-06
-0.0003935791912424588   5.006258581285159e-05   2.7580977702683926e-06
-0.0003053352098511022   1.1605862634933545e-05   -0.00012124117064190822
-0.0003053352098511022   1.1605862634933545e-05   -0.00012124117064190822
-0.0003053352098511022   1.1605862634933545e-05   -0.00012124117064190822
-0.0003053352098511022   1.1605862634933545e-05   -0.00012124117064190822
-0.00039357919124245944   0.0   -0.0002621066444474906
-0.00039357919124245944   0.0   -0.0002621066444474906
-0.00039357919124245944   0.0   -0.0002621066444474906
-0.00039357919124245944   0.0   -0.0002621066444474906
-0.00023466034591180398   5.006258581285165e-05   3.2795649257979424e-05
-0.00023466034591180398   5.006258581285165e-05   3.2795649257979424e-05
-0.00023466034591180398   5.006258581285165e-05   3.2795649257979424e-05
-0.00023466034591180398   5.006258581285165e-05   3.2795649257979424e-05
-0.0002353805888167693   0.0   -0.00023776506391551646
-0.0002353805888167693   0.0   -0.00023776506391551646
-0.0002353805888167693   0.0   -0.00023776506391551646
-0.0002353805888167693   0.0   -0.00023776506391551646
-0.00040594464774150685   5.362106386526096e-05   1.4335729306557288e-05
-0.00040594464774150685   5.362106386526096e-05   1.4335729306557288e-05
-0.00040594464774150685   5.362106386526096e-05   1.4335729306557288e-05
-0.00040594464774150685   5.362106386526096e-05   1.4335729306557288e-05
-0.00031447989002961386   2.0284650443311758e-05   -0.00011810368549342812
-0.00031447989002961386   2.0284650443311758e-05   -0.00011810368549342812
-0.00031447989002961386   2.0284650443311758e-05   -0.00011810368549342812
-0.00031447989002961386   2.0284650443311758e-05   -0.00011810368549342812
-0.00040594464774150755   0.0   -0.0002699377022346731
-0.00040594464774150755   0.0   -0.0002699377022346731
-0.00040594464774150755   0.0   -0.0002699377022346731
-0.00040594464774150755   0.0   -0.0002699377022346731
-0.0002353805888167693   5.362106386526107e-05   4.650836762571395e-05
-0.0002353805888167693   5.362106386526107e-05   4.650836762571395e-05
-0.0002353805888167693   5.362106386526107e-05   4.650836762571395e-05
-0.0002353805888167693   5.362106386526107e-05   4.650836762571395e-05
-0.00023532276743219895   0.0   -0.00023921948287684033
-0.00023532276743219895   0.0   -0.00023921948287684033
-0.00023532276743219895   0.0   -0.00023921948287684033
-0.00023532276743219895   0.0   -0.00023921948287684033
-0.00043252523325882383   6.104337646111157e-05   5.282526762420193e-05
-0.00043252523325882383   6.104337646111157e-05   5.282526762420193e-05
-0.00043252523325882383   6.104337646111157e-05   5.282526762420193e-05
-0.00043252523325882383   6.104337646111157e-05   5.282526762420193e-05
-0.0003206337075868527   2.559851613152727e-05   -0.00011239369229799927
-0.0003206337075868527   2.559851613152727e-05   -0.00011239369229799927
-0.0003206337075868527   2.559851613152727e-05   -0.00011239369229799927
-0.0003206337075868527   2.559851613152727e-05   -0.00011239369229799927
-0.00023933964718531446   0.0   -0.00022094120999278512
-0.00023933964718531446   0.0   -0.00022094120999278512
-0.00023933964718531446   0.0   -0.00022094120999278512
-0.00023933964718531446   0.0   -0.00022094120999278512
-0.00010892896576864489   1.5335232549710555e-05   5.611065231490359e-06
-0.00010892896576864489   1.5335232549710555e-05   5.611065231490359e-06
-0.00010892896576864489   1.5335232549710555e-05   5.611065231490359e-06
-0.00010892896576864489   1.5335232549710555e-05   5.611065231490359e-06
-0.00010482331481379764   0.0   -0.0002189899761221807
-0.00010482331481379764   0.0   -0.0002189899761221807
-0.00010482331481379764   0.0   -0.0002189899761221807
-0.00010482331481379764   0.0   -0.0002189899761221807
-0.00023466034591180398   2.179852806266484e-05   -1.5674041129769105e-05
-0.00023466034591180398   2.179852806266484e-05   -1.5674041129769105e-05
-0.00023466034591180398   2.179852806266484e-05   -1.5674041129769105e-05
-0.00023466034591180398   2.179852806266484e-05   -1.5674041129769105e-05
-0.00017208148099955576   1.6260282255036547e-06   -0.00010786864941455195
-0.00017208148099955576   1.6260282255036547e-06   -0.00010786864941455195
-0.00017208148099955576   1.6260282255036547e-06   -0.00010786864941455195
-0.00017208148099955576   1.6260282255036547e-06   -0.00010786864941455195
-0.0002346603459118038   0.0   -0.0002320690929597794
-0.0002346603459118038   0.0   -0.0002320690929597794
-0.0002346603459118038   0.0   -0.0002320690929597794
-0.0002346603459118038   0.0   -0.0002320690929597794
-0.00010482331481379764   2.179852806266484e-05   -2.594924292170195e-06
-0.00010482331481379764   2.179852806266484e-05   -2.594924292170195e-06
-0.00010482331481379764   2.179852806266484e-05   -2.594924292170195e-06
-0.00010482331481379764   2.179852806266484e-05   -2.594924292170195e-06
-0.00010254135147882543   0.0   -0.00022175098057985933
-0.00010254135147882543   0.0   -0.00022175098057985933
-0.00010254135147882543   0.0   -0.00022175098057985933
-0.00010254135147882543   0.0   -0.00022175098057985933
-0.0002353805888167693   2.669013889276188e-05   -1.636633501894333e-05
-0.0002353805888167693   2.669013889276188e-05   -1.636633501894333e-05
-0.0002353805888167693   2.669013889276188e-05   -1.636633501894333e-05
-0.0002353805888167693   2.669013889276188e-05   -1.636633501894333e-05
-0.00016860084869531436   8.5984269832669e-06   -0.00011681087474233697
-0.00016860084869531436   8.5984269832669e-06   -0.00011681087474233697
-0.00016860084869531436   8.5984269832669e-06   -0.00011681087474233697
-0.00016860084869531436   8.5984269832669e-06   -0.00011681087474233697
-0.0002353805888167693   0.0   -0.00023776506391551646
-0.0002353805888167693   0.0   -0.00023776506391551646
-0.0002353805888167693   0.0   -0.00023776506391551646
-0.0002353805888167693   0.0   -0.00023776506391551646
-0.00010254135147882543   2.669013889276188e-05   -3.5225168328623124e-07
-0.00010254135147882543   2.669013889276188e-05   -3.5225168328623124e-07
-0.00010254135147882543   2.669013889276188e-05   -3.5225168328623124e-07
-0.00010254135147882543   2.669013889276188e-05   -3.5225168328623124e-07
-0.00010047310225219467   0.0   -0.00022059354777687886
-0.00010047310225219467   0.0   -0.00022059354777687886
-0.00010047310225219467   0.0   -0.00022059354777687886
-0.00010047310225219467   0.0   -0.00022059354777687886
-0.00023532276743219835   3.104322516660207e-05   -1.4470040910166465e-05
-0.00023532276743219835   3.104322516660207e-05   -1.4470040910166465e-05
-0.00023532276743219835   3.104322516660207e-05   -1.4470040910166465e-05
-0.00023532276743219835   3.104322516660207e-05   -1.4470040910166465e-05
-0.00016792684553448194   1.4309596782197825e-05   -0.0001167564003757188
-0.00016792684553448194   1.4309596782197825e-05   -0.0001167564003757188
-0.00016792684553448194   1.4309596782197825e-05   -0.0001167564003757188
-0.00016792684553448194   1.4309596782197825e-05   -0.0001167564003757188
-0.00010892896576864508   0.0   -0.00021174007046295877
-0.00010892896576864508   0.0   -0.00021174007046295877
-0.00010892896576864508   0.0   -0.00021174007046295877
-0.00010892896576864508   0.0   -0.00021174007046295877
1.4334590963232235e-05   -1.949639758300106e-06   -7.4705930981430955e-06
1.4334590963232235e-05   -1.949639758300106e-06   -7.4705930981430955e-06
1.4334590963232235e-05   -1.949639758300106e-06   -7.4705930981430955e-06
1.4334590963232235e-05   -1.949639758300106e-06   -7.4705930981430955e-06
1.692812208614834e-05   0.0   -0.00021667519330673756
1.692812208614834e-05   0.0   -0.00021667519330673756
1.692812208614834e-05   0.0   -0.00021667519330673756
1.692812208614834e-05   0.0   -0.00021667519330673756
-0.00010482331481379764   3.857971359070666e-06   -1.607091462227066e-05
-0.00010482331481379764   3.857971359070666e-06   -1.607091462227066e-05
-0.00010482331481379764   3.857971359070666e-06   -1.607091462227066e-05
-0.00010482331481379764   3.857971359070666e-06   -1.607091462227066e-05
-4.600042184124826e-05   -4.11260236981629e-06   -0.00010932672533918705
-4.600042184124826e-05   -4.11260236981629e-06   -0.00010932672533918705
-4.600042184124826e-05   -4.11260236981629e-06   -0.00010932672533918705
-4.600042184124826e-05   -4.11260236981629e-06   -0.00010932672533918705
-0.00010482331481379764   0.0   -0.0002189899761221807
-0.00010482331481379764   0.0   -0.0002189899761221807
-0.00010482331481379764   0.0   -0.0002189899761221807
-0.00010482331481379764   0.0   -0.0002189899761221807
1.692812208614837e-05   3.857971359070666e-06   -1.3756131806828234e-05
1.692812208614837e-05   3.857971359070666e-06   -1.3756131806828234e-05
1.692812208614837e-05   3.857971359070666e-06   -1.3756131806828234e-05
1.692812208614837e-05   3.857971359070666e-06   -1.3756131806828234e-05
1.8967374439217686e-05   0.0   -0.00021636969603726564
1.8967374439217686e-05   0.0   -0.00021636969603726564
1.8967374439217686e-05   0.0   -0.00021636969603726564
1.8967374439217686e-05   0.0   -0.00021636969603726564
-0.00010254135147882524   8.968807570988854e-06   -1.9236437383120746e-05
-0.00010254135147882524   8.968807570988854e-06   -1.9236437383120746e-05
-0.00010254135147882524   8.968807570988854e-06   -1.9236437383120746e-05
-0.00010254135147882524   8.968807570988854e-06   -1.9236437383120746e-05
-4.292797018728996e-05   2.1835667374289075e-06   -0.00011452092836887716
-4.292797018728996e-05   2.1835667374289075e-06   -0.00011452092836887716
-4.292797018728996e-05   2.1835667374289075e-06   -0.00011452092836887716
-4.292797018728996e-05   2.1835667374289075e-06   -0.00011452092836887716
-0.00010254135147882543   0.0   -0.00022175098057985933
-0.00010254135147882543   0.0   -0.00022175098057985933
-0.00010254135147882543   0.0   -0.00022175098057985933
-0.00010254135147882543   0.0   -0.00022175098057985933
1.8967374439217716e-05   8.968807570988854e-06   -1.3855152840527488e-05
1.8967374439217716e-05   8.968807570988854e-06   -1.3855152840527488e-05
1.8967374439217716e-05   8.968807570988854e-06   -1.3855152840527488e-05
1.8967374439217716e-05   8.968807570988854e-06   -1.3855152840527488e-05
2.1730604113388288e-05   0.0   -0.00021165838723794032
2.1730604113388288e-05   0.0   -0.00021165838723794032
2.1730604113388288e-05   0.0   -0.00021165838723794032
2.1730604113388288e-05   0.0   -0.00021165838723794032
-0.00010047310225219458   1.4891934231563966e-05   -1.6920703834240585e-05
-0.00010047310225219458   1.4891934231563966e-05   -1.6920703834240585e-05
-0.00010047310225219458   1.4891934231563966e-05   -1.6920703834240585e-05
-0.00010047310225219458   1.4891934231563966e-05   -1.6920703834240585e-05
-4.040537368271848e-05   8.410494451598869e-06   -0.00011314472091538828
-4.040537368271848e-05   8.410494451598869e-06   -0.00011314472091538828
-4.040537368271848e-05   8.410494451598869e-06   -0.00011314472091538828
-4.040537368271848e-05   8.410494451598869e-06   -0.00011314472091538828
1.433459096323226e-05   0.0   -0.00021290985431793882
1.433459096323226e-05   0.0   -0.00021290985431793882
1.433459096323226e-05   0.0   -0.00021290985431793882
1.433459096323226e-05   0.0   -0.00021290985431793882
0.0001480855810778991   -1.7368618081040044e-05   -4.127083087846536e-07
0.0001480855810778991   -1.7368618081040044e-05   -4.127083087846536e-07
0.0001480855810778991   -1.7368618081040044e-05   -4.127083087846536e-07
0.0001480855810778991   -1.7368618081040044e-05   -4.127083087846536e-07
0.00014827320312369612   0.0   -0.00022454126384195168
0.00014827320312369612   0.0   -0.00022454126384195168
0.00014827320312369612   0.0   -0.00022454126384195168
0.00014827320312369612   0.0   -0.00022454126384195168
1.69281220861484e-05   -1.3110117558688954e-05   2.2332750891745235e-06
1.69281220861484e-05   -1.3110117558688954e-05   2.2332750891745235e-06
1.69281220861484e-05   -1.3110117558688954e-05   2.2332750891745235e-06
1.69281220861484e-05   -1.3110117558688954e-05   2.2332750891745235e-06
8.130389704346419e-05   -9.692841270010714e-06   -0.0001071100489462253
8.130389704346419e-05   -9.692841270010714e-06   -0.0001071100489462253
8.130389704346419e-05   -9.692841270010714e-06   -0.0001071100489462253
8.130389704346419e-05   -9.692841270010714e-06   -0.0001071100489462253
1.69281220861484e-05   0.0   -0.00021667519330673831
1.69281220861484e-05   0.0   -0.00021667519330673831
1.69281220861484e-05   0.0   -0.00021667519330673831
1.69281220861484e-05   0.0   -0.00021667519330673831
0.00014827320312369612   -1.3110117558688954e-05   -5.632795446038833e-06
0.00014827320312369612   -1.3110117558688954e-05   -5.632795446038833e-06
0.00014827320312369612   -1.3110117558688954e-05   -5.632795446038833e-06
0.00014827320312369612   -1.3110117558688954e-05   -5.632795446038833e-06
0.0001475729345108659   0.0   -0.00022133435705529744
0.0001475729345108659   0.0   -0.00022133435705529744
0.0001475729345108659   0.0   -0.00022133435705529744
0.0001475729345108659   0.0   -0.00022133435705529744
1.8967374439217716e-05   -8.27443503005241e-06   -2.0270959178524226e-06
1.8967374439217716e-05   -8.27443503005241e-06   -2.0270959178524226e-06
1.8967374439217716e-05   -8.27443503005241e-06   -2.0270959178524226e-06
1.8967374439217716e-05   -8.27443503005241e-06   -2.0270959178524226e-06
8.225052829850715e-05   -3.8826364571326304e-06   -0.0001101340981604199
8.225052829850715e-05   -3.8826364571326304e-06   -0.0001101340981604199
8.225052829850715e-05   -3.8826364571326304e-06   -0.0001101340981604199
8.225052829850715e-05   -3.8826364571326304e-06   -0.0001101340981604199
1.89673744392177e-05   0.0   -0.00021636969603726583
1.89673744392177e-05   0.0   -0.00021636969603726583
1.89673744392177e-05   0.0   -0.00021636969603726583
1.89673744392177e-05   0.0   -0.00021636969603726583
0.0001475729345108659   -8.27443503005241e-06   -6.9917569358838466e-06
0.0001475729345108659   -8.27443503005241e-06   -6.9917569358838466e-06
0.0001475729345108659   -8.27443503005241e-06   -6.9917569358838466e-06
0.0001475729345108659   -8.27443503005241e-06   -6.9917569358838466e-06
0.00015036829507793594   0.0   -0.00021272181646841826
0.00015036829507793594   0.0   -0.00021272181646841826
0.00015036829507793594   0.0   -0.00021272181646841826
0.00015036829507793594   0.0   -0.00021272181646841826
2.1730604113388326e-05   -1.772382050795984e-06   2.73776436963864e-06
2.1730604113388326e-05   -1.772382050795984e-06   2.73776436963864e-06
2.1730604113388326e-05   -1.772382050795984e-06   2.73776436963864e-06
2.1730604113388326e-05   -1.772382050795984e-06   2.73776436963864e-06
8.466783475857676e-05   3.039899640706477e-06   -0.00010504498905391013
8.466783475857676e-05   3.039899640706477e-06   -0.00010504498905391013
8.466783475857676e-05   3.039899640706477e-06   -0.00010504498905391013
8.466783475857676e-05   3.039899640706477e-06   -0.00010504498905391013
0.0001480855810778991   0.0   -0.00022333102516656285
0.0001480855810778991   0.0   -0.00022333102516656285
0.0001480855810778991   0.0   -0.00022333102516656285
0.0001480855810778991   0.0   -0.00022333102516656285
0.00033392409538295065   -4.397844102026579e-05   6.001276739636544e-05
0.00033392409538295065   -4.397844102026579e-05   6.001276739636544e-05
0.00033392409538295065   -4.397844102026579e-05   6.001276739636544e-05
0.00033392409538295065   -4.397844102026579e-05   6.001276739636544e-05
0.00031351028620869804   0.0   -0.00024701644629002395
0.00031351028620869804   0.0   -0.00024701644629002395
0.00031351028620869804   0.0   -0.00024701644629002395
0.00031351028620869804   0.0   -0.00024701644629002395
0.00014827320312369612   -3.745863741345381e-05   5.0853874633051486e-05
0.00014827320312369612   -3.745863741345381e-05   5.0853874633051486e-05
0.00014827320312369612   -3.745863741345381e-05   5.0853874633051486e-05
0.00014827320312369612   -3.745863741345381e-05   5.0853874633051486e-05
0.00023079793364329856   -1.9737850936217598e-05   -9.731981478596088e-05
0.00023079793364329856   -1.9737850936217598e-05   -9.731981478596088e-05
0.00023079793364329856   -1.9737850936217598e-05   -9.731981478596088e-05
0.00023079793364329856   -1.9737850936217598e-05   -9.731981478596088e-05
0.00014827320312369599   0.0   -0.00022454126384195146
0.00014827320312369599   0.0   -0.00022454126384195146
0.00014827320312369599   0.0   -0.00022454126384195146
0.00014827320312369599   0.0   -0.00022454126384195146
0.00031351028620869696   -3.7458637413453704e-05   2.8378692184979058e-05
0.00031351028620869696   -3.7458637413453704e-05   2.8378692184979058e-05
0.00031351028620869696   -3.7458637413453704e-05   2.8378692184979058e-05
0.00031351028620869696   -3.7458637413453704e-05   2.8378692184979058e-05
0.0003040671961255937   0.0   -0.00024188012407217675
0.0003040671961255937   0.0   -0.00024188012407217675
0.0003040671961255937   0.0   -0.00024188012407217675
0.0003040671961255937   0.0   -0.00024188012407217675
0.0001475729345108659   -3.424294502813211e-05   3.948941230258224e-05
0.0001475729345108659   -3.424294502813211e-05   3.948941230258224e-05
0.0001475729345108659   -3.424294502813211e-05   3.948941230258224e-05
0.0001475729345108659   -3.424294502813211e-05   3.948941230258224e-05
0.0002261701996246448   -1.444905019185421e-05   -0.00010338236645548269
0.0002261701996246448   -1.444905019185421e-05   -0.00010338236645548269
0.0002261701996246448   -1.444905019185421e-05   -0.00010338236645548269
0.0002261701996246448   -1.444905019185421e-05   -0.00010338236645548269
0.0001475729345108659   0.0   -0.00022133435705529744
0.0001475729345108659   0.0   -0.00022133435705529744
0.0001475729345108659   0.0   -0.00022133435705529744
0.0001475729345108659   0.0   -0.00022133435705529744
0.00030406719612559264   -3.4242945028132004e-05   1.89436452857028e-05
0.00030406719612559264   -3.4242945028132004e-05   1.89436452857028e-05
0.00030406719612559264   -3.4242945028132004e-05   1.89436452857028e-05
0.00030406719612559264   -3.4242945028132004e-05   1.89436452857028e-05
0.00029005468741841005   0.0   -0.0002287186788006984
0.00029005468741841005   0.0   -0.0002287186788006984
0.00029005468741841005   0.0   -0.0002287186788006984
0.00029005468741841005   0.0   -0.0002287186788006984
0.00015036829507793594   -2.6661437220467548e-05   2.008883743237266e-05
0.00015036829507793594   -2.6661437220467548e-05   2.008883743237266e-05
0.00015036829507793594   -2.6661437220467548e-05   2.008883743237266e-05
0.00015036829507793594   -2.6661437220467548e-05   2.008883743237266e-05
0.0002188138109646382   -6.153601454501119e-06   -0.00010629172383837753
0.0002188138109646382   -6.153601454501119e-06   -0.00010629172383837753
0.0002188138109646382   -6.153601454501119e-06   -0.00010629172383837753
0.0002188138109646382   -6.153601454501119e-06   -0.00010629172383837753
-0.0003268195785330619   4.175819688152446e-05   -0.00021391716271314482
-0.0003268195785330619   4.175819688152446e-05   -0.00021391716271314482
-0.0003268195785330619   4.175819688152446e-05   -0.00021391716271314482
-0.0003268195785330619   4.175819688152446e-05   -0.00021391716271314482
-0.00020927335391729974   3.7587388591953704e-05   -2.0509273327283593e-05
-0.00020927335391729974   3.7587388591953704e-05   -2.0509273327283593e-05
-0.00020927335391729974   3.7587388591953704e-05   -2.0509273327283593e-05
-0.00020927335391729974   3.7587388591953704e-05   -2.0509273327283593e-05
-0.0002145711152200521   5.006258581285154e-05   -0.00017960682903008472
-0.0002145711152200521   5.006258581285154e-05   -0.00017960682903008472
-0.0002145711152200521   5.006258581285154e-05   -0.00017960682903008472
-0.0002145711152200521   5.006258581285154e-05   -0.00017960682903008472
-0.0003304251959525929   4.5081600598180765e-05   1.6471896652953165e-05
-0.0003304251959525929   4.5081600598180765e-05   1.6471896652953165e-05
-0.0003304251959525929   4.5081600598180765e-05   1.6471896652953165e-05
-0.0003304251959525929   4.5081600598180765e-05   1.6471896652953165e-05
-0.00025957113751377326   4.3601754519781715e-05   -0.00010073029309804198
-0.00025957113751377326   4.3601754519781715e-05   -0.00010073029309804198
-0.00025957113751377326   4.3601754519781715e-05   -0.00010073029309804198
-0.00025957113751377326   4.3601754519781715e-05   -0.00010073029309804198
-0.0003304251959525929   5.006258581285154e-05   -0.0001766182379012822
-0.0003304251959525929   5.006258581285154e-05   -0.0001766182379012822
-0.0003304251959525929   5.006258581285154e-05   -0.0001766182379012822
-0.0003304251959525929   5.006258581285154e-05   -0.0001766182379012822
-0.0002145711152200528   4.5081600598180765e-05   1.3483305524150473e-05
-0.0002145711152200528   4.5081600598180765e-05   1.3483305524150473e-05
-0.0002145711152200528   4.5081600598180765e-05   1.3483305524150473e-05
-0.0002145711152200528   4.5081600598180765e-05   1.3483305524150473e-05
-0.0002157151897623835   5.3621063865260906e-05   -0.00016144103498943758
-0.0002157151897623835   5.3621063865260906e-05   -0.00016144103498943758
-0.0002157151897623835   5.3621063865260906e-05   -0.00016144103498943758
-0.0002157151897623835   5.3621063865260906e-05   -0.00016144103498943758
-0.0003328091067855337   4.846271355625443e-05   3.681050356788202e-05
-0.0003328091067855337   4.846271355625443e-05   3.681050356788202e-05
-0.0003328091067855337   4.846271355625443e-05   3.681050356788202e-05
-0.0003328091067855337   4.846271355625443e-05   3.681050356788202e-05
-0.00026724758606044727   4.8315586162701006e-05   -7.237042120446235e-05
-0.00026724758606044727   4.8315586162701006e-05   -7.237042120446235e-05
-0.00026724758606044727   4.8315586162701006e-05   -7.237042120446235e-05
-0.00026724758606044727   4.8315586162701006e-05   -7.237042120446235e-05
-0.0003328091067855331   5.3621063865260906e-05   -0.00015834602480403385
-0.0003328091067855331   5.3621063865260906e-05   -0.00015834602480403385
-0.0003328091067855331   5.3621063865260906e-05   -0.00015834602480403385
-0.0003328091067855331   5.3621063865260906e-05   -0.00015834602480403385
-0.0002157151897623839   4.846271355625443e-05   3.371549338247802e-05
-0.0002157151897623839   4.846271355625443e-05   3.371549338247802e-05
-0.0002157151897623839   4.846271355625443e-05   3.371549338247802e-05
-0.0002157151897623839   4.846271355625443e-05   3.371549338247802e-05
-0.00021452768578888857   6.104337646111152e-05   -0.00011917665511537094
-0.00021452768578888857   6.104337646111152e-05   -0.00011917665511537094
-0.00021452768578888857   6.104337646111152e-05   -0.00011917665511537094
-0.00021452768578888857   6.104337646111152e-05   -0.00011917665511537094
-0.00032366573924067193   5.1134206003961274e-05   6.866560291189042e-05
-0.00032366573924067193   5.1134206003961274e-05   6.866560291189042e-05
-0.00032366573924067193   5.1134206003961274e-05   6.866560291189042e-05
-0.00032366573924067193   5.1134206003961274e-05   6.866560291189042e-05
-0.0002603491928362677   5.2975574206672905e-05   -3.796679535041005e-05
-0.0002603491928362677   5.2975574206672905e-05   -3.796679535041005e-05
-0.0002603491928362677   5.2975574206672905e-05   -3.796679535041005e-05
-0.0002603491928362677   5.2975574206672905e-05   -3.796679535041005e-05
-0.00020927335391729974   1.5335232549710555e-05   -0.00022685255633424984
-0.00020927335391729974   1.5335232549710555e-05   -0.00022685255633424984
-0.00020927335391729974   1.5335232549710555e-05   -0.00022685255633424984
-0.00020927335391729974   1.5335232549710555e-05   -0.00022685255633424984
-9.907292585774247e-05   1.7488893782493728e-05   -4.1892979495317345e-05
-9.907292585774247e-05   1.7488893782493728e-05   -4.1892979495317345e-05
-9.907292585774247e-05   1.7488893782493728e-05   -4.1892979495317345e-05
-9.907292585774247e-05   1.7488893782493728e-05   -4.1892979495317345e-05
-0.00010147443228231137   2.1798528062664732e-05   -0.00022652700221288105
-0.00010147443228231137   2.1798528062664732e-05   -0.00022652700221288105
-0.00010147443228231137   2.1798528062664732e-05   -0.00022652700221288105
-0.00010147443228231137   2.1798528062664732e-05   -0.00022652700221288105
-0.0002145711152200521   2.438105673758465e-05   -3.958204785493142e-05
-0.0002145711152200521   2.438105673758465e-05   -3.958204785493142e-05
-0.0002145711152200521   2.438105673758465e-05   -3.958204785493142e-05
-0.0002145711152200521   2.438105673758465e-05   -3.958204785493142e-05
-0.00015566071825913737   1.9634911961026696e-05   -0.0001349183559238558
-0.00015566071825913737   1.9634911961026696e-05   -0.0001349183559238558
-0.00015566071825913737   1.9634911961026696e-05   -0.0001349183559238558
-0.00015566071825913737   1.9634911961026696e-05   -0.0001349183559238558
-0.00021457111522005186   2.1798528062664732e-05   -0.0002280765194178327
-0.00021457111522005186   2.1798528062664732e-05   -0.0002280765194178327
-0.00021457111522005186   2.1798528062664732e-05   -0.0002280765194178327
-0.00021457111522005186   2.1798528062664732e-05   -0.0002280765194178327
-0.00010147443228231156   2.438105673758465e-05   -3.803253064997954e-05
-0.00010147443228231156   2.438105673758465e-05   -3.803253064997954e-05
-0.00010147443228231156   2.438105673758465e-05   -3.803253064997954e-05
-0.00010147443228231156   2.438105673758465e-05   -3.803253064997954e-05
-0.00010225642628983942   2.6690138892761825e-05   -0.00022228062287267113
-0.00010225642628983942   2.6690138892761825e-05   -0.00022228062287267113
-0.00010225642628983942   2.6690138892761825e-05   -0.00022228062287267113
-0.00010225642628983942   2.6690138892761825e-05   -0.00022228062287267113
-0.0002157151897623835   3.0081996828467805e-05   -3.521779851318823e-05
-0.0002157151897623835   3.0081996828467805e-05   -3.521779851318823e-05
-0.0002157151897623835   3.0081996828467805e-05   -3.521779851318823e-05
-0.0002157151897623835   3.0081996828467805e-05   -3.521779851318823e-05
-0.0001569126676349772   2.490451637654652e-05   -0.00013011551378771207
-0.0001569126676349772   2.490451637654652e-05   -0.00013011551378771207
-0.0001569126676349772   2.490451637654652e-05   -0.00013011551378771207
-0.0001569126676349772   2.490451637654652e-05   -0.00013011551378771207
-0.0002157151897623835   2.6690138892761825e-05   -0.00022431573763409475
-0.0002157151897623835   2.6690138892761825e-05   -0.00022431573763409475
-0.0002157151897623835   2.6690138892761825e-05   -0.00022431573763409475
-0.0002157151897623835   2.6690138892761825e-05   -0.00022431573763409475
-0.00010225642628983979   3.008199682846802e-05   -3.318268375176461e-05
-0.00010225642628983979   3.008199682846802e-05   -3.318268375176461e-05
-0.00010225642628983979   3.008199682846802e-05   -3.318268375176461e-05
-0.00010225642628983979   3.008199682846802e-05   -3.318268375176461e-05
-0.00010204411946417227   3.104322516660202e-05   -0.00021999633202132447
-0.00010204411946417227   3.104322516660202e-05   -0.00021999633202132447
-0.00010204411946417227   3.104322516660202e-05   -0.00021999633202132447
-0.00010204411946417227   3.104322516660202e-05   -0.00021999633202132447
-0.0002145276857888884   3.6212654341738005e-05   -3.562537898521253e-05
-0.0002145276857888884   3.6212654341738005e-05   -3.562537898521253e-05
-0.0002145276857888884   3.6212654341738005e-05   -3.562537898521253e-05
-0.0002145276857888884   3.6212654341738005e-05   -3.562537898521253e-05
-0.0001578744406922479   2.9673925815239927e-05   -0.0001261242170303818
-0.0001578744406922479   2.9673925815239927e-05   -0.0001261242170303818
-0.0001578744406922479   2.9673925815239927e-05   -0.0001261242170303818
-0.0001578744406922479   2.9673925815239927e-05   -0.0001261242170303818
-9.907292585774231e-05   -1.949639758300106e-06   -0.00023747223406923325
-9.907292585774231e-05   -1.949639758300106e-06   -0.00023747223406923325
-9.907292585774231e-05   -1.949639758300106e-06   -0.00023747223406923325
-9.907292585774231e-05   -1.949639758300106e-06   -0.00023747223406923325
9.743305863594253e-06   -5.116768922066965e-07   -5.524907014734952e-05
9.743305863594253e-06   -5.116768922066965e-07   -5.524907014734952e-05
9.743305863594253e-06   -5.116768922066965e-07   -5.524907014734952e-05
9.743305863594253e-06   -5.116768922066965e-07   -5.524907014734952e-05
9.26012187524981e-06   3.857971359070666e-06   -0.00023881577457087323
9.26012187524981e-06   3.857971359070666e-06   -0.00023881577457087323
9.26012187524981e-06   3.857971359070666e-06   -0.00023881577457087323
9.26012187524981e-06   3.857971359070666e-06   -0.00023881577457087323
-0.00010147443228231137   5.8366679792519385e-06   -5.544540228037914e-05
-0.00010147443228231137   5.8366679792519385e-06   -5.544540228037914e-05
-0.00010147443228231137   5.8366679792519385e-06   -5.544540228037914e-05
-0.00010147443228231137   5.8366679792519385e-06   -5.544540228037914e-05
-4.5662461907211906e-05   1.9347151489233555e-06   -0.00014612418120734841
-4.5662461907211906e-05   1.9347151489233555e-06   -0.00014612418120734841
-4.5662461907211906e-05   1.9347151489233555e-06   -0.00014612418120734841
-4.5662461907211906e-05   1.9347151489233555e-06   -0.00014612418120734841
-0.00010147443228231137   3.857971359070666e-06   -0.00024000299254298163
-0.00010147443228231137   3.857971359070666e-06   -0.00024000299254298163
-0.00010147443228231137   3.857971359070666e-06   -0.00024000299254298163
-0.00010147443228231137   3.857971359070666e-06   -0.00024000299254298163
9.26012187524981e-06   5.836667979252155e-06   -5.425818430827053e-05
9.26012187524981e-06   5.836667979252155e-06   -5.425818430827053e-05
9.26012187524981e-06   5.836667979252155e-06   -5.425818430827053e-05
9.26012187524981e-06   5.836667979252155e-06   -5.425818430827053e-05
8.612133514877744e-06   8.968807570988854e-06   -0.00023932312191412577
8.612133514877744e-06   8.968807570988854e-06   -0.00023932312191412577
8.612133514877744e-06   8.968807570988854e-06   -0.00023932312191412577
8.612133514877744e-06   8.968807570988854e-06   -0.00023932312191412577
-0.00010225642628983942   1.2038285334955339e-05   -5.638387556464392e-05
-0.00010225642628983942   1.2038285334955339e-05   -5.638387556464392e-05
-0.00010225642628983942   1.2038285334955339e-05   -5.638387556464392e-05
-0.00010225642628983942   1.2038285334955339e-05   -5.638387556464392e-05
-4.655250487466826e-05   7.317046908386312e-06   -0.00014639100153398719
-4.655250487466826e-05   7.317046908386312e-06   -0.00014639100153398719
-4.655250487466826e-05   7.317046908386312e-06   -0.00014639100153398719
-4.655250487466826e-05   7.317046908386312e-06   -0.00014639100153398719
-0.00010225642628983942   8.968807570988854e-06   -0.00024116480857250567
-0.00010225642628983942   8.968807570988854e-06   -0.00024116480857250567
-0.00010225642628983942   8.968807570988854e-06   -0.00024116480857250567
-0.00010225642628983942   8.968807570988854e-06   -0.00024116480857250567
8.612133514877761e-06   1.2038285334955339e-05   -5.454218890626404e-05
8.612133514877761e-06   1.2038285334955339e-05   -5.454218890626404e-05
8.612133514877761e-06   1.2038285334955339e-05   -5.454218890626404e-05
8.612133514877761e-06   1.2038285334955339e-05   -5.454218890626404e-05
7.348256390710327e-06   1.4891934231563966e-05   -0.0002389073883346156
7.348256390710327e-06   1.4891934231563966e-05   -0.0002389073883346156
7.348256390710327e-06   1.4891934231563966e-05   -0.0002389073883346156
7.348256390710327e-06   1.4891934231563966e-05   -0.0002389073883346156
-0.00010204411946417236   1.8501170416137776e-05   -5.8752303620555587e-05
-0.00010204411946417236   1.8501170416137776e-05   -5.8752303620555587e-05
-0.00010204411946417236   1.8501170416137776e-05   -5.8752303620555587e-05
-0.00010204411946417236   1.8501170416137776e-05   -5.8752303620555587e-05
-4.710659472579458e-05   1.2846303811268195e-05   -0.00014692192488826333
-4.710659472579458e-05   1.2846303811268195e-05   -0.00014692192488826333
-4.710659472579458e-05   1.2846303811268195e-05   -0.00014692192488826333
-4.710659472579458e-05   1.2846303811268195e-05   -0.00014692192488826333
9.743305863594253e-06   -1.7368618081039936e-05   -0.00021913040071159474
9.743305863594253e-06   -1.7368618081039936e-05   -0.00021913040071159474
9.743305863594253e-06   -1.7368618081039936e-05   -0.00021913040071159474
9.743305863594253e-06   -1.7368618081039936e-05   -0.00021913040071159474
0.0001218817473030942   -1.785956188719677e-05   -3.252756459612199e-05
0.0001218817473030942   -1.785956188719677e-05   -3.252756459612199e-05
0.0001218817473030942   -1.785956188719677e-05   -3.252756459612199e-05
0.0001218817473030942   -1.785956188719677e-05   -3.252756459612199e-05
0.00012283795380109414   -1.31101175586889e-05   -0.00022221896400834016
0.00012283795380109414   -1.31101175586889e-05   -0.00022221896400834016
0.00012283795380109414   -1.31101175586889e-05   -0.00022221896400834016
0.00012283795380109414   -1.31101175586889e-05   -0.00022221896400834016
9.26012187524981e-06   -1.209777811447322e-05   -3.3529981131795386e-05
9.26012187524981e-06   -1.209777811447322e-05   -3.3529981131795386e-05
9.26012187524981e-06   -1.209777811447322e-05   -3.3529981131795386e-05
9.26012187524981e-06   -1.209777811447322e-05   -3.3529981131795386e-05
6.508767529378477e-05   -1.4471630182265154e-05   -0.00012515159225534532
6.508767529378477e-05   -1.4471630182265154e-05   -0.00012515159225534532
6.508767529378477e-05   -1.4471630182265154e-05   -0.00012515159225534532
6.508767529378477e-05   -1.4471630182265154e-05   -0.00012515159225534532
9.260121875249794e-06   -1.31101175586889e-05   -0.00022282636767486999
9.260121875249794e-06   -1.31101175586889e-05   -0.00022282636767486999
9.260121875249794e-06   -1.31101175586889e-05   -0.00022282636767486999
9.260121875249794e-06   -1.31101175586889e-05   -0.00022282636767486999
0.00012283795380109438   -1.2097778114473004e-05   -3.292257746526572e-05
0.00012283795380109438   -1.2097778114473004e-05   -3.292257746526572e-05
0.00012283795380109438   -1.2097778114473004e-05   -3.292257746526572e-05
0.00012283795380109438   -1.2097778114473004e-05   -3.292257746526572e-05
0.00012218572573996053   -8.274435030052355e-06   -0.00022640033076821935
0.00012218572573996053   -8.274435030052355e-06   -0.00022640033076821935
0.00012218572573996053   -8.274435030052355e-06   -0.00022640033076821935
0.00012218572573996053   -8.274435030052355e-06   -0.00022640033076821935
8.612133514877744e-06   -6.449877991334101e-06   -3.820574461631263e-05
8.612133514877744e-06   -6.449877991334101e-06   -3.820574461631263e-05
8.612133514877744e-06   -6.449877991334101e-06   -3.820574461631263e-05
8.612133514877744e-06   -6.449877991334101e-06   -3.820574461631263e-05
6.435316332465552e-05   -9.865688641745693e-06   -0.00012905797457569485
6.435316332465552e-05   -9.865688641745693e-06   -0.00012905797457569485
6.435316332465552e-05   -9.865688641745693e-06   -0.00012905797457569485
6.435316332465552e-05   -9.865688641745693e-06   -0.00012905797457569485
8.612133514877737e-06   -8.274435030052355e-06   -0.00022749506499145043
8.612133514877737e-06   -8.274435030052355e-06   -0.00022749506499145043
8.612133514877737e-06   -8.274435030052355e-06   -0.00022749506499145043
8.612133514877737e-06   -8.274435030052355e-06   -0.00022749506499145043
0.00012218572573996094   -6.449877991334101e-06   -3.711101039308173e-05
0.00012218572573996094   -6.449877991334101e-06   -3.711101039308173e-05
0.00012218572573996094   -6.449877991334101e-06   -3.711101039308173e-05
0.00012218572573996094   -6.449877991334101e-06   -3.711101039308173e-05
0.00011857913921331246   -1.772382050795984e-06   -0.00022679616589575094
0.00011857913921331246   -1.772382050795984e-06   -0.00022679616589575094
0.00011857913921331246   -1.772382050795984e-06   -0.00022679616589575094
0.00011857913921331246   -1.772382050795984e-06   -0.00022679616589575094
7.348256390710327e-06   5.408092390761857e-07   -4.2799275965337714e-05
7.348256390710327e-06   5.408092390761857e-07   -4.2799275965337714e-05
7.348256390710327e-06   5.408092390761857e-07   -4.2799275965337714e-05
7.348256390710327e-06   5.408092390761857e-07   -4.2799275965337714e-05
6.361170181054491e-05   -4.485618867479326e-06   -0.00013355582813446163
6.361170181054491e-05   -4.485618867479326e-06   -0.00013355582813446163
6.361170181054491e-05   -4.485618867479326e-06   -0.00013355582813446163
6.361170181054491e-05   -4.485618867479326e-06   -0.00013355582813446163
0.0001218817473030942   -4.397844102026579e-05   -0.00013261242667797916
0.0001218817473030942   -4.397844102026579e-05   -0.00013261242667797916
0.0001218817473030942   -4.397844102026579e-05   -0.00013261242667797916
0.0001218817473030942   -4.397844102026579e-05   -0.00013261242667797916
0.0002326323751641412   -3.322586396867287e-05   5.8423499321387995e-05
0.0002326323751641412   -3.322586396867287e-05   5.8423499321387995e-05
0.0002326323751641412   -3.322586396867287e-05   5.8423499321387995e-05
0.0002326323751641412   -3.322586396867287e-05   5.8423499321387995e-05
0.00024137381141904743   -3.745863741345381e-05   -0.00016136109871695123
0.00024137381141904743   -3.745863741345381e-05   -0.00016136109871695123
0.00024137381141904743   -3.745863741345381e-05   -0.00016136109871695123
0.00024137381141904743   -3.745863741345381e-05   -0.00016136109871695123
0.0001228379538010946   -3.0173312059621508e-05   3.182746876733794e-05
0.0001228379538010946   -3.0173312059621508e-05   3.182746876733794e-05
0.0001228379538010946   -3.0173312059621508e-05   3.182746876733794e-05
0.0001228379538010946   -3.0173312059621508e-05   3.182746876733794e-05
0.00017132706375104555   -3.606266699926594e-05   -4.5454101518793916e-05
0.00017132706375104555   -3.606266699926594e-05   -4.5454101518793916e-05
0.00017132706375104555   -3.606266699926594e-05   -4.5454101518793916e-05
0.00017132706375104555   -3.606266699926594e-05   -4.5454101518793916e-05
0.0001228379538010943   -3.745863741345376e-05   -0.00016573229392925006
0.0001228379538010943   -3.745863741345376e-05   -0.00016573229392925006
0.0001228379538010943   -3.745863741345376e-05   -0.00016573229392925006
0.0001228379538010943   -3.745863741345376e-05   -0.00016573229392925006
0.00024137381141904743   -3.0173312059621508e-05   3.6198663979637204e-05
0.00024137381141904743   -3.0173312059621508e-05   3.6198663979637204e-05
0.00024137381141904743   -3.0173312059621508e-05   3.6198663979637204e-05
0.00024137381141904743   -3.0173312059621508e-05   3.6198663979637204e-05
0.00024039796341129263   -3.424294502813211e-05   -0.0001755267408207557
0.00024039796341129263   -3.424294502813211e-05   -0.0001755267408207557
0.00024039796341129263   -3.424294502813211e-05   -0.0001755267408207557
0.00024039796341129263   -3.424294502813211e-05   -0.0001755267408207557
0.00012218572573996094   -2.692224384646816e-05   1.7101234589131647e-05
0.00012218572573996094   -2.692224384646816e-05   1.7101234589131647e-05
0.00012218572573996094   -2.692224384646816e-05   1.7101234589131647e-05
0.00012218572573996094   -2.692224384646816e-05   1.7101234589131647e-05
0.0001772465478710563   -3.187002269944392e-05   -7.169813498424148e-05
0.0001772465478710563   -3.187002269944392e-05   -7.169813498424148e-05
0.0001772465478710563   -3.187002269944392e-05   -7.169813498424148e-05
0.0001772465478710563   -3.187002269944392e-05   -7.169813498424148e-05
0.00012218572573996077   -3.424294502813206e-05   -0.00017991916152975383
0.00012218572573996077   -3.424294502813206e-05   -0.00017991916152975383
0.00012218572573996077   -3.424294502813206e-05   -0.00017991916152975383
0.00012218572573996077   -3.424294502813206e-05   -0.00017991916152975383
0.00024039796341129263   -2.692224384646816e-05   2.1493655298130245e-05
0.00024039796341129263   -2.692224384646816e-05   2.1493655298130245e-05
0.00024039796341129263   -2.692224384646816e-05   2.1493655298130245e-05
0.00024039796341129263   -2.692224384646816e-05   2.1493655298130245e-05
0.00023886016889982688   -2.6661437220467548e-05   -0.00020433875741695008
0.00023886016889982688   -2.6661437220467548e-05   -0.00020433875741695008
0.00023886016889982688   -2.6661437220467548e-05   -0.00020433875741695008
0.00023886016889982688   -2.6661437220467548e-05   -0.00020433875741695008
0.00011857913921331292   -1.992326024448398e-05   -7.913280791683542e-06
0.00011857913921331292   -1.992326024448398e-05   -7.913280791683542e-06
0.00011857913921331292   -1.992326024448398e-05   -7.913280791683542e-06
0.00011857913921331292   -1.992326024448398e-05   -7.913280791683542e-06
0.00017211901268276734   -2.7457591482722547e-05   -9.262580449783124e-05
0.00017211901268276734   -2.7457591482722547e-05   -9.262580449783124e-05
0.00017211901268276734   -2.7457591482722547e-05   -9.262580449783124e-05
0.00017211901268276734   -2.7457591482722547e-05   -9.262580449783124e-05
-0.0002608163585866493   3.7587388591953704e-05   -0.00017966934210458905
-0.0002608163585866493   3.7587388591953704e-05   -0.00017966934210458905
-0.0002608163585866493   3.7587388591953704e-05   -0.00017966934210458905
-0.0002608163585866493   3.7587388591953704e-05   -0.00017966934210458905
-0.00017087425178090402   2.8761707591817582e-05   -3.506123936176204e-05
-0.00017087425178090402   2.8761707591817582e-05   -3.506123936176204e-05
-0.00017087425178090402   2.8761707591817582e-05   -3.506123936176204e-05
-0.00017087425178090402   2.8761707591817582e-05   -3.506123936176204e-05
-0.000171720523104761   4.5081600598180765e-05   -0.0001491586242508701
-0.000171720523104761   4.5081600598180765e-05   -0.0001491586242508701
-0.000171720523104761   4.5081600598180765e-05   -0.0001491586242508701
-0.000171720523104761   4.5081600598180765e-05   -0.0001491586242508701
-0.00025692342598818466   3.477113766250711e-05   -9.675083504270127e-07
-0.00025692342598818466   3.477113766250711e-05   -9.675083504270127e-07
-0.00025692342598818466   3.477113766250711e-05   -9.675083504270127e-07
-0.00025692342598818466   3.477113766250711e-05   -9.675083504270127e-07
-0.00020599030342453197   3.8209711081018055e-05   -8.79191900076215e-05
-0.00020599030342453197   3.8209711081018055e-05   -8.79191900076215e-05
-0.00020599030342453197   3.8209711081018055e-05   -8.79191900076215e-05
-0.00020599030342453197   3.8209711081018055e-05   -8.79191900076215e-05
-0.00025692342598818466   4.5081600598180765e-05   -0.00014297234648946602
-0.00025692342598818466   4.5081600598180765e-05   -0.00014297234648946602
-0.00025692342598818466   4.5081600598180765e-05   -0.00014297234648946602
-0.00025692342598818466   4.5081600598180765e-05   -0.00014297234648946602
-0.000171720523104761   3.477113766250711e-05   -7.153786111830447e-06
-0.000171720523104761   3.477113766250711e-05   -7.153786111830447e-06
-0.000171720523104761   3.477113766250711e-05   -7.153786111830447e-06
-0.000171720523104761   3.477113766250711e-05   -7.153786111830447e-06
-0.00017156805781538435   4.846271355625443e-05   -0.00012759133384649193
-0.00017156805781538435   4.846271355625443e-05   -0.00012759133384649193
-0.00017156805781538435   4.846271355625443e-05   -0.00012759133384649193
-0.00017156805781538435   4.846271355625443e-05   -0.00012759133384649193
-0.0002531175646744182   3.740756461477739e-05   1.4957600283450239e-05
-0.0002531175646744182   3.740756461477739e-05   1.4957600283450239e-05
-0.0002531175646744182   3.740756461477739e-05   1.4957600283450239e-05
-0.0002531175646744182   3.740756461477739e-05   1.4957600283450239e-05
-0.0002078032169594387   4.1693764995402944e-05   -6.313803280322229e-05
-0.0002078032169594387   4.1693764995402944e-05   -6.313803280322229e-05
-0.0002078032169594387   4.1693764995402944e-05   -6.313803280322229e-05
-0.0002078032169594387   4.1693764995402944e-05   -6.313803280322229e-05
-0.0002531175646744182   4.846271355625443e-05   -0.00012095824448160586
-0.0002531175646744182   4.846271355625443e-05   -0.00012095824448160586
-0.0002531175646744182   4.846271355625443e-05   -0.00012095824448160586
-0.0002531175646744182   4.846271355625443e-05   -0.00012095824448160586
-0.00017156805781538468   3.740756461477783e-05   8.324510918564926e-06
-0.00017156805781538468   3.740756461477783e-05   8.324510918564926e-06
-0.00017156805781538468   3.740756461477783e-05   8.324510918564926e-06
-0.00017156805781538468   3.740756461477783e-05   8.324510918564926e-06
-0.00017175877788177813   5.1134206003961274e-05   -9.73583730799533e-05
-0.00017175877788177813   5.1134206003961274e-05   -9.73583730799533e-05
-0.00017175877788177813   5.1134206003961274e-05   -9.73583730799533e-05
-0.00017175877788177813   5.1134206003961274e-05   -9.73583730799533e-05
-0.00024813192305628696   3.998991490513715e-05   3.661677687018792e-05
-0.00024813192305628696   3.998991490513715e-05   3.661677687018792e-05
-0.00024813192305628696   3.998991490513715e-05   3.661677687018792e-05
-0.00024813192305628696   3.998991490513715e-05   3.661677687018792e-05
-0.0002030968996128379   4.351704243354092e-05   -4.055787205259971e-05
-0.0002030968996128379   4.351704243354092e-05   -4.055787205259971e-05
-0.0002030968996128379   4.351704243354092e-05   -4.055787205259971e-05
-0.0002030968996128379   4.351704243354092e-05   -4.055787205259971e-05
-0.00017087425178090402   1.7488893782493728e-05   -0.00020764065361237455
-0.00017087425178090402   1.7488893782493728e-05   -0.00020764065361237455
-0.00017087425178090402   1.7488893782493728e-05   -0.00020764065361237455
-0.00017087425178090402   1.7488893782493728e-05   -0.00020764065361237455
-8.684419785740227e-05   1.4325927656515768e-05   -6.948834341545822e-05
-8.684419785740227e-05   1.4325927656515768e-05   -6.948834341545822e-05
-8.684419785740227e-05   1.4325927656515768e-05   -6.948834341545822e-05
-8.684419785740227e-05   1.4325927656515768e-05   -6.948834341545822e-05
-8.791587496903986e-05   2.438105673758465e-05   -0.00020471290606628614
-8.791587496903986e-05   2.438105673758465e-05   -0.00020471290606628614
-8.791587496903986e-05   2.438105673758465e-05   -0.00020471290606628614
-8.791587496903986e-05   2.438105673758465e-05   -0.00020471290606628614
-0.00017172052310476078   2.0232842677027352e-05   -6.254956407041653e-05
-0.00017172052310476078   2.0232842677027352e-05   -6.254956407041653e-05
-0.00017172052310476078   2.0232842677027352e-05   -6.254956407041653e-05
-0.00017172052310476078   2.0232842677027352e-05   -6.254956407041653e-05
-0.00012823376109521187   2.0148925215779205e-05   -0.00013497715027624955
-0.00012823376109521187   2.0148925215779205e-05   -0.00013497715027624955
-0.00012823376109521187   2.0148925215779205e-05   -0.00013497715027624955
-0.00012823376109521187   2.0148925215779205e-05   -0.00013497715027624955
-0.00017172052310476094   2.438105673758465e-05   -0.00020222397762995146
-0.00017172052310476094   2.438105673758465e-05   -0.00020222397762995146
-0.00017172052310476094   2.438105673758465e-05   -0.00020222397762995146
-0.00017172052310476094   2.438105673758465e-05   -0.00020222397762995146
-8.791587496904e-05   2.0232842677027352e-05   -6.503849250675056e-05
-8.791587496904e-05   2.0232842677027352e-05   -6.503849250675056e-05
-8.791587496904e-05   2.0232842677027352e-05   -6.503849250675056e-05
-8.791587496904e-05   2.0232842677027352e-05   -6.503849250675056e-05
-8.861666114462824e-05   3.0081996828467805e-05   -0.00019928836714244833
-8.861666114462824e-05   3.0081996828467805e-05   -0.00019928836714244833
-8.861666114462824e-05   3.0081996828467805e-05   -0.00019928836714244833
-8.861666114462824e-05   3.0081996828467805e-05   -0.00019928836714244833
-0.00017156805781538435   2.5475761161317632e-05   -5.8272297957565576e-05
-0.00017156805781538435   2.5475761161317632e-05   -5.8272297957565576e-05
-0.00017156805781538435   2.5475761161317632e-05   -5.8272297957565576e-05
-0.00017156805781538435   2.5475761161317632e-05   -5.8272297957565576e-05
-0.00012848644873732408   2.500524833547353e-05   -0.00012979267205882362
-0.00012848644873732408   2.500524833547353e-05   -0.00012979267205882362
-0.00012848644873732408   2.500524833547353e-05   -0.00012979267205882362
-0.00012848644873732408   2.500524833547353e-05   -0.00012979267205882362
-0.00017156805781538435   3.008199682846802e-05   -0.0001965246257421583
-0.00017156805781538435   3.008199682846802e-05   -0.0001965246257421583
-0.00017156805781538435   3.008199682846802e-05   -0.0001965246257421583
-0.00017156805781538435   3.008199682846802e-05   -0.0001965246257421583
-8.861666114462849e-05   2.5475761161317632e-05   -6.103603935785507e-05
-8.861666114462849e-05   2.5475761161317632e-05   -6.103603935785507e-05
-8.861666114462849e-05   2.5475761161317632e-05   -6.103603935785507e-05
-8.861666114462849e-05   2.5475761161317632e-05   -6.103603935785507e-05
-8.951720429809849e-05   3.621265434173822e-05   -0.00019880279456981368
-8.951720429809849e-05   3.621265434173822e-05   -0.00019880279456981368
-8.951720429809849e-05   3.621265434173822e-05   -0.00019880279456981368
-8.951720429809849e-05   3.621265434173822e-05   -0.00019880279456981368
-0.00017175877788177803   3.10477512299916e-05   -5.86345633966335e-05
-0.00017175877788177803   3.10477512299916e-05   -5.86345633966335e-05
-0.00017175877788177803   3.10477512299916e-05   -5.86345633966335e-05
-0.00017175877788177803   3.10477512299916e-05   -5.86345633966335e-05
-0.00013002501570962496   2.9811031153401286e-05   -0.00012744880163759946
-0.00013002501570962496   2.9811031153401286e-05   -0.00012744880163759946
-0.00013002501570962496   2.9811031153401286e-05   -0.00012744880163759946
-0.00013002501570962496   2.9811031153401286e-05   -0.00012744880163759946
-8.684419785740213e-05   -5.116768922064797e-07   -0.00022375730165964973
-8.684419785740213e-05   -5.116768922064797e-07   -0.00022375730165964973
-8.684419785740213e-05   -5.116768922064797e-07   -0.00022375730165964973
-8.684419785740213e-05   -5.116768922064797e-07   -0.00022375730165964973
-3.772272661795747e-06   7.59664875732511e-07   -8.454128793954237e-05
-3.772272661795747e-06   7.59664875732511e-07   -8.454128793954237e-05
-3.772272661795747e-06   7.59664875732511e-07   -8.454128793954237e-05
-3.772272661795747e-06   7.59664875732511e-07   -8.454128793954237e-05
-4.634285371980183e-06   5.836667979252155e-06   -0.00022168596060519836
-4.634285371980183e-06   5.836667979252155e-06   -0.00022168596060519836
-4.634285371980183e-06   5.836667979252155e-06   -0.00022168596060519836
-4.634285371980183e-06   5.836667979252155e-06   -0.00022168596060519836
-8.791587496903986e-05   6.569696465064112e-06   -8.332312836825326e-05
-8.791587496903986e-05   6.569696465064112e-06   -8.332312836825326e-05
-8.791587496903986e-05   6.569696465064112e-06   -8.332312836825326e-05
-8.791587496903986e-05   6.569696465064112e-06   -8.332312836825326e-05
-4.5536140312544494e-05   3.82444280515792e-06   -0.00015230886726646836
-4.5536140312544494e-05   3.82444280515792e-06   -0.00015230886726646836
-4.5536140312544494e-05   3.82444280515792e-06   -0.00015230886726646836
-4.5536140312544494e-05   3.82444280515792e-06   -0.00015230886726646836
-8.791587496903986e-05   5.8366679792519385e-06   -0.000222125777696686
-8.791587496903986e-05   5.8366679792519385e-06   -0.000222125777696686
-8.791587496903986e-05   5.8366679792519385e-06   -0.000222125777696686
-8.791587496903986e-05   5.8366679792519385e-06   -0.000222125777696686
-4.63428537198019e-06   6.569696465064112e-06   -8.288331127676539e-05
-4.63428537198019e-06   6.569696465064112e-06   -8.288331127676539e-05
-4.63428537198019e-06   6.569696465064112e-06   -8.288331127676539e-05
-4.63428537198019e-06   6.569696465064112e-06   -8.288331127676539e-05
-5.2630401350244545e-06   1.2038285334955339e-05   -0.0002222953571412369
-5.2630401350244545e-06   1.2038285334955339e-05   -0.0002222953571412369
-5.2630401350244545e-06   1.2038285334955339e-05   -0.0002222953571412369
-5.2630401350244545e-06   1.2038285334955339e-05   -0.0002222953571412369
-8.861666114462838e-05   1.236195502510697e-05   -8.35668572726553e-05
-8.861666114462838e-05   1.236195502510697e-05   -8.35668572726553e-05
-8.861666114462838e-05   1.236195502510697e-05   -8.35668572726553e-05
-8.861666114462838e-05   1.236195502510697e-05   -8.35668572726553e-05
-4.664381021940562e-05   8.947140084905299e-06   -0.0001514727198505709
-4.664381021940562e-05   8.947140084905299e-06   -0.0001514727198505709
-4.664381021940562e-05   8.947140084905299e-06   -0.0001514727198505709
-4.664381021940562e-05   8.947140084905299e-06   -0.0001514727198505709
-8.861666114462838e-05   1.2038285334955339e-05   -0.00022248955895532796
-8.861666114462838e-05   1.2038285334955339e-05   -0.00022248955895532796
-8.861666114462838e-05   1.2038285334955339e-05   -0.00022248955895532796
-8.861666114462838e-05   1.2038285334955339e-05   -0.00022248955895532796
-5.263040135024465e-06   1.236195502510697e-05   -8.337265545856347e-05
-5.263040135024465e-06   1.236195502510697e-05   -8.337265545856347e-05
-5.263040135024465e-06   1.236195502510697e-05   -8.337265545856347e-05
-5.263040135024465e-06   1.236195502510697e-05   -8.337265545856347e-05
-6.241314278406993e-06   1.8501170416137776e-05   -0.00022515846359495522
-6.241314278406993e-06   1.8501170416137776e-05   -0.00022515846359495522
-6.241314278406993e-06   1.8501170416137776e-05   -0.00022515846359495522
-6.241314278406993e-06   1.8501170416137776e-05   -0.00022515846359495522
-8.951720429809838e-05   1.82893589416094e-05   -8.623822667742004e-05
-8.951720429809838e-05   1.82893589416094e-05   -8.623822667742004e-05
-8.951720429809838e-05   1.82893589416094e-05   -8.623822667742004e-05
-8.951720429809838e-05   1.82893589416094e-05   -8.623822667742004e-05
-4.781958946266496e-05   1.4130645540155837e-05   -0.0001532390233622691
-4.781958946266496e-05   1.4130645540155837e-05   -0.0001532390233622691
-4.781958946266496e-05   1.4130645540155837e-05   -0.0001532390233622691
-4.781958946266496e-05   1.4130645540155837e-05   -0.0001532390233622691
-3.772272661795757e-06   -1.785956188719677e-05   -0.00019997842476396485
-3.772272661795757e-06   -1.785956188719677e-05   -0.00019997842476396485
-3.772272661795757e-06   -1.785956188719677e-05   -0.00019997842476396485
-3.772272661795757e-06   -1.785956188719677e-05   -0.00019997842476396485
7.891117257074521e-05   -1.2001759508278517e-05   -5.865800128237921e-05
7.891117257074521e-05   -1.2001759508278517e-05   -5.865800128237921e-05
7.891117257074521e-05   -1.2001759508278517e-05   -5.865800128237921e-05
7.891117257074521e-05   -1.2001759508278517e-05   -5.865800128237921e-05
7.883382588263246e-05   -1.209777811447322e-05   -0.0001977085428877559
7.883382588263246e-05   -1.209777811447322e-05   -0.0001977085428877559
7.883382588263246e-05   -1.209777811447322e-05   -0.0001977085428877559
7.883382588263246e-05   -1.209777811447322e-05   -0.0001977085428877559
-4.63428537198019e-06   -6.68242054619253e-06   -6.184423867103592e-05
-4.63428537198019e-06   -6.68242054619253e-06   -6.184423867103592e-05
-4.63428537198019e-06   -6.68242054619253e-06   -6.184423867103592e-05
-4.63428537198019e-06   -6.68242054619253e-06   -6.184423867103592e-05
3.7047517315031035e-05   -1.1744714839029063e-05   -0.000128276533240353
3.7047517315031035e-05   -1.1744714839029063e-05   -0.000128276533240353
3.7047517315031035e-05   -1.1744714839029063e-05   -0.000128276533240353
3.7047517315031035e-05   -1.1744714839029063e-05   -0.000128276533240353
-4.63428537198019e-06   -1.2097778114473004e-05   -0.00020095775742872345
-4.63428537198019e-06   -1.2097778114473004e-05   -0.00020095775742872345
-4.63428537198019e-06   -1.2097778114473004e-05   -0.00020095775742872345
-4.63428537198019e-06   -1.2097778114473004e-05   -0.00020095775742872345
7.883382588263246e-05   -6.68242054619253e-06   -5.859502413006756e-05
7.883382588263246e-05   -6.68242054619253e-06   -5.859502413006756e-05
7.883382588263246e-05   -6.68242054619253e-06   -5.859502413006756e-05
7.883382588263246e-05   -6.68242054619253e-06   -5.859502413006756e-05
7.91818201372648e-05   -6.449877991334101e-06   -0.00020295905726857937
7.91818201372648e-05   -6.449877991334101e-06   -0.00020295905726857937
7.91818201372648e-05   -6.449877991334101e-06   -0.00020295905726857937
7.91818201372648e-05   -6.449877991334101e-06   -0.00020295905726857937
-5.263040135024475e-06   -1.4501186868230188e-06   -6.521747906413771e-05
-5.263040135024475e-06   -1.4501186868230188e-06   -6.521747906413771e-05
-5.263040135024475e-06   -1.4501186868230188e-06   -6.521747906413771e-05
-5.263040135024475e-06   -1.4501186868230188e-06   -6.521747906413771e-05
3.590188704931168e-05   -7.130799215752329e-06   -0.0001304172827206724
3.590188704931168e-05   -7.130799215752329e-06   -0.0001304172827206724
3.590188704931168e-05   -7.130799215752329e-06   -0.0001304172827206724
3.590188704931168e-05   -7.130799215752329e-06   -0.0001304172827206724
-5.263040135024458e-06   -6.449877991334101e-06   -0.00020595891285128513
-5.263040135024458e-06   -6.449877991334101e-06   -0.00020595891285128513
-5.263040135024458e-06   -6.449877991334101e-06   -0.00020595891285128513
-5.263040135024458e-06   -6.449877991334101e-06   -0.00020595891285128513
7.91818201372648e-05   -1.4501186868225852e-06   -6.221762348143016e-05
7.91818201372648e-05   -1.4501186868225852e-06   -6.221762348143016e-05
7.91818201372648e-05   -1.4501186868225852e-06   -6.221762348143016e-05
7.91818201372648e-05   -1.4501186868225852e-06   -6.221762348143016e-05
7.855471123034273e-05   5.408092390761857e-07   -0.00020889151007335194
7.855471123034273e-05   5.408092390761857e-07   -0.00020889151007335194
7.855471123034273e-05   5.408092390761857e-07   -0.00020889151007335194
7.855471123034273e-05   5.408092390761857e-07   -0.00020889151007335194
-6.241314278407006e-06   4.673255200959934e-06   -7.0044268469233e-05
-6.241314278407006e-06   4.673255200959934e-06   -7.0044268469233e-05
-6.241314278407006e-06   4.673255200959934e-06   -7.0044268469233e-05
-6.241314278407006e-06   4.673255200959934e-06   -7.0044268469233e-05
3.5490546292868344e-05   -2.189228575653294e-06   -0.0001354798791553896
3.5490546292868344e-05   -2.189228575653294e-06   -0.0001354798791553896
3.5490546292868344e-05   -2.189228575653294e-06   -0.0001354798791553896
3.5490546292868344e-05   -2.189228575653294e-06   -0.0001354798791553896
7.89111725707451e-05   -3.322586396867287e-05   -0.00011196422565005982
7.89111725707451e-05   -3.322586396867287e-05   -0.00011196422565005982
7.89111725707451e-05   -3.322586396867287e-05   -0.00011196422565005982
7.89111725707451e-05   -3.322586396867287e-05   -0.00011196422565005982
0.00015645604278710656   -2.1807124605296123e-05   2.412846832856928e-05
0.00015645604278710656   -2.1807124605296123e-05   2.412846832856928e-05
0.00015645604278710656   -2.1807124605296123e-05   2.412846832856928e-05
0.00015645604278710656   -2.1807124605296123e-05   2.412846832856928e-05
0.00016166878446899314   -3.017331205962129e-05   -0.00012610550858904225
0.00016166878446899314   -3.017331205962129e-05   -0.00012610550858904225
0.00016166878446899314   -3.017331205962129e-05   -0.00012610550858904225
0.00016166878446899314   -3.017331205962129e-05   -0.00012610550858904225
7.88338258826323e-05   -1.875166528277246e-05   5.099767655450003e-06
7.88338258826323e-05   -1.875166528277246e-05   5.099767655450003e-06
7.88338258826323e-05   -1.875166528277246e-05   5.099767655450003e-06
7.88338258826323e-05   -1.875166528277246e-05   5.099767655450003e-06
0.00011388187778829667   -2.568371065337586e-05   -4.915442496496224e-05
0.00011388187778829667   -2.568371065337586e-05   -4.915442496496224e-05
0.00011388187778829667   -2.568371065337586e-05   -4.915442496496224e-05
0.00011388187778829667   -2.568371065337586e-05   -4.915442496496224e-05
7.883382588263224e-05   -3.0173312059621508e-05   -0.00013295849665515133
7.883382588263224e-05   -3.0173312059621508e-05   -0.00013295849665515133
7.883382588263224e-05   -3.0173312059621508e-05   -0.00013295849665515133
7.883382588263224e-05   -3.0173312059621508e-05   -0.00013295849665515133
0.00016166878446899314   -1.875166528277246e-05   1.1952755721559736e-05
0.00016166878446899314   -1.875166528277246e-05   1.1952755721559736e-05
0.00016166878446899314   -1.875166528277246e-05   1.1952755721559736e-05
0.00016166878446899314   -1.875166528277246e-05   1.1952755721559736e-05
0.0001656635512735273   -2.692224384646816e-05   -0.00014226541026361484
0.0001656635512735273   -2.692224384646816e-05   -0.00014226541026361484
0.0001656635512735273   -2.692224384646816e-05   -0.00014226541026361484
0.0001656635512735273   -2.692224384646816e-05   -0.00014226541026361484
7.918182013726452e-05   -1.6119907141883515e-05   -4.610593725928717e-06
7.918182013726452e-05   -1.6119907141883515e-05   -4.610593725928717e-06
7.918182013726452e-05   -1.6119907141883515e-05   -4.610593725928717e-06
7.918182013726452e-05   -1.6119907141883515e-05   -4.610593725928717e-06
0.00011771546786963185   -2.371125954774185e-05   -6.427852850302484e-05
0.00011771546786963185   -2.371125954774185e-05   -6.427852850302484e-05
0.00011771546786963185   -2.371125954774185e-05   -6.427852850302484e-05
0.00011771546786963185   -2.371125954774185e-05   -6.427852850302484e-05
7.918182013726469e-05   -2.692224384646816e-05   -0.0001487468122863656
7.918182013726469e-05   -2.692224384646816e-05   -0.0001487468122863656
7.918182013726469e-05   -2.692224384646816e-05   -0.0001487468122863656
7.918182013726469e-05   -2.692224384646816e-05   -0.0001487468122863656
0.00016566355127352697   -1.6119907141883515e-05   1.8708082968230903e-06
0.00016566355127352697   -1.6119907141883515e-05   1.8708082968230903e-06
0.00016566355127352697   -1.6119907141883515e-05   1.8708082968230903e-06
0.00016566355127352697   -1.6119907141883515e-05   1.8708082968230903e-06
0.00016991045827317256   -1.992326024448398e-05   -0.00016973287209817278
0.00016991045827317256   -1.992326024448398e-05   -0.00016973287209817278
0.00016991045827317256   -1.992326024448398e-05   -0.00016973287209817278
0.00016991045827317256   -1.992326024448398e-05   -0.00016973287209817278
7.855471123034241e-05   -1.0488997618736656e-05   -2.3133851268905027e-05
7.855471123034241e-05   -1.0488997618736656e-05   -2.3133851268905027e-05
7.855471123034241e-05   -1.0488997618736656e-05   -2.3133851268905027e-05
7.855471123034241e-05   -1.0488997618736656e-05   -2.3133851268905027e-05
0.00011717660057568318   -2.0440194584382503e-05   -8.15329486650849e-05
0.00011717660057568318   -2.0440194584382503e-05   -8.15329486650849e-05
0.00011717660057568318   -2.0440194584382503e-05   -8.15329486650849e-05
0.00011717660057568318   -2.0440194584382503e-05   -8.15329486650849e-05
-0.00018782505185000896   2.8761707591817582e-05   -0.0001426378786219824
-0.00018782505185000896   2.8761707591817582e-05   -0.0001426378786219824
-0.00018782505185000896   2.8761707591817582e-05   -0.0001426378786219824
-0.00018782505185000896   2.8761707591817582e-05   -0.0001426378786219824
-0.0001277356628405456   1.8334446924503974e-05   -4.8745253339931276e-05
-0.0001277356628405456   1.8334446924503974e-05   -4.8745253339931276e-05
-0.0001277356628405456   1.8334446924503974e-05   -4.8745253339931276e-05
-0.0001277356628405456   1.8334446924503974e-05   -4.8745253339931276e-05
-0.00012727372743857044   3.477113766250711e-05   -0.0001211693127305619
-0.00012727372743857044   3.477113766250711e-05   -0.0001211693127305619
-0.00012727372743857044   3.477113766250711e-05   -0.0001211693127305619
-0.00012727372743857044   3.477113766250711e-05   -0.0001211693127305619
-0.00018224396823165643   2.3317286750663708e-05   -2.2679934194978378e-05
-0.00018224396823165643   2.3317286750663708e-05   -2.2679934194978378e-05
-0.00018224396823165643   2.3317286750663708e-05   -2.2679934194978378e-05
-0.00018224396823165643   2.3317286750663708e-05   -2.2679934194978378e-05
-0.000149640854184277   2.7688740147755256e-05   -7.964132964553296e-05
-0.000149640854184277   2.7688740147755256e-05   -7.964132964553296e-05
-0.000149640854184277   2.7688740147755256e-05   -7.964132964553296e-05
-0.000149640854184277   2.7688740147755256e-05   -7.964132964553296e-05
-0.00018224396823165643   3.477113766250711e-05   -0.00011429700218345542
-0.00018224396823165643   3.477113766250711e-05   -0.00011429700218345542
-0.00018224396823165643   3.477113766250711e-05   -0.00011429700218345542
-0.00018224396823165643   3.477113766250711e-05   -0.00011429700218345542
-0.00012727372743857066   2.3317286750663708e-05   -2.9552244742085286e-05
-0.00012727372743857066   2.3317286750663708e-05   -2.9552244742085286e-05
-0.00012727372743857066   2.3317286750663708e-05   -2.9552244742085286e-05
-0.00012727372743857066   2.3317286750663708e-05   -2.9552244742085286e-05
-0.00012631055911146928   3.740756461477739e-05   -0.00010565642654041408
-0.00012631055911146928   3.740756461477739e-05   -0.00010565642654041408
-0.00012631055911146928   3.740756461477739e-05   -0.00010565642654041408
-0.00012631055911146928   3.740756461477739e-05   -0.00010565642654041408
-0.0001780655243619443   2.5633740261620398e-05   -1.2333856511061734e-05
-0.0001780655243619443   2.5633740261620398e-05   -1.2333856511061734e-05
-0.0001780655243619443   2.5633740261620398e-05   -1.2333856511061734e-05
-0.0001780655243619443   2.5633740261620398e-05   -1.2333856511061734e-05
-0.00014966143674141218   3.0468089368535217e-05   -6.257461200943155e-05
-0.00014966143674141218   3.0468089368535217e-05   -6.257461200943155e-05
-0.00014966143674141218   3.0468089368535217e-05   -6.257461200943155e-05
-0.00014966143674141218   3.0468089368535217e-05   -6.257461200943155e-05
-0.0001780655243619443   3.740756461477739e-05   -9.859213192851997e-05
-0.0001780655243619443   3.740756461477739e-05   -9.859213192851997e-05
-0.0001780655243619443   3.740756461477739e-05   -9.859213192851997e-05
-0.0001780655243619443   3.740756461477739e-05   -9.859213192851997e-05
-0.0001263105591114695   2.5633740261620398e-05   -1.939815112295541e-05
-0.0001263105591114695   2.5633740261620398e-05   -1.939815112295541e-05
-0.0001263105591114695   2.5633740261620398e-05   -1.939815112295541e-05
-0.0001263105591114695   2.5633740261620398e-05   -1.939815112295541e-05
-0.00012592079836687203   3.998991490513672e-05   -8.416324180628675e-05
-0.00012592079836687203   3.998991490513672e-05   -8.416324180628675e-05
-0.00012592079836687203   3.998991490513672e-05   -8.416324180628675e-05
-0.00012592079836687203   3.998991490513672e-05   -8.416324180628675e-05
-0.0001725908990290203   2.8538680268735267e-05   4.91000079135516e-07
-0.0001725908990290203   2.8538680268735267e-05   4.91000079135516e-07
-0.0001725908990290203   2.8538680268735267e-05   4.91000079135516e-07
-0.0001725908990290203   2.8538680268735267e-05   4.91000079135516e-07
-0.00014524007054141064   3.1964229242381365e-05   -4.71490434510685e-05
-0.00014524007054141064   3.1964229242381365e-05   -4.71490434510685e-05
-0.00014524007054141064   3.1964229242381365e-05   -4.71490434510685e-05
-0.00014524007054141064   3.1964229242381365e-05   -4.71490434510685e-05
-0.0001277356628405454   1.4325927656515768e-05   -0.00018142355940047993
-0.0001277356628405454   1.4325927656515768e-05   -0.00018142355940047993
-0.0001277356628405454   1.4325927656515768e-05   -0.00018142355940047993
-0.0001277356628405454   1.4325927656515768e-05   -0.00018142355940047993
-7.331802337746273e-05   9.45382395718241e-06   -9.365075584827538e-05
-7.331802337746273e-05   9.45382395718241e-06   -9.365075584827538e-05
-7.331802337746273e-05   9.45382395718241e-06   -9.365075584827538e-05
-7.331802337746273e-05   9.45382395718241e-06   -9.365075584827538e-05
-7.335215401569169e-05   2.0232842677027352e-05   -0.00017987832115558006
-7.335215401569169e-05   2.0232842677027352e-05   -0.00017987832115558006
-7.335215401569169e-05   2.0232842677027352e-05   -0.00017987832115558006
-7.335215401569169e-05   2.0232842677027352e-05   -0.00017987832115558006
-0.00012727372743857044   1.4710791899639857e-05   -8.669580165101632e-05
-0.00012727372743857044   1.4710791899639857e-05   -8.669580165101632e-05
-0.00012727372743857044   1.4710791899639857e-05   -8.669580165101632e-05
-0.00012727372743857044   1.4710791899639857e-05   -8.669580165101632e-05
-9.949530904224894e-05   1.565430763232796e-05   -0.00013355927508449847
-9.949530904224894e-05   1.565430763232796e-05   -0.00013355927508449847
-9.949530904224894e-05   1.565430763232796e-05   -0.00013355927508449847
-9.949530904224894e-05   1.565430763232796e-05   -0.00013355927508449847
-0.00012727372743857022   2.0232842677027352e-05   -0.00017656509068914679
-0.00012727372743857022   2.0232842677027352e-05   -0.00017656509068914679
-0.00012727372743857022   2.0232842677027352e-05   -0.00017656509068914679
-0.00012727372743857022   2.0232842677027352e-05   -0.00017656509068914679
-7.335215401569169e-05   1.4710791899639857e-05   -9.000903211744873e-05
-7.335215401569169e-05   1.4710791899639857e-05   -9.000903211744873e-05
-7.335215401569169e-05   1.4710791899639857e-05   -9.000903211744873e-05
-7.335215401569169e-05   1.4710791899639857e-05   -9.000903211744873e-05
-7.329564149791498e-05   2.5475761161317632e-05   -0.00017584523004692595
-7.329564149791498e-05   2.5475761161317632e-05   -0.00017584523004692595
-7.329564149791498e-05   2.5475761161317632e-05   -0.00017584523004692595
-7.329564149791498e-05   2.5475761161317632e-05   -0.00017584523004692595
-0.00012631055911146928   1.9489103444014343e-05   -8.389503939395322e-05
-0.00012631055911146928   1.9489103444014343e-05   -8.389503939395322e-05
-0.00012631055911146928   1.9489103444014343e-05   -8.389503939395322e-05
-0.00012631055911146928   1.9489103444014343e-05   -8.389503939395322e-05
-9.902916681335465e-05   1.996663674633508e-05   -0.00012965054653886943
-9.902916681335465e-05   1.996663674633508e-05   -0.00012965054653886943
-9.902916681335465e-05   1.996663674633508e-05   -0.00012965054653886943
-9.902916681335465e-05   1.996663674633508e-05   -0.00012965054653886943
-0.00012631055911146928   2.5475761161317632e-05   -0.00017225323541654393
-0.00012631055911146928   2.5475761161317632e-05   -0.00017225323541654393
-0.00012631055911146928   2.5475761161317632e-05   -0.00017225323541654393
-0.00012631055911146928   2.5475761161317632e-05   -0.00017225323541654393
-7.329564149791514e-05   1.9489103444014343e-05   -8.74870340243348e-05
-7.329564149791514e-05   1.9489103444014343e-05   -8.74870340243348e-05
-7.329564149791514e-05   1.9489103444014343e-05   -8.74870340243348e-05
-7.329564149791514e-05   1.9489103444014343e-05   -8.74870340243348e-05
-7.33509046124904e-05   3.1047751229992034e-05   -0.00017655220554913496
-7.33509046124904e-05   3.1047751229992034e-05   -0.00017655220554913496
-7.33509046124904e-05   3.1047751229992034e-05   -0.00017655220554913496
-7.33509046124904e-05   3.1047751229992034e-05   -0.00017655220554913496
-0.00012592079836687214   2.4674087671123102e-05   -8.511151782317704e-05
-0.00012592079836687214   2.4674087671123102e-05   -8.511151782317704e-05
-0.00012592079836687214   2.4674087671123102e-05   -8.511151782317704e-05
-0.00012592079836687214   2.4674087671123102e-05   -8.511151782317704e-05
-9.966802805840152e-05   2.422732607522274e-05   -0.00012859807804642084
-9.966802805840152e-05   2.422732607522274e-05   -0.00012859807804642084
-9.966802805840152e-05   2.422732607522274e-05   -0.00012859807804642084
-9.966802805840152e-05   2.422732607522274e-05   -0.00012859807804642084
-7.331802337746262e-05   7.59664875732511e-07   -0.0002001625712049278
-7.331802337746262e-05   7.59664875732511e-07   -0.0002001625712049278
-7.331802337746262e-05   7.59664875732511e-07   -0.0002001625712049278
-7.331802337746262e-05   7.59664875732511e-07   -0.0002001625712049278
-1.9679639631494562e-05   1.6119485051302278e-06   -0.00011025389478400865
-1.9679639631494562e-05   1.6119485051302278e-06   -0.00011025389478400865
-1.9679639631494562e-05   1.6119485051302278e-06   -0.00011025389478400865
-1.9679639631494562e-05   1.6119485051302278e-06   -0.00011025389478400865
-1.9714496760447865e-05   6.569696465064112e-06   -0.00019796955783880693
-1.9714496760447865e-05   6.569696465064112e-06   -0.00019796955783880693
-1.9714496760447865e-05   6.569696465064112e-06   -0.00019796955783880693
-1.9714496760447865e-05   6.569696465064112e-06   -0.00019796955783880693
-7.335215401569153e-05   6.892028428856587e-06   -0.00010876686159167588
-7.335215401569153e-05   6.892028428856587e-06   -0.00010876686159167588
-7.335215401569153e-05   6.892028428856587e-06   -0.00010876686159167588
-7.335215401569153e-05   6.892028428856587e-06   -0.00010876686159167588
-4.620832656608193e-05   4.636820967518062e-06   -0.00015265344953088874
-4.620832656608193e-05   4.636820967518062e-06   -0.00015265344953088874
-4.620832656608193e-05   4.636820967518062e-06   -0.00015265344953088874
-4.620832656608193e-05   4.636820967518062e-06   -0.00015265344953088874
-7.335215401569153e-05   6.569696465064112e-06   -0.0001981629570170819
-7.335215401569153e-05   6.569696465064112e-06   -0.0001981629570170819
-7.335215401569153e-05   6.569696465064112e-06   -0.0001981629570170819
-7.335215401569153e-05   6.569696465064112e-06   -0.0001981629570170819
-1.9714496760447865e-05   6.892028428856587e-06   -0.00010857346241340059
-1.9714496760447865e-05   6.892028428856587e-06   -0.00010857346241340059
-1.9714496760447865e-05   6.892028428856587e-06   -0.00010857346241340059
-1.9714496760447865e-05   6.892028428856587e-06   -0.00010857346241340059
-1.9642212985115136e-05   1.236195502510697e-05   -0.0001984798792859111
-1.9642212985115136e-05   1.236195502510697e-05   -0.0001984798792859111
-1.9642212985115136e-05   1.236195502510697e-05   -0.0001984798792859111
-1.9642212985115136e-05   1.236195502510697e-05   -0.0001984798792859111
-7.329564149791498e-05   1.2188902818130367e-05   -0.000108953667107059
-7.329564149791498e-05   1.2188902818130367e-05   -0.000108953667107059
-7.329564149791498e-05   1.2188902818130367e-05   -0.000108953667107059
-7.329564149791498e-05   1.2188902818130367e-05   -0.000108953667107059
-4.651552046150469e-05   9.252659857453358e-06   -0.000151825456391337
-4.651552046150469e-05   9.252659857453358e-06   -0.000151825456391337
-4.651552046150469e-05   9.252659857453358e-06   -0.000151825456391337
-4.651552046150469e-05   9.252659857453358e-06   -0.000151825456391337
-7.329564149791498e-05   1.236195502510697e-05   -0.0001983760479617252
-7.329564149791498e-05   1.236195502510697e-05   -0.0001983760479617252
-7.329564149791498e-05   1.236195502510697e-05   -0.0001983760479617252
-7.329564149791498e-05   1.236195502510697e-05   -0.0001983760479617252
-1.964221298511517e-05   1.2188902818130367e-05   -0.00010905749843124449
-1.964221298511517e-05   1.2188902818130367e-05   -0.00010905749843124449
-1.964221298511517e-05   1.2188902818130367e-05   -0.00010905749843124449
-1.964221298511517e-05   1.2188902818130367e-05   -0.00010905749843124449
-1.9672155216095453e-05   1.82893589416094e-05   -0.0002014835078070678
-1.9672155216095453e-05   1.82893589416094e-05   -0.0002014835078070678
-1.9672155216095453e-05   1.82893589416094e-05   -0.0002014835078070678
-1.9672155216095453e-05   1.82893589416094e-05   -0.0002014835078070678
-7.335090461249035e-05   1.7578390867952452e-05   -0.00011159234463554806
-7.335090461249035e-05   1.7578390867952452e-05   -0.00011159234463554806
-7.335090461249035e-05   1.7578390867952452e-05   -0.00011159234463554806
-7.335090461249035e-05   1.7578390867952452e-05   -0.00011159234463554806
-4.691336560310874e-05   1.392907168474948e-05   -0.00015346531814126256
-4.691336560310874e-05   1.392907168474948e-05   -0.00015346531814126256
-4.691336560310874e-05   1.392907168474948e-05   -0.00015346531814126256
-4.691336560310874e-05   1.392907168474948e-05   -0.00015346531814126256
-1.9679639631494528e-05   -1.2001759508278517e-05   -0.00017728259579747642
-1.9679639631494528e-05   -1.2001759508278517e-05   -0.00017728259579747642
-1.9679639631494528e-05   -1.2001759508278517e-05   -0.00017728259579747642
-1.9679639631494528e-05   -1.2001759508278517e-05   -0.00017728259579747642
3.3213651666859454e-05   -5.564195032710037e-06   -8.526457161487874e-05
3.3213651666859454e-05   -5.564195032710037e-06   -8.526457161487874e-05
3.3213651666859454e-05   -5.564195032710037e-06   -8.526457161487874e-05
3.3213651666859454e-05   -5.564195032710037e-06   -8.526457161487874e-05
3.364679746354439e-05   -6.682420546192964e-06   -0.00017327885314522202
3.364679746354439e-05   -6.682420546192964e-06   -0.00017327885314522202
3.364679746354439e-05   -6.682420546192964e-06   -0.00017327885314522202
3.364679746354439e-05   -6.682420546192964e-06   -0.00017327885314522202
-1.9714496760447865e-05   -5.963670664356838e-07   -8.799499485975652e-05
-1.9714496760447865e-05   -5.963670664356838e-07   -8.799499485975652e-05
-1.9714496760447865e-05   -5.963670664356838e-07   -8.799499485975652e-05
-1.9714496760447865e-05   -5.963670664356838e-07   -8.799499485975652e-05
6.892652631673538e-06   -5.753064804936859e-06   -0.00012924622520352463
6.892652631673538e-06   -5.753064804936859e-06   -0.00012924622520352463
6.892652631673538e-06   -5.753064804936859e-06   -0.00012924622520352463
6.892652631673538e-06   -5.753064804936859e-06   -0.00012924622520352463
-1.9714496760447865e-05   -6.68242054619253e-06   -0.00017693048523307708
-1.9714496760447865e-05   -6.68242054619253e-06   -0.00017693048523307708
-1.9714496760447865e-05   -6.68242054619253e-06   -0.00017693048523307708
-1.9714496760447865e-05   -6.68242054619253e-06   -0.00017693048523307708
3.3646797463544496e-05   -5.963670664356838e-07   -8.43433627719021e-05
3.3646797463544496e-05   -5.963670664356838e-07   -8.43433627719021e-05
3.3646797463544496e-05   -5.963670664356838e-07   -8.43433627719021e-05
3.3646797463544496e-05   -5.963670664356838e-07   -8.43433627719021e-05
3.465875581682554e-05   -1.4501186868230188e-06   -0.00017694187399233934
3.465875581682554e-05   -1.4501186868230188e-06   -0.00017694187399233934
3.465875581682554e-05   -1.4501186868230188e-06   -0.00017694187399233934
3.465875581682554e-05   -1.4501186868230188e-06   -0.00017694187399233934
-1.964221298511517e-05   4.187929478418392e-06   -8.982308822158307e-05
-1.964221298511517e-05   4.187929478418392e-06   -8.982308822158307e-05
-1.964221298511517e-05   4.187929478418392e-06   -8.982308822158307e-05
-1.964221298511517e-05   4.187929478418392e-06   -8.982308822158307e-05
6.5886237036966524e-06   -1.6215774034152725e-06   -0.00013005544524050258
6.5886237036966524e-06   -1.6215774034152725e-06   -0.00013005544524050258
6.5886237036966524e-06   -1.6215774034152725e-06   -0.00013005544524050258
6.5886237036966524e-06   -1.6215774034152725e-06   -0.00013005544524050258
-1.9642212985115153e-05   -1.4501186868230188e-06   -0.00018032470289148367
-1.9642212985115153e-05   -1.4501186868230188e-06   -0.00018032470289148367
-1.9642212985115153e-05   -1.4501186868230188e-06   -0.00018032470289148367
-1.9642212985115153e-05   -1.4501186868230188e-06   -0.00018032470289148367
3.4658755816825704e-05   4.187929478418392e-06   -8.644025932243778e-05
3.4658755816825704e-05   4.187929478418392e-06   -8.644025932243778e-05
3.4658755816825704e-05   4.187929478418392e-06   -8.644025932243778e-05
3.4658755816825704e-05   4.187929478418392e-06   -8.644025932243778e-05
3.51517633875129e-05   4.673255200959934e-06   -0.0001821601690076421
3.51517633875129e-05   4.673255200959934e-06   -0.0001821601690076421
3.51517633875129e-05   4.673255200959934e-06   -0.0001821601690076421
3.51517633875129e-05   4.673255200959934e-06   -0.0001821601690076421
-1.967215521609542e-05   9.67707804516195e-06   -9.378926504148298e-05
-1.967215521609542e-05   9.67707804516195e-06   -9.378926504148298e-05
-1.967215521609542e-05   9.67707804516195e-06   -9.378926504148298e-05
-1.967215521609542e-05   9.67707804516195e-06   -9.378926504148298e-05
6.77506856463832e-06   2.803420484049062e-06   -0.00013374377680603743
6.77506856463832e-06   2.803420484049062e-06   -0.00013374377680603743
6.77506856463832e-06   2.803420484049062e-06   -0.00013374377680603743
6.77506856463832e-06   2.803420484049062e-06   -0.00013374377680603743
3.32136516668594e-05   -2.1807124605296123e-05   -9.748483111921284e-05
3.32136516668594e-05   -2.1807124605296123e-05   -9.748483111921284e-05
3.32136516668594e-05   -2.1807124605296123e-05   -9.748483111921284e-05
3.32136516668594e-05   -2.1807124605296123e-05   -9.748483111921284e-05
8.032287447310219e-05   -1.0255937640432991e-05   -1.2038747596557382e-05
8.032287447310219e-05   -1.0255937640432991e-05   -1.2038747596557382e-05
8.032287447310219e-05   -1.0255937640432991e-05   -1.2038747596557382e-05
8.032287447310219e-05   -1.0255937640432991e-05   -1.2038747596557382e-05
8.587110523913257e-05   -1.8751665282772893e-05   -0.00010247198908936263
8.587110523913257e-05   -1.8751665282772893e-05   -0.00010247198908936263
8.587110523913257e-05   -1.8751665282772893e-05   -0.00010247198908936263
8.587110523913257e-05   -1.8751665282772893e-05   -0.00010247198908936263
3.364679746354444e-05   -6.898211498869173e-06   -2.2543548400391373e-05
3.364679746354444e-05   -6.898211498869173e-06   -2.2543548400391373e-05
3.364679746354444e-05   -6.898211498869173e-06   -2.2543548400391373e-05
3.364679746354444e-05   -6.898211498869173e-06   -2.2543548400391373e-05
5.57793219064232e-05   -1.3982425067568006e-05   -5.518056099730324e-05
5.57793219064232e-05   -1.3982425067568006e-05   -5.518056099730324e-05
5.57793219064232e-05   -1.3982425067568006e-05   -5.518056099730324e-05
5.57793219064232e-05   -1.3982425067568006e-05   -5.518056099730324e-05
3.364679746354444e-05   -1.875166528277246e-05   -0.0001095840613597038
3.364679746354444e-05   -1.875166528277246e-05   -0.0001095840613597038
3.364679746354444e-05   -1.875166528277246e-05   -0.0001095840613597038
3.364679746354444e-05   -1.875166528277246e-05   -0.0001095840613597038
8.587110523913225e-05   -6.898211498869173e-06   -1.5431476130048794e-05
8.587110523913225e-05   -6.898211498869173e-06   -1.5431476130048794e-05
8.587110523913225e-05   -6.898211498869173e-06   -1.5431476130048794e-05
8.587110523913225e-05   -6.898211498869173e-06   -1.5431476130048794e-05
9.013602828787702e-05   -1.6119907141883515e-05   -0.00011240719464099313
9.013602828787702e-05   -1.6119907141883515e-05   -0.00011240719464099313
9.013602828787702e-05   -1.6119907141883515e-05   -0.00011240719464099313
9.013602828787702e-05   -1.6119907141883515e-05   -0.00011240719464099313
3.4658755816825704e-05   -4.573824482143052e-06   -2.687272345175168e-05
3.4658755816825704e-05   -4.573824482143052e-06   -2.687272345175168e-05
3.4658755816825704e-05   -4.573824482143052e-06   -2.687272345175168e-05
3.4658755816825704e-05   -4.573824482143052e-06   -2.687272345175168e-05
5.91815784422134e-05   -1.226107940924346e-05   -6.313174153780405e-05
5.91815784422134e-05   -1.226107940924346e-05   -6.313174153780405e-05
5.91815784422134e-05   -1.226107940924346e-05   -6.313174153780405e-05
5.91815784422134e-05   -1.226107940924346e-05   -6.313174153780405e-05
3.465875581682565e-05   -1.6119907141883515e-05   -0.00011933484423683714
3.465875581682565e-05   -1.6119907141883515e-05   -0.00011933484423683714
3.465875581682565e-05   -1.6119907141883515e-05   -0.00011933484423683714
3.465875581682565e-05   -1.6119907141883515e-05   -0.00011933484423683714
9.01360282878767e-05   -4.573824482143052e-06   -1.9945073855907013e-05
9.01360282878767e-05   -4.573824482143052e-06   -1.9945073855907013e-05
9.01360282878767e-05   -4.573824482143052e-06   -1.9945073855907013e-05
9.01360282878767e-05   -4.573824482143052e-06   -1.9945073855907013e-05
9.579589369620425e-05   -1.048899761873709e-05   -0.00013143129115318847
9.579589369620425e-05   -1.048899761873709e-05   -0.00013143129115318847
9.579589369620425e-05   -1.048899761873709e-05   -0.00013143129115318847
9.579589369620425e-05   -1.048899761873709e-05   -0.00013143129115318847
3.51517633875129e-05   7.54943335666905e-09   -3.66556688699589e-05
3.51517633875129e-05   7.54943335666905e-09   -3.66556688699589e-05
3.51517633875129e-05   7.54943335666905e-09   -3.66556688699589e-05
3.51517633875129e-05   7.54943335666905e-09   -3.66556688699589e-05
6.029479408026323e-05   -9.683350709902873e-06   -7.274617993858654e-05
6.029479408026323e-05   -9.683350709902873e-06   -7.274617993858654e-05
6.029479408026323e-05   -9.683350709902873e-06   -7.274617993858654e-05
6.029479408026323e-05   -9.683350709902873e-06   -7.274617993858654e-05
-0.00011404071240442271   1.8334446924503974e-05   -0.00010664520658546124
-0.00011404071240442271   1.8334446924503974e-05   -0.00010664520658546124
-0.00011404071240442271   1.8334446924503974e-05   -0.00010664520658546124
-0.00011404071240442271   1.8334446924503974e-05   -0.00010664520658546124
-8.400893540437483e-05   7.5028645165958405e-06   -6.30911943634595e-05
-8.400893540437483e-05   7.5028645165958405e-06   -6.30911943634595e-05
-8.400893540437483e-05   7.5028645165958405e-06   -6.30911943634595e-05
-8.400893540437483e-05   7.5028645165958405e-06   -6.30911943634595e-05
-8.276244393020228e-05   2.3317286750663274e-05   -9.407908062394627e-05
-8.276244393020228e-05   2.3317286750663274e-05   -9.407908062394627e-05
-8.276244393020228e-05   2.3317286750663274e-05   -9.407908062394627e-05
-8.276244393020228e-05   2.3317286750663274e-05   -9.407908062394627e-05
-0.00010786829016697802   1.165612601688494e-05   -4.523930712238555e-05
-0.00010786829016697802   1.165612601688494e-05   -4.523930712238555e-05
-0.00010786829016697802   1.165612601688494e-05   -4.523930712238555e-05
-0.00010786829016697802   1.165612601688494e-05   -4.523930712238555e-05
-9.305261681548887e-05   1.6439412494888977e-05   -7.280206792834032e-05
-9.305261681548887e-05   1.6439412494888977e-05   -7.280206792834032e-05
-9.305261681548887e-05   1.6439412494888977e-05   -7.280206792834032e-05
-9.305261681548887e-05   1.6439412494888977e-05   -7.280206792834032e-05
-0.00010786829016697802   2.3317286750663274e-05   -8.70823841836797e-05
-0.00010786829016697802   2.3317286750663274e-05   -8.70823841836797e-05
-0.00010786829016697802   2.3317286750663274e-05   -8.70823841836797e-05
-0.00010786829016697802   2.3317286750663274e-05   -8.70823841836797e-05
-8.276244393020239e-05   1.1656126016885808e-05   -5.2236003562652986e-05
-8.276244393020239e-05   1.1656126016885808e-05   -5.2236003562652986e-05
-8.276244393020239e-05   1.1656126016885808e-05   -5.2236003562652986e-05
-8.276244393020239e-05   1.1656126016885808e-05   -5.2236003562652986e-05
-8.09867535953837e-05   2.5633740261620398e-05   -8.40121118647879e-05
-8.09867535953837e-05   2.5633740261620398e-05   -8.40121118647879e-05
-8.09867535953837e-05   2.5633740261620398e-05   -8.40121118647879e-05
-8.09867535953837e-05   2.5633740261620398e-05   -8.40121118647879e-05
-0.00010293501688872736   1.3748480502785189e-05   -4.0300517187246646e-05
-0.00010293501688872736   1.3748480502785189e-05   -4.0300517187246646e-05
-0.00010293501688872736   1.3748480502785189e-05   -4.0300517187246646e-05
-0.00010293501688872736   1.3748480502785189e-05   -4.0300517187246646e-05
-9.141933272233555e-05   1.8677992775092966e-05   -6.24510314946175e-05
-9.141933272233555e-05   1.8677992775092966e-05   -6.24510314946175e-05
-9.141933272233555e-05   1.8677992775092966e-05   -6.24510314946175e-05
-9.141933272233555e-05   1.8677992775092966e-05   -6.24510314946175e-05
-0.00010293501688872714   2.5633740261620398e-05   -7.688095600948651e-05
-0.00010293501688872714   2.5633740261620398e-05   -7.688095600948651e-05
-0.00010293501688872714   2.5633740261620398e-05   -7.688095600948651e-05
-0.00010293501688872714   2.5633740261620398e-05   -7.688095600948651e-05
-8.098675359538392e-05   1.3748480502785189e-05   -4.74316730425476e-05
-8.098675359538392e-05   1.3748480502785189e-05   -4.74316730425476e-05
-8.098675359538392e-05   1.3748480502785189e-05   -4.74316730425476e-05
-8.098675359538392e-05   1.3748480502785189e-05   -4.74316730425476e-05
-7.976823735913823e-05   2.8538680268734833e-05   -7.108440569434261e-05
-7.976823735913823e-05   2.8538680268734833e-05   -7.108440569434261e-05
-7.976823735913823e-05   2.8538680268734833e-05   -7.108440569434261e-05
-7.976823735913823e-05   2.8538680268734833e-05   -7.108440569434261e-05
-9.665082136974738e-05   1.7059874012880123e-05   -3.605948192314653e-05
-9.665082136974738e-05   1.7059874012880123e-05   -3.605948192314653e-05
-9.665082136974738e-05   1.7059874012880123e-05   -3.605948192314653e-05
-9.665082136974738e-05   1.7059874012880123e-05   -3.605948192314653e-05
-8.71409685950987e-05   2.0220395169923307e-05   -5.380554924178972e-05
-8.71409685950987e-05   2.0220395169923307e-05   -5.380554924178972e-05
-8.71409685950987e-05   2.0220395169923307e-05   -5.380554924178972e-05
-8.71409685950987e-05   2.0220395169923307e-05   -5.380554924178972e-05
-8.400893540437483e-05   9.453823957181976e-06   -0.0001551263963189501
-8.400893540437483e-05   9.453823957181976e-06   -0.0001551263963189501
-8.400893540437483e-05   9.453823957181976e-06   -0.0001551263963189501
-8.400893540437483e-05   9.453823957181976e-06   -0.0001551263963189501
-5.9631669651735524e-05   4.274707164595402e-06   -0.00011760509014010372
-5.9631669651735524e-05   4.274707164595402e-06   -0.00011760509014010372
-5.9631669651735524e-05   4.274707164595402e-06   -0.00011760509014010372
-5.9631669651735524e-05   4.274707164595402e-06   -0.00011760509014010372
-5.88080313276367e-05   1.4710791899639857e-05   -0.000154628866072112
-5.88080313276367e-05   1.4710791899639857e-05   -0.000154628866072112
-5.88080313276367e-05   1.4710791899639857e-05   -0.000154628866072112
-5.88080313276367e-05   1.4710791899639857e-05   -0.000154628866072112
-8.27624439302025e-05   9.033744334249923e-06   -0.00011129861652860043
-8.27624439302025e-05   9.033744334249923e-06   -0.00011129861652860043
-8.27624439302025e-05   9.033744334249923e-06   -0.00011129861652860043
-8.27624439302025e-05   9.033744334249923e-06   -0.00011129861652860043
-7.06079170002381e-05   1.0273121006974285e-05   -0.00013229978741551235
-7.06079170002381e-05   1.0273121006974285e-05   -0.00013229978741551235
-7.06079170002381e-05   1.0273121006974285e-05   -0.00013229978741551235
-7.06079170002381e-05   1.0273121006974285e-05   -0.00013229978741551235
-8.276244393020217e-05   1.471079189964029e-05   -0.00015122263753287622
-8.276244393020217e-05   1.471079189964029e-05   -0.00015122263753287622
-8.276244393020217e-05   1.471079189964029e-05   -0.00015122263753287622
-8.276244393020217e-05   1.471079189964029e-05   -0.00015122263753287622
-5.88080313276367e-05   9.033744334249923e-06   -0.00011470484506783491
-5.88080313276367e-05   9.033744334249923e-06   -0.00011470484506783491
-5.88080313276367e-05   9.033744334249923e-06   -0.00011470484506783491
-5.88080313276367e-05   9.033744334249923e-06   -0.00011470484506783491
-5.789942075790127e-05   1.9489103444014343e-05   -0.00015213018644986889
-5.789942075790127e-05   1.9489103444014343e-05   -0.00015213018644986889
-5.789942075790127e-05   1.9489103444014343e-05   -0.00015213018644986889
-5.789942075790127e-05   1.9489103444014343e-05   -0.00015213018644986889
-8.098675359538403e-05   1.3453792920542669e-05   -0.00011003011207331363
-8.098675359538403e-05   1.3453792920542669e-05   -0.00011003011207331363
-8.098675359538403e-05   1.3453792920542669e-05   -0.00011003011207331363
-8.098675359538403e-05   1.3453792920542669e-05   -0.00011003011207331363
-6.95287425938261e-05   1.411535204593091e-05   -0.00012952373255114159
-6.95287425938261e-05   1.411535204593091e-05   -0.00012952373255114159
-6.95287425938261e-05   1.411535204593091e-05   -0.00012952373255114159
-6.95287425938261e-05   1.411535204593091e-05   -0.00012952373255114159
-8.09867535953837e-05   1.9489103444014343e-05   -0.0001485090001357844
-8.09867535953837e-05   1.9489103444014343e-05   -0.0001485090001357844
-8.09867535953837e-05   1.9489103444014343e-05   -0.0001485090001357844
-8.09867535953837e-05   1.9489103444014343e-05   -0.0001485090001357844
-5.789942075790116e-05   1.3453792920542669e-05   -0.00011365129838739659
-5.789942075790116e-05   1.3453792920542669e-05   -0.00011365129838739659
-5.789942075790116e-05   1.3453792920542669e-05   -0.00011365129838739659
-5.789942075790116e-05   1.3453792920542669e-05   -0.00011365129838739659
-5.708846308640717e-05   2.4674087671123102e-05   -0.00015360449961739553
-5.708846308640717e-05   2.4674087671123102e-05   -0.00015360449961739553
-5.708846308640717e-05   2.4674087671123102e-05   -0.00015360449961739553
-5.708846308640717e-05   2.4674087671123102e-05   -0.00015360449961739553
-7.976823735913845e-05   1.8360226333486926e-05   -0.00011201655902692734
-7.976823735913845e-05   1.8360226333486926e-05   -0.00011201655902692734
-7.976823735913845e-05   1.8360226333486926e-05   -0.00011201655902692734
-7.976823735913845e-05   1.8360226333486926e-05   -0.00011201655902692734
-6.90974164669035e-05   1.8001479672914364e-05   -0.0001295860125176436
-6.90974164669035e-05   1.8001479672914364e-05   -0.0001295860125176436
-6.90974164669035e-05   1.8001479672914364e-05   -0.0001295860125176436
-6.90974164669035e-05   1.8001479672914364e-05   -0.0001295860125176436
-5.963166965173531e-05   1.6119485051302278e-06   -0.000175348375507874
-5.963166965173531e-05   1.6119485051302278e-06   -0.000175348375507874
-5.963166965173531e-05   1.6119485051302278e-06   -0.000175348375507874
-5.963166965173531e-05   1.6119485051302278e-06   -0.000175348375507874
-3.58975397287195e-05   2.4281663454058314e-06   -0.00013530176159868277
-3.58975397287195e-05   2.4281663454058314e-06   -0.00013530176159868277
-3.58975397287195e-05   2.4281663454058314e-06   -0.00013530176159868277
-3.58975397287195e-05   2.4281663454058314e-06   -0.00013530176159868277
-3.5093057538470595e-05   6.892028428856587e-06   -0.00017316015349820536
-3.5093057538470595e-05   6.892028428856587e-06   -0.00017316015349820536
-3.5093057538470595e-05   6.892028428856587e-06   -0.00017316015349820536
-3.5093057538470595e-05   6.892028428856587e-06   -0.00017316015349820536
-5.88080313276367e-05   7.269598509079822e-06   -0.00013386173923106133
-5.88080313276367e-05   7.269598509079822e-06   -0.00013386173923106133
-5.88080313276367e-05   7.269598509079822e-06   -0.00013386173923106133
-5.88080313276367e-05   7.269598509079822e-06   -0.00013386173923106133
-4.705479333759193e-05   5.221144981961898e-06   -0.00015222139709820183
-4.705479333759193e-05   5.221144981961898e-06   -0.00015222139709820183
-4.705479333759193e-05   5.221144981961898e-06   -0.00015222139709820183
-4.705479333759193e-05   5.221144981961898e-06   -0.00015222139709820183
-5.8808031327636594e-05   6.892028428856153e-06   -0.00017338669554633904
-5.8808031327636594e-05   6.892028428856153e-06   -0.00017338669554633904
-5.8808031327636594e-05   6.892028428856153e-06   -0.00017338669554633904
-5.8808031327636594e-05   6.892028428856153e-06   -0.00017338669554633904
-3.5093057538470595e-05   7.269598509079822e-06   -0.00013363519718292798
-3.5093057538470595e-05   7.269598509079822e-06   -0.00013363519718292798
-3.5093057538470595e-05   7.269598509079822e-06   -0.00013363519718292798
-3.5093057538470595e-05   7.269598509079822e-06   -0.00013363519718292798
-3.419117115690799e-05   1.2188902818130367e-05   -0.00017361793743077628
-3.419117115690799e-05   1.2188902818130367e-05   -0.00017361793743077628
-3.419117115690799e-05   1.2188902818130367e-05   -0.00017361793743077628
-3.419117115690799e-05   1.2188902818130367e-05   -0.00017361793743077628
-5.789942075790116e-05   1.2153706321156067e-05   -0.00013408307019760284
-5.789942075790116e-05   1.2153706321156067e-05   -0.00013408307019760284
-5.789942075790116e-05   1.2153706321156067e-05   -0.00013408307019760284
-5.789942075790116e-05   1.2153706321156067e-05   -0.00013408307019760284
-4.651005257459561e-05   9.376795531805537e-06   -0.0001513992040295015
-4.651005257459561e-05   9.376795531805537e-06   -0.0001513992040295015
-4.651005257459561e-05   9.376795531805537e-06   -0.0001513992040295015
-4.651005257459561e-05   9.376795531805537e-06   -0.0001513992040295015
-5.789942075790105e-05   1.2188902818130367e-05   -0.00017359681953259135
-5.789942075790105e-05   1.2188902818130367e-05   -0.00017359681953259135
-5.789942075790105e-05   1.2188902818130367e-05   -0.00017359681953259135
-5.789942075790105e-05   1.2188902818130367e-05   -0.00017359681953259135
-3.419117115690805e-05   1.2153706321156067e-05   -0.00013410418809578733
-3.419117115690805e-05   1.2153706321156067e-05   -0.00013410418809578733
-3.419117115690805e-05   1.2153706321156067e-05   -0.00013410418809578733
-3.419117115690805e-05   1.2153706321156067e-05   -0.00013410418809578733
-3.337996792413278e-05   1.7578390867952452e-05   -0.00017654143160037924
-3.337996792413278e-05   1.7578390867952452e-05   -0.00017654143160037924
-3.337996792413278e-05   1.7578390867952452e-05   -0.00017654143160037924
-3.337996792413278e-05   1.7578390867952452e-05   -0.00017654143160037924
-5.708846308640717e-05   1.71112186913968e-05   -0.00013674696969065382
-5.708846308640717e-05   1.71112186913968e-05   -0.00013674696969065382
-5.708846308640717e-05   1.71112186913968e-05   -0.00013674696969065382
-5.708846308640717e-05   1.71112186913968e-05   -0.00013674696969065382
-4.605650114532292e-05   1.3587600131845061e-05   -0.0001530194017900645
-4.605650114532292e-05   1.3587600131845061e-05   -0.0001530194017900645
-4.605650114532292e-05   1.3587600131845061e-05   -0.0001530194017900645
-4.605650114532292e-05   1.3587600131845061e-05   -0.0001530194017900645
-3.589753972871938e-05   -5.564195032709603e-06   -0.00015373186031992017
-3.589753972871938e-05   -5.564195032709603e-06   -0.00015373186031992017
-3.589753972871938e-05   -5.564195032709603e-06   -0.00015373186031992017
-3.589753972871938e-05   -5.564195032709603e-06   -0.00015373186031992017
-1.2840572394529038e-05   9.98824381381186e-07   -0.00011136576978114897
-1.2840572394529038e-05   9.98824381381186e-07   -0.00011136576978114897
-1.2840572394529038e-05   9.98824381381186e-07   -0.00011136576978114897
-1.2840572394529038e-05   9.98824381381186e-07   -0.00011136576978114897
-1.1646270510848994e-05   -5.963670664356838e-07   -0.000148813400458542
-1.1646270510848994e-05   -5.963670664356838e-07   -0.000148813400458542
-1.1646270510848994e-05   -5.963670664356838e-07   -0.000148813400458542
-1.1646270510848994e-05   -5.963670664356838e-07   -0.000148813400458542
-3.509305753847054e-05   5.684108743597184e-06   -0.0001135037075651906
-3.509305753847054e-05   5.684108743597184e-06   -0.0001135037075651906
-3.509305753847054e-05   5.684108743597184e-06   -0.0001135037075651906
-3.509305753847054e-05   5.684108743597184e-06   -0.0001135037075651906
-2.3628829941316448e-05   6.210044502736115e-07   -0.00012957289098445651
-2.3628829941316448e-05   6.210044502736115e-07   -0.00012957289098445651
-2.3628829941316448e-05   6.210044502736115e-07   -0.00012957289098445651
-2.3628829941316448e-05   6.210044502736115e-07   -0.00012957289098445651
-3.509305753847047e-05   -5.963670664352501e-07   -0.00015258168594456086
-3.509305753847047e-05   -5.963670664352501e-07   -0.00015258168594456086
-3.509305753847047e-05   -5.963670664352501e-07   -0.00015258168594456086
-3.509305753847047e-05   -5.963670664352501e-07   -0.00015258168594456086
-1.1646270510848994e-05   5.684108743596317e-06   -0.00010973542207917209
-1.1646270510848994e-05   5.684108743596317e-06   -0.00010973542207917209
-1.1646270510848994e-05   5.684108743596317e-06   -0.00010973542207917209
-1.1646270510848994e-05   5.684108743596317e-06   -0.00010973542207917209
-9.885581987676805e-06   4.187929478418392e-06   -0.00015083407261476866
-9.885581987676805e-06   4.187929478418392e-06   -0.00015083407261476866
-9.885581987676805e-06   4.187929478418392e-06   -0.00015083407261476866
-9.885581987676805e-06   4.187929478418392e-06   -0.00015083407261476866
-3.419117115690799e-05   1.0103687155661387e-05   -0.00011387421193906154
-3.419117115690799e-05   1.0103687155661387e-05   -0.00011387421193906154
-3.419117115690799e-05   1.0103687155661387e-05   -0.00011387421193906154
-3.419117115690799e-05   1.0103687155661387e-05   -0.00011387421193906154
-2.2902988298591682e-05   4.401204912813511e-06   -0.00012926636069054693
-2.2902988298591682e-05   4.401204912813511e-06   -0.00012926636069054693
-2.2902988298591682e-05   4.401204912813511e-06   -0.00012926636069054693
-2.2902988298591682e-05   4.401204912813511e-06   -0.00012926636069054693
-3.41911711569079e-05   4.187929478418392e-06   -0.00015438352722111325
-3.41911711569079e-05   4.187929478418392e-06   -0.00015438352722111325
-3.41911711569079e-05   4.187929478418392e-06   -0.00015438352722111325
-3.41911711569079e-05   4.187929478418392e-06   -0.00015438352722111325
-9.88558198767686e-06   1.0103687155661387e-05   -0.00011032475733271626
-9.88558198767686e-06   1.0103687155661387e-05   -0.00011032475733271626
-9.88558198767686e-06   1.0103687155661387e-05   -0.00011032475733271626
-9.88558198767686e-06   1.0103687155661387e-05   -0.00011032475733271626
-8.654148743528916e-06   9.67707804516195e-06   -0.00015505402011700004
-8.654148743528916e-06   9.67707804516195e-06   -0.00015505402011700004
-8.654148743528916e-06   9.67707804516195e-06   -0.00015505402011700004
-8.654148743528916e-06   9.67707804516195e-06   -0.00015505402011700004
-3.337996792413278e-05   1.5106663120359812e-05   -0.00011710207252777844
-3.337996792413278e-05   1.5106663120359812e-05   -0.00011710207252777844
-3.337996792413278e-05   1.5106663120359812e-05   -0.00011710207252777844
-3.337996792413278e-05   1.5106663120359812e-05   -0.00011710207252777844
-2.2140891685945247e-05   8.36884783668012e-06   -0.00013179117708788334
-2.2140891685945247e-05   8.36884783668012e-06   -0.00013179117708788334
-2.2140891685945247e-05   8.36884783668012e-06   -0.00013179117708788334
-2.2140891685945247e-05   8.36884783668012e-06   -0.00013179117708788334
-1.2840572394528984e-05   -1.0255937640432991e-05   -8.349893683206244e-05
-1.2840572394528984e-05   -1.0255937640432991e-05   -8.349893683206244e-05
-1.2840572394528984e-05   -1.0255937640432991e-05   -8.349893683206244e-05
-1.2840572394528984e-05   -1.0255937640432991e-05   -8.349893683206244e-05
4.374155349918174e-06   1.3413902032024042e-06   -4.7849327218469316e-05
4.374155349918174e-06   1.3413902032024042e-06   -4.7849327218469316e-05
4.374155349918174e-06   1.3413902032024042e-06   -4.7849327218469316e-05
4.374155349918174e-06   1.3413902032024042e-06   -4.7849327218469316e-05
1.0594769729515533e-05   -6.898211498869607e-06   -7.985123286089325e-05
1.0594769729515533e-05   -6.898211498869607e-06   -7.985123286089325e-05
1.0594769729515533e-05   -6.898211498869607e-06   -7.985123286089325e-05
1.0594769729515533e-05   -6.898211498869607e-06   -7.985123286089325e-05
-1.1646270510848994e-05   5.039043878027165e-06   -4.994518568642199e-05
-1.1646270510848994e-05   5.039043878027165e-06   -4.994518568642199e-05
-1.1646270510848994e-05   5.039043878027165e-06   -4.994518568642199e-05
-1.1646270510848994e-05   5.039043878027165e-06   -4.994518568642199e-05
-2.328415394406842e-06   -2.1886710884011853e-06   -6.113831523397008e-05
-2.328415394406842e-06   -2.1886710884011853e-06   -6.113831523397008e-05
-2.328415394406842e-06   -2.1886710884011853e-06   -6.113831523397008e-05
-2.328415394406842e-06   -2.1886710884011853e-06   -6.113831523397008e-05
-1.1646270510848994e-05   -6.898211498869607e-06   -8.701358608702997e-05
-1.1646270510848994e-05   -6.898211498869607e-06   -8.701358608702997e-05
-1.1646270510848994e-05   -6.898211498869607e-06   -8.701358608702997e-05
-1.1646270510848994e-05   -6.898211498869607e-06   -8.701358608702997e-05
1.0594769729515533e-05   5.039043878027165e-06   -4.2782832460285056e-05
1.0594769729515533e-05   5.039043878027165e-06   -4.2782832460285056e-05
1.0594769729515533e-05   5.039043878027165e-06   -4.2782832460285056e-05
1.0594769729515533e-05   5.039043878027165e-06   -4.2782832460285056e-05
1.5504668750440393e-05   -4.573824482143052e-06   -8.424934674533145e-05
1.5504668750440393e-05   -4.573824482143052e-06   -8.424934674533145e-05
1.5504668750440393e-05   -4.573824482143052e-06   -8.424934674533145e-05
1.5504668750440393e-05   -4.573824482143052e-06   -8.424934674533145e-05
-9.88558198767686e-06   7.1214921824420616e-06   -4.8949452180553155e-05
-9.88558198767686e-06   7.1214921824420616e-06   -4.8949452180553155e-05
-9.88558198767686e-06   7.1214921824420616e-06   -4.8949452180553155e-05
-9.88558198767686e-06   7.1214921824420616e-06   -4.8949452180553155e-05
8.458470340300432e-07   -4.231738564086998e-07   -6.230836759342061e-05
8.458470340300432e-07   -4.231738564086998e-07   -6.230836759342061e-05
8.458470340300432e-07   -4.231738564086998e-07   -6.230836759342061e-05
8.458470340300432e-07   -4.231738564086998e-07   -6.230836759342061e-05
-9.885581987676805e-06   -4.573824482143052e-06   -9.126653674408234e-05
-9.885581987676805e-06   -4.573824482143052e-06   -9.126653674408234e-05
-9.885581987676805e-06   -4.573824482143052e-06   -9.126653674408234e-05
-9.885581987676805e-06   -4.573824482143052e-06   -9.126653674408234e-05
1.5504668750440393e-05   7.1214921824420616e-06   -4.193226218180248e-05
1.5504668750440393e-05   7.1214921824420616e-06   -4.193226218180248e-05
1.5504668750440393e-05   7.1214921824420616e-06   -4.193226218180248e-05
1.5504668750440393e-05   7.1214921824420616e-06   -4.193226218180248e-05
2.168848616304446e-05   7.54943335666905e-09   -9.443046679377762e-05
2.168848616304446e-05   7.54943335666905e-09   -9.443046679377762e-05
2.168848616304446e-05   7.54943335666905e-09   -9.443046679377762e-05
2.168848616304446e-05   7.54943335666905e-09   -9.443046679377762e-05
-8.654148743528916e-06   1.0827967530389719e-05   -5.0351659474374326e-05
-8.654148743528916e-06   1.0827967530389719e-05   -5.0351659474374326e-05
-8.654148743528916e-06   1.0827967530389719e-05   -5.0351659474374326e-05
-8.654148743528916e-06   1.0827967530389719e-05   -5.0351659474374326e-05
3.5523503302520407e-06   1.6055367603913517e-06   -6.516236613534503e-05
3.5523503302520407e-06   1.6055367603913517e-06   -6.516236613534503e-05
3.5523503302520407e-06   1.6055367603913517e-06   -6.516236613534503e-05
3.5523503302520407e-06   1.6055367603913517e-06   -6.516236613534503e-05
-4.008926936729246e-05   7.5028645165958405e-06   -7.136021250515748e-05
-4.008926936729246e-05   7.5028645165958405e-06   -7.136021250515748e-05
-4.008926936729246e-05   7.5028645165958405e-06   -7.136021250515748e-05
-4.008926936729246e-05   7.5028645165958405e-06   -7.136021250515748e-05
-4.0281586622789166e-05   -3.4367948552414124e-06   -7.824453688742134e-05
-4.0281586622789166e-05   -3.4367948552414124e-06   -7.824453688742134e-05
-4.0281586622789166e-05   -3.4367948552414124e-06   -7.824453688742134e-05
-4.0281586622789166e-05   -3.4367948552414124e-06   -7.824453688742134e-05
-3.824377675518771e-05   1.165612601688494e-05   -6.703959885117489e-05
-3.824377675518771e-05   1.165612601688494e-05   -6.703959885117489e-05
-3.824377675518771e-05   1.165612601688494e-05   -6.703959885117489e-05
-3.824377675518771e-05   1.165612601688494e-05   -6.703959885117489e-05
-3.314681147270301e-05   -7.015564877557029e-08   -6.849877198925221e-05
-3.314681147270301e-05   -7.015564877557029e-08   -6.849877198925221e-05
-3.314681147270301e-05   -7.015564877557029e-08   -6.849877198925221e-05
-3.314681147270301e-05   -7.015564877557029e-08   -6.849877198925221e-05
-3.628052709105247e-05   5.16335117231332e-06   -6.641601671799366e-05
-3.628052709105247e-05   5.16335117231332e-06   -6.641601671799366e-05
-3.628052709105247e-05   5.16335117231332e-06   -6.641601671799366e-05
-3.628052709105247e-05   5.16335117231332e-06   -6.641601671799366e-05
-3.314681147270301e-05   1.165612601688494e-05   -6.0003829851777886e-05
-3.314681147270301e-05   1.165612601688494e-05   -6.0003829851777886e-05
-3.314681147270301e-05   1.165612601688494e-05   -6.0003829851777886e-05
-3.314681147270301e-05   1.165612601688494e-05   -6.0003829851777886e-05
-3.824377675518782e-05   -7.015564877557029e-08   -7.553454098864986e-05
-3.824377675518782e-05   -7.015564877557029e-08   -7.553454098864986e-05
-3.824377675518782e-05   -7.015564877557029e-08   -7.553454098864986e-05
-3.824377675518782e-05   -7.015564877557029e-08   -7.553454098864986e-05
-3.5677381616178996e-05   1.3748480502785189e-05   -6.221641526523661e-05
-3.5677381616178996e-05   1.3748480502785189e-05   -6.221641526523661e-05
-3.5677381616178996e-05   1.3748480502785189e-05   -6.221641526523661e-05
-3.5677381616178996e-05   1.3748480502785189e-05   -6.221641526523661e-05
-2.7394036737050714e-05   1.8272950219428916e-06   -6.886927877527765e-05
-2.7394036737050714e-05   1.8272950219428916e-06   -6.886927877527765e-05
-2.7394036737050714e-05   1.8272950219428916e-06   -6.886927877527765e-05
-2.7394036737050714e-05   1.8272950219428916e-06   -6.886927877527765e-05
-3.298269885731168e-05   6.8879329510364296e-06   -6.259122466563535e-05
-3.298269885731168e-05   6.8879329510364296e-06   -6.259122466563535e-05
-3.298269885731168e-05   6.8879329510364296e-06   -6.259122466563535e-05
-3.298269885731168e-05   6.8879329510364296e-06   -6.259122466563535e-05
-2.7394036737050497e-05   1.3748480502785189e-05   -5.506370397673167e-05
-2.7394036737050497e-05   1.3748480502785189e-05   -5.506370397673167e-05
-2.7394036737050497e-05   1.3748480502785189e-05   -5.506370397673167e-05
-2.7394036737050497e-05   1.3748480502785189e-05   -5.506370397673167e-05
-3.5677381616178996e-05   1.8272950219420242e-06   -7.602199006378346e-05
-3.5677381616178996e-05   1.8272950219420242e-06   -7.602199006378346e-05
-3.5677381616178996e-05   1.8272950219420242e-06   -7.602199006378346e-05
-3.5677381616178996e-05   1.8272950219420242e-06   -7.602199006378346e-05
-3.366597470437168e-05   1.7059874012880123e-05   -5.7717842125068995e-05
-3.366597470437168e-05   1.7059874012880123e-05   -5.7717842125068995e-05
-3.366597470437168e-05   1.7059874012880123e-05   -5.7717842125068995e-05
-3.366597470437168e-05   1.7059874012880123e-05   -5.7717842125068995e-05
-2.0291223342798438e-05   5.614067609392183e-06   -7.314161055226552e-05
-2.0291223342798438e-05   5.614067609392183e-06   -7.314161055226552e-05
-2.0291223342798438e-05   5.614067609392183e-06   -7.314161055226552e-05
-2.0291223342798438e-05   5.614067609392183e-06   -7.314161055226552e-05
-2.8852186833244243e-05   8.531787446809137e-06   -6.062396997063928e-05
-2.8852186833244243e-05   8.531787446809137e-06   -6.062396997063928e-05
-2.8852186833244243e-05   8.531787446809137e-06   -6.062396997063928e-05
-2.8852186833244243e-05   8.531787446809137e-06   -6.062396997063928e-05
-4.0281586622789166e-05   4.27470716459627e-06   -0.00012933043382935177
-4.0281586622789166e-05   4.27470716459627e-06   -0.00012933043382935177
-4.0281586622789166e-05   4.27470716459627e-06   -0.00012933043382935177
-4.0281586622789166e-05   4.27470716459627e-06   -0.00012933043382935177
-4.6144191946936126e-05   -7.673959038154154e-07   -0.00014212670454397678
-4.6144191946936126e-05   -7.673959038154154e-07   -0.00014212670454397678
-4.6144191946936126e-05   -7.673959038154154e-07   -0.00014212670454397678
-4.6144191946936126e-05   -7.673959038154154e-07   -0.00014212670454397678
-4.4490003114325044e-05   9.033744334249923e-06   -0.0001294369283855309
-4.4490003114325044e-05   9.033744334249923e-06   -0.0001294369283855309
-4.4490003114325044e-05   9.033744334249923e-06   -0.0001294369283855309
-4.4490003114325044e-05   9.033744334249923e-06   -0.0001294369283855309
-3.824377675518793e-05   3.47588338690287e-06   -0.00013651258908235092
-3.824377675518793e-05   3.47588338690287e-06   -0.00013651258908235092
-3.824377675518793e-05   3.47588338690287e-06   -0.00013651258908235092
-3.824377675518793e-05   3.47588338690287e-06   -0.00013651258908235092
-4.1796655077826325e-05   4.928980867241126e-06   -0.00013146298369949181
-4.1796655077826325e-05   4.928980867241126e-06   -0.00013146298369949181
-4.1796655077826325e-05   4.928980867241126e-06   -0.00013146298369949181
-4.1796655077826325e-05   4.928980867241126e-06   -0.00013146298369949181
-3.824377675518771e-05   9.033744334249923e-06   -0.0001261022118171219
-3.824377675518771e-05   9.033744334249923e-06   -0.0001261022118171219
-3.824377675518771e-05   9.033744334249923e-06   -0.0001261022118171219
-3.824377675518771e-05   9.033744334249923e-06   -0.0001261022118171219
-4.449000311432499e-05   3.4758833869037373e-06   -0.00013984730565075884
-4.449000311432499e-05   3.4758833869037373e-06   -0.00013984730565075884
-4.449000311432499e-05   3.4758833869037373e-06   -0.00013984730565075884
-4.449000311432499e-05   3.4758833869037373e-06   -0.00013984730565075884
-4.2770249495847185e-05   1.3453792920542669e-05   -0.00012835317670693847
-4.2770249495847185e-05   1.3453792920542669e-05   -0.00012835317670693847
-4.2770249495847185e-05   1.3453792920542669e-05   -0.00012835317670693847
-4.2770249495847185e-05   1.3453792920542669e-05   -0.00012835317670693847
-3.5677381616178996e-05   7.556588902313775e-06   -0.00013663630076211496
-3.5677381616178996e-05   7.556588902313775e-06   -0.00013663630076211496
-3.5677381616178996e-05   7.556588902313775e-06   -0.00013663630076211496
-3.5677381616178996e-05   7.556588902313775e-06   -0.00013663630076211496
-4.013836325783321e-05   8.34393714231347e-06   -0.00012967374030335797
-4.013836325783321e-05   8.34393714231347e-06   -0.00012967374030335797
-4.013836325783321e-05   8.34393714231347e-06   -0.00012967374030335797
-4.013836325783321e-05   8.34393714231347e-06   -0.00012967374030335797
-3.5677381616178996e-05   1.3453792920542669e-05   -0.000124814854296002
-3.5677381616178996e-05   1.3453792920542669e-05   -0.000124814854296002
-3.5677381616178996e-05   1.3453792920542669e-05   -0.000124814854296002
-3.5677381616178996e-05   1.3453792920542669e-05   -0.000124814854296002
-4.277024949584702e-05   7.556588902314643e-06   -0.00014017462317305208
-4.277024949584702e-05   7.556588902314643e-06   -0.00014017462317305208
-4.277024949584702e-05   7.556588902314643e-06   -0.00014017462317305208
-4.277024949584702e-05   7.556588902314643e-06   -0.00014017462317305208
-4.114786932157908e-05   1.8360226333486926e-05   -0.0001304768348491742
-4.114786932157908e-05   1.8360226333486926e-05   -0.0001304768348491742
-4.114786932157908e-05   1.8360226333486926e-05   -0.0001304768348491742
-4.114786932157908e-05   1.8360226333486926e-05   -0.0001304768348491742
-3.366597470437168e-05   1.2211560710425826e-05   -0.0001392574598373486
-3.366597470437168e-05   1.2211560710425826e-05   -0.0001392574598373486
-3.366597470437168e-05   1.2211560710425826e-05   -0.0001392574598373486
-3.366597470437168e-05   1.2211560710425826e-05   -0.0001392574598373486
-3.867621287726285e-05   1.1920879744881444e-05   -0.00013073265430320444
-3.867621287726285e-05   1.1920879744881444e-05   -0.00013073265430320444
-3.867621287726285e-05   1.1920879744881444e-05   -0.00013073265430320444
-3.867621287726285e-05   1.1920879744881444e-05   -0.00013073265430320444
-4.614419194693591e-05   2.4281663454058314e-06   -0.0001505420978331431
-4.614419194693591e-05   2.4281663454058314e-06   -0.0001505420978331431
-4.614419194693591e-05   2.4281663454058314e-06   -0.0001505420978331431
-4.614419194693591e-05   2.4281663454058314e-06   -0.0001505420978331431
-5.2354114846783864e-05   3.4870666954511798e-06   -0.00016025662912286243
-5.2354114846783864e-05   3.4870666954511798e-06   -0.00016025662912286243
-5.2354114846783864e-05   3.4870666954511798e-06   -0.00016025662912286243
-5.2354114846783864e-05   3.4870666954511798e-06   -0.00016025662912286243
-5.0726629595408436e-05   7.269598509079822e-06   -0.00014823545513909788
-5.0726629595408436e-05   7.269598509079822e-06   -0.00014823545513909788
-5.0726629595408436e-05   7.269598509079822e-06   -0.00014823545513909788
-5.0726629595408436e-05   7.269598509079822e-06   -0.00014823545513909788
-4.4490003114325044e-05   7.866877525179727e-06   -0.00015898820001722911
-4.4490003114325044e-05   7.866877525179727e-06   -0.00015898820001722911
-4.4490003114325044e-05   7.866877525179727e-06   -0.00015898820001722911
-4.4490003114325044e-05   7.866877525179727e-06   -0.00015898820001722911
-4.8137418580586035e-05   5.943328587316651e-06   -0.00015175504487741174
-4.8137418580586035e-05   5.943328587316651e-06   -0.00015175504487741174
-4.8137418580586035e-05   5.943328587316651e-06   -0.00015175504487741174
-4.8137418580586035e-05   5.943328587316651e-06   -0.00015175504487741174
-4.4490003114324936e-05   7.269598509079822e-06   -0.0001485938225487568
-4.4490003114324936e-05   7.269598509079822e-06   -0.0001485938225487568
-4.4490003114324936e-05   7.269598509079822e-06   -0.0001485938225487568
-4.4490003114324936e-05   7.269598509079822e-06   -0.0001485938225487568
-5.072662959540852e-05   7.86687752517886e-06   -0.0001586298326075701
-5.072662959540852e-05   7.86687752517886e-06   -0.0001586298326075701
-5.072662959540852e-05   7.86687752517886e-06   -0.0001586298326075701
-5.072662959540852e-05   7.86687752517886e-06   -0.0001586298326075701
-4.90176095026846e-05   1.2153706321156067e-05   -0.00014867082216847398
-4.90176095026846e-05   1.2153706321156067e-05   -0.00014867082216847398
-4.90176095026846e-05   1.2153706321156067e-05   -0.00014867082216847398
-4.90176095026846e-05   1.2153706321156067e-05   -0.00014867082216847398
-4.2770249495847185e-05   1.2343916902275189e-05   -0.00015919721519520738
-4.2770249495847185e-05   1.2343916902275189e-05   -0.00015919721519520738
-4.2770249495847185e-05   1.2343916902275189e-05   -0.00015919721519520738
-4.2770249495847185e-05   1.2343916902275189e-05   -0.00015919721519520738
-4.6767619734914585e-05   9.685856694267338e-06   -0.00015094009533862568
-4.6767619734914585e-05   9.685856694267338e-06   -0.00015094009533862568
-4.6767619734914585e-05   9.685856694267338e-06   -0.00015094009533862568
-4.6767619734914585e-05   9.685856694267338e-06   -0.00015094009533862568
-4.277024949584702e-05   1.2153706321156067e-05   -0.00014878494851714536
-4.277024949584702e-05   1.2153706321156067e-05   -0.00014878494851714536
-4.277024949584702e-05   1.2153706321156067e-05   -0.00014878494851714536
-4.277024949584702e-05   1.2153706321156067e-05   -0.00014878494851714536
-4.90176095026846e-05   1.2343916902275189e-05   -0.000159083088846536
-4.90176095026846e-05   1.2343916902275189e-05   -0.000159083088846536
-4.90176095026846e-05   1.2343916902275189e-05   -0.000159083088846536
-4.90176095026846e-05   1.2343916902275189e-05   -0.000159083088846536
-4.740506003659428e-05   1.71112186913968e-05   -0.00015155618556612037
-4.740506003659428e-05   1.71112186913968e-05   -0.00015155618556612037
-4.740506003659428e-05   1.71112186913968e-05   -0.00015155618556612037
-4.740506003659428e-05   1.71112186913968e-05   -0.00015155618556612037
-4.114786932157919e-05   1.6882457265061934e-05   -0.0001618475799020102
-4.114786932157919e-05   1.6882457265061934e-05   -0.0001618475799020102
-4.114786932157919e-05   1.6882457265061934e-05   -0.0001618475799020102
-4.114786932157919e-05   1.6882457265061934e-05   -0.0001618475799020102
-4.550433878988612e-05   1.3480553920090094e-05   -0.00015254565544784956
-4.550433878988612e-05   1.3480553920090094e-05   -0.00015254565544784956
-4.550433878988612e-05   1.3480553920090094e-05   -0.00015254565544784956
-4.550433878988612e-05   1.3480553920090094e-05   -0.00015254565544784956
-5.235411484678369e-05   9.988243813803185e-07   -0.00012990857745403617
-5.235411484678369e-05   9.988243813803185e-07   -0.00012990857745403617
-5.235411484678369e-05   9.988243813803185e-07   -0.00012990857745403617
-5.235411484678369e-05   9.988243813803185e-07   -0.00012990857745403617
-5.888571698559893e-05   7.763192780120033e-06   -0.00013673595997948547
-5.888571698559893e-05   7.763192780120033e-06   -0.00013673595997948547
-5.888571698559893e-05   7.763192780120033e-06   -0.00013673595997948547
-5.888571698559893e-05   7.763192780120033e-06   -0.00013673595997948547
-5.6921826021931606e-05   5.684108743597184e-06   -0.0001242216513263404
-5.6921826021931606e-05   5.684108743597184e-06   -0.0001242216513263404
-5.6921826021931606e-05   5.684108743597184e-06   -0.0001242216513263404
-5.6921826021931606e-05   5.684108743597184e-06   -0.0001242216513263404
-5.0726629595408436e-05   1.215463240196446e-05   -0.00013842929289889866
-5.0726629595408436e-05   1.215463240196446e-05   -0.00013842929289889866
-5.0726629595408436e-05   1.215463240196446e-05   -0.00013842929289889866
-5.0726629595408436e-05   1.215463240196446e-05   -0.00013842929289889866
-5.42999854091744e-05   7.1417243767239735e-06   -0.00012946595506081336
-5.42999854091744e-05   7.1417243767239735e-06   -0.00012946595506081336
-5.42999854091744e-05   7.1417243767239735e-06   -0.00012946595506081336
-5.42999854091744e-05   7.1417243767239735e-06   -0.00012946595506081336
-5.072662959540835e-05   5.684108743597184e-06   -0.00012810396552136085
-5.072662959540835e-05   5.684108743597184e-06   -0.00012810396552136085
-5.072662959540835e-05   5.684108743597184e-06   -0.00012810396552136085
-5.072662959540835e-05   5.684108743597184e-06   -0.00012810396552136085
-5.6921826021931606e-05   1.215463240196446e-05   -0.00013454697870387894
-5.6921826021931606e-05   1.215463240196446e-05   -0.00013454697870387894
-5.6921826021931606e-05   1.215463240196446e-05   -0.00013454697870387894
-5.6921826021931606e-05   1.215463240196446e-05   -0.00013454697870387894
-5.439610768481713e-05   1.0103687155661387e-05   -0.00012477727619000139
-5.439610768481713e-05   1.0103687155661387e-05   -0.00012477727619000139
-5.439610768481713e-05   1.0103687155661387e-05   -0.00012477727619000139
-5.439610768481713e-05   1.0103687155661387e-05   -0.00012477727619000139
-4.901760950268452e-05   1.6209636858573358e-05   -0.00013740500964863576
-4.901760950268452e-05   1.6209636858573358e-05   -0.00013740500964863576
-4.901760950268452e-05   1.6209636858573358e-05   -0.00013740500964863576
-4.901760950268452e-05   1.6209636858573358e-05   -0.00013740500964863576
-5.254563610482598e-05   1.0622437572184278e-05   -0.00012817264573990232
-5.254563610482598e-05   1.0622437572184278e-05   -0.00012817264573990232
-5.254563610482598e-05   1.0622437572184278e-05   -0.00012817264573990232
-5.254563610482598e-05   1.0622437572184278e-05   -0.00012817264573990232
-4.901760950268438e-05   1.010368715566052e-05   -0.0001284408460117477
-4.901760950268438e-05   1.010368715566052e-05   -0.0001284408460117477
-4.901760950268438e-05   1.010368715566052e-05   -0.0001284408460117477
-4.901760950268438e-05   1.010368715566052e-05   -0.0001284408460117477
-5.4396107684817185e-05   1.6209636858574225e-05   -0.00013374143982688817
-5.4396107684817185e-05   1.6209636858574225e-05   -0.00013374143982688817
-5.4396107684817185e-05   1.6209636858574225e-05   -0.00013374143982688817
-5.4396107684817185e-05   1.6209636858574225e-05   -0.00013374143982688817
-5.2408820477284845e-05   1.5106663120359812e-05   -0.0001282389353573451
-5.2408820477284845e-05   1.5106663120359812e-05   -0.0001282389353573451
-5.2408820477284845e-05   1.5106663120359812e-05   -0.0001282389353573451
-5.2408820477284845e-05   1.5106663120359812e-05   -0.0001282389353573451
-4.740506003659428e-05   2.0760079353637252e-05   -0.0001399705858317954
-4.740506003659428e-05   2.0760079353637252e-05   -0.0001399705858317954
-4.740506003659428e-05   2.0760079353637252e-05   -0.0001399705858317954
-4.740506003659428e-05   2.0760079353637252e-05   -0.0001399705858317954
-5.1221331720025055e-05   1.418486937790342e-05   -0.0001296650070406355
-5.1221331720025055e-05   1.418486937790342e-05   -0.0001296650070406355
-5.1221331720025055e-05   1.418486937790342e-05   -0.0001296650070406355
-5.1221331720025055e-05   1.418486937790342e-05   -0.0001296650070406355
-5.888571698559877e-05   1.3413902032024042e-06   -6.929191055829497e-05
-5.888571698559877e-05   1.3413902032024042e-06   -6.929191055829497e-05
-5.888571698559877e-05   1.3413902032024042e-06   -6.929191055829497e-05
-5.888571698559877e-05   1.3413902032024042e-06   -6.929191055829497e-05
-7.108865540634873e-05   1.3021891851264927e-05   -8.262184027070692e-05
-7.108865540634873e-05   1.3021891851264927e-05   -8.262184027070692e-05
-7.108865540634873e-05   1.3021891851264927e-05   -8.262184027070692e-05
-7.108865540634873e-05   1.3021891851264927e-05   -8.262184027070692e-05
-6.419199561190413e-05   5.039043878027165e-06   -5.725613384604958e-05
-6.419199561190413e-05   5.039043878027165e-06   -5.725613384604958e-05
-6.419199561190413e-05   5.039043878027165e-06   -5.725613384604958e-05
-6.419199561190413e-05   5.039043878027165e-06   -5.725613384604958e-05
-5.69218260219315e-05   1.6997845690597778e-05   -7.654836425021166e-05
-5.69218260219315e-05   1.6997845690597778e-05   -7.654836425021166e-05
-5.69218260219315e-05   1.6997845690597778e-05   -7.654836425021166e-05
-5.69218260219315e-05   1.6997845690597778e-05   -7.654836425021166e-05
-6.023121411269299e-05   9.587691561765456e-06   -6.658662495497806e-05
-6.023121411269299e-05   9.587691561765456e-06   -6.658662495497806e-05
-6.023121411269299e-05   9.587691561765456e-06   -6.658662495497806e-05
-6.023121411269299e-05   9.587691561765456e-06   -6.658662495497806e-05
-5.692182602193139e-05   5.039043878027165e-06   -6.44314149335903e-05
-5.692182602193139e-05   5.039043878027165e-06   -6.44314149335903e-05
-5.692182602193139e-05   5.039043878027165e-06   -6.44314149335903e-05
-5.692182602193139e-05   5.039043878027165e-06   -6.44314149335903e-05
-6.419199561190402e-05   1.699784569059691e-05   -6.93730831626705e-05
-6.419199561190402e-05   1.699784569059691e-05   -6.93730831626705e-05
-6.419199561190402e-05   1.699784569059691e-05   -6.93730831626705e-05
-6.419199561190402e-05   1.699784569059691e-05   -6.93730831626705e-05
-5.858251915908774e-05   7.1214921824420616e-06   -5.6383584284547955e-05
-5.858251915908774e-05   7.1214921824420616e-06   -5.6383584284547955e-05
-5.858251915908774e-05   7.1214921824420616e-06   -5.6383584284547955e-05
-5.858251915908774e-05   7.1214921824420616e-06   -5.6383584284547955e-05
-5.439610768481713e-05   1.881880343792587e-05   -7.03793234949553e-05
-5.439610768481713e-05   1.881880343792587e-05   -7.03793234949553e-05
-5.439610768481713e-05   1.881880343792587e-05   -7.03793234949553e-05
-5.439610768481713e-05   1.881880343792587e-05   -7.03793234949553e-05
-5.726091942739891e-05   1.1422201451349173e-05   -6.116667606537369e-05
-5.726091942739891e-05   1.1422201451349173e-05   -6.116667606537369e-05
-5.726091942739891e-05   1.1422201451349173e-05   -6.116667606537369e-05
-5.726091942739891e-05   1.1422201451349173e-05   -6.116667606537369e-05
-5.439610768481702e-05   7.1214921824420616e-06   -6.340197103783763e-05
-5.439610768481702e-05   7.1214921824420616e-06   -6.340197103783763e-05
-5.439610768481702e-05   7.1214921824420616e-06   -6.340197103783763e-05
-5.439610768481702e-05   7.1214921824420616e-06   -6.340197103783763e-05
-5.858251915908774e-05   1.881880343792587e-05   -6.336093674166442e-05
-5.858251915908774e-05   1.881880343792587e-05   -6.336093674166442e-05
-5.858251915908774e-05   1.881880343792587e-05   -6.336093674166442e-05
-5.858251915908774e-05   1.881880343792587e-05   -6.336093674166442e-05
-5.173506113294996e-05   1.0827967530389719e-05   -5.824997185276126e-05
-5.173506113294996e-05   1.0827967530389719e-05   -5.824997185276126e-05
-5.173506113294996e-05   1.0827967530389719e-05   -5.824997185276126e-05
-5.173506113294996e-05   1.0827967530389719e-05   -5.824997185276126e-05
-5.2408820477284736e-05   2.1655136690885805e-05   -6.362334110850067e-05
-5.2408820477284736e-05   2.1655136690885805e-05   -6.362334110850067e-05
-5.2408820477284736e-05   2.1655136690885805e-05   -6.362334110850067e-05
-5.2408820477284736e-05   2.1655136690885805e-05   -6.362334110850067e-05
-5.293849408208719e-05   1.2915033825101202e-05   -5.749649004769229e-05
-5.293849408208719e-05   1.2915033825101202e-05   -5.749649004769229e-05
-5.293849408208719e-05   1.2915033825101202e-05   -5.749649004769229e-05
-5.293849408208719e-05   1.2915033825101202e-05   -5.749649004769229e-05
3.4667202274906404e-05   -3.436794855240545e-06   -3.645385088810963e-05
3.4667202274906404e-05   -3.436794855240545e-06   -3.645385088810963e-05
3.4667202274906404e-05   -3.436794855240545e-06   -3.645385088810963e-05
3.4667202274906404e-05   -3.436794855240545e-06   -3.645385088810963e-05
3.4931143148928673e-06   -1.4603418097933196e-05   -9.51106381004139e-05
3.4931143148928673e-06   -1.4603418097933196e-05   -9.51106381004139e-05
3.4931143148928673e-06   -1.4603418097933196e-05   -9.51106381004139e-05
3.4931143148928673e-06   -1.4603418097933196e-05   -9.51106381004139e-05
6.291699057243039e-06   -7.015564877557029e-08   -4.019790318512701e-05
6.291699057243039e-06   -7.015564877557029e-08   -4.019790318512701e-05
6.291699057243039e-06   -7.015564877557029e-08   -4.019790318512701e-05
6.291699057243039e-06   -7.015564877557029e-08   -4.019790318512701e-05
4.241936103157348e-05   -1.1992326329647064e-05   -9.325737073382105e-05
4.241936103157348e-05   -1.1992326329647064e-05   -9.325737073382105e-05
4.241936103157348e-05   -1.1992326329647064e-05   -9.325737073382105e-05
4.241936103157348e-05   -1.1992326329647064e-05   -9.325737073382105e-05
2.0913122622768447e-05   -6.078163157004907e-06   -6.096213795606488e-05
2.0913122622768447e-05   -6.078163157004907e-06   -6.096213795606488e-05
2.0913122622768447e-05   -6.078163157004907e-06   -6.096213795606488e-05
2.0913122622768447e-05   -6.078163157004907e-06   -6.096213795606488e-05
4.241936103157348e-05   -7.015564877557029e-08   -3.304460077660325e-05
4.241936103157348e-05   -7.015564877557029e-08   -3.304460077660325e-05
4.241936103157348e-05   -7.015564877557029e-08   -3.304460077660325e-05
4.241936103157348e-05   -7.015564877557029e-08   -3.304460077660325e-05
6.291699057243039e-06   -1.1992326329647064e-05   -0.00010041067314234481
6.291699057243039e-06   -1.1992326329647064e-05   -0.00010041067314234481
6.291699057243039e-06   -1.1992326329647064e-05   -0.00010041067314234481
6.291699057243039e-06   -1.1992326329647064e-05   -0.00010041067314234481
9.587074931961272e-06   1.8272950219428916e-06   -4.048063994467003e-05
9.587074931961272e-06   1.8272950219428916e-06   -4.048063994467003e-05
9.587074931961272e-06   1.8272950219428916e-06   -4.048063994467003e-05
9.587074931961272e-06   1.8272950219428916e-06   -4.048063994467003e-05
4.8984244402730656e-05   -1.025973834036225e-05   -9.889036904523483e-05
4.8984244402730656e-05   -1.025973834036225e-05   -9.889036904523483e-05
4.8984244402730656e-05   -1.025973834036225e-05   -9.889036904523483e-05
4.8984244402730656e-05   -1.025973834036225e-05   -9.889036904523483e-05
2.5839425870574965e-05   -4.863151533494869e-06   -6.35536235757655e-05
2.5839425870574965e-05   -4.863151533494869e-06   -6.35536235757655e-05
2.5839425870574965e-05   -4.863151533494869e-06   -6.35536235757655e-05
2.5839425870574965e-05   -4.863151533494869e-06   -6.35536235757655e-05
4.8984244402730656e-05   1.8272950219428916e-06   -3.3228419927285816e-05
4.8984244402730656e-05   1.8272950219428916e-06   -3.3228419927285816e-05
4.8984244402730656e-05   1.8272950219428916e-06   -3.3228419927285816e-05
4.8984244402730656e-05   1.8272950219428916e-06   -3.3228419927285816e-05
9.587074931961272e-06   -1.025973834036225e-05   -0.00010614258906261774
9.587074931961272e-06   -1.025973834036225e-05   -0.00010614258906261774
9.587074931961272e-06   -1.025973834036225e-05   -0.00010614258906261774
9.587074931961272e-06   -1.025973834036225e-05   -0.00010614258906261774
1.2309280949544506e-05   5.614067609392183e-06   -4.4289498914008504e-05
1.2309280949544506e-05   5.614067609392183e-06   -4.4289498914008504e-05
1.2309280949544506e-05   5.614067609392183e-06   -4.4289498914008504e-05
1.2309280949544506e-05   5.614067609392183e-06   -4.4289498914008504e-05
5.6869256629711595e-05   -5.886064111044684e-06   -0.00011165604601535723
5.6869256629711595e-05   -5.886064111044684e-06   -0.00011165604601535723
5.6869256629711595e-05   -5.886064111044684e-06   -0.00011165604601535723
5.6869256629711595e-05   -5.886064111044684e-06   -0.00011165604601535723
2.9778878322382163e-05   -3.0860946350604393e-06   -6.818539718873493e-05
2.9778878322382163e-05   -3.0860946350604393e-06   -6.818539718873493e-05
2.9778878322382163e-05   -3.0860946350604393e-06   -6.818539718873493e-05
2.9778878322382163e-05   -3.0860946350604393e-06   -6.818539718873493e-05
3.493114314892759e-06   -7.673959038162828e-07   -0.00010401073064923369
3.493114314892759e-06   -7.673959038162828e-07   -0.00010401073064923369
3.493114314892759e-06   -7.673959038162828e-07   -0.00010401073064923369
3.493114314892759e-06   -7.673959038162828e-07   -0.00010401073064923369
-3.3038659752463644e-05   -5.81002012494964e-06   -0.00016792259529417423
-3.3038659752463644e-05   -5.81002012494964e-06   -0.00016792259529417423
-3.3038659752463644e-05   -5.81002012494964e-06   -0.00016792259529417423
-3.3038659752463644e-05   -5.81002012494964e-06   -0.00016792259529417423
-3.057672141569919e-05   3.4758833869037373e-06   -0.00010460492612325047
-3.057672141569919e-05   3.4758833869037373e-06   -0.00010460492612325047
-3.057672141569919e-05   3.4758833869037373e-06   -0.00010460492612325047
-3.057672141569919e-05   3.4758833869037373e-06   -0.00010460492612325047
6.291699057243039e-06   -2.2390746871351827e-06   -0.0001626233187337321
6.291699057243039e-06   -2.2390746871351827e-06   -0.0001626233187337321
6.291699057243039e-06   -2.2390746871351827e-06   -0.0001626233187337321
6.291699057243039e-06   -2.2390746871351827e-06   -0.0001626233187337321
-1.3144474277167515e-05   -2.4461157912582243e-07   -0.0001314263743745197
-1.3144474277167515e-05   -2.4461157912582243e-07   -0.0001314263743745197
-1.3144474277167515e-05   -2.4461157912582243e-07   -0.0001314263743745197
-1.3144474277167515e-05   -2.4461157912582243e-07   -0.0001314263743745197
6.291699057243039e-06   3.47588338690287e-06   -0.00010117595127882763
6.291699057243039e-06   3.47588338690287e-06   -0.00010117595127882763
6.291699057243039e-06   3.47588338690287e-06   -0.00010117595127882763
6.291699057243039e-06   3.47588338690287e-06   -0.00010117595127882763
-3.057672141569919e-05   -2.23907468713605e-06   -0.00016605229357815558
-3.057672141569919e-05   -2.23907468713605e-06   -0.00016605229357815558
-3.057672141569919e-05   -2.23907468713605e-06   -0.00016605229357815558
-3.057672141569919e-05   -2.23907468713605e-06   -0.00016605229357815558
-2.810103945196979e-05   7.556588902314643e-06   -0.0001047586116975658
-2.810103945196979e-05   7.556588902314643e-06   -0.0001047586116975658
-2.810103945196979e-05   7.556588902314643e-06   -0.0001047586116975658
-2.810103945196979e-05   7.556588902314643e-06   -0.0001047586116975658
9.587074931961272e-06   1.450487144705713e-06   -0.0001639084746162193
9.587074931961272e-06   1.450487144705713e-06   -0.0001639084746162193
9.587074931961272e-06   1.450487144705713e-06   -0.0001639084746162193
9.587074931961272e-06   1.450487144705713e-06   -0.0001639084746162193
-1.0959341089944512e-05   2.6825493861610747e-06   -0.00013040368525791667
-1.0959341089944512e-05   2.6825493861610747e-06   -0.00013040368525791667
-1.0959341089944512e-05   2.6825493861610747e-06   -0.00013040368525791667
-1.0959341089944512e-05   2.6825493861610747e-06   -0.00013040368525791667
9.587074931961272e-06   7.556588902313775e-06   -0.00010109495064300087
9.587074931961272e-06   7.556588902313775e-06   -0.00010109495064300087
9.587074931961272e-06   7.556588902313775e-06   -0.00010109495064300087
9.587074931961272e-06   7.556588902313775e-06   -0.00010109495064300087
-2.810103945196979e-05   1.450487144705713e-06   -0.00016757213567078445
-2.810103945196979e-05   1.450487144705713e-06   -0.00016757213567078445
-2.810103945196979e-05   1.450487144705713e-06   -0.00016757213567078445
-2.810103945196979e-05   1.450487144705713e-06   -0.00016757213567078445
-2.5733095758171255e-05   1.2211560710426693e-05   -0.00010737553281229672
-2.5733095758171255e-05   1.2211560710426693e-05   -0.00010737553281229672
-2.5733095758171255e-05   1.2211560710426693e-05   -0.00010737553281229672
-2.5733095758171255e-05   1.2211560710426693e-05   -0.00010737553281229672
1.2309280949544506e-05   5.815446618264233e-06   -0.0001669418255365266
1.2309280949544506e-05   5.815446618264233e-06   -0.0001669418255365266
1.2309280949544506e-05   5.815446618264233e-06   -0.0001669418255365266
1.2309280949544506e-05   5.815446618264233e-06   -0.0001669418255365266
-8.531111190258407e-06   5.922758490713165e-06   -0.00013227222576032613
-8.531111190258407e-06   5.922758490713165e-06   -0.00013227222576032613
-8.531111190258407e-06   5.922758490713165e-06   -0.00013227222576032613
-8.531111190258407e-06   5.922758490713165e-06   -0.00013227222576032613
-3.3038659752463806e-05   3.4870666954511798e-06   -0.00012580156997082708
-3.3038659752463806e-05   3.4870666954511798e-06   -0.00012580156997082708
-3.3038659752463806e-05   3.4870666954511798e-06   -0.00012580156997082708
-3.3038659752463806e-05   3.4870666954511798e-06   -0.00012580156997082708
-6.926627835279239e-05   4.397772180958666e-06   -0.00018563451101340353
-6.926627835279239e-05   4.397772180958666e-06   -0.00018563451101340353
-6.926627835279239e-05   4.397772180958666e-06   -0.00018563451101340353
-6.926627835279239e-05   4.397772180958666e-06   -0.00018563451101340353
-6.678526166147728e-05   7.86687752517886e-06   -0.00012356385076203562
-6.678526166147728e-05   7.86687752517886e-06   -0.00012356385076203562
-6.678526166147728e-05   7.86687752517886e-06   -0.00012356385076203562
-6.678526166147728e-05   7.86687752517886e-06   -0.00012356385076203562
-3.0576721415699246e-05   8.170160404656623e-06   -0.00018409338756601962
-3.0576721415699246e-05   8.170160404656623e-06   -0.00018409338756601962
-3.0576721415699246e-05   8.170160404656623e-06   -0.00018409338756601962
-3.0576721415699246e-05   8.170160404656623e-06   -0.00018409338756601962
-4.962732030700225e-05   6.7510703399510305e-06   -0.0001514909353750243
-4.962732030700225e-05   6.7510703399510305e-06   -0.0001514909353750243
-4.962732030700225e-05   6.7510703399510305e-06   -0.0001514909353750243
-4.962732030700225e-05   6.7510703399510305e-06   -0.0001514909353750243
-3.0576721415699246e-05   7.866877525179727e-06   -0.00012374582048972236
-3.0576721415699246e-05   7.866877525179727e-06   -0.00012374582048972236
-3.0576721415699246e-05   7.866877525179727e-06   -0.00012374582048972236
-3.0576721415699246e-05   7.866877525179727e-06   -0.00012374582048972236
-6.678526166147728e-05   8.17016040465749e-06   -0.00018391141783833265
-6.678526166147728e-05   8.17016040465749e-06   -0.00018391141783833265
-6.678526166147728e-05   8.17016040465749e-06   -0.00018391141783833265
-6.678526166147728e-05   8.17016040465749e-06   -0.00018391141783833265
-6.426663134679258e-05   1.2343916902275189e-05   -0.00012388753543494686
-6.426663134679258e-05   1.2343916902275189e-05   -0.00012388753543494686
-6.426663134679258e-05   1.2343916902275189e-05   -0.00012388753543494686
-6.426663134679258e-05   1.2343916902275189e-05   -0.00012388753543494686
-2.8101039451969843e-05   1.2166697376897635e-05   -0.00018405719021109118
-2.8101039451969843e-05   1.2166697376897635e-05   -0.00018405719021109118
-2.8101039451969843e-05   1.2166697376897635e-05   -0.00018405719021109118
-2.8101039451969843e-05   1.2166697376897635e-05   -0.00018405719021109118
-4.744085657053264e-05   1.0040579729610893e-05   -0.0001505484910917839
-4.744085657053264e-05   1.0040579729610893e-05   -0.0001505484910917839
-4.744085657053264e-05   1.0040579729610893e-05   -0.0001505484910917839
-4.744085657053264e-05   1.0040579729610893e-05   -0.0001505484910917839
-2.8101039451969843e-05   1.2343916902275189e-05   -0.00012378120371972024
-2.8101039451969843e-05   1.2343916902275189e-05   -0.00012378120371972024
-2.8101039451969843e-05   1.2343916902275189e-05   -0.00012378120371972024
-2.8101039451969843e-05   1.2343916902275189e-05   -0.00012378120371972024
-6.426663134679244e-05   1.2166697376897635e-05   -0.00018416352192631835
-6.426663134679244e-05   1.2166697376897635e-05   -0.00018416352192631835
-6.426663134679244e-05   1.2166697376897635e-05   -0.00018416352192631835
-6.426663134679244e-05   1.2166697376897635e-05   -0.00018416352192631835
-6.18645387272301e-05   1.6882457265061934e-05   -0.00012666671639679963
-6.18645387272301e-05   1.6882457265061934e-05   -0.00012666671639679963
-6.18645387272301e-05   1.6882457265061934e-05   -0.00012666671639679963
-6.18645387272301e-05   1.6882457265061934e-05   -0.00012666671639679963
-2.573309575817131e-05   1.6232019108931156e-05   -0.00018649552511821905
-2.573309575817131e-05   1.6232019108931156e-05   -0.00018649552511821905
-2.573309575817131e-05   1.6232019108931156e-05   -0.00018649552511821905
-2.573309575817131e-05   1.6232019108931156e-05   -0.00018649552511821905
-4.5404388467354205e-05   1.3379702568750568e-05   -0.0001519986473454744
-4.5404388467354205e-05   1.3379702568750568e-05   -0.0001519986473454744
-4.5404388467354205e-05   1.3379702568750568e-05   -0.0001519986473454744
-4.5404388467354205e-05   1.3379702568750568e-05   -0.0001519986473454744
-6.926627835279251e-05   7.763192780120033e-06   -0.0001057930985753886
-6.926627835279251e-05   7.763192780120033e-06   -0.0001057930985753886
-6.926627835279251e-05   7.763192780120033e-06   -0.0001057930985753886
-6.926627835279251e-05   7.763192780120033e-06   -0.0001057930985753886
-0.00010501241372269063   1.4290767080153872e-05   -0.00016145344627853126
-0.00010501241372269063   1.4290767080153872e-05   -0.00016145344627853126
-0.00010501241372269063   1.4290767080153872e-05   -0.00016145344627853126
-0.00010501241372269063   1.4290767080153872e-05   -0.00016145344627853126
-0.00010218155338003807   1.215463240196446e-05   -9.966591058794758e-05
-0.00010218155338003807   1.215463240196446e-05   -9.966591058794758e-05
-0.00010218155338003807   1.215463240196446e-05   -9.966591058794758e-05
-0.00010218155338003807   1.215463240196446e-05   -9.966591058794758e-05
-6.678526166147728e-05   1.8316966510993626e-05   -0.00016235713058429893
-6.678526166147728e-05   1.8316966510993626e-05   -0.00016235713058429893
-6.678526166147728e-05   1.8316966510993626e-05   -0.00016235713058429893
-6.678526166147728e-05   1.8316966510993626e-05   -0.00016235713058429893
-8.52177279850859e-05   1.3658825132439531e-05   -0.0001288414685511525
-8.52177279850859e-05   1.3658825132439531e-05   -0.0001288414685511525
-8.52177279850859e-05   1.3658825132439531e-05   -0.0001288414685511525
-8.52177279850859e-05   1.3658825132439531e-05   -0.0001288414685511525
-6.678526166147742e-05   1.215463240196446e-05   -0.00010336331105336534
-6.678526166147742e-05   1.215463240196446e-05   -0.00010336331105336534
-6.678526166147742e-05   1.215463240196446e-05   -0.00010336331105336534
-6.678526166147742e-05   1.215463240196446e-05   -0.00010336331105336534
-0.00010218155338003826   1.831696651099276e-05   -0.00015865973011888312
-0.00010218155338003826   1.831696651099276e-05   -0.00015865973011888312
-0.00010218155338003826   1.831696651099276e-05   -0.00015865973011888312
-0.00010218155338003826   1.831696651099276e-05   -0.00015865973011888312
-9.880319973468046e-05   1.6209636858574225e-05   -9.87672325764139e-05
-9.880319973468046e-05   1.6209636858574225e-05   -9.87672325764139e-05
-9.880319973468046e-05   1.6209636858574225e-05   -9.87672325764139e-05
-9.880319973468046e-05   1.6209636858574225e-05   -9.87672325764139e-05
-6.426663134679258e-05   2.1946676292962722e-05   -0.00015977040355019358
-6.426663134679258e-05   2.1946676292962722e-05   -0.00015977040355019358
-6.426663134679258e-05   2.1946676292962722e-05   -0.00015977040355019358
-6.426663134679258e-05   2.1946676292962722e-05   -0.00015977040355019358
-8.237014904059688e-05   1.6834195423608145e-05   -0.00012653038553890952
-8.237014904059688e-05   1.6834195423608145e-05   -0.00012653038553890952
-8.237014904059688e-05   1.6834195423608145e-05   -0.00012653038553890952
-8.237014904059688e-05   1.6834195423608145e-05   -0.00012653038553890952
-6.426663134679251e-05   1.6209636858574225e-05   -0.00010220945623704708
-6.426663134679251e-05   1.6209636858574225e-05   -0.00010220945623704708
-6.426663134679251e-05   1.6209636858574225e-05   -0.00010220945623704708
-6.426663134679251e-05   1.6209636858574225e-05   -0.00010220945623704708
-9.880319973468046e-05   2.1946676292962722e-05   -0.00015632817988956143
-9.880319973468046e-05   2.1946676292962722e-05   -0.00015632817988956143
-9.880319973468046e-05   2.1946676292962722e-05   -0.00015632817988956143
-9.880319973468046e-05   2.1946676292962722e-05   -0.00015632817988956143
-9.598575872356082e-05   2.0760079353637252e-05   -0.00010149981924987986
-9.598575872356082e-05   2.0760079353637252e-05   -0.00010149981924987986
-9.598575872356082e-05   2.0760079353637252e-05   -0.00010149981924987986
-9.598575872356082e-05   2.0760079353637252e-05   -0.00010149981924987986
-6.18645387272301e-05   2.6014489721810398e-05   -0.00016152116546466777
-6.18645387272301e-05   2.6014489721810398e-05   -0.00016152116546466777
-6.18645387272301e-05   2.6014489721810398e-05   -0.00016152116546466777
-6.18645387272301e-05   2.6014489721810398e-05   -0.00016152116546466777
-8.044694289449592e-05   1.9967188537963962e-05   -0.0001269221111422489
-8.044694289449592e-05   1.9967188537963962e-05   -0.0001269221111422489
-8.044694289449592e-05   1.9967188537963962e-05   -0.0001269221111422489
-8.044694289449592e-05   1.9967188537963962e-05   -0.0001269221111422489
-0.00010501241372269063   1.3021891851265795e-05   -5.477073527542691e-05
-0.00010501241372269063   1.3021891851265795e-05   -5.477073527542691e-05
-0.00010501241372269063   1.3021891851265795e-05   -5.477073527542691e-05
-0.00010501241372269063   1.3021891851265795e-05   -5.477073527542691e-05
-0.00014569732760631076   2.4559729223089417e-05   -0.00011565622265836701
-0.00014569732760631076   2.4559729223089417e-05   -0.00011565622265836701
-0.00014569732760631076   2.4559729223089417e-05   -0.00011565622265836701
-0.00014569732760631076   2.4559729223089417e-05   -0.00011565622265836701
-0.00013798670779259677   1.699784569059691e-05   -3.4625421115344786e-05
-0.00013798670779259677   1.699784569059691e-05   -3.4625421115344786e-05
-0.00013798670779259677   1.699784569059691e-05   -3.4625421115344786e-05
-0.00013798670779259677   1.699784569059691e-05   -3.4625421115344786e-05
-0.00010218155338003807   2.87343040554916e-05   -0.0001013425534885454
-0.00010218155338003807   2.87343040554916e-05   -0.0001013425534885454
-0.00010218155338003807   2.87343040554916e-05   -0.0001013425534885454
-0.00010218155338003807   2.87343040554916e-05   -0.0001013425534885454
-0.00011772553415619652   2.1314223344758194e-05   -7.098387043517451e-05
-0.00011772553415619652   2.1314223344758194e-05   -7.098387043517451e-05
-0.00011772553415619652   2.1314223344758194e-05   -7.098387043517451e-05
-0.00011772553415619652   2.1314223344758194e-05   -7.098387043517451e-05
-0.00010218155338003815   1.699784569059691e-05   -4.1667296134279865e-05
-0.00010218155338003815   1.699784569059691e-05   -4.1667296134279865e-05
-0.00010218155338003815   1.699784569059691e-05   -4.1667296134279865e-05
-0.00010218155338003815   1.699784569059691e-05   -4.1667296134279865e-05
-0.00013798670779259622   2.87343040554916e-05   -9.43006784696089e-05
-0.00013798670779259622   2.87343040554916e-05   -9.43006784696089e-05
-0.00013798670779259622   2.87343040554916e-05   -9.43006784696089e-05
-0.00013798670779259622   2.87343040554916e-05   -9.43006784696089e-05
-0.0001316133572700311   1.881880343792587e-05   -2.8559417259428014e-05
-0.0001316133572700311   1.881880343792587e-05   -2.8559417259428014e-05
-0.0001316133572700311   1.881880343792587e-05   -2.8559417259428014e-05
-0.0001316133572700311   1.881880343792587e-05   -2.8559417259428014e-05
-9.880319973468025e-05   3.0228301746348593e-05   -9.008871213673147e-05
-9.880319973468025e-05   3.0228301746348593e-05   -9.008871213673147e-05
-9.880319973468025e-05   3.0228301746348593e-05   -9.008871213673147e-05
-9.880319973468025e-05   3.0228301746348593e-05   -9.008871213673147e-05
-0.00011486432310407281   2.3183967457297838e-05   -5.909357261431412e-05
-0.00011486432310407281   2.3183967457297838e-05   -5.909357261431412e-05
-0.00011486432310407281   2.3183967457297838e-05   -5.909357261431412e-05
-0.00011486432310407281   2.3183967457297838e-05   -5.909357261431412e-05
-9.880319973468046e-05   1.8818803437925004e-05   -3.540511624448113e-05
-9.880319973468046e-05   1.8818803437925004e-05   -3.540511624448113e-05
-9.880319973468046e-05   1.8818803437925004e-05   -3.540511624448113e-05
-9.880319973468046e-05   1.8818803437925004e-05   -3.540511624448113e-05
-0.00013161335727003088   3.0228301746347726e-05   -8.324301315167874e-05
-0.00013161335727003088   3.0228301746347726e-05   -8.324301315167874e-05
-0.00013161335727003088   3.0228301746347726e-05   -8.324301315167874e-05
-0.00013161335727003088   3.0228301746347726e-05   -8.324301315167874e-05
-0.00012409058308571284   2.1655136690886673e-05   -2.225435592728437e-05
-0.00012409058308571284   2.1655136690886673e-05   -2.225435592728437e-05
-0.00012409058308571284   2.1655136690886673e-05   -2.225435592728437e-05
-0.00012409058308571284   2.1655136690886673e-05   -2.225435592728437e-05
-9.598575872356082e-05   3.213891725633265e-05   -7.53859982034714e-05
-9.598575872356082e-05   3.213891725633265e-05   -7.53859982034714e-05
-9.598575872356082e-05   3.213891725633265e-05   -7.53859982034714e-05
-9.598575872356082e-05   3.213891725633265e-05   -7.53859982034714e-05
-0.00010888971567409733   2.4092671061791936e-05   -4.905165556918817e-05
-0.00010888971567409733   2.4092671061791936e-05   -4.905165556918817e-05
-0.00010888971567409733   2.4092671061791936e-05   -4.905165556918817e-05
-0.00010888971567409733   2.4092671061791936e-05   -4.905165556918817e-05
0.00011115158511691399   -1.4603418097933196e-05   -1.4005693664675273e-06
0.00011115158511691399   -1.4603418097933196e-05   -1.4005693664675273e-06
0.00011115158511691399   -1.4603418097933196e-05   -1.4005693664675273e-06
0.00011115158511691399   -1.4603418097933196e-05   -1.4005693664675273e-06
4.746877362142967e-05   -2.6417220735470634e-05   -0.00011462687010813143
4.746877362142967e-05   -2.6417220735470634e-05   -0.00011462687010813143
4.746877362142967e-05   -2.6417220735470634e-05   -0.00011462687010813143
4.746877362142967e-05   -2.6417220735470634e-05   -0.00011462687010813143
5.08857428760921e-05   -1.1992326329647064e-05   -1.3117693018427357e-05
5.08857428760921e-05   -1.1992326329647064e-05   -1.3117693018427357e-05
5.08857428760921e-05   -1.1992326329647064e-05   -1.3117693018427357e-05
5.08857428760921e-05   -1.1992326329647064e-05   -1.3117693018427357e-05
0.00011965092899196735   -2.455955768892147e-05   -0.00012018599772932047
0.00011965092899196735   -2.455955768892147e-05   -0.00012018599772932047
0.00011965092899196735   -2.455955768892147e-05   -0.00012018599772932047
0.00011965092899196735   -2.455955768892147e-05   -0.00012018599772932047
7.897554894603805e-05   -1.7386822339130262e-05   -5.669733886264593e-05
7.897554894603805e-05   -1.7386822339130262e-05   -5.669733886264593e-05
7.897554894603805e-05   -1.7386822339130262e-05   -5.669733886264593e-05
7.897554894603805e-05   -1.7386822339130262e-05   -5.669733886264593e-05
0.00011965092899196756   -1.1992326329647064e-05   -5.5773542028620185e-06
0.00011965092899196756   -1.1992326329647064e-05   -5.5773542028620185e-06
0.00011965092899196756   -1.1992326329647064e-05   -5.5773542028620185e-06
0.00011965092899196756   -1.1992326329647064e-05   -5.5773542028620185e-06
5.0885742876091884e-05   -2.455955768892147e-05   -0.00012772633654488386
5.0885742876091884e-05   -2.455955768892147e-05   -0.00012772633654488386
5.0885742876091884e-05   -2.455955768892147e-05   -0.00012772633654488386
5.0885742876091884e-05   -2.455955768892147e-05   -0.00012772633654488386
5.466812089085658e-05   -1.025973834036225e-05   -1.823934947838609e-05
5.466812089085658e-05   -1.025973834036225e-05   -1.823934947838609e-05
5.466812089085658e-05   -1.025973834036225e-05   -1.823934947838609e-05
5.466812089085658e-05   -1.025973834036225e-05   -1.823934947838609e-05
0.00012680254376153046   -2.297392132617586e-05   -0.0001308348778046879
0.00012680254376153046   -2.297392132617586e-05   -0.0001308348778046879
0.00012680254376153046   -2.297392132617586e-05   -0.0001308348778046879
0.00012680254376153046   -2.297392132617586e-05   -0.0001308348778046879
8.536097908200008e-05   -1.668173434402065e-05   -6.554091552809756e-05
8.536097908200008e-05   -1.668173434402065e-05   -6.554091552809756e-05
8.536097908200008e-05   -1.668173434402065e-05   -6.554091552809756e-05
8.536097908200008e-05   -1.668173434402065e-05   -6.554091552809756e-05
0.00012680254376153067   -1.025973834036225e-05   -1.0610839686897577e-05
0.00012680254376153067   -1.025973834036225e-05   -1.0610839686897577e-05
0.00012680254376153067   -1.025973834036225e-05   -1.0610839686897577e-05
0.00012680254376153067   -1.025973834036225e-05   -1.0610839686897577e-05
5.466812089085658e-05   -2.297392132617586e-05   -0.00013846338759617664
5.466812089085658e-05   -2.297392132617586e-05   -0.00013846338759617664
5.466812089085658e-05   -2.297392132617586e-05   -0.00013846338759617664
5.466812089085658e-05   -2.297392132617586e-05   -0.00013846338759617664
5.7803837227539184e-05   -5.886064111044684e-06   -3.009564501206194e-05
5.7803837227539184e-05   -5.886064111044684e-06   -3.009564501206194e-05
5.7803837227539184e-05   -5.886064111044684e-06   -3.009564501206194e-05
5.7803837227539184e-05   -5.886064111044684e-06   -3.009564501206194e-05
0.00013510470659873768   -1.794728549392617e-05   -0.00015169369446766398
0.00013510470659873768   -1.794728549392617e-05   -0.00015169369446766398
0.00013510470659873768   -1.794728549392617e-05   -0.00015169369446766398
0.00013510470659873768   -1.794728549392617e-05   -0.00015169369446766398
8.88539030360805e-05   -1.4728884945414134e-05   -7.654006219234518e-05
8.88539030360805e-05   -1.4728884945414134e-05   -7.654006219234518e-05
8.88539030360805e-05   -1.4728884945414134e-05   -7.654006219234518e-05
8.88539030360805e-05   -1.4728884945414134e-05   -7.654006219234518e-05
4.746877362142967e-05   -5.81002012494964e-06   -7.827523361007144e-05
4.746877362142967e-05   -5.81002012494964e-06   -7.827523361007144e-05
4.746877362142967e-05   -5.81002012494964e-06   -7.827523361007144e-05
4.746877362142967e-05   -5.81002012494964e-06   -7.827523361007144e-05
-2.0047539087963756e-05   -1.2427829807537538e-05   -0.0001947731072686129
-2.0047539087963756e-05   -1.2427829807537538e-05   -0.0001947731072686129
-2.0047539087963756e-05   -1.2427829807537538e-05   -0.0001947731072686129
-2.0047539087963756e-05   -1.2427829807537538e-05   -0.0001947731072686129
-1.6861769985593474e-05   -2.2390746871351827e-06   -7.990586924367955e-05
-1.6861769985593474e-05   -2.2390746871351827e-06   -7.990586924367955e-05
-1.6861769985593474e-05   -2.2390746871351827e-06   -7.990586924367955e-05
-1.6861769985593474e-05   -2.2390746871351827e-06   -7.990586924367955e-05
5.088574287609199e-05   -9.864959076911692e-06   -0.00018824286004595625
5.088574287609199e-05   -9.864959076911692e-06   -0.00018824286004595625
5.088574287609199e-05   -9.864959076911692e-06   -0.00018824286004595625
5.088574287609199e-05   -9.864959076911692e-06   -0.00018824286004595625
1.5532507888360884e-05   -6.019538407502079e-06   -0.00013162805413471663
1.5532507888360884e-05   -6.019538407502079e-06   -0.00013162805413471663
1.5532507888360884e-05   -6.019538407502079e-06   -0.00013162805413471663
1.5532507888360884e-05   -6.019538407502079e-06   -0.00013162805413471663
5.088574287609199e-05   -2.2390746871351827e-06   -7.533033860981399e-05
5.088574287609199e-05   -2.2390746871351827e-06   -7.533033860981399e-05
5.088574287609199e-05   -2.2390746871351827e-06   -7.533033860981399e-05
5.088574287609199e-05   -2.2390746871351827e-06   -7.533033860981399e-05
-1.6861769985593474e-05   -9.864959076911692e-06   -0.0001928183906798218
-1.6861769985593474e-05   -9.864959076911692e-06   -0.0001928183906798218
-1.6861769985593474e-05   -9.864959076911692e-06   -0.0001928183906798218
-1.6861769985593474e-05   -9.864959076911692e-06   -0.0001928183906798218
-1.381978077078514e-05   1.450487144705713e-06   -8.091387814793301e-05
-1.381978077078514e-05   1.450487144705713e-06   -8.091387814793301e-05
-1.381978077078514e-05   1.450487144705713e-06   -8.091387814793301e-05
-1.381978077078514e-05   1.450487144705713e-06   -8.091387814793301e-05
5.466812089085658e-05   -6.730584715203269e-06   -0.00019015173780139046
5.466812089085658e-05   -6.730584715203269e-06   -0.00019015173780139046
5.466812089085658e-05   -6.730584715203269e-06   -0.00019015173780139046
5.466812089085658e-05   -6.730584715203269e-06   -0.00019015173780139046
1.8068463204577874e-05   -3.756916030548882e-06   -0.00013093650953505012
1.8068463204577874e-05   -3.756916030548882e-06   -0.00013093650953505012
1.8068463204577874e-05   -3.756916030548882e-06   -0.00013093650953505012
1.8068463204577874e-05   -3.756916030548882e-06   -0.00013093650953505012
5.466812089085658e-05   1.450487144705713e-06   -7.600523503198744e-05
5.466812089085658e-05   1.450487144705713e-06   -7.600523503198744e-05
5.466812089085658e-05   1.450487144705713e-06   -7.600523503198744e-05
5.466812089085658e-05   1.450487144705713e-06   -7.600523503198744e-05
-1.381978077078514e-05   -6.730584715203269e-06   -0.00019506038091733667
-1.381978077078514e-05   -6.730584715203269e-06   -0.00019506038091733667
-1.381978077078514e-05   -6.730584715203269e-06   -0.00019506038091733667
-1.381978077078514e-05   -6.730584715203269e-06   -0.00019506038091733667
-1.0960059795136687e-05   5.815446618264233e-06   -8.364494155403517e-05
-1.0960059795136687e-05   5.815446618264233e-06   -8.364494155403517e-05
-1.0960059795136687e-05   5.815446618264233e-06   -8.364494155403517e-05
-1.0960059795136687e-05   5.815446618264233e-06   -8.364494155403517e-05
5.7803837227539184e-05   -2.790546803514704e-06   -0.00019308784053876098
5.7803837227539184e-05   -2.790546803514704e-06   -0.00019308784053876098
5.7803837227539184e-05   -2.790546803514704e-06   -0.00019308784053876098
5.7803837227539184e-05   -2.790546803514704e-06   -0.00019308784053876098
2.12187986088141e-05   -9.68922056209659e-07   -0.0001332057510226056
2.12187986088141e-05   -9.68922056209659e-07   -0.0001332057510226056
2.12187986088141e-05   -9.68922056209659e-07   -0.0001332057510226056
2.12187986088141e-05   -9.68922056209659e-07   -0.0001332057510226056
-2.0047539087963647e-05   4.397772180958666e-06   -0.00010050425843015614
-2.0047539087963647e-05   4.397772180958666e-06   -0.00010050425843015614
-2.0047539087963647e-05   4.397772180958666e-06   -0.00010050425843015614
-2.0047539087963647e-05   4.397772180958666e-06   -0.00010050425843015614
-8.637506750963812e-05   2.1505275487020137e-06   -0.00021239848591230077
-8.637506750963812e-05   2.1505275487020137e-06   -0.00021239848591230077
-8.637506750963812e-05   2.1505275487020137e-06   -0.00021239848591230077
-8.637506750963812e-05   2.1505275487020137e-06   -0.00021239848591230077
-8.294521403729693e-05   8.170160404656623e-06   -9.983413170478166e-05
-8.294521403729693e-05   8.170160404656623e-06   -9.983413170478166e-05
-8.294521403729693e-05   8.170160404656623e-06   -9.983413170478166e-05
-8.294521403729693e-05   8.170160404656623e-06   -9.983413170478166e-05
-1.6861769985593474e-05   5.024879615926278e-06   -0.00020808603665104907
-1.6861769985593474e-05   5.024879615926278e-06   -0.00020808603665104907
-1.6861769985593474e-05   5.024879615926278e-06   -0.00020808603665104907
-1.6861769985593474e-05   5.024879615926278e-06   -0.00020808603665104907
-5.120219698538666e-05   6.0252397382758865e-06   -0.00015145220772480377
-5.120219698538666e-05   6.0252397382758865e-06   -0.00015145220772480377
-5.120219698538666e-05   6.0252397382758865e-06   -0.00015145220772480377
-5.120219698538666e-05   6.0252397382758865e-06   -0.00015145220772480377
-1.6861769985593474e-05   8.170160404656623e-06   -9.794696323154294e-05
-1.6861769985593474e-05   8.170160404656623e-06   -9.794696323154294e-05
-1.6861769985593474e-05   8.170160404656623e-06   -9.794696323154294e-05
-1.6861769985593474e-05   8.170160404656623e-06   -9.794696323154294e-05
-8.294521403729693e-05   5.024879615926278e-06   -0.0002099732051242878
-8.294521403729693e-05   5.024879615926278e-06   -0.0002099732051242878
-8.294521403729693e-05   5.024879615926278e-06   -0.0002099732051242878
-8.294521403729693e-05   5.024879615926278e-06   -0.0002099732051242878
-7.963852490704262e-05   1.2166697376897635e-05   -9.968325923901105e-05
-7.963852490704262e-05   1.2166697376897635e-05   -9.968325923901105e-05
-7.963852490704262e-05   1.2166697376897635e-05   -9.968325923901105e-05
-7.963852490704262e-05   1.2166697376897635e-05   -9.968325923901105e-05
-1.381978077078514e-05   8.359486458947227e-06   -0.000207096839582004
-1.381978077078514e-05   8.359486458947227e-06   -0.000207096839582004
-1.381978077078514e-05   8.359486458947227e-06   -0.000207096839582004
-1.381978077078514e-05   8.359486458947227e-06   -0.000207096839582004
-4.824785346012706e-05   8.715143367357334e-06   -0.00014993011257814586
-4.824785346012706e-05   8.715143367357334e-06   -0.00014993011257814586
-4.824785346012706e-05   8.715143367357334e-06   -0.00014993011257814586
-4.824785346012706e-05   8.715143367357334e-06   -0.00014993011257814586
-1.381978077078514e-05   1.2166697376897635e-05   -9.739893268824202e-05
-1.381978077078514e-05   1.2166697376897635e-05   -9.739893268824202e-05
-1.381978077078514e-05   1.2166697376897635e-05   -9.739893268824202e-05
-1.381978077078514e-05   1.2166697376897635e-05   -9.739893268824202e-05
-7.963852490704262e-05   8.359486458947227e-06   -0.00020938116613277314
-7.963852490704262e-05   8.359486458947227e-06   -0.00020938116613277314
-7.963852490704262e-05   8.359486458947227e-06   -0.00020938116613277314
-7.963852490704262e-05   8.359486458947227e-06   -0.00020938116613277314
-7.658271464268607e-05   1.6232019108931156e-05   -0.00010201608157774447
-7.658271464268607e-05   1.6232019108931156e-05   -0.00010201608157774447
-7.658271464268607e-05   1.6232019108931156e-05   -0.00010201608157774447
-7.658271464268607e-05   1.6232019108931156e-05   -0.00010201608157774447
-1.0960059795136687e-05   1.180683761340881e-05   -0.0002087320640930142
-1.0960059795136687e-05   1.180683761340881e-05   -0.0002087320640930142
-1.0960059795136687e-05   1.180683761340881e-05   -0.0002087320640930142
-1.0960059795136687e-05   1.180683761340881e-05   -0.0002087320640930142
-4.560577262160788e-05   1.1475414487413516e-05   -0.00015079035550663404
-4.560577262160788e-05   1.1475414487413516e-05   -0.00015079035550663404
-4.560577262160788e-05   1.1475414487413516e-05   -0.00015079035550663404
-4.560577262160788e-05   1.1475414487413516e-05   -0.00015079035550663404
-8.637506750963829e-05   1.4290767080153872e-05   -8.158808505465912e-05
-8.637506750963829e-05   1.4290767080153872e-05   -8.158808505465912e-05
-8.637506750963829e-05   1.4290767080153872e-05   -8.158808505465912e-05
-8.637506750963829e-05   1.4290767080153872e-05   -8.158808505465912e-05
-0.00015140998736135934   1.7248289581087498e-05   -0.00018820510464030021
-0.00015140998736135934   1.7248289581087498e-05   -0.00018820510464030021
-0.00015140998736135934   1.7248289581087498e-05   -0.00018820510464030021
-0.00015140998736135934   1.7248289581087498e-05   -0.00018820510464030021
-0.0001472799767197505   1.8316966510993626e-05   -7.672643763498473e-05
-0.0001472799767197505   1.8316966510993626e-05   -7.672643763498473e-05
-0.0001472799767197505   1.8316966510993626e-05   -7.672643763498473e-05
-0.0001472799767197505   1.8316966510993626e-05   -7.672643763498473e-05
-8.294521403729707e-05   2.0905977870598613e-05   -0.00018550444892150502
-8.294521403729707e-05   2.0905977870598613e-05   -0.00018550444892150502
-8.294521403729707e-05   2.0905977870598613e-05   -0.00018550444892150502
-8.294521403729707e-05   2.0905977870598613e-05   -0.00018550444892150502
-0.00011614641240769656   1.8463268236974112e-05   -0.00012870349252399753
-0.00011614641240769656   1.8463268236974112e-05   -0.00012870349252399753
-0.00011614641240769656   1.8463268236974112e-05   -0.00012870349252399753
-0.00011614641240769656   1.8463268236974112e-05   -0.00012870349252399753
-8.294521403729707e-05   1.8316966510993626e-05   -7.827984445074945e-05
-8.294521403729707e-05   1.8316966510993626e-05   -7.827984445074945e-05
-8.294521403729707e-05   1.8316966510993626e-05   -7.827984445074945e-05
-8.294521403729707e-05   1.8316966510993626e-05   -7.827984445074945e-05
-0.00014727997671975076   2.0905977870598613e-05   -0.0001839510421057424
-0.00014727997671975076   2.0905977870598613e-05   -0.0001839510421057424
-0.00014727997671975076   2.0905977870598613e-05   -0.0001839510421057424
-0.00014727997671975076   2.0905977870598613e-05   -0.0001839510421057424
-0.00014271882874075778   2.1946676292962722e-05   -7.402387130976424e-05
-0.00014271882874075778   2.1946676292962722e-05   -7.402387130976424e-05
-0.00014271882874075778   2.1946676292962722e-05   -7.402387130976424e-05
-0.00014271882874075778   2.1946676292962722e-05   -7.402387130976424e-05
-7.963852490704273e-05   2.4057125548164818e-05   -0.0001804239805857442
-7.963852490704273e-05   2.4057125548164818e-05   -0.0001804239805857442
-7.963852490704273e-05   2.4057125548164818e-05   -0.0001804239805857442
-7.963852490704273e-05   2.4057125548164818e-05   -0.0001804239805857442
-0.00011197807806620888   2.1306400900525033e-05   -0.00012487429053188322
-0.00011197807806620888   2.1306400900525033e-05   -0.00012487429053188322
-0.00011197807806620888   2.1306400900525033e-05   -0.00012487429053188322
-0.00011197807806620888   2.1306400900525033e-05   -0.00012487429053188322
-7.963852490704268e-05   2.1946676292962722e-05   -7.529014086288515e-05
-7.963852490704268e-05   2.1946676292962722e-05   -7.529014086288515e-05
-7.963852490704268e-05   2.1946676292962722e-05   -7.529014086288515e-05
-7.963852490704268e-05   2.1946676292962722e-05   -7.529014086288515e-05
-0.00014271882874075778   2.4057125548164818e-05   -0.00017915771103262264
-0.00014271882874075778   2.4057125548164818e-05   -0.00017915771103262264
-0.00014271882874075778   2.4057125548164818e-05   -0.00017915771103262264
-0.00014271882874075778   2.4057125548164818e-05   -0.00017915771103262264
-0.0001388623265440767   2.6014489721810398e-05   -7.573065020937114e-05
-0.0001388623265440767   2.6014489721810398e-05   -7.573065020937114e-05
-0.0001388623265440767   2.6014489721810398e-05   -7.573065020937114e-05
-0.0001388623265440767   2.6014489721810398e-05   -7.573065020937114e-05
-7.658271464268621e-05   2.7549171090383157e-05   -0.00018045081219949843
-7.658271464268621e-05   2.7549171090383157e-05   -0.00018045081219949843
-7.658271464268621e-05   2.7549171090383157e-05   -0.00018045081219949843
-7.658271464268621e-05   2.7549171090383157e-05   -0.00018045081219949843
-0.00010936349938910044   2.3927585395146396e-05   -0.00012364321953833412
-0.00010936349938910044   2.3927585395146396e-05   -0.00012364321953833412
-0.00010936349938910044   2.3927585395146396e-05   -0.00012364321953833412
-0.00010936349938910044   2.3927585395146396e-05   -0.00012364321953833412
-0.00015140998736135934   2.4559729223089417e-05   -4.093905035702956e-05
-0.00015140998736135934   2.4559729223089417e-05   -4.093905035702956e-05
-0.00015140998736135934   2.4559729223089417e-05   -4.093905035702956e-05
-0.00015140998736135934   2.4559729223089417e-05   -4.093905035702956e-05
-0.00021982487715586826   3.3989311270304565e-05   -0.0001493061174528817
-0.00021982487715586826   3.3989311270304565e-05   -0.0001493061174528817
-0.00021982487715586826   3.3989311270304565e-05   -0.0001493061174528817
-0.00021982487715586826   3.3989311270304565e-05   -0.0001493061174528817
-0.00021040086556373307   2.87343040554916e-05   -1.3340999643678304e-05
-0.00021040086556373307   2.87343040554916e-05   -1.3340999643678304e-05
-0.00021040086556373307   2.87343040554916e-05   -1.3340999643678304e-05
-0.00021040086556373307   2.87343040554916e-05   -1.3340999643678304e-05
-0.0001472799767197505   3.8848072990442864e-05   -0.0001246107424112857
-0.0001472799767197505   3.8848072990442864e-05   -0.0001246107424112857
-0.0001472799767197505   3.8848072990442864e-05   -0.0001246107424112857
-0.0001472799767197505   3.8848072990442864e-05   -0.0001246107424112857
-0.00017469152012556776   3.238454129769926e-05   -7.504671771927805e-05
-0.00017469152012556776   3.238454129769926e-05   -7.504671771927805e-05
-0.00017469152012556776   3.238454129769926e-05   -7.504671771927805e-05
-0.00017469152012556776   3.238454129769926e-05   -7.504671771927805e-05
-0.00014727997671975065   2.87343040554916e-05   -1.9409261004648196e-05
-0.00014727997671975065   2.87343040554916e-05   -1.9409261004648196e-05
-0.00014727997671975065   2.87343040554916e-05   -1.9409261004648196e-05
-0.00014727997671975065   2.87343040554916e-05   -1.9409261004648196e-05
-0.00021040086556373269   3.8848072990442864e-05   -0.00011854248105031516
-0.00021040086556373269   3.8848072990442864e-05   -0.00011854248105031516
-0.00021040086556373269   3.8848072990442864e-05   -0.00011854248105031516
-0.00021040086556373269   3.8848072990442864e-05   -0.00011854248105031516
-0.00020264468147195204   3.0228301746348593e-05   -1.8477937057869917e-06
-0.00020264468147195204   3.0228301746348593e-05   -1.8477937057869917e-06
-0.00020264468147195204   3.0228301746348593e-05   -1.8477937057869917e-06
-0.00020264468147195204   3.0228301746348593e-05   -1.8477937057869917e-06
-0.00014271882874075778   4.012265149826513e-05   -0.00010766082477559291
-0.00014271882874075778   4.012265149826513e-05   -0.00010766082477559291
-0.00014271882874075778   4.012265149826513e-05   -0.00010766082477559291
-0.00014271882874075778   4.012265149826513e-05   -0.00010766082477559291
-0.00017143169843628574   3.430855159562273e-05   -5.631758200812611e-05
-0.00017143169843628574   3.430855159562273e-05   -5.631758200812611e-05
-0.00017143169843628574   3.430855159562273e-05   -5.631758200812611e-05
-0.00017143169843628574   3.430855159562273e-05   -5.631758200812611e-05
-0.00014271882874075778   3.0228301746348593e-05   -7.784403556936395e-06
-0.00014271882874075778   3.0228301746348593e-05   -7.784403556936395e-06
-0.00014271882874075778   3.0228301746348593e-05   -7.784403556936395e-06
-0.00014271882874075778   3.0228301746348593e-05   -7.784403556936395e-06
-0.00020264468147195133   4.01226514982634e-05   -0.00010172421492444465
-0.00020264468147195133   4.01226514982634e-05   -0.00010172421492444465
-0.00020264468147195133   4.01226514982634e-05   -0.00010172421492444465
-0.00020264468147195133   4.01226514982634e-05   -0.00010172421492444465
-0.00019429272294714284   3.213891725633265e-05   1.2711901546425507e-05
-0.00019429272294714284   3.213891725633265e-05   1.2711901546425507e-05
-0.00019429272294714284   3.213891725633265e-05   1.2711901546425507e-05
-0.00019429272294714284   3.213891725633265e-05   1.2711901546425507e-05
-0.0001388623265440767   4.123896844884095e-05   -8.513212317418927e-05
-0.0001388623265440767   4.123896844884095e-05   -8.513212317418927e-05
-0.0001388623265440767   4.123896844884095e-05   -8.513212317418927e-05
-0.0001388623265440767   4.123896844884095e-05   -8.513212317418927e-05
-0.00016359593352125145   3.4625412857753994e-05   -3.9941311524246655e-05
-0.00016359593352125145   3.4625412857753994e-05   -3.9941311524246655e-05
-0.00016359593352125145   3.4625412857753994e-05   -3.9941311524246655e-05
-0.00016359593352125145   3.4625412857753994e-05   -3.9941311524246655e-05
0.00018921456359586653   -2.6417220735470634e-05   3.6950098750935384e-05
0.00018921456359586653   -2.6417220735470634e-05   3.6950098750935384e-05
0.00018921456359586653   -2.6417220735470634e-05   3.6950098750935384e-05
0.00018921456359586653   -2.6417220735470634e-05   3.6950098750935384e-05
9.13113742140565e-05   -3.920137626578675e-05   -0.0001338923768702707
9.13113742140565e-05   -3.920137626578675e-05   -0.0001338923768702707
9.13113742140565e-05   -3.920137626578675e-05   -0.0001338923768702707
9.13113742140565e-05   -3.920137626578675e-05   -0.0001338923768702707
9.510174072590726e-05   -2.455955768892147e-05   1.7522534354444223e-05
9.510174072590726e-05   -2.455955768892147e-05   1.7522534354444223e-05
9.510174072590726e-05   -2.455955768892147e-05   1.7522534354444223e-05
9.510174072590726e-05   -2.455955768892147e-05   1.7522534354444223e-05
0.0001979641024186258   -3.8275837310771874e-05   -0.00014568496736030914
0.0001979641024186258   -3.8275837310771874e-05   -0.00014568496736030914
0.0001979641024186258   -3.8275837310771874e-05   -0.00014568496736030914
0.0001979641024186258   -3.8275837310771874e-05   -0.00014568496736030914
0.00013757384980022622   -2.8943852985217206e-05   -5.0633736924978086e-05
0.00013757384980022622   -2.8943852985217206e-05   -5.0633736924978086e-05
0.00013757384980022622   -2.8943852985217206e-05   -5.0633736924978086e-05
0.00013757384980022622   -2.8943852985217206e-05   -5.0633736924978086e-05
0.00019796410241862611   -2.455955768892147e-05   2.575230212755516e-05
0.00019796410241862611   -2.455955768892147e-05   2.575230212755516e-05
0.00019796410241862611   -2.455955768892147e-05   2.575230212755516e-05
0.00019796410241862611   -2.455955768892147e-05   2.575230212755516e-05
9.510174072590715e-05   -3.8275837310771874e-05   -0.00015391473513342094
9.510174072590715e-05   -3.8275837310771874e-05   -0.00015391473513342094
9.510174072590715e-05   -3.8275837310771874e-05   -0.00015391473513342094
9.510174072590715e-05   -3.8275837310771874e-05   -0.00015391473513342094
9.887097353356196e-05   -2.297392132617586e-05   8.0413127351818e-06
9.887097353356196e-05   -2.297392132617586e-05   8.0413127351818e-06
9.887097353356196e-05   -2.297392132617586e-05   8.0413127351818e-06
9.887097353356196e-05   -2.297392132617586e-05   8.0413127351818e-06
0.00020468771776860025   -3.695039192058887e-05   -0.00015993404529990145
0.00020468771776860025   -3.695039192058887e-05   -0.00015993404529990145
0.00020468771776860025   -3.695039192058887e-05   -0.00015993404529990145
0.00020468771776860025   -3.695039192058887e-05   -0.00015993404529990145
0.0001449343737392829   -2.8850441121160836e-05   -6.520510906402803e-05
0.0001449343737392829   -2.8850441121160836e-05   -6.520510906402803e-05
0.0001449343737392829   -2.8850441121160836e-05   -6.520510906402803e-05
0.0001449343737392829   -2.8850441121160836e-05   -6.520510906402803e-05
0.00020468771776860025   -2.297392132617586e-05   1.6427195091829258e-05
0.00020468771776860025   -2.297392132617586e-05   1.6427195091829258e-05
0.00020468771776860025   -2.297392132617586e-05   1.6427195091829258e-05
0.00020468771776860025   -2.297392132617586e-05   1.6427195091829258e-05
9.887097353356196e-05   -3.695039192058887e-05   -0.00016831992765654977
9.887097353356196e-05   -3.695039192058887e-05   -0.00016831992765654977
9.887097353356196e-05   -3.695039192058887e-05   -0.00016831992765654977
9.887097353356196e-05   -3.695039192058887e-05   -0.00016831992765654977
0.00010143966435529001   -1.794728549392617e-05   -1.1095797338537237e-05
0.00010143966435529001   -1.794728549392617e-05   -1.1095797338537237e-05
0.00010143966435529001   -1.794728549392617e-05   -1.1095797338537237e-05
0.00010143966435529001   -1.794728549392617e-05   -1.1095797338537237e-05
0.00021179466536062615   -3.176825645016118e-05   -0.00018672821644035624
0.00021179466536062615   -3.176825645016118e-05   -0.00018672821644035624
0.00021179466536062615   -3.176825645016118e-05   -0.00018672821644035624
0.00021179466536062615   -3.176825645016118e-05   -0.00018672821644035624
0.0001470311803532287   -2.6639456244481607e-05   -8.186635488477163e-05
0.0001470311803532287   -2.6639456244481607e-05   -8.186635488477163e-05
0.0001470311803532287   -2.6639456244481607e-05   -8.186635488477163e-05
0.0001470311803532287   -2.6639456244481607e-05   -8.186635488477163e-05
9.131137421405661e-05   -1.2427829807537538e-05   -4.689594591818225e-05
9.131137421405661e-05   -1.2427829807537538e-05   -4.689594591818225e-05
9.131137421405661e-05   -1.2427829807537538e-05   -4.689594591818225e-05
9.131137421405661e-05   -1.2427829807537538e-05   -4.689594591818225e-05
-5.2974348784011124e-06   -2.5542826538623928e-05   -0.00021577962577759742
-5.2974348784011124e-06   -2.5542826538623928e-05   -0.00021577962577759742
-5.2974348784011124e-06   -2.5542826538623928e-05   -0.00021577962577759742
-5.2974348784011124e-06   -2.5542826538623928e-05   -0.00021577962577759742
-1.401647224335157e-06   -9.864959076911692e-06   -5.1678602067927945e-05
-1.401647224335157e-06   -9.864959076911692e-06   -5.1678602067927945e-05
-1.401647224335157e-06   -9.864959076911692e-06   -5.1678602067927945e-05
-1.401647224335157e-06   -9.864959076911692e-06   -5.1678602067927945e-05
9.510174072590726e-05   -2.433931394574436e-05   -0.00020383296906369792
9.510174072590726e-05   -2.433931394574436e-05   -0.00020383296906369792
9.510174072590726e-05   -2.433931394574436e-05   -0.00020383296906369792
9.510174072590726e-05   -2.433931394574436e-05   -0.00020383296906369792
4.5068269489157494e-05   -1.5446957884503176e-05   -0.00012577926397252712
4.5068269489157494e-05   -1.5446957884503176e-05   -0.00012577926397252712
4.5068269489157494e-05   -1.5446957884503176e-05   -0.00012577926397252712
4.5068269489157494e-05   -1.5446957884503176e-05   -0.00012577926397252712
9.510174072590726e-05   -9.864959076911692e-06   -4.2993989146627304e-05
9.510174072590726e-05   -9.864959076911692e-06   -4.2993989146627304e-05
9.510174072590726e-05   -9.864959076911692e-06   -4.2993989146627304e-05
9.510174072590726e-05   -9.864959076911692e-06   -4.2993989146627304e-05
-1.401647224335157e-06   -2.433931394574436e-05   -0.00021251758198499813
-1.401647224335157e-06   -2.433931394574436e-05   -0.00021251758198499813
-1.401647224335157e-06   -2.433931394574436e-05   -0.00021251758198499813
-1.401647224335157e-06   -2.433931394574436e-05   -0.00021251758198499813
2.032096088628167e-06   -6.730584715203269e-06   -5.285935762523557e-05
2.032096088628167e-06   -6.730584715203269e-06   -5.285935762523557e-05
2.032096088628167e-06   -6.730584715203269e-06   -5.285935762523557e-05
2.032096088628167e-06   -6.730584715203269e-06   -5.285935762523557e-05
9.887097353356196e-05   -2.2084451640539543e-05   -0.000205045166544922
9.887097353356196e-05   -2.2084451640539543e-05   -0.000205045166544922
9.887097353356196e-05   -2.2084451640539543e-05   -0.000205045166544922
9.887097353356196e-05   -2.2084451640539543e-05   -0.000205045166544922
4.773220615921403e-05   -1.4200267161413455e-05   -0.00012454439827514862
4.773220615921403e-05   -1.4200267161413455e-05   -0.00012454439827514862
4.773220615921403e-05   -1.4200267161413455e-05   -0.00012454439827514862
4.773220615921403e-05   -1.4200267161413455e-05   -0.00012454439827514862
9.887097353356196e-05   -6.730584715203269e-06   -4.364703747003224e-05
9.887097353356196e-05   -6.730584715203269e-06   -4.364703747003224e-05
9.887097353356196e-05   -6.730584715203269e-06   -4.364703747003224e-05
9.887097353356196e-05   -6.730584715203269e-06   -4.364703747003224e-05
2.0320960886280586e-06   -2.2084451640539543e-05   -0.00021425748670012446
2.0320960886280586e-06   -2.2084451640539543e-05   -0.00021425748670012446
2.0320960886280586e-06   -2.2084451640539543e-05   -0.00021425748670012446
2.0320960886280586e-06   -2.2084451640539543e-05   -0.00021425748670012446
4.481319422332849e-06   -2.790546803514704e-06   -5.490531965567785e-05
4.481319422332849e-06   -2.790546803514704e-06   -5.490531965567785e-05
4.481319422332849e-06   -2.790546803514704e-06   -5.490531965567785e-05
4.481319422332849e-06   -2.790546803514704e-06   -5.490531965567785e-05
0.00010143966435529022   -1.8877395263133465e-05   -0.0002068504521348356
0.00010143966435529022   -1.8877395263133465e-05   -0.0002068504521348356
0.00010143966435529022   -1.8877395263133465e-05   -0.0002068504521348356
0.00010143966435529022   -1.8877395263133465e-05   -0.0002068504521348356
5.090291685838454e-05   -1.1994607526391587e-05   -0.00012675221228203933
5.090291685838454e-05   -1.1994607526391587e-05   -0.00012675221228203933
5.090291685838454e-05   -1.1994607526391587e-05   -0.00012675221228203933
5.090291685838454e-05   -1.1994607526391587e-05   -0.00012675221228203933
-5.2974348784011124e-06   2.1505275487020137e-06   -7.104197582116865e-05
-5.2974348784011124e-06   2.1505275487020137e-06   -7.104197582116865e-05
-5.2974348784011124e-06   2.1505275487020137e-06   -7.104197582116865e-05
-5.2974348784011124e-06   2.1505275487020137e-06   -7.104197582116865e-05
-0.0001004784379280206   -1.3628226339379435e-05   -0.00023914423323671743
-0.0001004784379280206   -1.3628226339379435e-05   -0.00023914423323671743
-0.0001004784379280206   -1.3628226339379435e-05   -0.00023914423323671743
-0.0001004784379280206   -1.3628226339379435e-05   -0.00023914423323671743
-9.580609041765105e-05   5.024879615926278e-06   -7.729092344426185e-05
-9.580609041765105e-05   5.024879615926278e-06   -7.729092344426185e-05
-9.580609041765105e-05   5.024879615926278e-06   -7.729092344426185e-05
-9.580609041765105e-05   5.024879615926278e-06   -7.729092344426185e-05
-1.401647224335157e-06   -1.2216246059253491e-05   -0.00022428698669468069
-1.401647224335157e-06   -1.2216246059253491e-05   -0.00022428698669468069
-1.401647224335157e-06   -1.2216246059253491e-05   -0.00022428698669468069
-1.401647224335157e-06   -1.2216246059253491e-05   -0.00022428698669468069
-5.013554088579688e-05   -2.775924332010238e-06   -0.00014872802362858996
-5.013554088579688e-05   -2.775924332010238e-06   -0.00014872802362858996
-5.013554088579688e-05   -2.775924332010238e-06   -0.00014872802362858996
-5.013554088579688e-05   -2.775924332010238e-06   -0.00014872802362858996
-1.401647224335157e-06   5.024879615926278e-06   -6.694624803915434e-05
-1.401647224335157e-06   5.024879615926278e-06   -6.694624803915434e-05
-1.401647224335157e-06   5.024879615926278e-06   -6.694624803915434e-05
-1.401647224335157e-06   5.024879615926278e-06   -6.694624803915434e-05
-9.580609041765105e-05   -1.2216246059253491e-05   -0.0002346316620997881
-9.580609041765105e-05   -1.2216246059253491e-05   -0.0002346316620997881
-9.580609041765105e-05   -1.2216246059253491e-05   -0.0002346316620997881
-9.580609041765105e-05   -1.2216246059253491e-05   -0.0002346316620997881
-9.151922422641316e-05   8.359486458947227e-06   -7.591012800093212e-05
-9.151922422641316e-05   8.359486458947227e-06   -7.591012800093212e-05
-9.151922422641316e-05   8.359486458947227e-06   -7.591012800093212e-05
-9.151922422641316e-05   8.359486458947227e-06   -7.591012800093212e-05
2.0320960886280586e-06   -9.997699726102885e-06   -0.00022081468348163701
2.0320960886280586e-06   -9.997699726102885e-06   -0.00022081468348163701
2.0320960886280586e-06   -9.997699726102885e-06   -0.00022081468348163701
2.0320960886280586e-06   -9.997699726102885e-06   -0.00022081468348163701
-4.632579178146018e-05   -1.151727886028811e-06   -0.0001455257868022016
-4.632579178146018e-05   -1.151727886028811e-06   -0.0001455257868022016
-4.632579178146018e-05   -1.151727886028811e-06   -0.0001455257868022016
-4.632579178146018e-05   -1.151727886028811e-06   -0.0001455257868022016
2.0320960886280586e-06   8.359486458947227e-06   -6.48958162899017e-05
2.0320960886280586e-06   8.359486458947227e-06   -6.48958162899017e-05
2.0320960886280586e-06   8.359486458947227e-06   -6.48958162899017e-05
2.0320960886280586e-06   8.359486458947227e-06   -6.48958162899017e-05
-9.151922422641332e-05   -9.99769972610115e-06   -0.00023182899519266775
-9.151922422641332e-05   -9.99769972610115e-06   -0.00023182899519266775
-9.151922422641332e-05   -9.99769972610115e-06   -0.00023182899519266775
-9.151922422641332e-05   -9.99769972610115e-06   -0.00023182899519266775
-8.862705472632379e-05   1.180683761340881e-05   -7.720810390599107e-05
-8.862705472632379e-05   1.180683761340881e-05   -7.720810390599107e-05
-8.862705472632379e-05   1.180683761340881e-05   -7.720810390599107e-05
-8.862705472632379e-05   1.180683761340881e-05   -7.720810390599107e-05
4.481319422332849e-06   -7.896756968470836e-06   -0.00022056657073795793
4.481319422332849e-06   -7.896756968470836e-06   -0.00022056657073795793
4.481319422332849e-06   -7.896756968470836e-06   -0.00022056657073795793
4.481319422332849e-06   -7.896756968470836e-06   -0.00022056657073795793
-4.360395958936609e-05   6.742564408728641e-07   -0.00014556704709740203
-4.360395958936609e-05   6.742564408728641e-07   -0.00014556704709740203
-4.360395958936609e-05   6.742564408728641e-07   -0.00014556704709740203
-4.360395958936609e-05   6.742564408728641e-07   -0.00014556704709740203
-0.00010047843792802044   1.7248289581087498e-05   -5.8090360382577304e-05
-0.00010047843792802044   1.7248289581087498e-05   -5.8090360382577304e-05
-0.00010047843792802044   1.7248289581087498e-05   -5.8090360382577304e-05
-0.00010047843792802044   1.7248289581087498e-05   -5.8090360382577304e-05
-0.0001969580060301783   2.996278574892222e-06   -0.00022744084715655734
-0.0001969580060301783   2.996278574892222e-06   -0.00022744084715655734
-0.0001969580060301783   2.996278574892222e-06   -0.00022744084715655734
-0.0001969580060301783   2.996278574892222e-06   -0.00022744084715655734
-0.00019030868356100636   2.0905977870598613e-05   -6.19841728356791e-05
-0.00019030868356100636   2.0905977870598613e-05   -6.19841728356791e-05
-0.00019030868356100636   2.0905977870598613e-05   -6.19841728356791e-05
-0.00019030868356100636   2.0905977870598613e-05   -6.19841728356791e-05
-9.580609041765092e-05   5.6359685469322546e-06   -0.00021032648914707174
-9.580609041765092e-05   5.6359685469322546e-06   -0.00021032648914707174
-9.580609041765092e-05   5.6359685469322546e-06   -0.00021032648914707174
-9.580609041765092e-05   5.6359685469322546e-06   -0.00021032648914707174
-0.00014436237245288173   1.2967878093727084e-05   -0.00013379849814976305
-0.00014436237245288173   1.2967878093727084e-05   -0.00013379849814976305
-0.00014436237245288173   1.2967878093727084e-05   -0.00013379849814976305
-0.00014436237245288173   1.2967878093727084e-05   -0.00013379849814976305
-9.580609041765092e-05   2.0905977870598613e-05   -5.282216724147946e-05
-9.580609041765092e-05   2.0905977870598613e-05   -5.282216724147946e-05
-9.580609041765092e-05   2.0905977870598613e-05   -5.282216724147946e-05
-9.580609041765092e-05   2.0905977870598613e-05   -5.282216724147946e-05
-0.0001903086835610067   5.6359685469322546e-06   -0.00021948849474127344
-0.0001903086835610067   5.6359685469322546e-06   -0.00021948849474127344
-0.0001903086835610067   5.6359685469322546e-06   -0.00021948849474127344
-0.0001903086835610067   5.6359685469322546e-06   -0.00021948849474127344
-0.00018389047388684237   2.4057125548164818e-05   -5.654582933601552e-05
-0.00018389047388684237   2.4057125548164818e-05   -5.654582933601552e-05
-0.00018389047388684237   2.4057125548164818e-05   -5.654582933601552e-05
-0.00018389047388684237   2.4057125548164818e-05   -5.654582933601552e-05
-9.151922422641332e-05   8.068980744643448e-06   -0.0002009050252212857
-9.151922422641332e-05   8.068980744643448e-06   -0.0002009050252212857
-9.151922422641332e-05   8.068980744643448e-06   -0.0002009050252212857
-9.151922422641332e-05   8.068980744643448e-06   -0.0002009050252212857
-0.00013836710940505877   1.526413122174622e-05   -0.0001271423068764707
-0.00013836710940505877   1.526413122174622e-05   -0.0001271423068764707
-0.00013836710940505877   1.526413122174622e-05   -0.0001271423068764707
-0.00013836710940505877   1.526413122174622e-05   -0.0001271423068764707
-9.15192242264131e-05   2.4057125548164818e-05   -4.695294245390166e-05
-9.15192242264131e-05   2.4057125548164818e-05   -4.695294245390166e-05
-9.15192242264131e-05   2.4057125548164818e-05   -4.695294245390166e-05
-9.15192242264131e-05   2.4057125548164818e-05   -4.695294245390166e-05
-0.0001838904738868427   8.068980744643448e-06   -0.00021049791210339935
-0.0001838904738868427   8.068980744643448e-06   -0.00021049791210339935
-0.0001838904738868427   8.068980744643448e-06   -0.00021049791210339935
-0.0001838904738868427   8.068980744643448e-06   -0.00021049791210339935
-0.00017900778188545708   2.7549171090383157e-05   -5.672114335333357e-05
-0.00017900778188545708   2.7549171090383157e-05   -5.672114335333357e-05
-0.00017900778188545708   2.7549171090383157e-05   -5.672114335333357e-05
-0.00017900778188545708   2.7549171090383157e-05   -5.672114335333357e-05
-8.862705472632395e-05   1.013350402676548e-05   -0.00019690628838038614
-8.862705472632395e-05   1.013350402676548e-05   -0.00019690628838038614
-8.862705472632395e-05   1.013350402676548e-05   -0.00019690628838038614
-8.862705472632395e-05   1.013350402676548e-05   -0.00019690628838038614
-0.00013497623075331351   1.6865002284684183e-05   -0.00012369656062348748
-0.00013497623075331351   1.6865002284684183e-05   -0.00012369656062348748
-0.00013497623075331351   1.6865002284684183e-05   -0.00012369656062348748
-0.00013497623075331351   1.6865002284684183e-05   -0.00012369656062348748
-0.0001969580060301783   3.3989311270304565e-05   -3.3400329027205924e-05
-0.0001969580060301783   3.3989311270304565e-05   -3.3400329027205924e-05
-0.0001969580060301783   3.3989311270304565e-05   -3.3400329027205924e-05
-0.0001969580060301783   3.3989311270304565e-05   -3.3400329027205924e-05
-0.0002976755216752449   3.1998824784393656e-05   -0.00020245714699386637
-0.0002976755216752449   3.1998824784393656e-05   -0.00020245714699386637
-0.0002976755216752449   3.1998824784393656e-05   -0.00020245714699386637
-0.0002976755216752449   3.1998824784393656e-05   -0.00020245714699386637
-0.00028463507241352834   3.8848072990442864e-05   -1.5744088424606006e-06
-0.00028463507241352834   3.8848072990442864e-05   -1.5744088424606006e-06
-0.00028463507241352834   3.8848072990442864e-05   -1.5744088424606006e-06
-0.00028463507241352834   3.8848072990442864e-05   -1.5744088424606006e-06
-0.000190308683561006   4.0630513488381856e-05   -0.0001598545212287608
-0.000190308683561006   4.0630513488381856e-05   -0.0001598545212287608
-0.000190308683561006   4.0630513488381856e-05   -0.0001598545212287608
-0.000190308683561006   4.0630513488381856e-05   -0.0001598545212287608
-0.00023193563240961158   3.832666225032401e-05   -8.909396240491823e-05
-0.00023193563240961158   3.832666225032401e-05   -8.909396240491823e-05
-0.00023193563240961158   3.832666225032401e-05   -8.909396240491823e-05
-0.00023193563240961158   3.832666225032401e-05   -8.909396240491823e-05
-0.00019030868356100653   3.8848072990442864e-05   -2.6438731412234753e-06
-0.00019030868356100653   3.8848072990442864e-05   -2.6438731412234753e-06
-0.00019030868356100653   3.8848072990442864e-05   -2.6438731412234753e-06
-0.00019030868356100653   3.8848072990442864e-05   -2.6438731412234753e-06
-0.00028463507241352834   4.0630513488381856e-05   -0.000158785056929997
-0.00028463507241352834   4.0630513488381856e-05   -0.000158785056929997
-0.00028463507241352834   4.0630513488381856e-05   -0.000158785056929997
-0.00028463507241352834   4.0630513488381856e-05   -0.000158785056929997
-0.0002738077766368408   4.012265149826513e-05   1.6416378990130945e-05
-0.0002738077766368408   4.012265149826513e-05   1.6416378990130945e-05
-0.0002738077766368408   4.012265149826513e-05   1.6416378990130945e-05
-0.0002738077766368408   4.012265149826513e-05   1.6416378990130945e-05
-0.00018389047388684237   4.256485494679406e-05   -0.00013491111432898403
-0.00018389047388684237   4.256485494679406e-05   -0.00013491111432898403
-0.00018389047388684237   4.256485494679406e-05   -0.00013491111432898403
-0.00018389047388684237   4.256485494679406e-05   -0.00013491111432898403
-0.00022693008138296365   4.1124048142816144e-05   -6.2313951086393e-05
-0.00022693008138296365   4.1124048142816144e-05   -6.2313951086393e-05
-0.00022693008138296365   4.1124048142816144e-05   -6.2313951086393e-05
-0.00022693008138296365   4.1124048142816144e-05   -6.2313951086393e-05
-0.0001838904738868427   4.012265149826513e-05   1.4951056921013069e-05
-0.0001838904738868427   4.012265149826513e-05   1.4951056921013069e-05
-0.0001838904738868427   4.012265149826513e-05   1.4951056921013069e-05
-0.0001838904738868427   4.012265149826513e-05   1.4951056921013069e-05
-0.00027380777663684033   4.2564854946792324e-05   -0.00013344579225986648
-0.00027380777663684033   4.2564854946792324e-05   -0.00013344579225986648
-0.00027380777663684033   4.2564854946792324e-05   -0.00013344579225986648
-0.00027380777663684033   4.2564854946792324e-05   -0.00013344579225986648
-0.00026249632275269336   4.123896844884095e-05   4.048750793447017e-05
-0.00026249632275269336   4.123896844884095e-05   4.048750793447017e-05
-0.00026249632275269336   4.123896844884095e-05   4.048750793447017e-05
-0.00026249632275269336   4.123896844884095e-05   4.048750793447017e-05
-0.00017900778188545708   4.592358692157017e-05   -0.00010147083126122862
-0.00017900778188545708   4.592358692157017e-05   -0.00010147083126122862
-0.00017900778188545708   4.592358692157017e-05   -0.00010147083126122862
-0.00017900778188545708   4.592358692157017e-05   -0.00010147083126122862
-0.0002160358278330055   4.20790455770894e-05   -3.745069654196095e-05
-0.0002160358278330055   4.20790455770894e-05   -3.745069654196095e-05
-0.0002160358278330055   4.20790455770894e-05   -3.745069654196095e-05
-0.0002160358278330055   4.20790455770894e-05   -3.745069654196095e-05
0.00026058316618099973   -3.920137626578675e-05   8.845266395377579e-05
0.00026058316618099973   -3.920137626578675e-05   8.845266395377579e-05
0.00026058316618099973   -3.920137626578675e-05   8.845266395377579e-05
0.00026058316618099973   -3.920137626578675e-05   8.845266395377579e-05
0.00013112055987144714   -4.9643145290026794e-05   -0.00013358340797669024
0.00013112055987144714   -4.9643145290026794e-05   -0.00013358340797669024
0.00013112055987144714   -4.9643145290026794e-05   -0.00013358340797669024
0.00013112055987144714   -4.9643145290026794e-05   -0.00013358340797669024
0.00013436941893748568   -3.827583731077361e-05   6.333804831156094e-05
0.00013436941893748568   -3.827583731077361e-05   6.333804831156094e-05
0.00013436941893748568   -3.827583731077361e-05   6.333804831156094e-05
0.00013436941893748568   -3.827583731077361e-05   6.333804831156094e-05
0.00026713519367089404   -5.088456016355547e-05   -0.0001503730091991166
0.00026713519367089404   -5.088456016355547e-05   -0.0001503730091991166
0.00026713519367089404   -5.088456016355547e-05   -0.0001503730091991166
0.00026713519367089404   -5.088456016355547e-05   -0.0001503730091991166
0.00019041240404312778   -4.0045540612029806e-05   -2.900510488375611e-05
0.00019041240404312778   -4.0045540612029806e-05   -2.900510488375611e-05
0.00019041240404312778   -4.0045540612029806e-05   -2.900510488375611e-05
0.00019041240404312778   -4.0045540612029806e-05   -2.900510488375611e-05
0.00026713519367089404   -3.827583731077361e-05   7.090328202323092e-05
0.00026713519367089404   -3.827583731077361e-05   7.090328202323092e-05
0.00026713519367089404   -3.827583731077361e-05   7.090328202323092e-05
0.00026713519367089404   -3.827583731077361e-05   7.090328202323092e-05
0.00013436941893748568   -5.088456016355547e-05   -0.0001579382429107868
0.00013436941893748568   -5.088456016355547e-05   -0.0001579382429107868
0.00013436941893748568   -5.088456016355547e-05   -0.0001579382429107868
0.00013436941893748568   -5.088456016355547e-05   -0.0001579382429107868
0.00013711656726907422   -3.695039192058887e-05   4.991900222287276e-05
0.00013711656726907422   -3.695039192058887e-05   4.991900222287276e-05
0.00013711656726907422   -3.695039192058887e-05   4.991900222287276e-05
0.00013711656726907422   -3.695039192058887e-05   4.991900222287276e-05
0.0002712230838068007   -5.043239519883502e-05   -0.0001655026567063901
0.0002712230838068007   -5.043239519883502e-05   -0.0001655026567063901
0.0002712230838068007   -5.043239519883502e-05   -0.0001655026567063901
0.0002712230838068007   -5.043239519883502e-05   -0.0001655026567063901
0.00019716552496201327   -4.13212491493925e-05   -4.75400795947429e-05
0.00019716552496201327   -4.13212491493925e-05   -4.75400795947429e-05
0.00019716552496201327   -4.13212491493925e-05   -4.75400795947429e-05
0.00019716552496201327   -4.13212491493925e-05   -4.75400795947429e-05
0.0002712230838068007   -3.695039192058887e-05   5.800820418982045e-05
0.0002712230838068007   -3.695039192058887e-05   5.800820418982045e-05
0.0002712230838068007   -3.695039192058887e-05   5.800820418982045e-05
0.0002712230838068007   -3.695039192058887e-05   5.800820418982045e-05
0.00013711656726907422   -5.043239519883502e-05   -0.000173591858673338
0.00013711656726907422   -5.043239519883502e-05   -0.000173591858673338
0.00013711656726907422   -5.043239519883502e-05   -0.000173591858673338
0.00013711656726907422   -5.043239519883502e-05   -0.000173591858673338
0.0001399933489016435   -3.176825645016118e-05   2.3829611214823063e-05
0.0001399933489016435   -3.176825645016118e-05   2.3829611214823063e-05
0.0001399933489016435   -3.176825645016118e-05   2.3829611214823063e-05
0.0001399933489016435   -3.176825645016118e-05   2.3829611214823063e-05
0.00027524770681255505   -4.765242711744777e-05   -0.00019206381623632432
0.00027524770681255505   -4.765242711744777e-05   -0.00019206381623632432
0.00027524770681255505   -4.765242711744777e-05   -0.00019206381623632432
0.00027524770681255505   -4.765242711744777e-05   -0.00019206381623632432
0.0001973065772603566   -3.9781376403801375e-05   -6.688456407751399e-05
0.0001973065772603566   -3.9781376403801375e-05   -6.688456407751399e-05
0.0001973065772603566   -3.9781376403801375e-05   -6.688456407751399e-05
0.0001973065772603566   -3.9781376403801375e-05   -6.688456407751399e-05
0.00013112055987144714   -2.5542826538623928e-05   8.169351670556102e-06
0.00013112055987144714   -2.5542826538623928e-05   8.169351670556102e-06
0.00013112055987144714   -2.5542826538623928e-05   8.169351670556102e-06
0.00013112055987144714   -2.5542826538623928e-05   8.169351670556102e-06
1.592263697168723e-05   -5.0139290832851985e-05   -0.00019858506507224646
1.592263697168723e-05   -5.0139290832851985e-05   -0.00019858506507224646
1.592263697168723e-05   -5.0139290832851985e-05   -0.00019858506507224646
1.592263697168723e-05   -5.0139290832851985e-05   -0.00019858506507224646
1.9713495099411642e-05   -2.433931394574436e-05   -1.916004705146239e-06
1.9713495099411642e-05   -2.433931394574436e-05   -1.916004705146239e-06
1.9713495099411642e-05   -2.433931394574436e-05   -1.916004705146239e-06
1.9713495099411642e-05   -2.433931394574436e-05   -1.916004705146239e-06
0.0001343694189374859   -4.989901242312758e-05   -0.0001776733920155082
0.0001343694189374859   -4.989901242312758e-05   -0.0001776733920155082
0.0001343694189374859   -4.989901242312758e-05   -0.0001776733920155082
0.0001343694189374859   -4.989901242312758e-05   -0.0001776733920155082
7.558314405083381e-05   -3.380696879250536e-05   -8.935149338279436e-05
7.558314405083381e-05   -3.380696879250536e-05   -8.935149338279436e-05
7.558314405083381e-05   -3.380696879250536e-05   -8.935149338279436e-05
7.558314405083381e-05   -3.380696879250536e-05   -8.935149338279436e-05
0.00013436941893748547   -2.433931394574436e-05   1.341981438128352e-05
0.00013436941893748547   -2.433931394574436e-05   1.341981438128352e-05
0.00013436941893748547   -2.433931394574436e-05   1.341981438128352e-05
0.00013436941893748547   -2.433931394574436e-05   1.341981438128352e-05
1.9713495099411642e-05   -4.9899012423125846e-05   -0.00019300921110193634
1.9713495099411642e-05   -4.9899012423125846e-05   -0.00019300921110193634
1.9713495099411642e-05   -4.9899012423125846e-05   -0.00019300921110193634
1.9713495099411642e-05   -4.9899012423125846e-05   -0.00019300921110193634
2.3135913515243134e-05   -2.2084451640539543e-05   -3.1067846073115288e-06
2.3135913515243134e-05   -2.2084451640539543e-05   -3.1067846073115288e-06
2.3135913515243134e-05   -2.2084451640539543e-05   -3.1067846073115288e-06
2.3135913515243134e-05   -2.2084451640539543e-05   -3.1067846073115288e-06
0.00013711656726907422   -4.925203154355906e-05   -0.00017677399292188552
0.00013711656726907422   -4.925203154355906e-05   -0.00017677399292188552
0.00013711656726907422   -4.925203154355906e-05   -0.00017677399292188552
0.00013711656726907422   -4.925203154355906e-05   -0.00017677399292188552
7.775020923096509e-05   -3.419944585197378e-05   -8.686161427331985e-05
7.775020923096509e-05   -3.419944585197378e-05   -8.686161427331985e-05
7.775020923096509e-05   -3.419944585197378e-05   -8.686161427331985e-05
7.775020923096509e-05   -3.419944585197378e-05   -8.686161427331985e-05
0.00013711656726907422   -2.2084451640539543e-05   1.3193763334499661e-05
0.00013711656726907422   -2.2084451640539543e-05   1.3193763334499661e-05
0.00013711656726907422   -2.2084451640539543e-05   1.3193763334499661e-05
0.00013711656726907422   -2.2084451640539543e-05   1.3193763334499661e-05
2.313591351524308e-05   -4.925203154355906e-05   -0.00019307454086369726
2.313591351524308e-05   -4.925203154355906e-05   -0.00019307454086369726
2.313591351524308e-05   -4.925203154355906e-05   -0.00019307454086369726
2.313591351524308e-05   -4.925203154355906e-05   -0.00019307454086369726
2.8240132342353345e-05   -1.88773952631352e-05   -5.440409124875256e-06
2.8240132342353345e-05   -1.88773952631352e-05   -5.440409124875256e-06
2.8240132342353345e-05   -1.88773952631352e-05   -5.440409124875256e-06
2.8240132342353345e-05   -1.88773952631352e-05   -5.440409124875256e-06
0.0001399933489016435   -4.7944673961403464e-05   -0.00017425540283806402
0.0001399933489016435   -4.7944673961403464e-05   -0.00017425540283806402
0.0001399933489016435   -4.7944673961403464e-05   -0.00017425540283806402
0.0001399933489016435   -4.7944673961403464e-05   -0.00017425540283806402
8.184538644213918e-05   -3.369561338027738e-05   -8.589156842089981e-05
8.184538644213918e-05   -3.369561338027738e-05   -8.589156842089981e-05
8.184538644213918e-05   -3.369561338027738e-05   -8.589156842089981e-05
8.184538644213918e-05   -3.369561338027738e-05   -8.589156842089981e-05
1.592263697168723e-05   -1.3628226339379435e-05   -2.048588203225083e-05
1.592263697168723e-05   -1.3628226339379435e-05   -2.048588203225083e-05
1.592263697168723e-05   -1.3628226339379435e-05   -2.048588203225083e-05
1.592263697168723e-05   -1.3628226339379435e-05   -2.048588203225083e-05
-9.809937978586881e-05   -6.084218266431789e-05   -0.00023885095042314175
-9.809937978586881e-05   -6.084218266431789e-05   -0.00023885095042314175
-9.809937978586881e-05   -6.084218266431789e-05   -0.00023885095042314175
-9.809937978586881e-05   -6.084218266431789e-05   -0.00023885095042314175
-9.219836085832379e-05   -1.2216246059251756e-05   -4.3684067463006966e-05
-9.219836085832379e-05   -1.2216246059251756e-05   -4.3684067463006966e-05
-9.219836085832379e-05   -1.2216246059251756e-05   -4.3684067463006966e-05
-9.219836085832379e-05   -1.2216246059251756e-05   -4.3684067463006966e-05
1.9713495099411642e-05   -6.221400947288395e-05   -0.00020020516934438775
1.9713495099411642e-05   -6.221400947288395e-05   -0.00020020516934438775
1.9713495099411642e-05   -6.221400947288395e-05   -0.00020020516934438775
1.9713495099411642e-05   -6.221400947288395e-05   -0.00020020516934438775
-3.733336025293736e-05   -3.448878430933715e-05   -0.00012176221218860033
-3.733336025293736e-05   -3.448878430933715e-05   -0.00012176221218860033
-3.733336025293736e-05   -3.448878430933715e-05   -0.00012176221218860033
-3.733336025293736e-05   -3.448878430933715e-05   -0.00012176221218860033
1.9713495099411642e-05   -1.2216246059251756e-05   -1.3685409414828688e-05
1.9713495099411642e-05   -1.2216246059251756e-05   -1.3685409414828688e-05
1.9713495099411642e-05   -1.2216246059251756e-05   -1.3685409414828688e-05
1.9713495099411642e-05   -1.2216246059251756e-05   -1.3685409414828688e-05
-9.2198360858324e-05   -6.221400947288222e-05   -0.00023020382739256592
-9.2198360858324e-05   -6.221400947288222e-05   -0.00023020382739256592
-9.2198360858324e-05   -6.221400947288222e-05   -0.00023020382739256592
-9.2198360858324e-05   -6.221400947288222e-05   -0.00023020382739256592
-8.711787172450394e-05   -9.99769972610115e-06   -4.0838163392205654e-05
-8.711787172450394e-05   -9.99769972610115e-06   -4.0838163392205654e-05
-8.711787172450394e-05   -9.99769972610115e-06   -4.0838163392205654e-05
-8.711787172450394e-05   -9.99769972610115e-06   -4.0838163392205654e-05
2.313591351524308e-05   -6.195466973173656e-05   -0.00019342029012173656
2.313591351524308e-05   -6.195466973173656e-05   -0.00019342029012173656
2.313591351524308e-05   -6.195466973173656e-05   -0.00019342029012173656
2.313591351524308e-05   -6.195466973173656e-05   -0.00019342029012173656
-3.3140982929494983e-05   -3.529317171563351e-05   -0.00011562236152350125
-3.3140982929494983e-05   -3.529317171563351e-05   -0.00011562236152350125
-3.3140982929494983e-05   -3.529317171563351e-05   -0.00011562236152350125
-3.3140982929494983e-05   -3.529317171563351e-05   -0.00011562236152350125
2.313591351524308e-05   -9.99769972610115e-06   -9.663981388825273e-06
2.313591351524308e-05   -9.99769972610115e-06   -9.663981388825273e-06
2.313591351524308e-05   -9.99769972610115e-06   -9.663981388825273e-06
2.313591351524308e-05   -9.99769972610115e-06   -9.663981388825273e-06
-8.711787172450427e-05   -6.195466973173483e-05   -0.00022459447212511835
-8.711787172450427e-05   -6.195466973173483e-05   -0.00022459447212511835
-8.711787172450427e-05   -6.195466973173483e-05   -0.00022459447212511835
-8.711787172450427e-05   -6.195466973173483e-05   -0.00022459447212511835
-7.835501319553815e-05   -7.896756968470836e-06   -4.065797565208813e-05
-7.835501319553815e-05   -7.896756968470836e-06   -4.065797565208813e-05
-7.835501319553815e-05   -7.896756968470836e-06   -4.065797565208813e-05
-7.835501319553815e-05   -7.896756968470836e-06   -4.065797565208813e-05
2.8240132342353345e-05   -5.9819351968241896e-05   -0.0001871629945487122
2.8240132342353345e-05   -5.9819351968241896e-05   -0.0001871629945487122
2.8240132342353345e-05   -5.9819351968241896e-05   -0.0001871629945487122
2.8240132342353345e-05   -5.9819351968241896e-05   -0.0001871629945487122
-2.7694557027473527e-05   -3.453942582410004e-05   -0.00010910646795215184
-2.7694557027473527e-05   -3.453942582410004e-05   -0.00010910646795215184
-2.7694557027473527e-05   -3.453942582410004e-05   -0.00010910646795215184
-2.7694557027473527e-05   -3.453942582410004e-05   -0.00010910646795215184
-9.809937978586864e-05   2.996278574892222e-06   -2.8559663143338035e-05
-9.809937978586864e-05   2.996278574892222e-06   -2.8559663143338035e-05
-9.809937978586864e-05   2.996278574892222e-06   -2.8559663143338035e-05
-9.809937978586864e-05   2.996278574892222e-06   -2.8559663143338035e-05
-0.0002254544478175422   -7.620924033654303e-05   -0.00028834142120965495
-0.0002254544478175422   -7.620924033654303e-05   -0.00028834142120965495
-0.0002254544478175422   -7.620924033654303e-05   -0.00028834142120965495
-0.0002254544478175422   -7.620924033654303e-05   -0.00028834142120965495
-0.00021843454108443644   5.63596854693052e-06   -7.373232887490644e-05
-0.00021843454108443644   5.63596854693052e-06   -7.373232887490644e-05
-0.00021843454108443644   5.63596854693052e-06   -7.373232887490644e-05
-0.00021843454108443644   5.63596854693052e-06   -7.373232887490644e-05
-9.219836085832379e-05   -8.49530887274269e-05   -0.00022977252822047772
-9.219836085832379e-05   -8.49530887274269e-05   -0.00022977252822047772
-9.219836085832379e-05   -8.49530887274269e-05   -0.00022977252822047772
-9.219836085832379e-05   -8.49530887274269e-05   -0.00022977252822047772
-0.00015624728466411968   -3.8937975023817933e-05   -0.00015063339009964958
-0.00015624728466411968   -3.8937975023817933e-05   -0.00015063339009964958
-0.00015624728466411968   -3.8937975023817933e-05   -0.00015063339009964958
-0.00015624728466411968   -3.8937975023817933e-05   -0.00015063339009964958
-9.219836085832379e-05   5.63596854693052e-06   -1.9378894510290075e-05
-9.219836085832379e-05   5.63596854693052e-06   -1.9378894510290075e-05
-9.219836085832379e-05   5.63596854693052e-06   -1.9378894510290075e-05
-9.219836085832379e-05   5.63596854693052e-06   -1.9378894510290075e-05
-0.00021843454108443644   -8.495308872742864e-05   -0.00028412596258509375
-0.00021843454108443644   -8.495308872742864e-05   -0.00028412596258509375
-0.00021843454108443644   -8.495308872742864e-05   -0.00028412596258509375
-0.00021843454108443644   -8.495308872742864e-05   -0.00028412596258509375
-0.00021170226590043733   8.068980744643448e-06   -6.603109257315252e-05
-0.00021170226590043733   8.068980744643448e-06   -6.603109257315252e-05
-0.00021170226590043733   8.068980744643448e-06   -6.603109257315252e-05
-0.00021170226590043733   8.068980744643448e-06   -6.603109257315252e-05
-8.71178717245041e-05   -8.545918450923728e-05   -0.00021755485038071247
-8.71178717245041e-05   -8.545918450923728e-05   -0.00021755485038071247
-8.71178717245041e-05   -8.545918450923728e-05   -0.00021755485038071247
-8.71178717245041e-05   -8.545918450923728e-05   -0.00021755485038071247
-0.00014940346889072957   -3.909892509729347e-05   -0.00014156167741750296
-0.00014940346889072957   -3.909892509729347e-05   -0.00014156167741750296
-0.00014940346889072957   -3.909892509729347e-05   -0.00014156167741750296
-0.00014940346889072957   -3.909892509729347e-05   -0.00014156167741750296
-8.7117871724504e-05   8.068980744643448e-06   -9.914193420823385e-06
-8.7117871724504e-05   8.068980744643448e-06   -9.914193420823385e-06
-8.7117871724504e-05   8.068980744643448e-06   -9.914193420823385e-06
-8.7117871724504e-05   8.068980744643448e-06   -9.914193420823385e-06
-0.00021170226590043768   -8.545918450923902e-05   -0.00027367174953304117
-0.00021170226590043768   -8.545918450923902e-05   -0.00027367174953304117
-0.00021170226590043768   -8.545918450923902e-05   -0.00027367174953304117
-0.00021170226590043768   -8.545918450923902e-05   -0.00027367174953304117
-0.0002006885433413943   1.013350402676548e-05   -5.8165079211250185e-05
-0.0002006885433413943   1.013350402676548e-05   -5.8165079211250185e-05
-0.0002006885433413943   1.013350402676548e-05   -5.8165079211250185e-05
-0.0002006885433413943   1.013350402676548e-05   -5.8165079211250185e-05
-7.835501319553842e-05   -7.81824004163368e-05   -0.00020906475345514898
-7.835501319553842e-05   -7.81824004163368e-05   -0.00020906475345514898
-7.835501319553842e-05   -7.81824004163368e-05   -0.00020906475345514898
-7.835501319553842e-05   -7.81824004163368e-05   -0.00020906475345514898
-0.00014262067397967953   -3.467042230984388e-05   -0.0001280625056788062
-0.00014262067397967953   -3.467042230984388e-05   -0.0001280625056788062
-0.00014262067397967953   -3.467042230984388e-05   -0.0001280625056788062
-0.00014262067397967953   -3.467042230984388e-05   -0.0001280625056788062
-0.0002254544478175422   3.199882478439192e-05   -4.990498243596063e-05
-0.0002254544478175422   3.199882478439192e-05   -4.990498243596063e-05
-0.0002254544478175422   3.199882478439192e-05   -4.990498243596063e-05
-0.0002254544478175422   3.199882478439192e-05   -4.990498243596063e-05
-0.00038893180419625567   0.0   -0.0003415665379377861
-0.00038893180419625567   0.0   -0.0003415665379377861
-0.00038893180419625567   0.0   -0.0003415665379377861
-0.00038893180419625567   0.0   -0.0003415665379377861
-0.0003786356609981308   4.0630513488381856e-05   -3.847666345542511e-05
-0.0003786356609981308   4.0630513488381856e-05   -3.847666345542511e-05
-0.0003786356609981308   4.0630513488381856e-05   -3.847666345542511e-05
-0.0003786356609981308   4.0630513488381856e-05   -3.847666345542511e-05
-0.00021843454108443606   0.0   -0.00028110022188522076
-0.00021843454108443606   0.0   -0.00028110022188522076
-0.00021843454108443606   0.0   -0.00028110022188522076
-0.00021843454108443606   0.0   -0.00028110022188522076
-0.00028998858419932203   1.2348073263182546e-05   -0.00016925232731832007
-0.00028998858419932203   1.2348073263182546e-05   -0.00016925232731832007
-0.00028998858419932203   1.2348073263182546e-05   -0.00016925232731832007
-0.00028998858419932203   1.2348073263182546e-05   -0.00016925232731832007
-0.00021843454108443622   4.0630513488381856e-05   -1.4098355362395475e-05
-0.00021843454108443622   4.0630513488381856e-05   -1.4098355362395475e-05
-0.00021843454108443622   4.0630513488381856e-05   -1.4098355362395475e-05
-0.00021843454108443622   4.0630513488381856e-05   -1.4098355362395475e-05
-0.00037863566099813014   0.0   -0.00030547852997824844
-0.00037863566099813014   0.0   -0.00030547852997824844
-0.00037863566099813014   0.0   -0.00030547852997824844
-0.00037863566099813014   0.0   -0.00030547852997824844
-0.00036994142216277255   4.2564854946792324e-05   -1.5983207766813966e-05
-0.00036994142216277255   4.2564854946792324e-05   -1.5983207766813966e-05
-0.00036994142216277255   4.2564854946792324e-05   -1.5983207766813966e-05
-0.00036994142216277255   4.2564854946792324e-05   -1.5983207766813966e-05
-0.00021170226590043768   0.0   -0.0002541762219026313
-0.00021170226590043768   0.0   -0.0002541762219026313
-0.00021170226590043768   0.0   -0.0002541762219026313
-0.00021170226590043768   0.0   -0.0002541762219026313
-0.0002868552898563822   1.9658385638289186e-05   -0.00014071621335902618
-0.0002868552898563822   1.9658385638289186e-05   -0.00014071621335902618
-0.0002868552898563822   1.9658385638289186e-05   -0.00014071621335902618
-0.0002868552898563822   1.9658385638289186e-05   -0.00014071621335902618
-0.00021170226590043768   4.2564854946792324e-05   9.555705201261602e-06
-0.00021170226590043768   4.2564854946792324e-05   9.555705201261602e-06
-0.00021170226590043768   4.2564854946792324e-05   9.555705201261602e-06
-0.00021170226590043768   4.2564854946792324e-05   9.555705201261602e-06
-0.0003699414221627719   0.0   -0.0002797151348707056
-0.0003699414221627719   0.0   -0.0002797151348707056
-0.0003699414221627719   0.0   -0.0002797151348707056
-0.0003699414221627719   0.0   -0.0002797151348707056
-0.00035261075956664965   4.592358692157017e-05   2.0165625993134872e-05
-0.00035261075956664965   4.592358692157017e-05   2.0165625993134872e-05
-0.00035261075956664965   4.592358692157017e-05   2.0165625993134872e-05
-0.00035261075956664965   4.592358692157017e-05   2.0165625993134872e-05
-0.00020068854334139464   0.0   -0.00020548391556268254
-0.00020068854334139464   0.0   -0.00020548391556268254
-0.00020068854334139464   0.0   -0.00020548391556268254
-0.00020068854334139464   0.0   -0.00020548391556268254
-0.0002717845613054   2.4274845404789053e-05   -0.0001015554595322116
-0.0002717845613054   2.4274845404789053e-05   -0.0001015554595322116
-0.0002717845613054   2.4274845404789053e-05   -0.0001015554595322116
-0.0002717845613054   2.4274845404789053e-05   -0.0001015554595322116
0.0002883047246421642   -4.9643145290026794e-05   0.00017234700515962337
0.0002883047246421642   -4.9643145290026794e-05   0.00017234700515962337
0.0002883047246421642   -4.9643145290026794e-05   0.00017234700515962337
0.0002883047246421642   -4.9643145290026794e-05   0.00017234700515962337
0.00014974749194432034   -3.812679961672123e-05   -5.167190859946616e-05
0.00014974749194432034   -3.812679961672123e-05   -5.167190859946616e-05
0.00014974749194432034   -3.812679961672123e-05   -5.167190859946616e-05
0.00014974749194432034   -3.812679961672123e-05   -5.167190859946616e-05
0.0001459465165144099   -5.088456016355547e-05   0.0001523627263109069
0.0001459465165144099   -5.088456016355547e-05   0.0001523627263109069
0.0001459465165144099   -5.088456016355547e-05   0.0001523627263109069
0.0001459465165144099   -5.088456016355547e-05   0.0001523627263109069
0.0002851745302139378   -4.194279145695694e-05   -8.50490244122666e-05
0.0002851745302139378   -4.194279145695694e-05   -8.50490244122666e-05
0.0002851745302139378   -4.194279145695694e-05   -8.50490244122666e-05
0.0002851745302139378   -4.194279145695694e-05   -8.50490244122666e-05
0.00020841014785024425   -4.270777196726909e-05   4.335060116674469e-05
0.00020841014785024425   -4.270777196726909e-05   4.335060116674469e-05
0.00020841014785024425   -4.270777196726909e-05   4.335060116674469e-05
0.00020841014785024425   -4.270777196726909e-05   4.335060116674469e-05
0.0002851745302139378   -5.088456016355547e-05   0.00014699766508694673
0.0002851745302139378   -5.088456016355547e-05   0.00014699766508694673
0.0002851745302139378   -5.088456016355547e-05   0.00014699766508694673
0.0002851745302139378   -5.088456016355547e-05   0.00014699766508694673
0.0001459465165144099   -4.194279145695694e-05   -7.968396318830655e-05
0.0001459465165144099   -4.194279145695694e-05   -7.968396318830655e-05
0.0001459465165144099   -4.194279145695694e-05   -7.968396318830655e-05
0.0001459465165144099   -4.194279145695694e-05   -7.968396318830655e-05
0.00014251121121182733   -5.043239519883502e-05   0.00013687100947843648
0.00014251121121182733   -5.043239519883502e-05   0.00013687100947843648
0.00014251121121182733   -5.043239519883502e-05   0.00013687100947843648
0.00014251121121182733   -5.043239519883502e-05   0.00013687100947843648
0.0002815664726873817   -4.2303466498538195e-05   -9.976511686766423e-05
0.0002815664726873817   -4.2303466498538195e-05   -9.976511686766423e-05
0.0002815664726873817   -4.2303466498538195e-05   -9.976511686766423e-05
0.0002815664726873817   -4.2303466498538195e-05   -9.976511686766423e-05
0.00020821214430275265   -4.345645066014883e-05   2.318388760368269e-05
0.00020821214430275265   -4.345645066014883e-05   2.318388760368269e-05
0.00020821214430275265   -4.345645066014883e-05   2.318388760368269e-05
0.00020821214430275265   -4.345645066014883e-05   2.318388760368269e-05
0.00028156647268738215   -5.043239519883502e-05   0.00013199365225825994
0.00028156647268738215   -5.043239519883502e-05   0.00013199365225825994
0.00028156647268738215   -5.043239519883502e-05   0.00013199365225825994
0.00028156647268738215   -5.043239519883502e-05   0.00013199365225825994
0.00014251121121182733   -4.2303466498538195e-05   -9.48877596474865e-05
0.00014251121121182733   -4.2303466498538195e-05   -9.48877596474865e-05
0.00014251121121182733   -4.2303466498538195e-05   -9.48877596474865e-05
0.00014251121121182733   -4.2303466498538195e-05   -9.48877596474865e-05
0.00013832174702432435   -4.765242711744777e-05   0.00011166775892096359
0.00013832174702432435   -4.765242711744777e-05   0.00011166775892096359
0.00013832174702432435   -4.765242711744777e-05   0.00011166775892096359
0.00013832174702432435   -4.765242711744777e-05   0.00011166775892096359
0.00027591439538430135   -4.14532130802326e-05   -0.00012137285010132572
0.00027591439538430135   -4.14532130802326e-05   -0.00012137285010132572
0.00027591439538430135   -4.14532130802326e-05   -0.00012137285010132572
0.00027591439538430135   -4.14532130802326e-05   -0.00012137285010132572
0.00020106855007539514   -4.132632288239568e-05   3.294091294813546e-06
0.00020106855007539514   -4.132632288239568e-05   3.294091294813546e-06
0.00020106855007539514   -4.132632288239568e-05   3.294091294813546e-06
0.00020106855007539514   -4.132632288239568e-05   3.294091294813546e-06
0.00014974749194432034   -5.0139290832851985e-05   0.00012901303404458647
0.00014974749194432034   -5.0139290832851985e-05   0.00012901303404458647
0.00014974749194432034   -5.0139290832851985e-05   0.00012901303404458647
0.00014974749194432034   -5.0139290832851985e-05   0.00012901303404458647
3.236351951192403e-05   -2.372040735117674e-05   -5.0775589920403624e-05
3.236351951192403e-05   -2.372040735117674e-05   -5.0775589920403624e-05
3.236351951192403e-05   -2.372040735117674e-05   -5.0775589920403624e-05
3.236351951192403e-05   -2.372040735117674e-05   -5.0775589920403624e-05
2.6347210074351927e-05   -4.9899012423125846e-05   0.0001474655977074411
2.6347210074351927e-05   -4.9899012423125846e-05   0.0001474655977074411
2.6347210074351927e-05   -4.9899012423125846e-05   0.0001474655977074411
2.6347210074351927e-05   -4.9899012423125846e-05   0.0001474655977074411
0.0001459465165144099   -2.516897825436716e-05   -6.670460019391031e-05
0.0001459465165144099   -2.516897825436716e-05   -6.670460019391031e-05
0.0001459465165144099   -2.516897825436716e-05   -6.670460019391031e-05
0.0001459465165144099   -2.516897825436716e-05   -6.670460019391031e-05
8.848446710558349e-05   -3.585622662074031e-05   3.5477831173957256e-05
8.848446710558349e-05   -3.585622662074031e-05   3.5477831173957256e-05
8.848446710558349e-05   -3.585622662074031e-05   3.5477831173957256e-05
8.848446710558349e-05   -3.585622662074031e-05   3.5477831173957256e-05
0.00014594651651441006   -4.989901242312758e-05   0.00013262757720618624
0.00014594651651441006   -4.989901242312758e-05   0.00013262757720618624
0.00014594651651441006   -4.989901242312758e-05   0.00013262757720618624
0.00014594651651441006   -4.989901242312758e-05   0.00013262757720618624
2.6347210074351927e-05   -2.516897825436716e-05   -5.186657969265523e-05
2.6347210074351927e-05   -2.516897825436716e-05   -5.186657969265523e-05
2.6347210074351927e-05   -2.516897825436716e-05   -5.186657969265523e-05
2.6347210074351927e-05   -2.516897825436716e-05   -5.186657969265523e-05
2.2062043852397347e-05   -4.925203154355906e-05   0.00014774464089759368
2.2062043852397347e-05   -4.925203154355906e-05   0.00014774464089759368
2.2062043852397347e-05   -4.925203154355906e-05   0.00014774464089759368
2.2062043852397347e-05   -4.925203154355906e-05   0.00014774464089759368
0.00014251121121182733   -2.582575543071987e-05   -6.705973703582772e-05
0.00014251121121182733   -2.582575543071987e-05   -6.705973703582772e-05
0.00014251121121182733   -2.582575543071987e-05   -6.705973703582772e-05
0.00014251121121182733   -2.582575543071987e-05   -6.705973703582772e-05
8.333945823012562e-05   -3.513124125917484e-05   3.714314276408561e-05
8.333945823012562e-05   -3.513124125917484e-05   3.714314276408561e-05
8.333945823012562e-05   -3.513124125917484e-05   3.714314276408561e-05
8.333945823012562e-05   -3.513124125917484e-05   3.714314276408561e-05
0.0001425112112118276   -4.9252031543560795e-05   0.00013368887522988843
0.0001425112112118276   -4.9252031543560795e-05   0.00013368887522988843
0.0001425112112118276   -4.9252031543560795e-05   0.00013368887522988843
0.0001425112112118276   -4.9252031543560795e-05   0.00013368887522988843
2.2062043852397347e-05   -2.582575543071987e-05   -5.300397136812334e-05
2.2062043852397347e-05   -2.582575543071987e-05   -5.300397136812334e-05
2.2062043852397347e-05   -2.582575543071987e-05   -5.300397136812334e-05
2.2062043852397347e-05   -2.582575543071987e-05   -5.300397136812334e-05
1.729309562592741e-05   -4.7944673961403464e-05   0.00015261391959603583
1.729309562592741e-05   -4.7944673961403464e-05   0.00015261391959603583
1.729309562592741e-05   -4.7944673961403464e-05   0.00015261391959603583
1.729309562592741e-05   -4.7944673961403464e-05   0.00015261391959603583
0.0001383217470243242   -2.5265932500668706e-05   -6.270774427773337e-05
0.0001383217470243242   -2.5265932500668706e-05   -6.270774427773337e-05
0.0001383217470243242   -2.5265932500668706e-05   -6.270774427773337e-05
0.0001383217470243242   -2.5265932500668706e-05   -6.270774427773337e-05
8.018290865257336e-05   -3.360735809651398e-05   3.9195175032692773e-05
8.018290865257336e-05   -3.360735809651398e-05   3.9195175032692773e-05
8.018290865257336e-05   -3.360735809651398e-05   3.9195175032692773e-05
8.018290865257336e-05   -3.360735809651398e-05   3.9195175032692773e-05
3.236351951192419e-05   -6.084218266431789e-05   0.0001329268525776606
3.236351951192419e-05   -6.084218266431789e-05   0.0001329268525776606
3.236351951192419e-05   -6.084218266431789e-05   0.0001329268525776606
3.236351951192419e-05   -6.084218266431789e-05   0.0001329268525776606
-8.036518710235861e-05   -1.0199449146007511e-05   -2.4568685001824346e-05
-8.036518710235861e-05   -1.0199449146007511e-05   -2.4568685001824346e-05
-8.036518710235861e-05   -1.0199449146007511e-05   -2.4568685001824346e-05
-8.036518710235861e-05   -1.0199449146007511e-05   -2.4568685001824346e-05
-8.972811057047342e-05   -6.221400947288222e-05   0.00017113171968345577
-8.972811057047342e-05   -6.221400947288222e-05   0.00017113171968345577
-8.972811057047342e-05   -6.221400947288222e-05   0.00017113171968345577
-8.972811057047342e-05   -6.221400947288222e-05   0.00017113171968345577
2.634721007435198e-05   -1.0777209108775443e-05   -5.3189228276385894e-05
2.634721007435198e-05   -1.0777209108775443e-05   -5.3189228276385894e-05
2.634721007435198e-05   -1.0777209108775443e-05   -5.3189228276385894e-05
2.634721007435198e-05   -1.0777209108775443e-05   -5.3189228276385894e-05
-2.6822713438983504e-05   -3.485621262013655e-05   4.987471301932359e-05
-2.6822713438983504e-05   -3.485621262013655e-05   4.987471301932359e-05
-2.6822713438983504e-05   -3.485621262013655e-05   4.987471301932359e-05
-2.6822713438983504e-05   -3.485621262013655e-05   4.987471301932359e-05
2.6347210074351927e-05   -6.221400947288395e-05   0.0001402696394649898
2.6347210074351927e-05   -6.221400947288395e-05   0.0001402696394649898
2.6347210074351927e-05   -6.221400947288395e-05   0.0001402696394649898
2.6347210074351927e-05   -6.221400947288395e-05   0.0001402696394649898
-8.972811057047332e-05   -1.0777209108775443e-05   -2.2327148057920028e-05
-8.972811057047332e-05   -1.0777209108775443e-05   -2.2327148057920028e-05
-8.972811057047332e-05   -1.0777209108775443e-05   -2.2327148057920028e-05
-8.972811057047332e-05   -1.0777209108775443e-05   -2.2327148057920028e-05
-9.544229885454674e-05   -6.195466973173483e-05   0.00017768282674451852
-9.544229885454674e-05   -6.195466973173483e-05   0.00017768282674451852
-9.544229885454674e-05   -6.195466973173483e-05   0.00017768282674451852
-9.544229885454674e-05   -6.195466973173483e-05   0.00017768282674451852
2.2062043852397347e-05   -1.148144455679484e-05   -4.844167953868572e-05
2.2062043852397347e-05   -1.148144455679484e-05   -4.844167953868572e-05
2.2062043852397347e-05   -1.148144455679484e-05   -4.844167953868572e-05
2.2062043852397347e-05   -1.148144455679484e-05   -4.844167953868572e-05
-3.3157303648051955e-05   -3.476846337505113e-05   5.756277758635028e-05
-3.3157303648051955e-05   -3.476846337505113e-05   5.756277758635028e-05
-3.3157303648051955e-05   -3.476846337505113e-05   5.756277758635028e-05
-3.3157303648051955e-05   -3.476846337505113e-05   5.756277758635028e-05
2.2062043852397292e-05   -6.195466973173656e-05   0.00014739889163955383
2.2062043852397292e-05   -6.195466973173656e-05   0.00014739889163955383
2.2062043852397292e-05   -6.195466973173656e-05   0.00014739889163955383
2.2062043852397292e-05   -6.195466973173656e-05   0.00014739889163955383
-9.544229885454658e-05   -1.148144455679484e-05   -1.8157744433720813e-05
-9.544229885454658e-05   -1.148144455679484e-05   -1.8157744433720813e-05
-9.544229885454658e-05   -1.148144455679484e-05   -1.8157744433720813e-05
-9.544229885454658e-05   -1.148144455679484e-05   -1.8157744433720813e-05
-0.00010217307510853847   -5.9819351968241896e-05   0.0001861791728691442
-0.00010217307510853847   -5.9819351968241896e-05   0.0001861791728691442
-0.00010217307510853847   -5.9819351968241896e-05   0.0001861791728691442
-0.00010217307510853847   -5.9819351968241896e-05   0.0001861791728691442
1.7293095625927463e-05   -1.1431889026919037e-05   -4.1963589453093545e-05
1.7293095625927463e-05   -1.1431889026919037e-05   -4.1963589453093545e-05
1.7293095625927463e-05   -1.1431889026919037e-05   -4.1963589453093545e-05
1.7293095625927463e-05   -1.1431889026919037e-05   -4.1963589453093545e-05
-3.83112029644686e-05   -3.341542277978185e-05   6.390036178261752e-05
-3.83112029644686e-05   -3.341542277978185e-05   6.390036178261752e-05
-3.83112029644686e-05   -3.341542277978185e-05   6.390036178261752e-05
-3.83112029644686e-05   -3.341542277978185e-05   6.390036178261752e-05
-8.036518710235872e-05   -7.620924033654303e-05   0.00016134533324899548
-8.036518710235872e-05   -7.620924033654303e-05   0.00016134533324899548
-8.036518710235872e-05   -7.620924033654303e-05   0.00016134533324899548
-8.036518710235872e-05   -7.620924033654303e-05   0.00016134533324899548
-0.00020898514828265066   1.0325372435998972e-05   -1.1005010546330865e-06
-0.00020898514828265066   1.0325372435998972e-05   -1.1005010546330865e-06
-0.00020898514828265066   1.0325372435998972e-05   -1.1005010546330865e-06
-0.00020898514828265066   1.0325372435998972e-05   -1.1005010546330865e-06
-0.00022020487083730157   -8.495308872742864e-05   0.000228325165937621
-0.00022020487083730157   -8.495308872742864e-05   0.000228325165937621
-0.00022020487083730157   -8.495308872742864e-05   0.000228325165937621
-0.00022020487083730157   -8.495308872742864e-05   0.000228325165937621
-8.972811057047332e-05   9.65048974270119e-06   -4.589824825583684e-05
-8.972811057047332e-05   9.65048974270119e-06   -4.589824825583684e-05
-8.972811057047332e-05   9.65048974270119e-06   -4.589824825583684e-05
-8.972811057047332e-05   9.65048974270119e-06   -4.589824825583684e-05
-0.000147705909296017   -3.192885860761087e-05   7.567902529692378e-05
-0.000147705909296017   -3.192885860761087e-05   7.567902529692378e-05
-0.000147705909296017   -3.192885860761087e-05   7.567902529692378e-05
-0.000147705909296017   -3.192885860761087e-05   7.567902529692378e-05
-8.972811057047342e-05   -8.495308872742864e-05   0.00017156301885554344
-8.972811057047342e-05   -8.495308872742864e-05   0.00017156301885554344
-8.972811057047342e-05   -8.495308872742864e-05   0.00017156301885554344
-8.972811057047342e-05   -8.495308872742864e-05   0.00017156301885554344
-0.00022020487083730157   9.650489742702925e-06   1.0863898826241579e-05
-0.00022020487083730157   9.650489742702925e-06   1.0863898826241579e-05
-0.00022020487083730157   9.650489742702925e-06   1.0863898826241579e-05
-0.00022020487083730157   9.650489742702925e-06   1.0863898826241579e-05
-0.00022704969672744522   -8.545918450923902e-05   0.00024106614373985494
-0.00022704969672744522   -8.545918450923902e-05   0.00024106614373985494
-0.00022704969672744522   -8.545918450923902e-05   0.00024106614373985494
-0.00022704969672744522   -8.545918450923902e-05   0.00024106614373985494
-9.544229885454658e-05   8.446974242312319e-06   -3.46232146325729e-05
-9.544229885454658e-05   8.446974242312319e-06   -3.46232146325729e-05
-9.544229885454658e-05   8.446974242312319e-06   -3.46232146325729e-05
-9.544229885454658e-05   8.446974242312319e-06   -3.46232146325729e-05
-0.00015501616613521855   -3.665558119735242e-05   9.172809743234628e-05
-0.00015501616613521855   -3.665558119735242e-05   9.172809743234628e-05
-0.00015501616613521855   -3.665558119735242e-05   9.172809743234628e-05
-0.00015501616613521855   -3.665558119735242e-05   9.172809743234628e-05
-9.544229885454652e-05   -8.545918450923728e-05   0.0001847224484889231
-9.544229885454652e-05   -8.545918450923728e-05   0.0001847224484889231
-9.544229885454652e-05   -8.545918450923728e-05   0.0001847224484889231
-9.544229885454652e-05   -8.545918450923728e-05   0.0001847224484889231
-0.00022704969672744478   8.446974242312319e-06   2.172048061835786e-05
-0.00022704969672744478   8.446974242312319e-06   2.172048061835786e-05
-0.00022704969672744478   8.446974242312319e-06   2.172048061835786e-05
-0.00022704969672744478   8.446974242312319e-06   2.172048061835786e-05
-0.00023441743771990785   -7.81824004163368e-05   0.000246594166422651
-0.00023441743771990785   -7.81824004163368e-05   0.000246594166422651
-0.00023441743771990785   -7.81824004163368e-05   0.000246594166422651
-0.00023441743771990785   -7.81824004163368e-05   0.000246594166422651
-0.00010217307510853815   7.0895920171332866e-06   -2.4976300056379062e-05
-0.00010217307510853815   7.0895920171332866e-06   -2.4976300056379062e-05
-0.00010217307510853815   7.0895920171332866e-06   -2.4976300056379062e-05
-0.00010217307510853815   7.0895920171332866e-06   -2.4976300056379062e-05
-0.00016252190271891863   -3.694982076331635e-05   0.00010202872696252652
-0.00016252190271891863   -3.694982076331635e-05   0.00010202872696252652
-0.00016252190271891863   -3.694982076331635e-05   0.00010202872696252652
-0.00016252190271891863   -3.694982076331635e-05   0.00010202872696252652
-0.00020898514828265   0.0   0.0001792402790550228
-0.00020898514828265   0.0   0.0001792402790550228
-0.00020898514828265   0.0   0.0001792402790550228
-0.00020898514828265   0.0   0.0001792402790550228
-0.0003688181720597088   4.82732859267334e-05   -5.818412235070094e-05
-0.0003688181720597088   4.82732859267334e-05   -5.818412235070094e-05
-0.0003688181720597088   4.82732859267334e-05   -5.818412235070094e-05
-0.0003688181720597088   4.82732859267334e-05   -5.818412235070094e-05
-0.0003843509562187985   0.0   0.0002592631798111946
-0.0003843509562187985   0.0   0.0002592631798111946
-0.0003843509562187985   0.0   0.0002592631798111946
-0.0003843509562187985   0.0   0.0002592631798111946
-0.0002202048708373012   4.652045528950009e-05   -4.222590233166968e-05
-0.0002202048708373012   4.652045528950009e-05   -4.222590233166968e-05
-0.0002202048708373012   4.652045528950009e-05   -4.222590233166968e-05
-0.0002202048708373012   4.652045528950009e-05   -4.222590233166968e-05
-0.0002829734638097006   2.8645227182853145e-05   7.311355615298475e-05
-0.0002829734638097006   2.8645227182853145e-05   7.311355615298475e-05
-0.0002829734638097006   2.8645227182853145e-05   7.311355615298475e-05
-0.0002829734638097006   2.8645227182853145e-05   7.311355615298475e-05
-0.00022020487083730108   0.0   0.0002313509066374942
-0.00022020487083730108   0.0   0.0002313509066374942
-0.00022020487083730108   0.0   0.0002313509066374942
-0.00022020487083730108   0.0   0.0002313509066374942
-0.0003843509562187993   4.652045528950009e-05   -1.4313629157968952e-05
-0.0003843509562187993   4.652045528950009e-05   -1.4313629157968952e-05
-0.0003843509562187993   4.652045528950009e-05   -1.4313629157968952e-05
-0.0003843509562187993   4.652045528950009e-05   -1.4313629157968952e-05
-0.000392181090601976   0.0   0.0002877423207946544
-0.000392181090601976   0.0   0.0002877423207946544
-0.000392181090601976   0.0   0.0002877423207946544
-0.000392181090601976   0.0   0.0002877423207946544
-0.00022704969672744478   4.53010823739837e-05   -1.4657318420620877e-05
-0.00022704969672744478   4.53010823739837e-05   -1.4657318420620877e-05
-0.00022704969672744478   4.53010823739837e-05   -1.4657318420620877e-05
-0.00022704969672744478   4.53010823739837e-05   -1.4657318420620877e-05
-0.00029787930712673694   2.3899307372907477e-05   0.00011623309724551403
-0.00029787930712673694   2.3899307372907477e-05   0.00011623309724551403
-0.00029787930712673694   2.3899307372907477e-05   0.00011623309724551403
-0.00029787930712673694   2.3899307372907477e-05   0.00011623309724551403
-0.00022704969672744478   0.0   0.00026056167137026524
-0.00022704969672744478   0.0   0.00026056167137026524
-0.00022704969672744478   0.0   0.00026056167137026524
-0.00022704969672744478   0.0   0.00026056167137026524
-0.00039218109060197744   4.530108237398196e-05   1.252333100376906e-05
-0.00039218109060197744   4.530108237398196e-05   1.252333100376906e-05
-0.00039218109060197744   4.530108237398196e-05   1.252333100376906e-05
-0.00039218109060197744   4.530108237398196e-05   1.252333100376906e-05
-0.0004009284920526809   0.0   0.00032573344977206414
-0.0004009284920526809   0.0   0.00032573344977206414
-0.0004009284920526809   0.0   0.00032573344977206414
-0.0004009284920526809   0.0   0.00032573344977206414
-0.00023441743771990785   3.761483798514313e-05   2.5646123093022474e-05
-0.00023441743771990785   3.761483798514313e-05   2.5646123093022474e-05
-0.00023441743771990785   3.761483798514313e-05   2.5646123093022474e-05
-0.00023441743771990785   3.761483798514313e-05   2.5646123093022474e-05
-0.0003004586729433798   1.6725311316268324e-05   0.00014824856446680112
-0.0003004586729433798   1.6725311316268324e-05   0.00014824856446680112
-0.0003004586729433798   1.6725311316268324e-05   0.00014824856446680112
-0.0003004586729433798   1.6725311316268324e-05   0.00014824856446680112
0.00025302471359657427   -3.812679961672297e-05   0.00018012304915332542
0.00025302471359657427   -3.812679961672297e-05   0.00018012304915332542
0.00025302471359657427   -3.812679961672297e-05   0.00018012304915332542
0.00025302471359657427   -3.812679961672297e-05   0.00018012304915332542
0.0001280851835564959   -2.8650916187847666e-05   -2.242397085614866e-05
0.0001280851835564959   -2.8650916187847666e-05   -2.242397085614866e-05
0.0001280851835564959   -2.8650916187847666e-05   -2.242397085614866e-05
0.0001280851835564959   -2.8650916187847666e-05   -2.242397085614866e-05
0.0001246726609770528   -4.19427914569552e-05   0.0001573322610888151
0.0001246726609770528   -4.19427914569552e-05   0.0001573322610888151
0.0001246726609770528   -4.19427914569552e-05   0.0001573322610888151
0.0001246726609770528   -4.19427914569552e-05   0.0001573322610888151
0.0002469179573297466   -3.250044893652118e-05   -5.2075305011268526e-05
0.0002469179573297466   -3.250044893652118e-05   -5.2075305011268526e-05
0.0002469179573297466   -3.250044893652118e-05   -5.2075305011268526e-05
0.0002469179573297466   -3.250044893652118e-05   -5.2075305011268526e-05
0.00017979782405792881   -3.3885832177029535e-05   6.062281371939913e-05
0.00017979782405792881   -3.3885832177029535e-05   6.062281371939913e-05
0.00017979782405792881   -3.3885832177029535e-05   6.062281371939913e-05
0.00017979782405792881   -3.3885832177029535e-05   6.062281371939913e-05
0.0002469179573297462   -4.19427914569552e-05   0.00015166685557655487
0.0002469179573297462   -4.19427914569552e-05   0.00015166685557655487
0.0002469179573297462   -4.19427914569552e-05   0.00015166685557655487
0.0002469179573297462   -4.19427914569552e-05   0.00015166685557655487
0.00012467266097705303   -3.250044893652118e-05   -4.640989949900726e-05
0.00012467266097705303   -3.250044893652118e-05   -4.640989949900726e-05
0.00012467266097705303   -3.250044893652118e-05   -4.640989949900726e-05
0.00012467266097705303   -3.250044893652118e-05   -4.640989949900726e-05
0.00012027478667573808   -4.2303466498538195e-05   0.00014128697662489122
0.00012027478667573808   -4.2303466498538195e-05   0.00014128697662489122
0.00012027478667573808   -4.2303466498538195e-05   0.00014128697662489122
0.00012027478667573808   -4.2303466498538195e-05   0.00014128697662489122
0.0002407484139012817   -3.3079410645195026e-05   -6.503683559635514e-05
0.0002407484139012817   -3.3079410645195026e-05   -6.503683559635514e-05
0.0002407484139012817   -3.3079410645195026e-05   -6.503683559635514e-05
0.0002407484139012817   -3.3079410645195026e-05   -6.503683559635514e-05
0.0001780520217045989   -3.537205505373814e-05   4.08327380432413e-05
0.0001780520217045989   -3.537205505373814e-05   4.08327380432413e-05
0.0001780520217045989   -3.537205505373814e-05   4.08327380432413e-05
0.0001780520217045989   -3.537205505373814e-05   4.08327380432413e-05
0.0002407484139012817   -4.2303466498538195e-05   0.0001357525431128848
0.0002407484139012817   -4.2303466498538195e-05   0.0001357525431128848
0.0002407484139012817   -4.2303466498538195e-05   0.0001357525431128848
0.0002407484139012817   -4.2303466498538195e-05   0.0001357525431128848
0.00012027478667573808   -3.3079410645195026e-05   -5.950240208434793e-05
0.00012027478667573808   -3.3079410645195026e-05   -5.950240208434793e-05
0.00012027478667573808   -3.3079410645195026e-05   -5.950240208434793e-05
0.00012027478667573808   -3.3079410645195026e-05   -5.950240208434793e-05
0.00011566308931421835   -4.14532130802326e-05   0.00011751165860811666
0.00011566308931421835   -4.14532130802326e-05   0.00011751165860811666
0.00011566308931421835   -4.14532130802326e-05   0.00011751165860811666
0.00011566308931421835   -4.14532130802326e-05   0.00011751165860811666
0.00023302750355219573   -3.2900242184483175e-05   -8.322748099263015e-05
0.00023302750355219573   -3.2900242184483175e-05   -8.322748099263015e-05
0.00023302750355219573   -3.2900242184483175e-05   -8.322748099263015e-05
0.00023302750355219573   -3.2900242184483175e-05   -8.322748099263015e-05
0.00017006149838508114   -3.44561512581644e-05   2.26494063967727e-05
0.00017006149838508114   -3.44561512581644e-05   2.26494063967727e-05
0.00017006149838508114   -3.44561512581644e-05   2.26494063967727e-05
0.00017006149838508114   -3.44561512581644e-05   2.26494063967727e-05
0.00012808518355649618   -2.372040735117674e-05   0.00017085356780070868
0.00012808518355649618   -2.372040735117674e-05   0.00017085356780070868
0.00012808518355649618   -2.372040735117674e-05   0.00017085356780070868
0.00012808518355649618   -2.372040735117674e-05   0.00017085356780070868
1.4322678875701086e-05   -1.0145673912999656e-05   -1.060576660437667e-05
1.4322678875701086e-05   -1.0145673912999656e-05   -1.060576660437667e-05
1.4322678875701086e-05   -1.0145673912999656e-05   -1.060576660437667e-05
1.4322678875701086e-05   -1.0145673912999656e-05   -1.060576660437667e-05
1.093601445574711e-05   -2.516897825436716e-05   0.00017808050177158842
1.093601445574711e-05   -2.516897825436716e-05   0.00017808050177158842
1.093601445574711e-05   -2.516897825436716e-05   0.00017808050177158842
1.093601445574711e-05   -2.516897825436716e-05   0.00017808050177158842
0.00012467266097705303   -1.222084877373908e-05   -1.9249453452298e-05
0.00012467266097705303   -1.222084877373908e-05   -1.9249453452298e-05
0.00012467266097705303   -1.222084877373908e-05   -1.9249453452298e-05
0.00012467266097705303   -1.222084877373908e-05   -1.9249453452298e-05
6.88400480985379e-05   -1.6559606417084274e-05   7.640815593123367e-05
6.88400480985379e-05   -1.6559606417084274e-05   7.640815593123367e-05
6.88400480985379e-05   -1.6559606417084274e-05   7.640815593123367e-05
6.88400480985379e-05   -1.6559606417084274e-05   7.640815593123367e-05
0.00012467266097705292   -2.516897825436716e-05   0.00017031162408321157
0.00012467266097705292   -2.516897825436716e-05   0.00017031162408321157
0.00012467266097705292   -2.516897825436716e-05   0.00017031162408321157
0.00012467266097705292   -2.516897825436716e-05   0.00017031162408321157
1.093601445574711e-05   -1.222084877373908e-05   -1.148057576392126e-05
1.093601445574711e-05   -1.222084877373908e-05   -1.148057576392126e-05
1.093601445574711e-05   -1.222084877373908e-05   -1.148057576392126e-05
1.093601445574711e-05   -1.222084877373908e-05   -1.148057576392126e-05
6.609295682693855e-06   -2.582575543071987e-05   0.00017645608332737123
6.609295682693855e-06   -2.582575543071987e-05   0.00017645608332737123
6.609295682693855e-06   -2.582575543071987e-05   0.00017645608332737123
6.609295682693855e-06   -2.582575543071987e-05   0.00017645608332737123
0.00012027478667573808   -1.3590615279352597e-05   -2.0327485751855836e-05
0.00012027478667573808   -1.3590615279352597e-05   -2.0327485751855836e-05
0.00012027478667573808   -1.3590615279352597e-05   -2.0327485751855836e-05
0.00012027478667573808   -1.3590615279352597e-05   -2.0327485751855836e-05
6.455122591690946e-05   -1.7349894103065727e-05   7.48006828070896e-05
6.455122591690946e-05   -1.7349894103065727e-05   7.48006828070896e-05
6.455122591690946e-05   -1.7349894103065727e-05   7.48006828070896e-05
6.455122591690946e-05   -1.7349894103065727e-05   7.48006828070896e-05
0.00012027478667573786   -2.582575543071987e-05   0.00016911499923655
0.00012027478667573786   -2.582575543071987e-05   0.00016911499923655
0.00012027478667573786   -2.582575543071987e-05   0.00016911499923655
0.00012027478667573786   -2.582575543071987e-05   0.00016911499923655
6.609295682693855e-06   -1.3590615279352597e-05   -1.2986401661035582e-05
6.609295682693855e-06   -1.3590615279352597e-05   -1.2986401661035582e-05
6.609295682693855e-06   -1.3590615279352597e-05   -1.2986401661035582e-05
6.609295682693855e-06   -1.3590615279352597e-05   -1.2986401661035582e-05
1.8292247269676245e-06   -2.5265932500668706e-05   0.00017910247564546268
1.8292247269676245e-06   -2.5265932500668706e-05   0.00017910247564546268
1.8292247269676245e-06   -2.5265932500668706e-05   0.00017910247564546268
1.8292247269676245e-06   -2.5265932500668706e-05   0.00017910247564546268
0.0001156630893142183   -1.4190533107196271e-05   -1.726587163603801e-05
0.0001156630893142183   -1.4190533107196271e-05   -1.726587163603801e-05
0.0001156630893142183   -1.4190533107196271e-05   -1.726587163603801e-05
0.0001156630893142183   -1.4190533107196271e-05   -1.726587163603801e-05
6.104301891556534e-05   -1.719798366440692e-05   7.557204936271453e-05
6.104301891556534e-05   -1.719798366440692e-05   7.557204936271453e-05
6.104301891556534e-05   -1.719798366440692e-05   7.557204936271453e-05
6.104301891556534e-05   -1.719798366440692e-05   7.557204936271453e-05
1.4322678875701086e-05   -1.0199449146007511e-05   0.00017481967267120573
1.4322678875701086e-05   -1.0199449146007511e-05   0.00017481967267120573
1.4322678875701086e-05   -1.0199449146007511e-05   0.00017481967267120573
1.4322678875701086e-05   -1.0199449146007511e-05   0.00017481967267120573
-9.58612999582023e-05   8.938134686728785e-06   2.662258247675478e-06
-9.58612999582023e-05   8.938134686728785e-06   2.662258247675478e-06
-9.58612999582023e-05   8.938134686728785e-06   2.662258247675478e-06
-9.58612999582023e-05   8.938134686728785e-06   2.662258247675478e-06
-9.967577675302802e-05   -1.0777209108775443e-05   0.0001876270992760866
-9.967577675302802e-05   -1.0777209108775443e-05   0.0001876270992760866
-9.967577675302802e-05   -1.0777209108775443e-05   0.0001876270992760866
-9.967577675302802e-05   -1.0777209108775443e-05   0.0001876270992760866
1.093601445574711e-05   7.338201038270195e-06   -7.595132160100244e-06
1.093601445574711e-05   7.338201038270195e-06   -7.595132160100244e-06
1.093601445574711e-05   7.338201038270195e-06   -7.595132160100244e-06
1.093601445574711e-05   7.338201038270195e-06   -7.595132160100244e-06
-4.249027386364352e-05   -3.3290438726865657e-07   8.60513449608745e-05
-4.249027386364352e-05   -3.3290438726865657e-07   8.60513449608745e-05
-4.249027386364352e-05   -3.3290438726865657e-07   8.60513449608745e-05
-4.249027386364352e-05   -3.3290438726865657e-07   8.60513449608745e-05
1.093601445574711e-05   -1.0777209108775443e-05   0.00017675785318785938
1.093601445574711e-05   -1.0777209108775443e-05   0.00017675785318785938
1.093601445574711e-05   -1.0777209108775443e-05   0.00017675785318785938
1.093601445574711e-05   -1.0777209108775443e-05   0.00017675785318785938
-9.967577675302802e-05   7.338201038270195e-06   3.2741139281275075e-06
-9.967577675302802e-05   7.338201038270195e-06   3.2741139281275075e-06
-9.967577675302802e-05   7.338201038270195e-06   3.2741139281275075e-06
-9.967577675302802e-05   7.338201038270195e-06   3.2741139281275075e-06
-0.00010479758142135432   -1.1481444556796574e-05   0.00019141649259970996
-0.00010479758142135432   -1.1481444556796574e-05   0.00019141649259970996
-0.00010479758142135432   -1.1481444556796574e-05   0.00019141649259970996
-0.00010479758142135432   -1.1481444556796574e-05   0.00019141649259970996
6.609295682693855e-06   5.848751181373318e-06   -4.659753349938378e-06
6.609295682693855e-06   5.848751181373318e-06   -4.659753349938378e-06
6.609295682693855e-06   5.848751181373318e-06   -4.659753349938378e-06
6.609295682693855e-06   5.848751181373318e-06   -4.659753349938378e-06
-4.625505377181747e-05   -7.908209645364483e-07   8.743123902846001e-05
-4.625505377181747e-05   -7.908209645364483e-07   8.743123902846001e-05
-4.625505377181747e-05   -7.908209645364483e-07   8.743123902846001e-05
-4.625505377181747e-05   -7.908209645364483e-07   8.743123902846001e-05
6.609295682693855e-06   -1.148144455679484e-05   0.00018101837515680907
6.609295682693855e-06   -1.148144455679484e-05   0.00018101837515680907
6.609295682693855e-06   -1.148144455679484e-05   0.00018101837515680907
6.609295682693855e-06   -1.148144455679484e-05   0.00018101837515680907
-0.0001047975814213541   5.848751181373318e-06   5.7383640929623e-06
-0.0001047975814213541   5.848751181373318e-06   5.7383640929623e-06
-0.0001047975814213541   5.848751181373318e-06   5.7383640929623e-06
-0.0001047975814213541   5.848751181373318e-06   5.7383640929623e-06
-0.00011025469575193323   -1.1431889026919037e-05   0.00019596233204258098
-0.00011025469575193323   -1.1431889026919037e-05   0.00019596233204258098
-0.00011025469575193323   -1.1431889026919037e-05   0.00019596233204258098
-0.00011025469575193323   -1.1431889026919037e-05   0.00019596233204258098
1.8292247269676245e-06   4.773021721278872e-06   -5.671485378396174e-07
1.8292247269676245e-06   4.773021721278872e-06   -5.671485378396174e-07
1.8292247269676245e-06   4.773021721278872e-06   -5.671485378396174e-07
1.8292247269676245e-06   4.773021721278872e-06   -5.671485378396174e-07
-5.10593013847786e-05   -1.1239211921559855e-06   9.111856072980228e-05
-5.10593013847786e-05   -1.1239211921559855e-06   9.111856072980228e-05
-5.10593013847786e-05   -1.1239211921559855e-06   9.111856072980228e-05
-5.10593013847786e-05   -1.1239211921559855e-06   9.111856072980228e-05
-9.586129995820198e-05   1.0325372435998972e-05   0.0001578496392545146
-9.586129995820198e-05   1.0325372435998972e-05   0.0001578496392545146
-9.586129995820198e-05   1.0325372435998972e-05   0.0001578496392545146
-9.586129995820198e-05   1.0325372435998972e-05   0.0001578496392545146
-0.0002037140593085906   2.922026881659913e-05   -1.0568021834440368e-05
-0.0002037140593085906   2.922026881659913e-05   -1.0568021834440368e-05
-0.0002037140593085906   2.922026881659913e-05   -1.0568021834440368e-05
-0.0002037140593085906   2.922026881659913e-05   -1.0568021834440368e-05
-0.00020928636236083387   9.65048974270119e-06   0.00017483161127886636
-0.00020928636236083387   9.65048974270119e-06   0.00017483161127886636
-0.00020928636236083387   9.65048974270119e-06   0.00017483161127886636
-0.00020928636236083387   9.65048974270119e-06   0.00017483161127886636
-9.96757767530277e-05   2.7609843410528537e-05   -1.862831026817305e-05
-9.96757767530277e-05   2.7609843410528537e-05   -1.862831026817305e-05
-9.96757767530277e-05   2.7609843410528537e-05   -1.862831026817305e-05
-9.96757767530277e-05   2.7609843410528537e-05   -1.862831026817305e-05
-0.00015092311102897276   1.955424074701756e-05   7.161727512317462e-05
-0.00015092311102897276   1.955424074701756e-05   7.161727512317462e-05
-0.00015092311102897276   1.955424074701756e-05   7.161727512317462e-05
-0.00015092311102897276   1.955424074701756e-05   7.161727512317462e-05
-9.967577675302781e-05   9.650489742702925e-06   0.0001640559990781689
-9.967577675302781e-05   9.650489742702925e-06   0.0001640559990781689
-9.967577675302781e-05   9.650489742702925e-06   0.0001640559990781689
-9.967577675302781e-05   9.650489742702925e-06   0.0001640559990781689
-0.00020928636236083344   2.7609843410528537e-05   -7.85269806747712e-06
-0.00020928636236083344   2.7609843410528537e-05   -7.85269806747712e-06
-0.00020928636236083344   2.7609843410528537e-05   -7.85269806747712e-06
-0.00020928636236083344   2.7609843410528537e-05   -7.85269806747712e-06
-0.0002161094863587028   8.446974242314054e-06   0.00018555867171020281
-0.0002161094863587028   8.446974242314054e-06   0.00018555867171020281
-0.0002161094863587028   8.446974242314054e-06   0.00018555867171020281
-0.0002161094863587028   8.446974242314054e-06   0.00018555867171020281
-0.0001047975814213541   2.6126389757888738e-05   -1.0568819161389841e-05
-0.0001047975814213541   2.6126389757888738e-05   -1.0568819161389841e-05
-0.0001047975814213541   2.6126389757888738e-05   -1.0568819161389841e-05
-0.0001047975814213541   2.6126389757888738e-05   -1.0568819161389841e-05
-0.00015508521284516007   1.9169240545020838e-05   7.741818940600791e-05
-0.00015508521284516007   1.9169240545020838e-05   7.741818940600791e-05
-0.00015508521284516007   1.9169240545020838e-05   7.741818940600791e-05
-0.00015508521284516007   1.9169240545020838e-05   7.741818940600791e-05
-0.000104797581421354   8.446974242312319e-06   0.00017495102240085766
-0.000104797581421354   8.446974242312319e-06   0.00017495102240085766
-0.000104797581421354   8.446974242312319e-06   0.00017495102240085766
-0.000104797581421354   8.446974242312319e-06   0.00017495102240085766
-0.0002161094863587028   2.6126389757888738e-05   3.8830147954665994e-08
-0.0002161094863587028   2.6126389757888738e-05   3.8830147954665994e-08
-0.0002161094863587028   2.6126389757888738e-05   3.8830147954665994e-08
-0.0002161094863587028   2.6126389757888738e-05   3.8830147954665994e-08
-0.00022333539790449978   7.0895920171332866e-06   0.00019414676163478396
-0.00022333539790449978   7.0895920171332866e-06   0.00019414676163478396
-0.00022333539790449978   7.0895920171332866e-06   0.00019414676163478396
-0.00022333539790449978   7.0895920171332866e-06   0.00019414676163478396
-0.00011025469575193285   2.4138955284270028e-05   -4.550693246442106e-06
-0.00011025469575193285   2.4138955284270028e-05   -4.550693246442106e-06
-0.00011025469575193285   2.4138955284270028e-05   -4.550693246442106e-06
-0.00011025469575193285   2.4138955284270028e-05   -4.550693246442106e-06
-0.00016197700646385403   1.7960612493908915e-05   8.53601636143156e-05
-0.00016197700646385403   1.7960612493908915e-05   8.53601636143156e-05
-0.00016197700646385403   1.7960612493908915e-05   8.53601636143156e-05
-0.00016197700646385403   1.7960612493908915e-05   8.53601636143156e-05
-0.0002037140593085906   4.827328592673513e-05   8.313898423076456e-05
-0.0002037140593085906   4.827328592673513e-05   8.313898423076456e-05
-0.0002037140593085906   4.827328592673513e-05   8.313898423076456e-05
-0.0002037140593085906   4.827328592673513e-05   8.313898423076456e-05
-0.00030689266654115   4.7521351592546765e-05   -8.927652175734751e-05
-0.00030689266654115   4.7521351592546765e-05   -8.927652175734751e-05
-0.00030689266654115   4.7521351592546765e-05   -8.927652175734751e-05
-0.00030689266654115   4.7521351592546765e-05   -8.927652175734751e-05
-0.00031688594040448783   4.652045528950009e-05   0.0001228712868693166
-0.00031688594040448783   4.652045528950009e-05   0.0001228712868693166
-0.00031688594040448783   4.652045528950009e-05   0.0001228712868693166
-0.00031688594040448783   4.652045528950009e-05   0.0001228712868693166
-0.00020928636236083344   4.8402916536769564e-05   -5.7590819951803445e-05
-0.00020928636236083344   4.8402916536769564e-05   -5.7590819951803445e-05
-0.00020928636236083344   4.8402916536769564e-05   -5.7590819951803445e-05
-0.00020928636236083344   4.8402916536769564e-05   -5.7590819951803445e-05
-0.00024876194221773494   4.845696269911888e-05   8.169385445623263e-06
-0.00024876194221773494   4.845696269911888e-05   8.169385445623263e-06
-0.00024876194221773494   4.845696269911888e-05   8.169385445623263e-06
-0.00024876194221773494   4.845696269911888e-05   8.169385445623263e-06
-0.00020928636236083322   4.652045528950009e-05   0.00012174181012095543
-0.00020928636236083322   4.652045528950009e-05   0.00012174181012095543
-0.00020928636236083322   4.652045528950009e-05   0.00012174181012095543
-0.00020928636236083322   4.652045528950009e-05   0.00012174181012095543
-0.00031688594040448783   4.84029165367713e-05   -5.64613432034412e-05
-0.00031688594040448783   4.84029165367713e-05   -5.64613432034412e-05
-0.00031688594040448783   4.84029165367713e-05   -5.64613432034412e-05
-0.00031688594040448783   4.84029165367713e-05   -5.64613432034412e-05
-0.0003266865273764216   4.53010823739837e-05   0.00015082683140480498
-0.0003266865273764216   4.53010823739837e-05   0.00015082683140480498
-0.0003266865273764216   4.53010823739837e-05   0.00015082683140480498
-0.0003266865273764216   4.53010823739837e-05   0.00015082683140480498
-0.00021610948635870247   4.804434692995234e-05   -3.511419569164295e-05
-0.00021610948635870247   4.804434692995234e-05   -3.511419569164295e-05
-0.00021610948635870247   4.804434692995234e-05   -3.511419569164295e-05
-0.00021610948635870247   4.804434692995234e-05   -3.511419569164295e-05
-0.0002601654255222426   4.842323282832489e-05   3.808503804190316e-05
-0.0002601654255222426   4.842323282832489e-05   3.808503804190316e-05
-0.0002601654255222426   4.842323282832489e-05   3.808503804190316e-05
-0.0002601654255222426   4.842323282832489e-05   3.808503804190316e-05
-0.00021610948635870247   4.53010823739837e-05   0.0001491808726712231
-0.00021610948635870247   4.53010823739837e-05   0.0001491808726712231
-0.00021610948635870247   4.53010823739837e-05   0.0001491808726712231
-0.00021610948635870247   4.53010823739837e-05   0.0001491808726712231
-0.0003266865273764216   4.804434692995234e-05   -3.346823695806085e-05
-0.0003266865273764216   4.804434692995234e-05   -3.346823695806085e-05
-0.0003266865273764216   4.804434692995234e-05   -3.346823695806085e-05
-0.0003266865273764216   4.804434692995234e-05   -3.346823695806085e-05
-0.00033823982533192677   3.761483798514313e-05   0.0001975559315284597
-0.00033823982533192677   3.761483798514313e-05   0.0001975559315284597
-0.00033823982533192677   3.761483798514313e-05   0.0001975559315284597
-0.00033823982533192677   3.761483798514313e-05   0.0001975559315284597
-0.00022333539790449902   4.419807499240341e-05   2.0986102783903966e-06
-0.00022333539790449902   4.419807499240341e-05   2.0986102783903966e-06
-0.00022333539790449902   4.419807499240341e-05   2.0986102783903966e-06
-0.00022333539790449902   4.419807499240341e-05   2.0986102783903966e-06
-0.00026433406462775266   4.610220028959319e-05   6.928724630550324e-05
-0.00026433406462775266   4.610220028959319e-05   6.928724630550324e-05
-0.00026433406462775266   4.610220028959319e-05   6.928724630550324e-05
-0.00026433406462775266   4.610220028959319e-05   6.928724630550324e-05
0.000204597867898331   -2.86509161878494e-05   0.0001583807221313292
0.000204597867898331   -2.86509161878494e-05   0.0001583807221313292
0.000204597867898331   -2.86509161878494e-05   0.0001583807221313292
0.000204597867898331   -2.86509161878494e-05   0.0001583807221313292
0.00010138955514716206   -2.0924951417254298e-05   -8.997553591596347e-06
0.00010138955514716206   -2.0924951417254298e-05   -8.997553591596347e-06
0.00010138955514716206   -2.0924951417254298e-05   -8.997553591596347e-06
0.00010138955514716206   -2.0924951417254298e-05   -8.997553591596347e-06
9.746037492201258e-05   -3.250044893652118e-05   0.00013780267994945722
9.746037492201258e-05   -3.250044893652118e-05   0.00013780267994945722
9.746037492201258e-05   -3.250044893652118e-05   0.00013780267994945722
9.746037492201258e-05   -3.250044893652118e-05   0.00013780267994945722
0.00019736714076858125   -2.430399840452034e-05   -3.3626466780690075e-05
0.00019736714076858125   -2.430399840452034e-05   -3.3626466780690075e-05
0.00019736714076858125   -2.430399840452034e-05   -3.3626466780690075e-05
0.00019736714076858125   -2.430399840452034e-05   -3.3626466780690075e-05
0.00014332537502497925   -2.632475553265498e-05   5.765559706886016e-05
0.00014332537502497925   -2.632475553265498e-05   5.765559706886016e-05
0.00014332537502497925   -2.632475553265498e-05   5.765559706886016e-05
0.00014332537502497925   -2.632475553265498e-05   5.765559706886016e-05
0.00019736714076858092   -3.250044893652118e-05   0.00013288480963025671
0.00019736714076858092   -3.250044893652118e-05   0.00013288480963025671
0.00019736714076858092   -3.250044893652118e-05   0.00013288480963025671
0.00019736714076858092   -3.250044893652118e-05   0.00013288480963025671
9.74603749220129e-05   -2.430399840452034e-05   -2.870859646148926e-05
9.74603749220129e-05   -2.430399840452034e-05   -2.870859646148926e-05
9.74603749220129e-05   -2.430399840452034e-05   -2.870859646148926e-05
9.74603749220129e-05   -2.430399840452034e-05   -2.870859646148926e-05
9.309707447098463e-05   -3.3079410645195026e-05   0.000123545741769762
9.309707447098463e-05   -3.3079410645195026e-05   0.000123545741769762
9.309707447098463e-05   -3.3079410645195026e-05   0.000123545741769762
9.309707447098463e-05   -3.3079410645195026e-05   0.000123545741769762
0.00019082526848740819   -2.498748007164972e-05   -4.4189739935070646e-05
0.00019082526848740819   -2.498748007164972e-05   -4.4189739935070646e-05
0.00019082526848740819   -2.498748007164972e-05   -4.4189739935070646e-05
0.00019082526848740819   -2.498748007164972e-05   -4.4189739935070646e-05
0.0001405735918852146   -2.763216485635739e-05   4.1149865272744116e-05
0.0001405735918852146   -2.763216485635739e-05   4.1149865272744116e-05
0.0001405735918852146   -2.763216485635739e-05   4.1149865272744116e-05
0.0001405735918852146   -2.763216485635739e-05   4.1149865272744116e-05
0.0001908252684874075   -3.3079410645195026e-05   0.00011869058342563535
0.0001908252684874075   -3.3079410645195026e-05   0.00011869058342563535
0.0001908252684874075   -3.3079410645195026e-05   0.00011869058342563535
0.0001908252684874075   -3.3079410645195026e-05   0.00011869058342563535
9.309707447098482e-05   -2.498748007164972e-05   -3.933458159094405e-05
9.309707447098482e-05   -2.498748007164972e-05   -3.933458159094405e-05
9.309707447098482e-05   -2.498748007164972e-05   -3.933458159094405e-05
9.309707447098482e-05   -2.498748007164972e-05   -3.933458159094405e-05
8.890303697369517e-05   -3.290024218448144e-05   0.00010370307141188435
8.890303697369517e-05   -3.290024218448144e-05   0.00010370307141188435
8.890303697369517e-05   -3.290024218448144e-05   0.00010370307141188435
8.890303697369517e-05   -3.290024218448144e-05   0.00010370307141188435
0.00018342150256257805   -2.5287429397377603e-05   -5.8395392241848985e-05
0.00018342150256257805   -2.5287429397377603e-05   -5.8395392241848985e-05
0.00018342150256257805   -2.5287429397377603e-05   -5.8395392241848985e-05
0.00018342150256257805   -2.5287429397377603e-05   -5.8395392241848985e-05
0.00013327450600166563   -2.7174845512720203e-05   2.6315385028879447e-05
0.00013327450600166563   -2.7174845512720203e-05   2.6315385028879447e-05
0.00013327450600166563   -2.7174845512720203e-05   2.6315385028879447e-05
0.00013327450600166563   -2.7174845512720203e-05   2.6315385028879447e-05
0.00010138955514716206   -1.0145673912999656e-05   0.00016668966518254818
0.00010138955514716206   -1.0145673912999656e-05   0.00016668966518254818
0.00010138955514716206   -1.0145673912999656e-05   0.00016668966518254818
0.00010138955514716206   -1.0145673912999656e-05   0.00016668966518254818
4.5176592207473235e-06   -3.9929465577726725e-06   8.928141718327239e-06
4.5176592207473235e-06   -3.9929465577726725e-06   8.928141718327239e-06
4.5176592207473235e-06   -3.9929465577726725e-06   8.928141718327239e-06
4.5176592207473235e-06   -3.9929465577726725e-06   8.928141718327239e-06
7.486850643790449e-07   -1.2220848773740814e-05   0.0001684586762250211
7.486850643790449e-07   -1.2220848773740814e-05   0.0001684586762250211
7.486850643790449e-07   -1.2220848773740814e-05   0.0001684586762250211
7.486850643790449e-07   -1.2220848773740814e-05   0.0001684586762250211
9.74603749220129e-05   -6.394931725651337e-06   3.77697623344357e-06
9.74603749220129e-05   -6.394931725651337e-06   3.77697623344357e-06
9.74603749220129e-05   -6.394931725651337e-06   3.77697623344357e-06
9.74603749220129e-05   -6.394931725651337e-06   3.77697623344357e-06
5.041149827793145e-05   -7.882358175089269e-06   8.308422650991085e-05
5.041149827793145e-05   -7.882358175089269e-06   8.308422650991085e-05
5.041149827793145e-05   -7.882358175089269e-06   8.308422650991085e-05
5.041149827793145e-05   -7.882358175089269e-06   8.308422650991085e-05
9.746037492201282e-05   -1.2220848773740814e-05   0.00016496312599616723
9.746037492201282e-05   -1.2220848773740814e-05   0.00016496312599616723
9.746037492201282e-05   -1.2220848773740814e-05   0.00016496312599616723
9.746037492201282e-05   -1.2220848773740814e-05   0.00016496312599616723
7.486850643790449e-07   -6.394931725651337e-06   7.272526462297375e-06
7.486850643790449e-07   -6.394931725651337e-06   7.272526462297375e-06
7.486850643790449e-07   -6.394931725651337e-06   7.272526462297375e-06
7.486850643790449e-07   -6.394931725651337e-06   7.272526462297375e-06
-3.1687070025058096e-06   -1.3590615279350862e-05   0.00016596298740587014
-3.1687070025058096e-06   -1.3590615279350862e-05   0.00016596298740587014
-3.1687070025058096e-06   -1.3590615279350862e-05   0.00016596298740587014
-3.1687070025058096e-06   -1.3590615279350862e-05   0.00016596298740587014
9.309707447098482e-05   -8.186733106657282e-06   2.277688979769089e-06
9.309707447098482e-05   -8.186733106657282e-06   2.277688979769089e-06
9.309707447098482e-05   -8.186733106657282e-06   2.277688979769089e-06
9.309707447098482e-05   -8.186733106657282e-06   2.277688979769089e-06
4.60916593109203e-05   -9.144251271700488e-06   8.119455847890541e-05
4.60916593109203e-05   -9.144251271700488e-06   8.119455847890541e-05
4.60916593109203e-05   -9.144251271700488e-06   8.119455847890541e-05
4.60916593109203e-05   -9.144251271700488e-06   8.119455847890541e-05
9.309707447098463e-05   -1.3590615279352597e-05   0.000162720658102254
9.309707447098463e-05   -1.3590615279352597e-05   0.000162720658102254
9.309707447098463e-05   -1.3590615279352597e-05   0.000162720658102254
9.309707447098463e-05   -1.3590615279352597e-05   0.000162720658102254
-3.1687070025058096e-06   -8.186733106659017e-06   5.520018283386267e-06
-3.1687070025058096e-06   -8.186733106659017e-06   5.520018283386267e-06
-3.1687070025058096e-06   -8.186733106659017e-06   5.520018283386267e-06
-3.1687070025058096e-06   -8.186733106659017e-06   5.520018283386267e-06
-7.246904068945823e-06   -1.4190533107196271e-05   0.0001672816928584642
-7.246904068945823e-06   -1.4190533107196271e-05   0.0001672816928584642
-7.246904068945823e-06   -1.4190533107196271e-05   0.0001672816928584642
-7.246904068945823e-06   -1.4190533107196271e-05   0.0001672816928584642
8.890303697369539e-05   -9.609208728132701e-06   4.282996493290591e-06
8.890303697369539e-05   -9.609208728132701e-06   4.282996493290591e-06
8.890303697369539e-05   -9.609208728132701e-06   4.282996493290591e-06
8.890303697369539e-05   -9.609208728132701e-06   4.282996493290591e-06
4.283191161812846e-05   -9.830896388399873e-06   8.120121801539711e-05
4.283191161812846e-05   -9.830896388399873e-06   8.120121801539711e-05
4.283191161812846e-05   -9.830896388399873e-06   8.120121801539711e-05
4.283191161812846e-05   -9.830896388399873e-06   8.120121801539711e-05
4.517659220747269e-06   8.93813468673052e-06   0.00017216677614809595
4.517659220747269e-06   8.93813468673052e-06   0.00017216677614809595
4.517659220747269e-06   8.93813468673052e-06   0.00017216677614809595
4.517659220747269e-06   8.93813468673052e-06   0.00017216677614809595
-8.950451253625e-05   1.303421009217487e-05   1.792080179636741e-05
-8.950451253625e-05   1.303421009217487e-05   1.792080179636741e-05
-8.950451253625e-05   1.303421009217487e-05   1.792080179636741e-05
-8.950451253625e-05   1.303421009217487e-05   1.792080179636741e-05
-9.344079282376223e-05   7.338201038270195e-06   0.00017455729249022268
-9.344079282376223e-05   7.338201038270195e-06   0.00017455729249022268
-9.344079282376223e-05   7.338201038270195e-06   0.00017455729249022268
-9.344079282376223e-05   7.338201038270195e-06   0.00017455729249022268
7.486850643790449e-07   1.1026822140571685e-05   1.5361656681939814e-05
7.486850643790449e-07   1.1026822140571685e-05   1.5361656681939814e-05
7.486850643790449e-07   1.1026822140571685e-05   1.5361656681939814e-05
7.486850643790449e-07   1.1026822140571685e-05   1.5361656681939814e-05
-4.4489197913923464e-05   1.0207017904316842e-05   9.125001085419739e-05
-4.4489197913923464e-05   1.0207017904316842e-05   9.125001085419739e-05
-4.4489197913923464e-05   1.0207017904316842e-05   9.125001085419739e-05
-4.4489197913923464e-05   1.0207017904316842e-05   9.125001085419739e-05
7.486850643790449e-07   7.338201038270195e-06   0.00017234411982884265
7.486850643790449e-07   7.338201038270195e-06   0.00017234411982884265
7.486850643790449e-07   7.338201038270195e-06   0.00017234411982884265
7.486850643790449e-07   7.338201038270195e-06   0.00017234411982884265
-9.344079282376223e-05   1.102682214056995e-05   1.757482934331995e-05
-9.344079282376223e-05   1.102682214056995e-05   1.757482934331995e-05
-9.344079282376223e-05   1.102682214056995e-05   1.757482934331995e-05
-9.344079282376223e-05   1.102682214056995e-05   1.757482934331995e-05
-9.759968222073311e-05   5.848751181373318e-06   0.00017622674067683825
-9.759968222073311e-05   5.848751181373318e-06   0.00017622674067683825
-9.759968222073311e-05   5.848751181373318e-06   0.00017622674067683825
-9.759968222073311e-05   5.848751181373318e-06   0.00017622674067683825
-3.1687070025058638e-06   9.077259447824032e-06   1.6904677019922423e-05
-3.1687070025058638e-06   9.077259447824032e-06   1.6904677019922423e-05
-3.1687070025058638e-06   9.077259447824032e-06   1.6904677019922423e-05
-3.1687070025058638e-06   9.077259447824032e-06   1.6904677019922423e-05
-4.8147311814827524e-05   9.056252473847726e-06   9.188162255817866e-05
-4.8147311814827524e-05   9.056252473847726e-06   9.188162255817866e-05
-4.8147311814827524e-05   9.056252473847726e-06   9.188162255817866e-05
-4.8147311814827524e-05   9.056252473847726e-06   9.188162255817866e-05
-3.1687070025058096e-06   5.848751181375053e-06   0.00017428963571696886
-3.1687070025058096e-06   5.848751181375053e-06   0.00017428963571696886
-3.1687070025058096e-06   5.848751181375053e-06   0.00017428963571696886
-3.1687070025058096e-06   5.848751181375053e-06   0.00017428963571696886
-9.759968222073322e-05   9.077259447824032e-06   1.8841781979792895e-05
-9.759968222073322e-05   9.077259447824032e-06   1.8841781979792895e-05
-9.759968222073322e-05   9.077259447824032e-06   1.8841781979792895e-05
-9.759968222073322e-05   9.077259447824032e-06   1.8841781979792895e-05
-0.00010189260635091763   4.773021721278872e-06   0.00017887618705973024
-0.00010189260635091763   4.773021721278872e-06   0.00017887618705973024
-0.00010189260635091763   4.773021721278872e-06   0.00017887618705973024
-0.00010189260635091763   4.773021721278872e-06   0.00017887618705973024
-7.246904068945823e-06   7.341372953195355e-06   1.95923391839597e-05
-7.246904068945823e-06   7.341372953195355e-06   1.95923391839597e-05
-7.246904068945823e-06   7.341372953195355e-06   1.95923391839597e-05
-7.246904068945823e-06   7.341372953195355e-06   1.95923391839597e-05
-5.2105779714297214e-05   7.952798785815576e-06   9.399027642664423e-05
-5.2105779714297214e-05   7.952798785815576e-06   9.399027642664423e-05
-5.2105779714297214e-05   7.952798785815576e-06   9.399027642664423e-05
-5.2105779714297214e-05   7.952798785815576e-06   9.399027642664423e-05
-8.950451253625044e-05   2.9220268816597395e-05   0.00015005720348088784
-8.950451253625044e-05   2.9220268816597395e-05   0.00015005720348088784
-8.950451253625044e-05   2.9220268816597395e-05   0.00015005720348088784
-8.950451253625044e-05   2.9220268816597395e-05   0.00015005720348088784
-0.00018047716436615086   2.9588037526083466e-05   -1.343221676589415e-06
-0.00018047716436615086   2.9588037526083466e-05   -1.343221676589415e-06
-0.00018047716436615086   2.9588037526083466e-05   -1.343221676589415e-06
-0.00018047716436615086   2.9588037526083466e-05   -1.343221676589415e-06
-0.00018504804706094698   2.760984341053027e-05   0.00015268700548933933
-0.00018504804706094698   2.760984341053027e-05   0.00015268700548933933
-0.00018504804706094698   2.760984341053027e-05   0.00015268700548933933
-0.00018504804706094698   2.760984341053027e-05   0.00015268700548933933
-9.344079282376234e-05   2.7663405402890764e-05   -2.388876805202965e-08
-9.344079282376234e-05   2.7663405402890764e-05   -2.388876805202965e-08
-9.344079282376234e-05   2.7663405402890764e-05   -2.388876805202965e-08
-9.344079282376234e-05   2.7663405402890764e-05   -2.388876805202965e-08
-0.00013650447279676178   2.846264944883839e-05   7.126936475937797e-05
-0.00013650447279676178   2.846264944883839e-05   7.126936475937797e-05
-0.00013650447279676178   2.846264944883839e-05   7.126936475937797e-05
-0.00013650447279676178   2.846264944883839e-05   7.126936475937797e-05
-9.344079282376234e-05   2.760984341053027e-05   0.00015265486829392234
-9.344079282376234e-05   2.760984341053027e-05   0.00015265486829392234
-9.344079282376234e-05   2.760984341053027e-05   0.00015265486829392234
-9.344079282376234e-05   2.760984341053027e-05   0.00015265486829392234
-0.00018504804706094677   2.76634054028925e-05   8.248427364743183e-09
-0.00018504804706094677   2.76634054028925e-05   8.248427364743183e-09
-0.00018504804706094677   2.76634054028925e-05   8.248427364743183e-09
-0.00018504804706094677   2.76634054028925e-05   8.248427364743183e-09
-0.00019011828578484986   2.6126389757887003e-05   0.00015978117917117042
-0.00019011828578484986   2.6126389757887003e-05   0.00015978117917117042
-0.00019011828578484986   2.6126389757887003e-05   0.00015978117917117042
-0.00019011828578484986   2.6126389757887003e-05   0.00015978117917117042
-9.759968222073322e-05   2.5895759339027158e-05   5.7218848156252635e-06
-9.759968222073322e-05   2.5895759339027158e-05   5.7218848156252635e-06
-9.759968222073322e-05   2.5895759339027158e-05   5.7218848156252635e-06
-9.759968222073322e-05   2.5895759339027158e-05   5.7218848156252635e-06
-0.00013982278025837208   2.737126718765394e-05   7.520841016918096e-05
-0.00013982278025837208   2.737126718765394e-05   7.520841016918096e-05
-0.00013982278025837208   2.737126718765394e-05   7.520841016918096e-05
-0.00013982278025837208   2.737126718765394e-05   7.520841016918096e-05
-9.759968222073311e-05   2.6126389757887003e-05   0.00015991955742248633
-9.759968222073311e-05   2.6126389757887003e-05   0.00015991955742248633
-9.759968222073311e-05   2.6126389757887003e-05   0.00015991955742248633
-9.759968222073311e-05   2.6126389757887003e-05   0.00015991955742248633
-0.00019011828578484953   2.5895759339027158e-05   5.583506564309573e-06
-0.00019011828578484953   2.5895759339027158e-05   5.583506564309573e-06
-0.00019011828578484953   2.5895759339027158e-05   5.583506564309573e-06
-0.00019011828578484953   2.5895759339027158e-05   5.583506564309573e-06
-0.0001949529868818   2.4138955284270028e-05   0.00016493217417242693
-0.0001949529868818   2.4138955284270028e-05   0.00016493217417242693
-0.0001949529868818   2.4138955284270028e-05   0.00016493217417242693
-0.0001949529868818   2.4138955284270028e-05   0.00016493217417242693
-0.00010189260635091806   2.374308573463435e-05   1.0069061684071616e-05
-0.00010189260635091806   2.374308573463435e-05   1.0069061684071616e-05
-0.00010189260635091806   2.374308573463435e-05   1.0069061684071616e-05
-0.00010189260635091806   2.374308573463435e-05   1.0069061684071616e-05
-0.0001450712499598025   2.59623959475222e-05   8.070188157115231e-05
-0.0001450712499598025   2.59623959475222e-05   8.070188157115231e-05
-0.0001450712499598025   2.59623959475222e-05   8.070188157115231e-05
-0.0001450712499598025   2.59623959475222e-05   8.070188157115231e-05
-0.00018047716436615042   4.7521351592546765e-05   7.202052538418397e-05
-0.00018047716436615042   4.7521351592546765e-05   7.202052538418397e-05
-0.00018047716436615042   4.7521351592546765e-05   7.202052538418397e-05
-0.00018047716436615042   4.7521351592546765e-05   7.202052538418397e-05
-0.00026676328174340177   4.2523360852340236e-05   -7.478846468869215e-05
-0.00026676328174340177   4.2523360852340236e-05   -7.478846468869215e-05
-0.00026676328174340177   4.2523360852340236e-05   -7.478846468869215e-05
-0.00026676328174340177   4.2523360852340236e-05   -7.478846468869215e-05
-0.00027395953845909995   4.8402916536769564e-05   9.967697945712645e-05
-0.00027395953845909995   4.8402916536769564e-05   9.967697945712645e-05
-0.00027395953845909995   4.8402916536769564e-05   9.967697945712645e-05
-0.00027395953845909995   4.8402916536769564e-05   9.967697945712645e-05
-0.00018504804706094698   4.29497429569603e-05   -4.523693539190969e-05
-0.00018504804706094698   4.29497429569603e-05   -4.523693539190969e-05
-0.00018504804706094698   4.29497429569603e-05   -4.523693539190969e-05
-0.00018504804706094698   4.29497429569603e-05   -4.523693539190969e-05
-0.00021789077917936842   4.5099256255287656e-05   8.211243493131412e-06
-0.00021789077917936842   4.5099256255287656e-05   8.211243493131412e-06
-0.00021789077917936842   4.5099256255287656e-05   8.211243493131412e-06
-0.00021789077917936842   4.5099256255287656e-05   8.211243493131412e-06
-0.00018504804706094655   4.8402916536769564e-05   0.00010294888360501322
-0.00018504804706094655   4.8402916536769564e-05   0.00010294888360501322
-0.00018504804706094655   4.8402916536769564e-05   0.00010294888360501322
-0.00018504804706094655   4.8402916536769564e-05   0.00010294888360501322
-0.00027395953845910103   4.29497429569603e-05   -4.8508839539794946e-05
-0.00027395953845910103   4.29497429569603e-05   -4.8508839539794946e-05
-0.00027395953845910103   4.29497429569603e-05   -4.8508839539794946e-05
-0.00027395953845910103   4.29497429569603e-05   -4.8508839539794946e-05
-0.00028099264532914796   4.804434692995234e-05   0.00012128361692100454
-0.00028099264532914796   4.804434692995234e-05   0.00012128361692100454
-0.00028099264532914796   4.804434692995234e-05   0.00012128361692100454
-0.00028099264532914796   4.804434692995234e-05   0.00012128361692100454
-0.00019011828578484986   4.247011957900747e-05   -2.6829112575592643e-05
-0.00019011828578484986   4.247011957900747e-05   -2.6829112575592643e-05
-0.00019011828578484986   4.247011957900747e-05   -2.6829112575592643e-05
-0.00019011828578484986   4.247011957900747e-05   -2.6829112575592643e-05
-0.00022668805833569468   4.591288766515357e-05   3.2054847490797485e-05
-0.00022668805833569468   4.591288766515357e-05   3.2054847490797485e-05
-0.00022668805833569468   4.591288766515357e-05   3.2054847490797485e-05
-0.00022668805833569468   4.591288766515357e-05   3.2054847490797485e-05
-0.00019011828578484986   4.804434692995234e-05   0.00012462815333157216
-0.00019011828578484986   4.804434692995234e-05   0.00012462815333157216
-0.00019011828578484986   4.804434692995234e-05   0.00012462815333157216
-0.00019011828578484986   4.804434692995234e-05   0.00012462815333157216
-0.0002809926453291488   4.247011957900747e-05   -3.017364898615961e-05
-0.0002809926453291488   4.247011957900747e-05   -3.017364898615961e-05
-0.0002809926453291488   4.247011957900747e-05   -3.017364898615961e-05
-0.0002809926453291488   4.247011957900747e-05   -3.017364898615961e-05
-0.00028921284014697115   4.419807499240515e-05   0.00015833967976599996
-0.00028921284014697115   4.419807499240515e-05   0.00015833967976599996
-0.00028921284014697115   4.419807499240515e-05   0.00015833967976599996
-0.00028921284014697115   4.419807499240515e-05   0.00015833967976599996
-0.0001949529868818   3.91777750407777e-05   4.252104295023517e-06
-0.0001949529868818   3.91777750407777e-05   4.252104295023517e-06
-0.0001949529868818   3.91777750407777e-05   4.252104295023517e-06
-0.0001949529868818   3.91777750407777e-05   4.252104295023517e-06
-0.00022898866495320248   4.455609962124123e-05   5.775123966575424e-05
-0.00022898866495320248   4.455609962124123e-05   5.775123966575424e-05
-0.00022898866495320248   4.455609962124123e-05   5.775123966575424e-05
-0.00022898866495320248   4.455609962124123e-05   5.775123966575424e-05
0.00015472739815384874   -2.0924951417254298e-05   0.00013181055493496473
0.00015472739815384874   -2.0924951417254298e-05   0.00013181055493496473
0.00015472739815384874   -2.0924951417254298e-05   0.00013181055493496473
0.00015472739815384874   -2.0924951417254298e-05   0.00013181055493496473
7.289495278273771e-05   -1.3755803392704637e-05   -2.753652021576791e-07
7.289495278273771e-05   -1.3755803392704637e-05   -2.753652021576791e-07
7.289495278273771e-05   -1.3755803392704637e-05   -2.753652021576791e-07
7.289495278273771e-05   -1.3755803392704637e-05   -2.753652021576791e-07
6.939070811559371e-05   -2.430399840452034e-05   0.00011587985439273293
6.939070811559371e-05   -2.430399840452034e-05   0.00011587985439273293
6.939070811559371e-05   -2.430399840452034e-05   0.00011587985439273293
6.939070811559371e-05   -2.430399840452034e-05   0.00011587985439273293
0.00014795158438277802   -1.672269840166836e-05   -1.96037193876176e-05
0.00014795158438277802   -1.672269840166836e-05   -1.96037193876176e-05
0.00014795158438277802   -1.672269840166836e-05   -1.96037193876176e-05
0.00014795158438277802   -1.672269840166836e-05   -1.96037193876176e-05
0.0001060060802018291   -1.907624499360161e-05   5.1717582202456824e-05
0.0001060060802018291   -1.907624499360161e-05   5.1717582202456824e-05
0.0001060060802018291   -1.907624499360161e-05   5.1717582202456824e-05
0.0001060060802018291   -1.907624499360161e-05   5.1717582202456824e-05
0.00014795158438277802   -2.430399840452034e-05   0.00011133107439102296
0.00014795158438277802   -2.430399840452034e-05   0.00011133107439102296
0.00014795158438277802   -2.430399840452034e-05   0.00011133107439102296
0.00014795158438277802   -2.430399840452034e-05   0.00011133107439102296
6.939070811559384e-05   -1.672269840166836e-05   -1.5054939385906324e-05
6.939070811559384e-05   -1.672269840166836e-05   -1.5054939385906324e-05
6.939070811559384e-05   -1.672269840166836e-05   -1.5054939385906324e-05
6.939070811559384e-05   -1.672269840166836e-05   -1.5054939385906324e-05
6.55269740637692e-05   -2.4987480071647986e-05   0.00010467523782190218
6.55269740637692e-05   -2.4987480071647986e-05   0.00010467523782190218
6.55269740637692e-05   -2.4987480071647986e-05   0.00010467523782190218
6.55269740637692e-05   -2.4987480071647986e-05   0.00010467523782190218
0.00014201850235010286   -1.7519316246676978e-05   -2.729154095030314e-05
0.00014201850235010286   -1.7519316246676978e-05   -2.729154095030314e-05
0.00014201850235010286   -1.7519316246676978e-05   -2.729154095030314e-05
0.00014201850235010286   -1.7519316246676978e-05   -2.729154095030314e-05
0.00010317004940377778   -2.0277742435969442e-05   3.911093634048304e-05
0.00010317004940377778   -2.0277742435969442e-05   3.911093634048304e-05
0.00010317004940377778   -2.0277742435969442e-05   3.911093634048304e-05
0.00010317004940377778   -2.0277742435969442e-05   3.911093634048304e-05
0.0001420185023501026   -2.498748007164972e-05   0.0001001943395269201
0.0001420185023501026   -2.498748007164972e-05   0.0001001943395269201
0.0001420185023501026   -2.498748007164972e-05   0.0001001943395269201
0.0001420185023501026   -2.498748007164972e-05   0.0001001943395269201
6.552697406376931e-05   -1.7519316246676978e-05   -2.281064265531943e-05
6.552697406376931e-05   -1.7519316246676978e-05   -2.281064265531943e-05
6.552697406376931e-05   -1.7519316246676978e-05   -2.281064265531943e-05
6.552697406376931e-05   -1.7519316246676978e-05   -2.281064265531943e-05
6.196164677279577e-05   -2.528742939737587e-05   8.953791551975527e-05
6.196164677279577e-05   -2.528742939737587e-05   8.953791551975527e-05
6.196164677279577e-05   -2.528742939737587e-05   8.953791551975527e-05
6.196164677279577e-05   -2.528742939737587e-05   8.953791551975527e-05
0.00013539710114558813   -1.828242770557549e-05   -3.705750944997993e-05
0.00013539710114558813   -1.828242770557549e-05   -3.705750944997993e-05
0.00013539710114558813   -1.828242770557549e-05   -3.705750944997993e-05
0.00013539710114558813   -1.828242770557549e-05   -3.705750944997993e-05
9.700529204633362e-05   -2.017118997627021e-05   2.8062096411197226e-05
9.700529204633362e-05   -2.017118997627021e-05   2.8062096411197226e-05
9.700529204633362e-05   -2.017118997627021e-05   2.8062096411197226e-05
9.700529204633362e-05   -2.017118997627021e-05   2.8062096411197226e-05
7.289495278273747e-05   -3.9929465577726725e-06   0.00015034610264648158
7.289495278273747e-05   -3.9929465577726725e-06   0.00015034610264648158
7.289495278273747e-05   -3.9929465577726725e-06   0.00015034610264648158
7.289495278273747e-05   -3.9929465577726725e-06   0.00015034610264648158
-4.591163145110564e-06   -3.1992431807903454e-08   2.3579148575645845e-05
-4.591163145110564e-06   -3.1992431807903454e-08   2.3579148575645845e-05
-4.591163145110564e-06   -3.1992431807903454e-08   2.3579148575645845e-05
-4.591163145110564e-06   -3.1992431807903454e-08   2.3579148575645845e-05
-7.883349705141017e-06   -6.3949317256496024e-06   0.00015063054332219074
-7.883349705141017e-06   -6.3949317256496024e-06   0.00015063054332219074
-7.883349705141017e-06   -6.3949317256496024e-06   0.00015063054332219074
-7.883349705141017e-06   -6.3949317256496024e-06   0.00015063054332219074
6.939070811559384e-05   -2.6197380014417876e-06   1.9575330719775433e-05
6.939070811559384e-05   -2.6197380014417876e-06   1.9575330719775433e-05
6.939070811559384e-05   -2.6197380014417876e-06   1.9575330719775433e-05
6.939070811559384e-05   -2.6197380014417876e-06   1.9575330719775433e-05
3.1928282745349726e-05   -3.3526863745941826e-06   8.245247536073992e-05
3.1928282745349726e-05   -3.3526863745941826e-06   8.245247536073992e-05
3.1928282745349726e-05   -3.3526863745941826e-06   8.245247536073992e-05
3.1928282745349726e-05   -3.3526863745941826e-06   8.245247536073992e-05
6.939070811559363e-05   -6.3949317256496024e-06   0.0001483654270876657
6.939070811559363e-05   -6.3949317256496024e-06   0.0001483654270876657
6.939070811559363e-05   -6.3949317256496024e-06   0.0001483654270876657
6.939070811559363e-05   -6.3949317256496024e-06   0.0001483654270876657
-7.883349705141017e-06   -2.6197380014417876e-06   2.1840446954299493e-05
-7.883349705141017e-06   -2.6197380014417876e-06   2.1840446954299493e-05
-7.883349705141017e-06   -2.6197380014417876e-06   2.1840446954299493e-05
-7.883349705141017e-06   -2.6197380014417876e-06   2.1840446954299493e-05
-1.1244643669983947e-05   -8.186733106659017e-06   0.00014839974452109366
-1.1244643669983947e-05   -8.186733106659017e-06   0.00014839974452109366
-1.1244643669983947e-05   -8.186733106659017e-06   0.00014839974452109366
-1.1244643669983947e-05   -8.186733106659017e-06   0.00014839974452109366
6.552697406376931e-05   -4.66633955919539e-06   1.8334812169694322e-05
6.552697406376931e-05   -4.66633955919539e-06   1.8334812169694322e-05
6.552697406376931e-05   -4.66633955919539e-06   1.8334812169694322e-05
6.552697406376931e-05   -4.66633955919539e-06   1.8334812169694322e-05
2.8241811766043344e-05   -4.953288841733766e-06   8.06489189020983e-05
2.8241811766043344e-05   -4.953288841733766e-06   8.06489189020983e-05
2.8241811766043344e-05   -4.953288841733766e-06   8.06489189020983e-05
2.8241811766043344e-05   -4.953288841733766e-06   8.06489189020983e-05
6.55269740637692e-05   -8.186733106657282e-06   0.00014628750839261635
6.55269740637692e-05   -8.186733106657282e-06   0.00014628750839261635
6.55269740637692e-05   -8.186733106657282e-06   0.00014628750839261635
6.55269740637692e-05   -8.186733106657282e-06   0.00014628750839261635
-1.1244643669983947e-05   -4.66633955919539e-06   2.0447048298171712e-05
-1.1244643669983947e-05   -4.66633955919539e-06   2.0447048298171712e-05
-1.1244643669983947e-05   -4.66633955919539e-06   2.0447048298171712e-05
-1.1244643669983947e-05   -4.66633955919539e-06   2.0447048298171712e-05
-1.462359906305433e-05   -9.609208728132701e-06   0.0001494720056015664
-1.462359906305433e-05   -9.609208728132701e-06   0.0001494720056015664
-1.462359906305433e-05   -9.609208728132701e-06   0.0001494720056015664
-1.462359906305433e-05   -9.609208728132701e-06   0.0001494720056015664
6.196164677279583e-05   -6.5702270299105095e-06   2.0006540189548892e-05
6.196164677279583e-05   -6.5702270299105095e-06   2.0006540189548892e-05
6.196164677279583e-05   -6.5702270299105095e-06   2.0006540189548892e-05
6.196164677279583e-05   -6.5702270299105095e-06   2.0006540189548892e-05
2.5416434132891205e-05   -6.146297222526381e-06   8.066087003829605e-05
2.5416434132891205e-05   -6.146297222526381e-06   8.066087003829605e-05
2.5416434132891205e-05   -6.146297222526381e-06   8.066087003829605e-05
2.5416434132891205e-05   -6.146297222526381e-06   8.066087003829605e-05
-4.591163145110618e-06   1.303421009217487e-05   0.0001592576899568333
-4.591163145110618e-06   1.303421009217487e-05   0.0001592576899568333
-4.591163145110618e-06   1.303421009217487e-05   0.0001592576899568333
-4.591163145110618e-06   1.303421009217487e-05   0.0001592576899568333
-8.045251964753047e-05   1.3400841279039705e-05   3.304207449825267e-05
-8.045251964753047e-05   1.3400841279039705e-05   3.304207449825267e-05
-8.045251964753047e-05   1.3400841279039705e-05   3.304207449825267e-05
-8.045251964753047e-05   1.3400841279039705e-05   3.304207449825267e-05
-8.376012513188033e-05   1.102682214056995e-05   0.00015877521677699034
-8.376012513188033e-05   1.102682214056995e-05   0.00015877521677699034
-8.376012513188033e-05   1.102682214056995e-05   0.00015877521677699034
-8.376012513188033e-05   1.102682214056995e-05   0.00015877521677699034
-7.883349705141017e-06   1.1119394199165904e-05   3.225838116393501e-05
-7.883349705141017e-06   1.1119394199165904e-05   3.225838116393501e-05
-7.883349705141017e-06   1.1119394199165904e-05   3.225838116393501e-05
-7.883349705141017e-06   1.1119394199165904e-05   3.225838116393501e-05
-4.428692831648338e-05   1.1937577849802788e-05   9.244010199245642e-05
-4.428692831648338e-05   1.1937577849802788e-05   9.244010199245642e-05
-4.428692831648338e-05   1.1937577849802788e-05   9.244010199245642e-05
-4.428692831648338e-05   1.1937577849802788e-05   9.244010199245642e-05
-7.883349705141017e-06   1.1026822140571685e-05   0.00015871967354183416
-7.883349705141017e-06   1.1026822140571685e-05   0.00015871967354183416
-7.883349705141017e-06   1.1026822140571685e-05   0.00015871967354183416
-7.883349705141017e-06   1.1026822140571685e-05   0.00015871967354183416
-8.376012513188033e-05   1.1119394199165904e-05   3.231392439909152e-05
-8.376012513188033e-05   1.1119394199165904e-05   3.231392439909152e-05
-8.376012513188033e-05   1.1119394199165904e-05   3.231392439909152e-05
-8.376012513188033e-05   1.1119394199165904e-05   3.231392439909152e-05
-8.715158058584193e-05   9.077259447824032e-06   0.00015966232739586354
-8.715158058584193e-05   9.077259447824032e-06   0.00015966232739586354
-8.715158058584193e-05   9.077259447824032e-06   0.00015966232739586354
-8.715158058584193e-05   9.077259447824032e-06   0.00015966232739586354
-1.1244643669983947e-05   8.87379967821466e-06   3.327284173119949e-05
-1.1244643669983947e-05   8.87379967821466e-06   3.327284173119949e-05
-1.1244643669983947e-05   8.87379967821466e-06   3.327284173119949e-05
-1.1244643669983947e-05   8.87379967821466e-06   3.327284173119949e-05
-4.7360027047184974e-05   1.0400257621709375e-05   9.254927259377409e-05
-4.7360027047184974e-05   1.0400257621709375e-05   9.254927259377409e-05
-4.7360027047184974e-05   1.0400257621709375e-05   9.254927259377409e-05
-4.7360027047184974e-05   1.0400257621709375e-05   9.254927259377409e-05
-1.1244643669983947e-05   9.077259447824032e-06   0.00015978440325763003
-1.1244643669983947e-05   9.077259447824032e-06   0.00015978440325763003
-1.1244643669983947e-05   9.077259447824032e-06   0.00015978440325763003
-1.1244643669983947e-05   9.077259447824032e-06   0.00015978440325763003
-8.715158058584193e-05   8.87379967821466e-06   3.315076586943343e-05
-8.715158058584193e-05   8.87379967821466e-06   3.315076586943343e-05
-8.715158058584193e-05   8.87379967821466e-06   3.315076586943343e-05
-8.715158058584193e-05   8.87379967821466e-06   3.315076586943343e-05
-9.054283162979963e-05   7.341372953195355e-06   0.00016167312664910546
-9.054283162979963e-05   7.341372953195355e-06   0.00016167312664910546
-9.054283162979963e-05   7.341372953195355e-06   0.00016167312664910546
-9.054283162979963e-05   7.341372953195355e-06   0.00016167312664910546
-1.462359906305433e-05   6.742327927041977e-06   3.550049938688888e-05
-1.462359906305433e-05   6.742327927041977e-06   3.550049938688888e-05
-1.462359906305433e-05   6.742327927041977e-06   3.550049938688888e-05
-1.462359906305433e-05   6.742327927041977e-06   3.550049938688888e-05
-5.0576224219349615e-05   8.901270608570669e-06   9.412617570513343e-05
-5.0576224219349615e-05   8.901270608570669e-06   9.412617570513343e-05
-5.0576224219349615e-05   8.901270608570669e-06   9.412617570513343e-05
-5.0576224219349615e-05   8.901270608570669e-06   9.412617570513343e-05
-8.045251964753047e-05   2.9588037526083466e-05   0.00013999298397030565
-8.045251964753047e-05   2.9588037526083466e-05   0.00013999298397030565
-8.045251964753047e-05   2.9588037526083466e-05   0.00013999298397030565
-8.045251964753047e-05   2.9588037526083466e-05   0.00013999298397030565
-0.0001545730246020582   2.631679401207069e-05   1.4496062937683837e-05
-0.0001545730246020582   2.631679401207069e-05   1.4496062937683837e-05
-0.0001545730246020582   2.631679401207069e-05   1.4496062937683837e-05
-0.0001545730246020582   2.631679401207069e-05   1.4496062937683837e-05
-0.0001581301241213237   2.7663405402890764e-05   0.00013905358222602096
-0.0001581301241213237   2.7663405402890764e-05   0.00013905358222602096
-0.0001581301241213237   2.7663405402890764e-05   0.00013905358222602096
-0.0001581301241213237   2.7663405402890764e-05   0.00013905358222602096
-8.376012513188044e-05   2.412521133689661e-05   1.722650034987846e-05
-8.376012513188044e-05   2.412521133689661e-05   1.722650034987846e-05
-8.376012513188044e-05   2.412521133689661e-05   1.722650034987846e-05
-8.376012513188044e-05   2.412521133689661e-05   1.722650034987846e-05
-0.00011883681608623238   2.6580370571488432e-05   7.421455639971164e-05
-0.00011883681608623238   2.6580370571488432e-05   7.421455639971164e-05
-0.00011883681608623238   2.6580370571488432e-05   7.421455639971164e-05
-0.00011883681608623238   2.6580370571488432e-05   7.421455639971164e-05
-8.376012513188033e-05   2.7663405402890764e-05   0.00014117649866561815
-8.376012513188033e-05   2.7663405402890764e-05   0.00014117649866561815
-8.376012513188033e-05   2.7663405402890764e-05   0.00014117649866561815
-8.376012513188033e-05   2.7663405402890764e-05   0.00014117649866561815
-0.0001581301241213237   2.412521133689661e-05   1.5103583910281923e-05
-0.0001581301241213237   2.412521133689661e-05   1.5103583910281923e-05
-0.0001581301241213237   2.412521133689661e-05   1.5103583910281923e-05
-0.0001581301241213237   2.412521133689661e-05   1.5103583910281923e-05
-0.00016204909414602273   2.5895759339027158e-05   0.00014425863365010849
-0.00016204909414602273   2.5895759339027158e-05   0.00014425863365010849
-0.00016204909414602273   2.5895759339027158e-05   0.00014425863365010849
-0.00016204909414602273   2.5895759339027158e-05   0.00014425863365010849
-8.715158058584204e-05   2.2089431703046017e-05   2.1713240964728667e-05
-8.715158058584204e-05   2.2089431703046017e-05   2.1713240964728667e-05
-8.715158058584204e-05   2.2089431703046017e-05   2.1713240964728667e-05
-8.715158058584204e-05   2.2089431703046017e-05   2.1713240964728667e-05
-0.00012140352525648334   2.51783493511841e-05   7.694646482691919e-05
-0.00012140352525648334   2.51783493511841e-05   7.694646482691919e-05
-0.00012140352525648334   2.51783493511841e-05   7.694646482691919e-05
-0.00012140352525648334   2.51783493511841e-05   7.694646482691919e-05
-8.715158058584204e-05   2.5895759339027158e-05   0.000146542430231697
-8.715158058584204e-05   2.5895759339027158e-05   0.000146542430231697
-8.715158058584204e-05   2.5895759339027158e-05   0.000146542430231697
-8.715158058584204e-05   2.5895759339027158e-05   0.000146542430231697
-0.00016204909414602273   2.2089431703046017e-05   1.9429444383140156e-05
-0.00016204909414602273   2.2089431703046017e-05   1.9429444383140156e-05
-0.00016204909414602273   2.2089431703046017e-05   1.9429444383140156e-05
-0.00016204909414602273   2.2089431703046017e-05   1.9429444383140156e-05
-0.00016563616865710308   2.374308573463435e-05   0.00014819767347089372
-0.00016563616865710308   2.374308573463435e-05   0.00014819767347089372
-0.00016563616865710308   2.374308573463435e-05   0.00014819767347089372
-0.00016563616865710308   2.374308573463435e-05   0.00014819767347089372
-9.054283162979963e-05   1.9724477502677633e-05   2.545327669789435e-05
-9.054283162979963e-05   1.9724477502677633e-05   2.545327669789435e-05
-9.054283162979963e-05   1.9724477502677633e-05   2.545327669789435e-05
-9.054283162979963e-05   1.9724477502677633e-05   2.545327669789435e-05
-0.00012545967851339095   2.360380271371719e-05   8.132042637726267e-05
-0.00012545967851339095   2.360380271371719e-05   8.132042637726267e-05
-0.00012545967851339095   2.360380271371719e-05   8.132042637726267e-05
-0.00012545967851339095   2.360380271371719e-05   8.132042637726267e-05
-0.0001545730246020582   4.2523360852340236e-05   6.758378929391795e-05
-0.0001545730246020582   4.2523360852340236e-05   6.758378929391795e-05
-0.0001545730246020582   4.2523360852340236e-05   6.758378929391795e-05
-0.0001545730246020582   4.2523360852340236e-05   6.758378929391795e-05
-0.0002248072197722187   3.618663116661865e-05   -5.327524046778217e-05
-0.0002248072197722187   3.618663116661865e-05   -5.327524046778217e-05
-0.0002248072197722187   3.618663116661865e-05   -5.327524046778217e-05
-0.0002248072197722187   3.618663116661865e-05   -5.327524046778217e-05
-0.00023119249495205337   4.29497429569603e-05   8.962744192339729e-05
-0.00023119249495205337   4.29497429569603e-05   8.962744192339729e-05
-0.00023119249495205337   4.29497429569603e-05   8.962744192339729e-05
-0.00023119249495205337   4.29497429569603e-05   8.962744192339729e-05
-0.0001581301241213237   3.598148215137875e-05   -2.796221964447153e-05
-0.0001581301241213237   3.598148215137875e-05   -2.796221964447153e-05
-0.0001581301241213237   3.598148215137875e-05   -2.796221964447153e-05
-0.0001581301241213237   3.598148215137875e-05   -2.796221964447153e-05
-0.00018486787455425016   3.884269236586503e-05   1.4883971615047356e-05
-0.00018486787455425016   3.884269236586503e-05   1.4883971615047356e-05
-0.00018486787455425016   3.884269236586503e-05   1.4883971615047356e-05
-0.00018486787455425016   3.884269236586503e-05   1.4883971615047356e-05
-0.0001581301241213236   4.29497429569603e-05   9.380839840674674e-05
-0.0001581301241213236   4.29497429569603e-05   9.380839840674674e-05
-0.0001581301241213236   4.29497429569603e-05   9.380839840674674e-05
-0.0001581301241213236   4.29497429569603e-05   9.380839840674674e-05
-0.0002311924949520538   3.598148215137875e-05   -3.2143176127819896e-05
-0.0002311924949520538   3.598148215137875e-05   -3.2143176127819896e-05
-0.0002311924949520538   3.598148215137875e-05   -3.2143176127819896e-05
-0.0002311924949520538   3.598148215137875e-05   -3.2143176127819896e-05
-0.00023691652789300556   4.247011957900747e-05   0.00010750806172835428
-0.00023691652789300556   4.247011957900747e-05   0.00010750806172835428
-0.00023691652789300556   4.247011957900747e-05   0.00010750806172835428
-0.00023691652789300556   4.247011957900747e-05   0.00010750806172835428
-0.00016204909414602273   3.5240198275921474e-05   -1.2933041734766813e-05
-0.00016204909414602273   3.5240198275921474e-05   -1.2933041734766813e-05
-0.00016204909414602273   3.5240198275921474e-05   -1.2933041734766813e-05
-0.00016204909414602273   3.5240198275921474e-05   -1.2933041734766813e-05
-0.00019217247222088425   3.9262834629662235e-05   3.485900657776561e-05
-0.00019217247222088425   3.9262834629662235e-05   3.485900657776561e-05
-0.00019217247222088425   3.9262834629662235e-05   3.485900657776561e-05
-0.00019217247222088425   3.9262834629662235e-05   3.485900657776561e-05
-0.00016204909414602273   4.247011957900747e-05   0.00011184601451020692
-0.00016204909414602273   4.247011957900747e-05   0.00011184601451020692
-0.00016204909414602273   4.247011957900747e-05   0.00011184601451020692
-0.00016204909414602273   4.247011957900747e-05   0.00011184601451020692
-0.000236916527893006   3.5240198275921474e-05   -1.7270994516618583e-05
-0.000236916527893006   3.5240198275921474e-05   -1.7270994516618583e-05
-0.000236916527893006   3.5240198275921474e-05   -1.7270994516618583e-05
-0.000236916527893006   3.5240198275921474e-05   -1.7270994516618583e-05
-0.00024350039925847351   3.91777750407777e-05   0.00013830533221560228
-0.00024350039925847351   3.91777750407777e-05   0.00013830533221560228
-0.00024350039925847351   3.91777750407777e-05   0.00013830533221560228
-0.00024350039925847351   3.91777750407777e-05   0.00013830533221560228
-0.00016563616865710308   3.198959904740506e-05   1.2844520142674511e-05
-0.00016563616865710308   3.198959904740506e-05   1.2844520142674511e-05
-0.00016563616865710308   3.198959904740506e-05   1.2844520142674511e-05
-0.00016563616865710308   3.198959904740506e-05   1.2844520142674511e-05
-0.00019379059554997647   3.791740330808327e-05   5.621188240772699e-05
-0.00019379059554997647   3.791740330808327e-05   5.621188240772699e-05
-0.00019379059554997647   3.791740330808327e-05   5.621188240772699e-05
-0.00019379059554997647   3.791740330808327e-05   5.621188240772699e-05
0.0001060397081028905   -1.375580339270377e-05   0.00010691909855183208
0.0001060397081028905   -1.375580339270377e-05   0.00010691909855183208
0.0001060397081028905   -1.375580339270377e-05   0.00010691909855183208
0.0001060397081028905   -1.375580339270377e-05   0.00010691909855183208
4.3964672078666904e-05   -6.681149770160384e-06   7.705497351653129e-06
4.3964672078666904e-05   -6.681149770160384e-06   7.705497351653129e-06
4.3964672078666904e-05   -6.681149770160384e-06   7.705497351653129e-06
4.3964672078666904e-05   -6.681149770160384e-06   7.705497351653129e-06
4.1153458550964144e-05   -1.672269840166836e-05   9.619508495614399e-05
4.1153458550964144e-05   -1.672269840166836e-05   9.619508495614399e-05
4.1153458550964144e-05   -1.672269840166836e-05   9.619508495614399e-05
4.1153458550964144e-05   -1.672269840166836e-05   9.619508495614399e-05
0.00010006503537010142   -9.325802242972706e-06   -6.4290141043024315e-06
0.00010006503537010142   -9.325802242972706e-06   -6.4290141043024315e-06
0.00010006503537010142   -9.325802242972706e-06   -6.4290141043024315e-06
0.00010006503537010142   -9.325802242972706e-06   -6.4290141043024315e-06
6.917939494599867e-05   -1.1905961168788212e-05   4.659514862469386e-05
6.917939494599867e-05   -1.1905961168788212e-05   4.659514862469386e-05
6.917939494599867e-05   -1.1905961168788212e-05   4.659514862469386e-05
6.917939494599867e-05   -1.1905961168788212e-05   4.659514862469386e-05
0.00010006503537010158   -1.672269840166836e-05   9.175694726092781e-05
0.00010006503537010158   -1.672269840166836e-05   9.175694726092781e-05
0.00010006503537010158   -1.672269840166836e-05   9.175694726092781e-05
0.00010006503537010158   -1.672269840166836e-05   9.175694726092781e-05
4.115345855096402e-05   -9.325802242972706e-06   -1.990876409085386e-06
4.115345855096402e-05   -9.325802242972706e-06   -1.990876409085386e-06
4.115345855096402e-05   -9.325802242972706e-06   -1.990876409085386e-06
4.115345855096402e-05   -9.325802242972706e-06   -1.990876409085386e-06
3.8000721409072225e-05   -1.7519316246676978e-05   8.822247621711413e-05
3.8000721409072225e-05   -1.7519316246676978e-05   8.822247621711413e-05
3.8000721409072225e-05   -1.7519316246676978e-05   8.822247621711413e-05
3.8000721409072225e-05   -1.7519316246676978e-05   8.822247621711413e-05
9.494097247082013e-05   -1.0241169964219157e-05   -1.1044829988607883e-05
9.494097247082013e-05   -1.0241169964219157e-05   -1.1044829988607883e-05
9.494097247082013e-05   -1.0241169964219157e-05   -1.1044829988607883e-05
9.494097247082013e-05   -1.0241169964219157e-05   -1.1044829988607883e-05
6.649832256051653e-05   -1.3025967002150939e-05   3.8030464751326345e-05
6.649832256051653e-05   -1.3025967002150939e-05   3.8030464751326345e-05
6.649832256051653e-05   -1.3025967002150939e-05   3.8030464751326345e-05
6.649832256051653e-05   -1.3025967002150939e-05   3.8030464751326345e-05
9.494097247082027e-05   -1.7519316246676978e-05   8.385558844763857e-05
9.494097247082027e-05   -1.7519316246676978e-05   8.385558844763857e-05
9.494097247082027e-05   -1.7519316246676978e-05   8.385558844763857e-05
9.494097247082027e-05   -1.7519316246676978e-05   8.385558844763857e-05
3.800072140907217e-05   -1.0241169964219157e-05   -6.677942219133516e-06
3.800072140907217e-05   -1.0241169964219157e-05   -6.677942219133516e-06
3.800072140907217e-05   -1.0241169964219157e-05   -6.677942219133516e-06
3.800072140907217e-05   -1.0241169964219157e-05   -6.677942219133516e-06
3.517659213622566e-05   -1.828242770557549e-05   7.79065408941463e-05
3.517659213622566e-05   -1.828242770557549e-05   7.79065408941463e-05
3.517659213622566e-05   -1.828242770557549e-05   7.79065408941463e-05
3.517659213622566e-05   -1.828242770557549e-05   7.79065408941463e-05
8.91373375676412e-05   -1.1467117573256067e-05   -1.6117220904271717e-05
8.91373375676412e-05   -1.1467117573256067e-05   -1.6117220904271717e-05
8.91373375676412e-05   -1.1467117573256067e-05   -1.6117220904271717e-05
8.91373375676412e-05   -1.1467117573256067e-05   -1.6117220904271717e-05
6.160203674517801e-05   -1.3256340608634731e-05   3.084848095439385e-05
6.160203674517801e-05   -1.3256340608634731e-05   3.084848095439385e-05
6.160203674517801e-05   -1.3256340608634731e-05   3.084848095439385e-05
6.160203674517801e-05   -1.3256340608634731e-05   3.084848095439385e-05
4.3964672078667066e-05   -3.199243180963818e-08   0.00013264183202758503
4.3964672078667066e-05   -3.199243180963818e-08   0.00013264183202758503
4.3964672078667066e-05   -3.199243180963818e-08   0.00013264183202758503
4.3964672078667066e-05   -3.199243180963818e-08   0.00013264183202758503
-1.4329089636405982e-05   3.54606313471284e-06   3.763239584237549e-05
-1.4329089636405982e-05   3.54606313471284e-06   3.763239584237549e-05
-1.4329089636405982e-05   3.54606313471284e-06   3.763239584237549e-05
-1.4329089636405982e-05   3.54606313471284e-06   3.763239584237549e-05
-1.6910164617062304e-05   -2.6197380014417876e-06   0.00013291317221222378
-1.6910164617062304e-05   -2.6197380014417876e-06   0.00013291317221222378
-1.6910164617062304e-05   -2.6197380014417876e-06   0.00013291317221222378
-1.6910164617062304e-05   -2.6197380014417876e-06   0.00013291317221222378
4.115345855096402e-05   8.599572492206178e-07   3.4052649781781514e-05
4.115345855096402e-05   8.599572492206178e-07   3.4052649781781514e-05
4.115345855096402e-05   8.599572492206178e-07   3.4052649781781514e-05
4.115345855096402e-05   8.599572492206178e-07   3.4052649781781514e-05
1.3055763990910502e-05   2.099453258325168e-07   8.127214786924047e-05
1.3055763990910502e-05   2.099453258325168e-07   8.127214786924047e-05
1.3055763990910502e-05   2.099453258325168e-07   8.127214786924047e-05
1.3055763990910502e-05   2.099453258325168e-07   8.127214786924047e-05
4.115345855096413e-05   -2.619738001442655e-06   0.00013082535506182564
4.115345855096413e-05   -2.619738001442655e-06   0.00013082535506182564
4.115345855096413e-05   -2.619738001442655e-06   0.00013082535506182564
4.115345855096413e-05   -2.619738001442655e-06   0.00013082535506182564
-1.6910164617062358e-05   8.599572492214852e-07   3.6140466932180464e-05
-1.6910164617062358e-05   8.599572492214852e-07   3.6140466932180464e-05
-1.6910164617062358e-05   8.599572492214852e-07   3.6140466932180464e-05
-1.6910164617062358e-05   8.599572492214852e-07   3.6140466932180464e-05
-1.9548071991038385e-05   -4.66633955919539e-06   0.00013136102090714492
-1.9548071991038385e-05   -4.66633955919539e-06   0.00013136102090714492
-1.9548071991038385e-05   -4.66633955919539e-06   0.00013136102090714492
-1.9548071991038385e-05   -4.66633955919539e-06   0.00013136102090714492
3.800072140907217e-05   -1.3445231174975814e-06   3.345327537527607e-05
3.800072140907217e-05   -1.3445231174975814e-06   3.345327537527607e-05
3.800072140907217e-05   -1.3445231174975814e-06   3.345327537527607e-05
3.800072140907217e-05   -1.3445231174975814e-06   3.345327537527607e-05
1.0222692866692126e-05   -1.5855383167966489e-06   7.989459873215978e-05
1.0222692866692126e-05   -1.5855383167966489e-06   7.989459873215978e-05
1.0222692866692126e-05   -1.5855383167966489e-06   7.989459873215978e-05
1.0222692866692126e-05   -1.5855383167966489e-06   7.989459873215978e-05
3.800072140907229e-05   -4.66633955919539e-06   0.0001293679310421271
3.800072140907229e-05   -4.66633955919539e-06   0.0001293679310421271
3.800072140907229e-05   -4.66633955919539e-06   0.0001293679310421271
3.800072140907229e-05   -4.66633955919539e-06   0.0001293679310421271
-1.9548071991038385e-05   -1.3445231174975814e-06   3.5446365240293914e-05
-1.9548071991038385e-05   -1.3445231174975814e-06   3.5446365240293914e-05
-1.9548071991038385e-05   -1.3445231174975814e-06   3.5446365240293914e-05
-1.9548071991038385e-05   -1.3445231174975814e-06   3.5446365240293914e-05
-2.2163014961945648e-05   -6.5702270299105095e-06   0.00013259459365685
-2.2163014961945648e-05   -6.5702270299105095e-06   0.00013259459365685
-2.2163014961945648e-05   -6.5702270299105095e-06   0.00013259459365685
-2.2163014961945648e-05   -6.5702270299105095e-06   0.00013259459365685
3.517659213622551e-05   -3.525220132812902e-06   3.520157768830757e-05
3.517659213622551e-05   -3.525220132812902e-06   3.520157768830757e-05
3.517659213622551e-05   -3.525220132812902e-06   3.520157768830757e-05
3.517659213622551e-05   -3.525220132812902e-06   3.520157768830757e-05
7.976785805048506e-06   -3.0903216197411196e-06   8.027364913242577e-05
7.976785805048506e-06   -3.0903216197411196e-06   8.027364913242577e-05
7.976785805048506e-06   -3.0903216197411196e-06   8.027364913242577e-05
7.976785805048506e-06   -3.0903216197411196e-06   8.027364913242577e-05
-1.4329089636405928e-05   1.3400841279040572e-05   0.0001440316125779842
-1.4329089636405928e-05   1.3400841279040572e-05   0.0001440316125779842
-1.4329089636405928e-05   1.3400841279040572e-05   0.0001440316125779842
-1.4329089636405928e-05   1.3400841279040572e-05   0.0001440316125779842
-7.16789949701984e-05   1.3165337558494056e-05   4.8307134789336414e-05
-7.16789949701984e-05   1.3165337558494056e-05   4.8307134789336414e-05
-7.16789949701984e-05   1.3165337558494056e-05   4.8307134789336414e-05
-7.16789949701984e-05   1.3165337558494056e-05   4.8307134789336414e-05
-7.422313377234509e-05   1.1119394199165904e-05   0.0001430897970013667
-7.422313377234509e-05   1.1119394199165904e-05   0.0001430897970013667
-7.422313377234509e-05   1.1119394199165904e-05   0.0001430897970013667
-7.422313377234509e-05   1.1119394199165904e-05   0.0001430897970013667
-1.6910164617062304e-05   1.0717211831679299e-05   4.7809491163053916e-05
-1.6910164617062304e-05   1.0717211831679299e-05   4.7809491163053916e-05
-1.6910164617062304e-05   1.0717211831679299e-05   4.7809491163053916e-05
-1.6910164617062304e-05   1.0717211831679299e-05   4.7809491163053916e-05
-4.439510534452303e-05   1.180580931455736e-05   9.296456721909793e-05
-4.439510534452303e-05   1.180580931455736e-05   9.296456721909793e-05
-4.439510534452303e-05   1.180580931455736e-05   9.296456721909793e-05
-4.439510534452303e-05   1.180580931455736e-05   9.296456721909793e-05
-1.6910164617062304e-05   1.1119394199165904e-05   0.00014333110642185832
-1.6910164617062304e-05   1.1119394199165904e-05   0.00014333110642185832
-1.6910164617062304e-05   1.1119394199165904e-05   0.00014333110642185832
-1.6910164617062304e-05   1.1119394199165904e-05   0.00014333110642185832
-7.422313377234509e-05   1.0717211831678432e-05   4.756818174256284e-05
-7.422313377234509e-05   1.0717211831678432e-05   4.756818174256284e-05
-7.422313377234509e-05   1.0717211831678432e-05   4.756818174256284e-05
-7.422313377234509e-05   1.0717211831678432e-05   4.756818174256284e-05
-7.682940111328196e-05   8.87379967821466e-06   0.00014384069753704126
-7.682940111328196e-05   8.87379967821466e-06   0.00014384069753704126
-7.682940111328196e-05   8.87379967821466e-06   0.00014384069753704126
-7.682940111328196e-05   8.87379967821466e-06   0.00014384069753704126
-1.954807199103833e-05   8.296938339659964e-06   4.8717932469767404e-05
-1.954807199103833e-05   8.296938339659964e-06   4.8717932469767404e-05
-1.954807199103833e-05   8.296938339659964e-06   4.8717932469767404e-05
-1.954807199103833e-05   8.296938339659964e-06   4.8717932469767404e-05
-4.672742551142486e-05   1.0025819107604104e-05   9.297952654298215e-05
-4.672742551142486e-05   1.0025819107604104e-05   9.297952654298215e-05
-4.672742551142486e-05   1.0025819107604104e-05   9.297952654298215e-05
-4.672742551142486e-05   1.0025819107604104e-05   9.297952654298215e-05
-1.954807199103833e-05   8.87379967821466e-06   0.0001441868143401727
-1.954807199103833e-05   8.87379967821466e-06   0.0001441868143401727
-1.954807199103833e-05   8.87379967821466e-06   0.0001441868143401727
-1.954807199103833e-05   8.87379967821466e-06   0.0001441868143401727
-7.682940111328196e-05   8.296938339659964e-06   4.837181566663554e-05
-7.682940111328196e-05   8.296938339659964e-06   4.837181566663554e-05
-7.682940111328196e-05   8.296938339659964e-06   4.837181566663554e-05
-7.682940111328196e-05   8.296938339659964e-06   4.837181566663554e-05
-7.940626633535478e-05   6.742327927041977e-06   0.00014579925617261118
-7.940626633535478e-05   6.742327927041977e-06   0.00014579925617261118
-7.940626633535478e-05   6.742327927041977e-06   0.00014579925617261118
-7.940626633535478e-05   6.742327927041977e-06   0.00014579925617261118
-2.2163014961945593e-05   5.965815155964567e-06   5.0859744879574575e-05
-2.2163014961945593e-05   5.965815155964567e-06   5.0859744879574575e-05
-2.2163014961945593e-05   5.965815155964567e-06   5.0859744879574575e-05
-2.2163014961945593e-05   5.965815155964567e-06   5.0859744879574575e-05
-4.916580355809796e-05   8.286860871052106e-06   9.447176511077709e-05
-4.916580355809796e-05   8.286860871052106e-06   9.447176511077709e-05
-4.916580355809796e-05   8.286860871052106e-06   9.447176511077709e-05
-4.916580355809796e-05   8.286860871052106e-06   9.447176511077709e-05
-7.16789949701984e-05   2.6316794012069822e-05   0.00012730704489349615
-7.16789949701984e-05   2.6316794012069822e-05   0.00012730704489349615
-7.16789949701984e-05   2.6316794012069822e-05   0.00012730704489349615
-7.16789949701984e-05   2.6316794012069822e-05   0.00012730704489349615
-0.00012801612841645185   2.2517721092604574e-05   3.113237873139489e-05
-0.00012801612841645185   2.2517721092604574e-05   3.113237873139489e-05
-0.00012801612841645185   2.2517721092604574e-05   3.113237873139489e-05
-0.00012801612841645185   2.2517721092604574e-05   3.113237873139489e-05
-0.00013074240261003287   2.412521133689661e-05   0.0001255998597133115
-0.00013074240261003287   2.412521133689661e-05   0.0001255998597133115
-0.00013074240261003287   2.412521133689661e-05   0.0001255998597133115
-0.00013074240261003287   2.412521133689661e-05   0.0001255998597133115
-7.422313377234476e-05   2.012102260549268e-05   3.380359155600839e-05
-7.422313377234476e-05   2.012102260549268e-05   3.380359155600839e-05
-7.422313377234476e-05   2.012102260549268e-05   3.380359155600839e-05
-7.422313377234476e-05   2.012102260549268e-05   3.380359155600839e-05
-0.00010088094000937863   2.288235174450863e-05   7.657647113432434e-05
-0.00010088094000937863   2.288235174450863e-05   7.657647113432434e-05
-0.00010088094000937863   2.288235174450863e-05   7.657647113432434e-05
-0.00010088094000937863   2.288235174450863e-05   7.657647113432434e-05
-7.422313377234509e-05   2.4125211336897476e-05   0.00012800237295215473
-7.422313377234509e-05   2.4125211336897476e-05   0.00012800237295215473
-7.422313377234509e-05   2.4125211336897476e-05   0.00012800237295215473
-7.422313377234509e-05   2.4125211336897476e-05   0.00012800237295215473
-0.00013074240261003265   2.0121022605493546e-05   3.14010783171656e-05
-0.00013074240261003265   2.0121022605493546e-05   3.14010783171656e-05
-0.00013074240261003265   2.0121022605493546e-05   3.14010783171656e-05
-0.00013074240261003265   2.0121022605493546e-05   3.14010783171656e-05
-0.00013381318836392904   2.2089431703046017e-05   0.00012989483011540716
-0.00013381318836392904   2.2089431703046017e-05   0.00012989483011540716
-0.00013381318836392904   2.2089431703046017e-05   0.00012989483011540716
-0.00013381318836392904   2.2089431703046017e-05   0.00012989483011540716
-7.682940111328163e-05   1.7908860841500153e-05   3.7430193881256724e-05
-7.682940111328163e-05   1.7908860841500153e-05   3.7430193881256724e-05
-7.682940111328163e-05   1.7908860841500153e-05   3.7430193881256724e-05
-7.682940111328163e-05   1.7908860841500153e-05   3.7430193881256724e-05
-0.00010278083397103753   2.1247349441855072e-05   7.867948881730685e-05
-0.00010278083397103753   2.1247349441855072e-05   7.867948881730685e-05
-0.00010278083397103753   2.1247349441855072e-05   7.867948881730685e-05
-0.00010278083397103753   2.1247349441855072e-05   7.867948881730685e-05
-7.682940111328185e-05   2.2089431703046017e-05   0.00013240317263233433
-7.682940111328185e-05   2.2089431703046017e-05   0.00013240317263233433
-7.682940111328185e-05   2.2089431703046017e-05   0.00013240317263233433
-7.682940111328185e-05   2.2089431703046017e-05   0.00013240317263233433
-0.00013381318836392883   1.790886084150102e-05   3.492185136432955e-05
-0.00013381318836392883   1.790886084150102e-05   3.492185136432955e-05
-0.00013381318836392883   1.790886084150102e-05   3.492185136432955e-05
-0.00013381318836392883   1.790886084150102e-05   3.492185136432955e-05
-0.00013654748285482632   1.9724477502677633e-05   0.00013354159704496212
-0.00013654748285482632   1.9724477502677633e-05   0.00013354159704496212
-0.00013654748285482632   1.9724477502677633e-05   0.00013354159704496212
-0.00013654748285482632   1.9724477502677633e-05   0.00013354159704496212
-7.940626633535456e-05   1.5441371745432766e-05   4.0876099633523674e-05
-7.940626633535456e-05   1.5441371745432766e-05   4.0876099633523674e-05
-7.940626633535456e-05   1.5441371745432766e-05   4.0876099633523674e-05
-7.940626633535456e-05   1.5441371745432766e-05   4.0876099633523674e-05
-0.00010585215760953374   1.953262946194096e-05   8.249783046058654e-05
-0.00010585215760953374   1.953262946194096e-05   8.249783046058654e-05
-0.00010585215760953374   1.953262946194096e-05   8.249783046058654e-05
-0.00010585215760953374   1.953262946194096e-05   8.249783046058654e-05
-0.00012801612841645185   3.618663116661865e-05   6.105833554778412e-05
-0.00012801612841645185   3.618663116661865e-05   6.105833554778412e-05
-0.00012801612841645185   3.618663116661865e-05   6.105833554778412e-05
-0.00012801612841645185   3.618663116661865e-05   6.105833554778412e-05
-0.00018069375663148902   2.9455938679393175e-05   -3.077612696961553e-05
-0.00018069375663148902   2.9455938679393175e-05   -3.077612696961553e-05
-0.00018069375663148902   2.9455938679393175e-05   -3.077612696961553e-05
-0.00018069375663148902   2.9455938679393175e-05   -3.077612696961553e-05
-0.00018638336148677306   3.598148215137875e-05   7.814891599621388e-05
-0.00018638336148677306   3.598148215137875e-05   7.814891599621388e-05
-0.00018638336148677306   3.598148215137875e-05   7.814891599621388e-05
-0.00018638336148677306   3.598148215137875e-05   7.814891599621388e-05
-0.00013074240261003243   2.8672915214140136e-05   -1.0200875302675966e-05
-0.00013074240261003243   2.8672915214140136e-05   -1.0200875302675966e-05
-0.00013074240261003243   2.8672915214140136e-05   -1.0200875302675966e-05
-0.00013074240261003243   2.8672915214140136e-05   -1.0200875302675966e-05
-0.00015059894755909168   3.199065872013657e-05   2.090272017549362e-05
-0.00015059894755909168   3.199065872013657e-05   2.090272017549362e-05
-0.00015059894755909168   3.199065872013657e-05   2.090272017549362e-05
-0.00015059894755909168   3.199065872013657e-05   2.090272017549362e-05
-0.00013074240261003265   3.598148215137875e-05   8.25340561585574e-05
-0.00013074240261003265   3.598148215137875e-05   8.25340561585574e-05
-0.00013074240261003265   3.598148215137875e-05   8.25340561585574e-05
-0.00013074240261003265   3.598148215137875e-05   8.25340561585574e-05
-0.00018638336148677328   2.867291521413927e-05   -1.4586015465019916e-05
-0.00018638336148677328   2.867291521413927e-05   -1.4586015465019916e-05
-0.00018638336148677328   2.867291521413927e-05   -1.4586015465019916e-05
-0.00018638336148677328   2.867291521413927e-05   -1.4586015465019916e-05
-0.00019135453674079084   3.5240198275920606e-05   9.303002591747999e-05
-0.00019135453674079084   3.5240198275920606e-05   9.303002591747999e-05
-0.00019135453674079084   3.5240198275920606e-05   9.303002591747999e-05
-0.00019135453674079084   3.5240198275920606e-05   9.303002591747999e-05
-0.0001338131883639286   2.7736334809220706e-05   1.6300967027298857e-06
-0.0001338131883639286   2.7736334809220706e-05   1.6300967027298857e-06
-0.0001338131883639286   2.7736334809220706e-05   1.6300967027298857e-06
-0.0001338131883639286   2.7736334809220706e-05   1.6300967027298857e-06
-0.000156600147347258   3.200103076788415e-05   3.7049544099753036e-05
-0.000156600147347258   3.200103076788415e-05   3.7049544099753036e-05
-0.000156600147347258   3.200103076788415e-05   3.7049544099753036e-05
-0.000156600147347258   3.200103076788415e-05   3.7049544099753036e-05
-0.00013381318836392904   3.5240198275921474e-05   9.753234399749976e-05
-0.00013381318836392904   3.5240198275921474e-05   9.753234399749976e-05
-0.00013381318836392904   3.5240198275921474e-05   9.753234399749976e-05
-0.00013381318836392904   3.5240198275921474e-05   9.753234399749976e-05
-0.00019135453674079084   2.7736334809220706e-05   -2.872221377289881e-06
-0.00019135453674079084   2.7736334809220706e-05   -2.872221377289881e-06
-0.00019135453674079084   2.7736334809220706e-05   -2.872221377289881e-06
-0.00019135453674079084   2.7736334809220706e-05   -2.872221377289881e-06
-0.00019712727844830593   3.198959904740506e-05   0.00011891589071969487
-0.00019712727844830593   3.198959904740506e-05   0.00011891589071969487
-0.00019712727844830593   3.198959904740506e-05   0.00011891589071969487
-0.00019712727844830593   3.198959904740506e-05   0.00011891589071969487
-0.00013654748285482588   2.4609407865371774e-05   2.2377679439781854e-05
-0.00013654748285482588   2.4609407865371774e-05   2.2377679439781854e-05
-0.00013654748285482588   2.4609407865371774e-05   2.2377679439781854e-05
-0.00013654748285482588   2.4609407865371774e-05   2.2377679439781854e-05
-0.0001579844806810397   3.064076336049739e-05   5.4487195853062265e-05
-0.0001579844806810397   3.064076336049739e-05   5.4487195853062265e-05
-0.0001579844806810397   3.064076336049739e-05   5.4487195853062265e-05
-0.0001579844806810397   3.064076336049739e-05   5.4487195853062265e-05
5.8273450954081114e-05   -6.681149770160384e-06   8.377696338763684e-05
5.8273450954081114e-05   -6.681149770160384e-06   8.377696338763684e-05
5.8273450954081114e-05   -6.681149770160384e-06   8.377696338763684e-05
5.8273450954081114e-05   -6.681149770160384e-06   8.377696338763684e-05
1.4998484556233416e-05   2.933308842099566e-07   1.5836707783846698e-05
1.4998484556233416e-05   2.933308842099566e-07   1.5836707783846698e-05
1.4998484556233416e-05   2.933308842099566e-07   1.5836707783846698e-05
1.4998484556233416e-05   2.933308842099566e-07   1.5836707783846698e-05
1.2905615963682837e-05   -9.325802242972706e-06   7.819264259217905e-05
1.2905615963682837e-05   -9.325802242972706e-06   7.819264259217905e-05
1.2905615963682837e-05   -9.325802242972706e-06   7.819264259217905e-05
1.2905615963682837e-05   -9.325802242972706e-06   7.819264259217905e-05
5.310735800075436e-05   -2.0705223628403324e-06   6.836571268981312e-06
5.310735800075436e-05   -2.0705223628403324e-06   6.836571268981312e-06
5.310735800075436e-05   -2.0705223628403324e-06   6.836571268981312e-06
5.310735800075436e-05   -2.0705223628403324e-06   6.836571268981312e-06
3.2754074680496404e-05   -4.780802285037251e-06   4.238487808939912e-05
3.2754074680496404e-05   -4.780802285037251e-06   4.238487808939912e-05
3.2754074680496404e-05   -4.780802285037251e-06   4.238487808939912e-05
3.2754074680496404e-05   -4.780802285037251e-06   4.238487808939912e-05
5.310735800075447e-05   -9.325802242972706e-06   7.383947466409971e-05
5.310735800075447e-05   -9.325802242972706e-06   7.383947466409971e-05
5.310735800075447e-05   -9.325802242972706e-06   7.383947466409971e-05
5.310735800075447e-05   -9.325802242972706e-06   7.383947466409971e-05
1.290561596368281e-05   -2.0705223628403324e-06   1.1189739197061191e-05
1.290561596368281e-05   -2.0705223628403324e-06   1.1189739197061191e-05
1.290561596368281e-05   -2.0705223628403324e-06   1.1189739197061191e-05
1.290561596368281e-05   -2.0705223628403324e-06   1.1189739197061191e-05
1.047109031239648e-05   -1.0241169964219157e-05   7.34423567352151e-05
1.047109031239648e-05   -1.0241169964219157e-05   7.34423567352151e-05
1.047109031239648e-05   -1.0241169964219157e-05   7.34423567352151e-05
1.047109031239648e-05   -1.0241169964219157e-05   7.34423567352151e-05
4.8738530386832754e-05   -3.0967971140025835e-06   5.376666234358125e-06
4.8738530386832754e-05   -3.0967971140025835e-06   5.376666234358125e-06
4.8738530386832754e-05   -3.0967971140025835e-06   5.376666234358125e-06
4.8738530386832754e-05   -3.0967971140025835e-06   5.376666234358125e-06
3.0240331206199817e-05   -5.811937293289521e-06   3.7836082309652714e-05
3.0240331206199817e-05   -5.811937293289521e-06   3.7836082309652714e-05
3.0240331206199817e-05   -5.811937293289521e-06   3.7836082309652714e-05
3.0240331206199817e-05   -5.811937293289521e-06   3.7836082309652714e-05
4.8738530386832916e-05   -1.0241169964219157e-05   6.915573302508464e-05
4.8738530386832916e-05   -1.0241169964219157e-05   6.915573302508464e-05
4.8738530386832916e-05   -1.0241169964219157e-05   6.915573302508464e-05
4.8738530386832916e-05   -1.0241169964219157e-05   6.915573302508464e-05
1.0471090312396452e-05   -3.0967971140025835e-06   9.663289944488156e-06
1.0471090312396452e-05   -3.0967971140025835e-06   9.663289944488156e-06
1.0471090312396452e-05   -3.0967971140025835e-06   9.663289944488156e-06
1.0471090312396452e-05   -3.0967971140025835e-06   9.663289944488156e-06
8.364150695345203e-06   -1.1467117573256067e-05   6.799588823072763e-05
8.364150695345203e-06   -1.1467117573256067e-05   6.799588823072763e-05
8.364150695345203e-06   -1.1467117573256067e-05   6.799588823072763e-05
8.364150695345203e-06   -1.1467117573256067e-05   6.799588823072763e-05
4.3630163628984454e-05   -4.8196705326498945e-06   5.230731783633529e-06
4.3630163628984454e-05   -4.8196705326498945e-06   5.230731783633529e-06
4.3630163628984454e-05   -4.8196705326498945e-06   5.230731783633529e-06
4.3630163628984454e-05   -4.8196705326498945e-06   5.230731783633529e-06
2.6584347797910285e-05   -6.3568123663138715e-06   3.456270993562266e-05
2.6584347797910285e-05   -6.3568123663138715e-06   3.456270993562266e-05
2.6584347797910285e-05   -6.3568123663138715e-06   3.456270993562266e-05
2.6584347797910285e-05   -6.3568123663138715e-06   3.456270993562266e-05
1.4998484556233443e-05   3.54606313471284e-06   0.00011574171693107
1.4998484556233443e-05   3.54606313471284e-06   0.00011574171693107
1.4998484556233443e-05   3.54606313471284e-06   0.00011574171693107
1.4998484556233443e-05   3.54606313471284e-06   0.00011574171693107
-2.446719573905178e-05   6.689608241123093e-06   5.185171016944051e-05
-2.446719573905178e-05   6.689608241123093e-06   5.185171016944051e-05
-2.446719573905178e-05   6.689608241123093e-06   5.185171016944051e-05
-2.446719573905178e-05   6.689608241123093e-06   5.185171016944051e-05
-2.630322878569442e-05   8.599572492206178e-07   0.00011612560796037726
-2.630322878569442e-05   8.599572492206178e-07   0.00011612560796037726
-2.630322878569442e-05   8.599572492206178e-07   0.00011612560796037726
-2.630322878569442e-05   8.599572492206178e-07   0.00011612560796037726
1.290561596368281e-05   4.009022544772603e-06   4.888809420075226e-05
1.290561596368281e-05   4.009022544772603e-06   4.888809420075226e-05
1.290561596368281e-05   4.009022544772603e-06   4.888809420075226e-05
1.290561596368281e-05   4.009022544772603e-06   4.888809420075226e-05
-6.00879258109906e-06   3.5129762340855436e-06   8.070973622847081e-05
-6.00879258109906e-06   3.5129762340855436e-06   8.070973622847081e-05
-6.00879258109906e-06   3.5129762340855436e-06   8.070973622847081e-05
-6.00879258109906e-06   3.5129762340855436e-06   8.070973622847081e-05
1.2905615963682823e-05   8.599572492206178e-07   0.00011423616878304633
1.2905615963682823e-05   8.599572492206178e-07   0.00011423616878304633
1.2905615963682823e-05   8.599572492206178e-07   0.00011423616878304633
1.2905615963682823e-05   8.599572492206178e-07   0.00011423616878304633
-2.630322878569442e-05   4.00902254477347e-06   5.077753337808357e-05
-2.630322878569442e-05   4.00902254477347e-06   5.077753337808357e-05
-2.630322878569442e-05   4.00902254477347e-06   5.077753337808357e-05
-2.630322878569442e-05   4.00902254477347e-06   5.077753337808357e-05
-2.8191825615917323e-05   -1.3445231174975814e-06   0.00011541844906064625
-2.8191825615917323e-05   -1.3445231174975814e-06   0.00011541844906064625
-2.8191825615917323e-05   -1.3445231174975814e-06   0.00011541844906064625
-2.8191825615917323e-05   -1.3445231174975814e-06   0.00011541844906064625
1.0471090312396452e-05   1.7302681008714987e-06   4.913538111576862e-05
1.0471090312396452e-05   1.7302681008714987e-06   4.913538111576862e-05
1.0471090312396452e-05   1.7302681008714987e-06   4.913538111576862e-05
1.0471090312396452e-05   1.7302681008714987e-06   4.913538111576862e-05
-7.965690355430078e-06   1.6390215452858486e-06   7.991809682883234e-05
-7.965690355430078e-06   1.6390215452858486e-06   7.991809682883234e-05
-7.965690355430078e-06   1.6390215452858486e-06   7.991809682883234e-05
-7.965690355430078e-06   1.6390215452858486e-06   7.991809682883234e-05
1.047109031239648e-05   -1.3445231174984487e-06   0.00011357357432962472
1.047109031239648e-05   -1.3445231174984487e-06   0.00011357357432962472
1.047109031239648e-05   -1.3445231174984487e-06   0.00011357357432962472
1.047109031239648e-05   -1.3445231174984487e-06   0.00011357357432962472
-2.819182561591754e-05   1.730268100872366e-06   5.0980255846791184e-05
-2.819182561591754e-05   1.730268100872366e-06   5.0980255846791184e-05
-2.819182561591754e-05   1.730268100872366e-06   5.0980255846791184e-05
-2.819182561591754e-05   1.730268100872366e-06   5.0980255846791184e-05
-3.0051046219233858e-05   -3.5252201328137694e-06   0.00011697645667138861
-3.0051046219233858e-05   -3.5252201328137694e-06   0.00011697645667138861
-3.0051046219233858e-05   -3.5252201328137694e-06   0.00011697645667138861
-3.0051046219233858e-05   -3.5252201328137694e-06   0.00011697645667138861
8.364150695345176e-06   -6.06960253692751e-07   5.1200172552951986e-05
8.364150695345176e-06   -6.06960253692751e-07   5.1200172552951986e-05
8.364150695345176e-06   -6.06960253692751e-07   5.1200172552951986e-05
8.364150695345176e-06   -6.06960253692751e-07   5.1200172552951986e-05
-9.62745222096389e-06   -5.059670827971263e-08   8.085235928622053e-05
-9.62745222096389e-06   -5.059670827971263e-08   8.085235928622053e-05
-9.62745222096389e-06   -5.059670827971263e-08   8.085235928622053e-05
-9.62745222096389e-06   -5.059670827971263e-08   8.085235928622053e-05
-2.446719573905178e-05   1.3165337558494056e-05   0.0001284438851742037
-2.446719573905178e-05   1.3165337558494056e-05   0.0001284438851742037
-2.446719573905178e-05   1.3165337558494056e-05   0.0001284438851742037
-2.446719573905178e-05   1.3165337558494056e-05   0.0001284438851742037
-6.32914887811457e-05   1.238843633483231e-05   6.327058936985005e-05
-6.32914887811457e-05   1.238843633483231e-05   6.327058936985005e-05
-6.32914887811457e-05   1.238843633483231e-05   6.327058936985005e-05
-6.32914887811457e-05   1.238843633483231e-05   6.327058936985005e-05
-6.505090396570436e-05   1.0717211831679299e-05   0.00012731031240499277
-6.505090396570436e-05   1.0717211831679299e-05   0.00012731031240499277
-6.505090396570436e-05   1.0717211831679299e-05   0.00012731031240499277
-6.505090396570436e-05   1.0717211831679299e-05   0.00012731031240499277
-2.6303228785694256e-05   9.910012187915734e-06   6.3215173557903e-05
-2.6303228785694256e-05   9.910012187915734e-06   6.3215173557903e-05
-2.6303228785694256e-05   9.910012187915734e-06   6.3215173557903e-05
-2.6303228785694256e-05   9.910012187915734e-06   6.3215173557903e-05
-4.485957540327075e-05   1.1275868362119884e-05   9.332290421601181e-05
-4.485957540327075e-05   1.1275868362119884e-05   9.332290421601181e-05
-4.485957540327075e-05   1.1275868362119884e-05   9.332290421601181e-05
-4.485957540327075e-05   1.1275868362119884e-05   9.332290421601181e-05
-2.630322878569442e-05   1.0717211831678432e-05   0.00012779463219125212
-2.630322878569442e-05   1.0717211831678432e-05   0.00012779463219125212
-2.630322878569442e-05   1.0717211831678432e-05   0.00012779463219125212
-2.630322878569442e-05   1.0717211831678432e-05   0.00012779463219125212
-6.505090396570436e-05   9.910012187915734e-06   6.273085377164452e-05
-6.505090396570436e-05   9.910012187915734e-06   6.273085377164452e-05
-6.505090396570436e-05   9.910012187915734e-06   6.273085377164452e-05
-6.505090396570436e-05   9.910012187915734e-06   6.273085377164452e-05
-6.686887173451333e-05   8.296938339659964e-06   0.00012817829452731102
-6.686887173451333e-05   8.296938339659964e-06   0.00012817829452731102
-6.686887173451333e-05   8.296938339659964e-06   0.00012817829452731102
-6.686887173451333e-05   8.296938339659964e-06   0.00012817829452731102
-2.8191825615917323e-05   7.444068734979194e-06   6.422827275912794e-05
-2.8191825615917323e-05   7.444068734979194e-06   6.422827275912794e-05
-2.8191825615917323e-05   7.444068734979194e-06   6.422827275912794e-05
-2.8191825615917323e-05   7.444068734979194e-06   6.422827275912794e-05
-4.642787288983705e-05   9.387412114978885e-06   9.345567885432724e-05
-4.642787288983705e-05   9.387412114978885e-06   9.345567885432724e-05
-4.642787288983705e-05   9.387412114978885e-06   9.345567885432724e-05
-4.642787288983705e-05   9.387412114978885e-06   9.345567885432724e-05
-2.819182561591754e-05   8.296938339659964e-06   0.00012869001629012018
-2.819182561591754e-05   8.296938339659964e-06   0.00012869001629012018
-2.819182561591754e-05   8.296938339659964e-06   0.00012869001629012018
-2.819182561591754e-05   8.296938339659964e-06   0.00012869001629012018
-6.686887173451323e-05   7.444068734978326e-06   6.3716550996319e-05
-6.686887173451323e-05   7.444068734978326e-06   6.3716550996319e-05
-6.686887173451323e-05   7.444068734978326e-06   6.3716550996319e-05
-6.686887173451323e-05   7.444068734978326e-06   6.3716550996319e-05
-6.865903645171382e-05   5.965815155964567e-06   0.0001302767254408102
-6.865903645171382e-05   5.965815155964567e-06   0.0001302767254408102
-6.865903645171382e-05   5.965815155964567e-06   0.0001302767254408102
-6.865903645171382e-05   5.965815155964567e-06   0.0001302767254408102
-3.0051046219233858e-05   5.08099134998493e-06   6.646096933693381e-05
-3.0051046219233858e-05   5.08099134998493e-06   6.646096933693381e-05
-3.0051046219233858e-05   5.08099134998493e-06   6.646096933693381e-05
-3.0051046219233858e-05   5.08099134998493e-06   6.646096933693381e-05
-4.809502655429973e-05   7.5358441525138695e-06   9.506135821386093e-05
-4.809502655429973e-05   7.5358441525138695e-06   9.506135821386093e-05
-4.809502655429973e-05   7.5358441525138695e-06   9.506135821386093e-05
-4.809502655429973e-05   7.5358441525138695e-06   9.506135821386093e-05
-6.32914887811457e-05   2.2517721092604574e-05   0.00011308243213374418
-6.32914887811457e-05   2.2517721092604574e-05   0.00011308243213374418
-6.32914887811457e-05   2.2517721092604574e-05   0.00011308243213374418
-6.32914887811457e-05   2.2517721092604574e-05   0.00011308243213374418
-0.00010137068935076477   1.8352699444968215e-05   4.711808486246305e-05
-0.00010137068935076477   1.8352699444968215e-05   4.711808486246305e-05
-0.00010137068935076477   1.8352699444968215e-05   4.711808486246305e-05
-0.00010137068935076477   1.8352699444968215e-05   4.711808486246305e-05
-0.00010328592579358117   2.012102260549268e-05   0.00011098307664662767
-0.00010328592579358117   2.012102260549268e-05   0.00011098307664662767
-0.00010328592579358117   2.012102260549268e-05   0.00011098307664662767
-0.00010328592579358117   2.012102260549268e-05   0.00011098307664662767
-6.505090396570425e-05   1.5849946652473496e-05   4.982068583864554e-05
-6.505090396570425e-05   1.5849946652473496e-05   4.982068583864554e-05
-6.505090396570425e-05   1.5849946652473496e-05   4.982068583864554e-05
-6.505090396570425e-05   1.5849946652473496e-05   4.982068583864554e-05
-8.30500162023436e-05   1.8906878151402247e-05   7.798504733369147e-05
-8.30500162023436e-05   1.8906878151402247e-05   7.798504733369147e-05
-8.30500162023436e-05   1.8906878151402247e-05   7.798504733369147e-05
-8.30500162023436e-05   1.8906878151402247e-05   7.798504733369147e-05
-6.505090396570436e-05   2.0121022605493546e-05   0.00011354572221844005
-6.505090396570436e-05   2.0121022605493546e-05   0.00011354572221844005
-6.505090396570436e-05   2.0121022605493546e-05   0.00011354572221844005
-6.505090396570436e-05   2.0121022605493546e-05   0.00011354572221844005
-0.00010328592579358096   1.5849946652472628e-05   4.7258040266833596e-05
-0.00010328592579358096   1.5849946652472628e-05   4.7258040266833596e-05
-0.00010328592579358096   1.5849946652472628e-05   4.7258040266833596e-05
-0.00010328592579358096   1.5849946652472628e-05   4.7258040266833596e-05
-0.00010555709438642819   1.790886084150102e-05   0.00011463894476879642
-0.00010555709438642819   1.790886084150102e-05   0.00011463894476879642
-0.00010555709438642819   1.790886084150102e-05   0.00011463894476879642
-0.00010555709438642819   1.790886084150102e-05   0.00011463894476879642
-6.686887173451312e-05   1.3579314219603136e-05   5.2756301655408925e-05
-6.686887173451312e-05   1.3579314219603136e-05   5.2756301655408925e-05
-6.686887173451312e-05   1.3579314219603136e-05   5.2756301655408925e-05
-6.686887173451312e-05   1.3579314219603136e-05   5.2756301655408925e-05
-8.42989312854465e-05   1.7134105263738944e-05   7.967352628048333e-05
-8.42989312854465e-05   1.7134105263738944e-05   7.967352628048333e-05
-8.42989312854465e-05   1.7134105263738944e-05   7.967352628048333e-05
-8.42989312854465e-05   1.7134105263738944e-05   7.967352628048333e-05
-6.686887173451333e-05   1.790886084150102e-05   0.00011723667274193307
-6.686887173451333e-05   1.790886084150102e-05   0.00011723667274193307
-6.686887173451333e-05   1.790886084150102e-05   0.00011723667274193307
-6.686887173451333e-05   1.790886084150102e-05   0.00011723667274193307
-0.00010555709438642776   1.3579314219603136e-05   5.015857368227141e-05
-0.00010555709438642776   1.3579314219603136e-05   5.015857368227141e-05
-0.00010555709438642776   1.3579314219603136e-05   5.015857368227141e-05
-0.00010555709438642776   1.3579314219603136e-05   5.015857368227141e-05
-0.00010750981039028959   1.5441371745433634e-05   0.00011818886873216344
-0.00010750981039028959   1.5441371745433634e-05   0.00011818886873216344
-0.00010750981039028959   1.5441371745433634e-05   0.00011818886873216344
-0.00010750981039028959   1.5441371745433634e-05   0.00011818886873216344
-6.86590364517135e-05   1.115783987002978e-05   5.600769795977966e-05
-6.86590364517135e-05   1.115783987002978e-05   5.600769795977966e-05
-6.86590364517135e-05   1.115783987002978e-05   5.600769795977966e-05
-6.86590364517135e-05   1.115783987002978e-05   5.600769795977966e-05
-8.64317713222933e-05   1.5364252562806956e-05   8.310507512841693e-05
-8.64317713222933e-05   1.5364252562806956e-05   8.310507512841693e-05
-8.64317713222933e-05   1.5364252562806956e-05   8.310507512841693e-05
-8.64317713222933e-05   1.5364252562806956e-05   8.310507512841693e-05
-0.0001013706893507652   2.9455938679393175e-05   5.271332893648853e-05
-0.0001013706893507652   2.9455938679393175e-05   5.271332893648853e-05
-0.0001013706893507652   2.9455938679393175e-05   5.271332893648853e-05
-0.0001013706893507652   2.9455938679393175e-05   5.271332893648853e-05
-0.00013555873465157658   2.2500746810222988e-05   -8.4398616863662e-06
-0.00013555873465157658   2.2500746810222988e-05   -8.4398616863662e-06
-0.00013555873465157658   2.2500746810222988e-05   -8.4398616863662e-06
-0.00013555873465157658   2.2500746810222988e-05   -8.4398616863662e-06
-0.00014046193100277307   2.867291521413927e-05   6.49032554003292e-05
-0.00014046193100277307   2.867291521413927e-05   6.49032554003292e-05
-0.00014046193100277307   2.867291521413927e-05   6.49032554003292e-05
-0.00014046193100277307   2.867291521413927e-05   6.49032554003292e-05
-0.00010328592579358074   2.1209802503380053e-05   7.421114344798897e-06
-0.00010328592579358074   2.1209802503380053e-05   7.421114344798897e-06
-0.00010328592579358074   2.1209802503380053e-05   7.421114344798897e-06
-0.00010328592579358074   2.1209802503380053e-05   7.421114344798897e-06
-0.00011579717811509987   2.5002887717558847e-05   2.5997350418828762e-05
-0.00011579717811509987   2.5002887717558847e-05   2.5997350418828762e-05
-0.00011579717811509987   2.5002887717558847e-05   2.5997350418828762e-05
-0.00011579717811509987   2.5002887717558847e-05   2.5997350418828762e-05
-0.00010328592579358074   2.867291521413927e-05   6.938112302678524e-05
-0.00010328592579358074   2.867291521413927e-05   6.938112302678524e-05
-0.00010328592579358074   2.867291521413927e-05   6.938112302678524e-05
-0.00010328592579358074   2.867291521413927e-05   6.938112302678524e-05
-0.00014046193100277307   2.1209802503380053e-05   2.9432467183437144e-06
-0.00014046193100277307   2.1209802503380053e-05   2.9432467183437144e-06
-0.00014046193100277307   2.1209802503380053e-05   2.9432467183437144e-06
-0.00014046193100277307   2.1209802503380053e-05   2.9432467183437144e-06
-0.0001446902923054941   2.7736334809220706e-05   7.679001128663328e-05
-0.0001446902923054941   2.7736334809220706e-05   7.679001128663328e-05
-0.0001446902923054941   2.7736334809220706e-05   7.679001128663328e-05
-0.0001446902923054941   2.7736334809220706e-05   7.679001128663328e-05
-0.00010555709438642776   2.0141036774949835e-05   1.6125193575419663e-05
-0.00010555709438642776   2.0141036774949835e-05   1.6125193575419663e-05
-0.00010555709438642776   2.0141036774949835e-05   1.6125193575419663e-05
-0.00010555709438642776   2.0141036774949835e-05   1.6125193575419663e-05
-0.00012048998147144447   2.4661677511295804e-05   3.830095427530787e-05
-0.00012048998147144447   2.4661677511295804e-05   3.830095427530787e-05
-0.00012048998147144447   2.4661677511295804e-05   3.830095427530787e-05
-0.00012048998147144447   2.4661677511295804e-05   3.830095427530787e-05
-0.00010555709438642797   2.773633480921984e-05   8.134719010719589e-05
-0.00010555709438642797   2.773633480921984e-05   8.134719010719589e-05
-0.00010555709438642797   2.773633480921984e-05   8.134719010719589e-05
-0.00010555709438642797   2.773633480921984e-05   8.134719010719589e-05
-0.0001446902923054941   2.0141036774949835e-05   1.1568014754856186e-05
-0.0001446902923054941   2.0141036774949835e-05   1.1568014754856186e-05
-0.0001446902923054941   2.0141036774949835e-05   1.1568014754856186e-05
-0.0001446902923054941   2.0141036774949835e-05   1.1568014754856186e-05
-0.0001497584908778599   2.4609407865370907e-05   9.784474869456786e-05
-0.0001497584908778599   2.4609407865370907e-05   9.784474869456786e-05
-0.0001497584908778599   2.4609407865370907e-05   9.784474869456786e-05
-0.0001497584908778599   2.4609407865370907e-05   9.784474869456786e-05
-0.00010750981039028915   1.7250135701704118e-05   3.184584451348558e-05
-0.00010750981039028915   1.7250135701704118e-05   3.184584451348558e-05
-0.00010750981039028915   1.7250135701704118e-05   3.184584451348558e-05
-0.00010750981039028915   1.7250135701704118e-05   3.184584451348558e-05
-0.00012169126351537505   2.3347144835750983e-05   5.182339424153557e-05
-0.00012169126351537505   2.3347144835750983e-05   5.182339424153557e-05
-0.00012169126351537505   2.3347144835750983e-05   5.182339424153557e-05
-0.00012169126351537505   2.3347144835750983e-05   5.182339424153557e-05
1.0719698195542414e-05   2.933308842099566e-07   6.2183238840999e-05
1.0719698195542414e-05   2.933308842099566e-07   6.2183238840999e-05
1.0719698195542414e-05   2.933308842099566e-07   6.2183238840999e-05
1.0719698195542414e-05   2.933308842099566e-07   6.2183238840999e-05
-1.3756359092004906e-05   6.965576806610557e-06   2.5393157581861045e-05
-1.3756359092004906e-05   6.965576806610557e-06   2.5393157581861045e-05
-1.3756359092004906e-05   6.965576806610557e-06   2.5393157581861045e-05
-1.3756359092004906e-05   6.965576806610557e-06   2.5393157581861045e-05
-1.5223927250954336e-05   -2.0705223628403324e-06   6.145647271951727e-05
-1.5223927250954336e-05   -2.0705223628403324e-06   6.145647271951727e-05
-1.5223927250954336e-05   -2.0705223628403324e-06   6.145647271951727e-05
-1.5223927250954336e-05   -2.0705223628403324e-06   6.145647271951727e-05
6.241275984603535e-06   4.761402363022069e-06   2.1581979158069955e-05
6.241275984603535e-06   4.761402363022069e-06   2.1581979158069955e-05
6.241275984603535e-06   4.761402363022069e-06   2.1581979158069955e-05
6.241275984603535e-06   4.761402363022069e-06   2.1581979158069955e-05
-3.5509611257035116e-06   2.1136730427766606e-06   3.9491011934062305e-05
-3.5509611257035116e-06   2.1136730427766606e-06   3.9491011934062305e-05
-3.5509611257035116e-06   2.1136730427766606e-06   3.9491011934062305e-05
-3.5509611257035116e-06   2.1136730427766606e-06   3.9491011934062305e-05
6.241275984603535e-06   -2.0705223628403324e-06   5.735731788399957e-05
6.241275984603535e-06   -2.0705223628403324e-06   5.735731788399957e-05
6.241275984603535e-06   -2.0705223628403324e-06   5.735731788399957e-05
6.241275984603535e-06   -2.0705223628403324e-06   5.735731788399957e-05
-1.5223927250954336e-05   4.761402363022069e-06   2.5681133993587547e-05
-1.5223927250954336e-05   4.761402363022069e-06   2.5681133993587547e-05
-1.5223927250954336e-05   4.761402363022069e-06   2.5681133993587547e-05
-1.5223927250954336e-05   4.761402363022069e-06   2.5681133993587547e-05
-1.703438249092046e-05   -3.096797114001716e-06   5.992700875362888e-05
-1.703438249092046e-05   -3.096797114001716e-06   5.992700875362888e-05
-1.703438249092046e-05   -3.096797114001716e-06   5.992700875362888e-05
-1.703438249092046e-05   -3.096797114001716e-06   5.992700875362888e-05
2.3615808492550737e-06   3.5379977726870265e-06   2.361952625465596e-05
2.3615808492550737e-06   3.5379977726870265e-06   2.361952625465596e-05
2.3615808492550737e-06   3.5379977726870265e-06   2.361952625465596e-05
2.3615808492550737e-06   3.5379977726870265e-06   2.361952625465596e-05
-5.978295222216508e-06   1.1736992336520286e-06   3.893789883052906e-05
-5.978295222216508e-06   1.1736992336520286e-06   3.893789883052906e-05
-5.978295222216508e-06   1.1736992336520286e-06   3.893789883052906e-05
-5.978295222216508e-06   1.1736992336520286e-06   3.893789883052906e-05
2.361580849255128e-06   -3.096797114001716e-06   5.594613182161425e-05
2.361580849255128e-06   -3.096797114001716e-06   5.594613182161425e-05
2.361580849255128e-06   -3.096797114001716e-06   5.594613182161425e-05
2.361580849255128e-06   -3.096797114001716e-06   5.594613182161425e-05
-1.7034382490920433e-05   3.5379977726870265e-06   2.76004031866694e-05
-1.7034382490920433e-05   3.5379977726870265e-06   2.76004031866694e-05
-1.7034382490920433e-05   3.5379977726870265e-06   2.76004031866694e-05
-1.7034382490920433e-05   3.5379977726870265e-06   2.76004031866694e-05
-1.8543326186989842e-05   -4.8196705326498945e-06   5.949848795275487e-05
-1.8543326186989842e-05   -4.8196705326498945e-06   5.949848795275487e-05
-1.8543326186989842e-05   -4.8196705326498945e-06   5.949848795275487e-05
-1.8543326186989842e-05   -4.8196705326498945e-06   5.949848795275487e-05
-2.500678108088405e-06   9.334421682037977e-07   2.930887353407442e-05
-2.500678108088405e-06   9.334421682037977e-07   2.930887353407442e-05
-2.500678108088405e-06   9.334421682037977e-07   2.930887353407442e-05
-2.500678108088405e-06   9.334421682037977e-07   2.930887353407442e-05
-8.557151841647579e-06   2.9728287701414474e-07   3.978469199805316e-05
-8.557151841647579e-06   2.9728287701414474e-07   3.978469199805316e-05
-8.557151841647579e-06   2.9728287701414474e-07   3.978469199805316e-05
-8.557151841647579e-06   2.9728287701414474e-07   3.978469199805316e-05
-1.3756359092004906e-05   6.689608241122226e-06   0.00010031546171618798
-1.3756359092004906e-05   6.689608241122226e-06   0.00010031546171618798
-1.3756359092004906e-05   6.689608241122226e-06   0.00010031546171618798
-1.3756359092004906e-05   6.689608241122226e-06   0.00010031546171618798
-3.426309468108316e-05   7.986795067188926e-06   6.691588116336349e-05
-3.426309468108316e-05   7.986795067188926e-06   6.691588116336349e-05
-3.426309468108316e-05   7.986795067188926e-06   6.691588116336349e-05
-3.426309468108316e-05   7.986795067188926e-06   6.691588116336349e-05
-3.536470016583706e-05   4.009022544772603e-06   0.00010006132668998434
-3.536470016583706e-05   4.009022544772603e-06   0.00010006132668998434
-3.536470016583706e-05   4.009022544772603e-06   0.00010006132668998434
-3.536470016583706e-05   4.009022544772603e-06   0.00010006132668998434
-1.5223927250954336e-05   5.5198541560651584e-06   6.558687286507099e-05
-1.5223927250954336e-05   5.5198541560651584e-06   6.558687286507099e-05
-1.5223927250954336e-05   5.5198541560651584e-06   6.558687286507099e-05
-1.5223927250954336e-05   5.5198541560651584e-06   6.558687286507099e-05
-2.478853232233557e-05   5.7708770194852405e-06   8.137726759932127e-05
-2.478853232233557e-05   5.7708770194852405e-06   8.137726759932127e-05
-2.478853232233557e-05   5.7708770194852405e-06   8.137726759932127e-05
-2.478853232233557e-05   5.7708770194852405e-06   8.137726759932127e-05
-1.522392725095435e-05   4.009022544772603e-06   9.915482772320785e-05
-1.522392725095435e-05   4.009022544772603e-06   9.915482772320785e-05
-1.522392725095435e-05   4.009022544772603e-06   9.915482772320785e-05
-1.522392725095435e-05   4.009022544772603e-06   9.915482772320785e-05
-3.536470016583706e-05   5.5198541560651584e-06   6.649337183184606e-05
-3.536470016583706e-05   5.5198541560651584e-06   6.649337183184606e-05
-3.536470016583706e-05   5.5198541560651584e-06   6.649337183184606e-05
-3.536470016583706e-05   5.5198541560651584e-06   6.649337183184606e-05
-3.6500202552395395e-05   1.7302681008714987e-06   0.00010030103968902866
-3.6500202552395395e-05   1.7302681008714987e-06   0.00010030103968902866
-3.6500202552395395e-05   1.7302681008714987e-06   0.00010030103968902866
-3.6500202552395395e-05   1.7302681008714987e-06   0.00010030103968902866
-1.7034382490920433e-05   3.233501041072402e-06   6.695606648911729e-05
-1.7034382490920433e-05   3.233501041072402e-06   6.695606648911729e-05
-1.7034382490920433e-05   3.233501041072402e-06   6.695606648911729e-05
-1.7034382490920433e-05   3.233501041072402e-06   6.695606648911729e-05
-2.5911686020455913e-05   3.962658402065222e-06   8.131407795508214e-05
-2.5911686020455913e-05   3.962658402065222e-06   8.131407795508214e-05
-2.5911686020455913e-05   3.962658402065222e-06   8.131407795508214e-05
-2.5911686020455913e-05   3.962658402065222e-06   8.131407795508214e-05
-1.703438249092046e-05   1.7302681008714987e-06   9.939909992490864e-05
-1.703438249092046e-05   1.7302681008714987e-06   9.939909992490864e-05
-1.703438249092046e-05   1.7302681008714987e-06   9.939909992490864e-05
-1.703438249092046e-05   1.7302681008714987e-06   9.939909992490864e-05
-3.6500202552395395e-05   3.233501041072402e-06   6.785800625323671e-05
-3.6500202552395395e-05   3.233501041072402e-06   6.785800625323671e-05
-3.6500202552395395e-05   3.233501041072402e-06   6.785800625323671e-05
-3.6500202552395395e-05   3.233501041072402e-06   6.785800625323671e-05
-3.7612112113850774e-05   -6.06960253692751e-07   0.00010229171699047438
-3.7612112113850774e-05   -6.06960253692751e-07   0.00010229171699047438
-3.7612112113850774e-05   -6.06960253692751e-07   0.00010229171699047438
-3.7612112113850774e-05   -6.06960253692751e-07   0.00010229171699047438
-1.8543326186989815e-05   7.468005675812309e-07   6.969815061960927e-05
-1.8543326186989815e-05   7.468005675812309e-07   6.969815061960927e-05
-1.8543326186989815e-05   7.468005675812309e-07   6.969815061960927e-05
-1.8543326186989815e-05   7.468005675812309e-07   6.969815061960927e-05
-2.703686206306338e-05   2.1766535912223772e-06   8.299613193221375e-05
-2.703686206306338e-05   2.1766535912223772e-06   8.299613193221375e-05
-2.703686206306338e-05   2.1766535912223772e-06   8.299613193221375e-05
-2.703686206306338e-05   2.1766535912223772e-06   8.299613193221375e-05
-3.4263094681083266e-05   1.238843633483231e-05   0.00011297879374643372
-3.4263094681083266e-05   1.238843633483231e-05   0.00011297879374643372
-3.4263094681083266e-05   1.238843633483231e-05   0.00011297879374643372
-3.4263094681083266e-05   1.238843633483231e-05   0.00011297879374643372
-5.475059680226939e-05   9.517346961284041e-06   7.711030325366092e-05
-5.475059680226939e-05   9.517346961284041e-06   7.711030325366092e-05
-5.475059680226939e-05   9.517346961284041e-06   7.711030325366092e-05
-5.475059680226939e-05   9.517346961284041e-06   7.711030325366092e-05
-5.567952402132372e-05   9.910012187915734e-06   0.00011088735708480405
-5.567952402132372e-05   9.910012187915734e-06   0.00011088735708480405
-5.567952402132372e-05   9.910012187915734e-06   0.00011088735708480405
-5.567952402132372e-05   9.910012187915734e-06   0.00011088735708480405
-3.536470016583706e-05   7.223995879580836e-06   7.864092711065934e-05
-3.536470016583706e-05   7.223995879580836e-06   7.864092711065934e-05
-3.536470016583706e-05   7.223995879580836e-06   7.864092711065934e-05
-3.536470016583706e-05   7.223995879580836e-06   7.864092711065934e-05
-4.503352597105413e-05   9.579184320711483e-06   9.334252372134293e-05
-4.503352597105413e-05   9.579184320711483e-06   9.334252372134293e-05
-4.503352597105413e-05   9.579184320711483e-06   9.334252372134293e-05
-4.503352597105413e-05   9.579184320711483e-06   9.334252372134293e-05
-3.536470016583706e-05   9.910012187915734e-06   0.00011249896686980378
-3.536470016583706e-05   9.910012187915734e-06   0.00011249896686980378
-3.536470016583706e-05   9.910012187915734e-06   0.00011249896686980378
-3.536470016583706e-05   9.910012187915734e-06   0.00011249896686980378
-5.567952402132372e-05   7.223995879580836e-06   7.702931732565875e-05
-5.567952402132372e-05   7.223995879580836e-06   7.702931732565875e-05
-5.567952402132372e-05   7.223995879580836e-06   7.702931732565875e-05
-5.567952402132372e-05   7.223995879580836e-06   7.702931732565875e-05
-5.667625424686474e-05   7.444068734979194e-06   0.00011201805458608063
-5.667625424686474e-05   7.444068734979194e-06   0.00011201805458608063
-5.667625424686474e-05   7.444068734979194e-06   0.00011201805458608063
-5.667625424686474e-05   7.444068734979194e-06   0.00011201805458608063
-3.6500202552395395e-05   4.892398709504045e-06   7.992230377724973e-05
-3.6500202552395395e-05   4.892398709504045e-06   7.992230377724973e-05
-3.6500202552395395e-05   4.892398709504045e-06   7.992230377724973e-05
-3.6500202552395395e-05   4.892398709504045e-06   7.992230377724973e-05
-4.5826985305377115e-05   7.73880272230635e-06   9.375909929120493e-05
-4.5826985305377115e-05   7.73880272230635e-06   9.375909929120493e-05
-4.5826985305377115e-05   7.73880272230635e-06   9.375909929120493e-05
-4.5826985305377115e-05   7.73880272230635e-06   9.375909929120493e-05
-3.6500202552395395e-05   7.444068734979194e-06   0.00011354905660136477
-3.6500202552395395e-05   7.444068734979194e-06   0.00011354905660136477
-3.6500202552395395e-05   7.444068734979194e-06   0.00011354905660136477
-3.6500202552395395e-05   7.444068734979194e-06   0.00011354905660136477
-5.6676254246864634e-05   4.892398709504045e-06   7.839130176196473e-05
-5.6676254246864634e-05   4.892398709504045e-06   7.839130176196473e-05
-5.6676254246864634e-05   4.892398709504045e-06   7.839130176196473e-05
-5.6676254246864634e-05   4.892398709504045e-06   7.839130176196473e-05
-5.765232220052586e-05   5.0809913499840625e-06   0.00011436002251524052
-5.765232220052586e-05   5.0809913499840625e-06   0.00011436002251524052
-5.765232220052586e-05   5.0809913499840625e-06   0.00011436002251524052
-5.765232220052586e-05   5.0809913499840625e-06   0.00011436002251524052
-3.7612112113850666e-05   2.678432463745252e-06   8.240120770252517e-05
-3.7612112113850666e-05   2.678432463745252e-06   8.240120770252517e-05
-3.7612112113850666e-05   2.678432463745252e-06   8.240120770252517e-05
-3.7612112113850666e-05   2.678432463745252e-06   8.240120770252517e-05
-4.67113299538867e-05   5.924633796894341e-06   9.561884996936204e-05
-4.67113299538867e-05   5.924633796894341e-06   9.561884996936204e-05
-4.67113299538867e-05   5.924633796894341e-06   9.561884996936204e-05
-4.67113299538867e-05   5.924633796894341e-06   9.561884996936204e-05
-5.4750596802269715e-05   1.8352699444968215e-05   9.760264860350079e-05
-5.4750596802269715e-05   1.8352699444968215e-05   9.760264860350079e-05
-5.4750596802269715e-05   1.8352699444968215e-05   9.760264860350079e-05
-5.4750596802269715e-05   1.8352699444968215e-05   9.760264860350079e-05
-7.48766950157834e-05   1.2827364445505869e-05   6.074395058130056e-05
-7.48766950157834e-05   1.2827364445505869e-05   6.074395058130056e-05
-7.48766950157834e-05   1.2827364445505869e-05   6.074395058130056e-05
-7.48766950157834e-05   1.2827364445505869e-05   6.074395058130056e-05
-7.589621341343362e-05   1.5849946652473496e-05   9.471543169682108e-05
-7.589621341343362e-05   1.5849946652473496e-05   9.471543169682108e-05
-7.589621341343362e-05   1.5849946652473496e-05   9.471543169682108e-05
-7.589621341343362e-05   1.5849946652473496e-05   9.471543169682108e-05
-5.567952402132372e-05   1.0413684227500962e-05   6.428270683162159e-05
-5.567952402132372e-05   1.0413684227500962e-05   6.428270683162159e-05
-5.567952402132372e-05   1.0413684227500962e-05   6.428270683162159e-05
-5.567952402132372e-05   1.0413684227500962e-05   6.428270683162159e-05
-6.516262465196054e-05   1.4248696582345316e-05   7.778686713644256e-05
-6.516262465196054e-05   1.4248696582345316e-05   7.778686713644256e-05
-6.516262465196054e-05   1.4248696582345316e-05   7.778686713644256e-05
-6.516262465196054e-05   1.4248696582345316e-05   7.778686713644256e-05
-5.567952402132372e-05   1.5849946652473496e-05   9.797718915180442e-05
-5.567952402132372e-05   1.5849946652473496e-05   9.797718915180442e-05
-5.567952402132372e-05   1.5849946652473496e-05   9.797718915180442e-05
-5.567952402132372e-05   1.5849946652473496e-05   9.797718915180442e-05
-7.58962134134334e-05   1.0413684227500962e-05   6.102094937663802e-05
-7.58962134134334e-05   1.0413684227500962e-05   6.102094937663802e-05
-7.58962134134334e-05   1.0413684227500962e-05   6.102094937663802e-05
-7.58962134134334e-05   1.0413684227500962e-05   6.102094937663802e-05
-7.731209862148832e-05   1.3579314219603136e-05   9.787227415860873e-05
-7.731209862148832e-05   1.3579314219603136e-05   9.787227415860873e-05
-7.731209862148832e-05   1.3579314219603136e-05   9.787227415860873e-05
-7.731209862148832e-05   1.3579314219603136e-05   9.787227415860873e-05
-5.667625424686474e-05   8.270095741998856e-06   6.666473128746518e-05
-5.667625424686474e-05   8.270095741998856e-06   6.666473128746518e-05
-5.667625424686474e-05   8.270095741998856e-06   6.666473128746518e-05
-5.667625424686474e-05   8.270095741998856e-06   6.666473128746518e-05
-6.571734384280538e-05   1.2464791612262077e-05   7.921639642520864e-05
-6.571734384280538e-05   1.2464791612262077e-05   7.921639642520864e-05
-6.571734384280538e-05   1.2464791612262077e-05   7.921639642520864e-05
-6.571734384280538e-05   1.2464791612262077e-05   7.921639642520864e-05
-5.6676254246864634e-05   1.3579314219604004e-05   0.00010105780524516947
-5.6676254246864634e-05   1.3579314219604004e-05   0.00010105780524516947
-5.6676254246864634e-05   1.3579314219604004e-05   0.00010105780524516947
-5.6676254246864634e-05   1.3579314219604004e-05   0.00010105780524516947
-7.73120986214881e-05   8.270095741998856e-06   6.34792002009027e-05
-7.73120986214881e-05   8.270095741998856e-06   6.34792002009027e-05
-7.73120986214881e-05   8.270095741998856e-06   6.34792002009027e-05
-7.73120986214881e-05   8.270095741998856e-06   6.34792002009027e-05
-7.844879225449449e-05   1.1157839870030647e-05   0.00010139716231486167
-7.844879225449449e-05   1.1157839870030647e-05   0.00010139716231486167
-7.844879225449449e-05   1.1157839870030647e-05   0.00010139716231486167
-7.844879225449449e-05   1.1157839870030647e-05   0.00010139716231486167
-5.765232220052575e-05   6.090368025342234e-06   6.97768619983938e-05
-5.765232220052575e-05   6.090368025342234e-06   6.97768619983938e-05
-5.765232220052575e-05   6.090368025342234e-06   6.97768619983938e-05
-5.765232220052575e-05   6.090368025342234e-06   6.97768619983938e-05
-6.688622915390207e-05   1.0772779889623406e-05   8.23572598021207e-05
-6.688622915390207e-05   1.0772779889623406e-05   8.23572598021207e-05
-6.688622915390207e-05   1.0772779889623406e-05   8.23572598021207e-05
-6.688622915390207e-05   1.0772779889623406e-05   8.23572598021207e-05
-7.48766950157834e-05   2.250074681022212e-05   4.2902616176496156e-05
-7.48766950157834e-05   2.250074681022212e-05   4.2902616176496156e-05
-7.48766950157834e-05   2.250074681022212e-05   4.2902616176496156e-05
-7.48766950157834e-05   2.250074681022212e-05   4.2902616176496156e-05
-9.049475675624403e-05   1.5087178164341353e-05   1.242437208819969e-05
-9.049475675624403e-05   1.5087178164341353e-05   1.242437208819969e-05
-9.049475675624403e-05   1.5087178164341353e-05   1.242437208819969e-05
-9.049475675624403e-05   1.5087178164341353e-05   1.242437208819969e-05
-9.438674088091555e-05   2.1209802503380053e-05   5.024063771957507e-05
-9.438674088091555e-05   2.1209802503380053e-05   5.024063771957507e-05
-9.438674088091555e-05   2.1209802503380053e-05   5.024063771957507e-05
-9.438674088091555e-05   2.1209802503380053e-05   5.024063771957507e-05
-7.589621341343362e-05   1.3480022411364173e-05   2.4060959995649174e-05
-7.589621341343362e-05   1.3480022411364173e-05   2.4060959995649174e-05
-7.589621341343362e-05   1.3480022411364173e-05   2.4060959995649174e-05
-7.589621341343362e-05   1.3480022411364173e-05   2.4060959995649174e-05
-8.100656584087058e-05   1.7900425644149648e-05   2.9925972101706513e-05
-8.100656584087058e-05   1.7900425644149648e-05   2.9925972101706513e-05
-8.100656584087058e-05   1.7900425644149648e-05   2.9925972101706513e-05
-8.100656584087058e-05   1.7900425644149648e-05   2.9925972101706513e-05
-7.589621341343362e-05   2.1209802503380053e-05   5.487850577478529e-05
-7.589621341343362e-05   2.1209802503380053e-05   5.487850577478529e-05
-7.589621341343362e-05   2.1209802503380053e-05   5.487850577478529e-05
-7.589621341343362e-05   2.1209802503380053e-05   5.487850577478529e-05
-9.438674088091577e-05   1.3480022411363306e-05   1.9423091940439386e-05
-9.438674088091577e-05   1.3480022411363306e-05   1.9423091940439386e-05
-9.438674088091577e-05   1.3480022411363306e-05   1.9423091940439386e-05
-9.438674088091577e-05   1.3480022411363306e-05   1.9423091940439386e-05
-9.773343477073224e-05   2.0141036774949835e-05   5.91821574543348e-05
-9.773343477073224e-05   2.0141036774949835e-05   5.91821574543348e-05
-9.773343477073224e-05   2.0141036774949835e-05   5.91821574543348e-05
-9.773343477073224e-05   2.0141036774949835e-05   5.91821574543348e-05
-7.73120986214881e-05   1.2379809112580617e-05   2.980333380301573e-05
-7.73120986214881e-05   1.2379809112580617e-05   2.980333380301573e-05
-7.73120986214881e-05   1.2379809112580617e-05   2.980333380301573e-05
-7.73120986214881e-05   1.2379809112580617e-05   2.980333380301573e-05
-8.429529286892667e-05   1.7263098196690363e-05   3.851201743161614e-05
-8.429529286892667e-05   1.7263098196690363e-05   3.851201743161614e-05
-8.429529286892667e-05   1.7263098196690363e-05   3.851201743161614e-05
-8.429529286892667e-05   1.7263098196690363e-05   3.851201743161614e-05
-7.73120986214881e-05   2.0141036774948967e-05   6.383889405175503e-05
-7.73120986214881e-05   2.0141036774948967e-05   6.383889405175503e-05
-7.73120986214881e-05   2.0141036774948967e-05   6.383889405175503e-05
-7.73120986214881e-05   2.0141036774948967e-05   6.383889405175503e-05
-9.773343477073246e-05   1.2379809112580617e-05   2.514659720559507e-05
-9.773343477073246e-05   1.2379809112580617e-05   2.514659720559507e-05
-9.773343477073246e-05   1.2379809112580617e-05   2.514659720559507e-05
-9.773343477073246e-05   1.2379809112580617e-05   2.514659720559507e-05
-0.00010200651951789092   1.7250135701704118e-05   7.537784808125947e-05
-0.00010200651951789092   1.7250135701704118e-05   7.537784808125947e-05
-0.00010200651951789092   1.7250135701704118e-05   7.537784808125947e-05
-0.00010200651951789092   1.7250135701704118e-05   7.537784808125947e-05
-7.844879225449427e-05   9.870835847456717e-06   4.054254922148054e-05
-7.844879225449427e-05   9.870835847456717e-06   4.054254922148054e-05
-7.844879225449427e-05   9.870835847456717e-06   4.054254922148054e-05
-7.844879225449427e-05   9.870835847456717e-06   4.054254922148054e-05
-8.525052123717304e-05   1.6064748394811063e-05   4.816241666419927e-05
-8.525052123717304e-05   1.6064748394811063e-05   4.816241666419927e-05
-8.525052123717304e-05   1.6064748394811063e-05   4.816241666419927e-05
-8.525052123717304e-05   1.6064748394811063e-05   4.816241666419927e-05
-3.8725660782366845e-05   6.965576806610557e-06   4.4042402548760164e-05
-3.8725660782366845e-05   6.965576806610557e-06   4.4042402548760164e-05
-3.8725660782366845e-05   6.965576806610557e-06   4.4042402548760164e-05
-3.8725660782366845e-05   6.965576806610557e-06   4.4042402548760164e-05
-4.1617138776878e-05   1.3023031742093356e-05   4.2857745519197035e-05
-4.1617138776878e-05   1.3023031742093356e-05   4.2857745519197035e-05
-4.1617138776878e-05   1.3023031742093356e-05   4.2857745519197035e-05
-4.1617138776878e-05   1.3023031742093356e-05   4.2857745519197035e-05
-4.265060211830573e-05   4.761402363022069e-06   4.751189321401889e-05
-4.265060211830573e-05   4.761402363022069e-06   4.751189321401889e-05
-4.265060211830573e-05   4.761402363022069e-06   4.751189321401889e-05
-4.265060211830573e-05   4.761402363022069e-06   4.751189321401889e-05
-4.314740233967541e-05   1.0201068359350345e-05   4.507609398517144e-05
-4.314740233967541e-05   1.0201068359350345e-05   4.507609398517144e-05
-4.314740233967541e-05   1.0201068359350345e-05   4.507609398517144e-05
-4.314740233967541e-05   1.0201068359350345e-05   4.507609398517144e-05
-4.048155102233911e-05   8.180897283651019e-06   4.1845111101696626e-05
-4.048155102233911e-05   8.180897283651019e-06   4.1845111101696626e-05
-4.048155102233911e-05   8.180897283651019e-06   4.1845111101696626e-05
-4.048155102233911e-05   8.180897283651019e-06   4.1845111101696626e-05
-4.3147402339675464e-05   4.761402363022069e-06   4.4248093616221316e-05
-4.3147402339675464e-05   4.761402363022069e-06   4.4248093616221316e-05
-4.3147402339675464e-05   4.761402363022069e-06   4.4248093616221316e-05
-4.3147402339675464e-05   4.761402363022069e-06   4.4248093616221316e-05
-4.265060211830573e-05   1.0201068359350345e-05   4.833989358296858e-05
-4.265060211830573e-05   1.0201068359350345e-05   4.833989358296858e-05
-4.265060211830573e-05   1.0201068359350345e-05   4.833989358296858e-05
-4.265060211830573e-05   1.0201068359350345e-05   4.833989358296858e-05
-4.399335118717096e-05   3.5379977726870265e-06   4.9130749115703374e-05
-4.399335118717096e-05   3.5379977726870265e-06   4.9130749115703374e-05
-4.399335118717096e-05   3.5379977726870265e-06   4.9130749115703374e-05
-4.399335118717096e-05   3.5379977726870265e-06   4.9130749115703374e-05
-4.7439445941136046e-05   8.239755153313742e-06   5.2053185943934984e-05
-4.7439445941136046e-05   8.239755153313742e-06   5.2053185943934984e-05
-4.7439445941136046e-05   8.239755153313742e-06   5.2053185943934984e-05
-4.7439445941136046e-05   8.239755153313742e-06   5.2053185943934984e-05
-4.311749878479016e-05   6.960585265660887e-06   4.5617442615948986e-05
-4.311749878479016e-05   6.960585265660887e-06   4.5617442615948986e-05
-4.311749878479016e-05   6.960585265660887e-06   4.5617442615948986e-05
-4.311749878479016e-05   6.960585265660887e-06   4.5617442615948986e-05
-4.7439445941136154e-05   3.537997772687894e-06   4.630969468732635e-05
-4.7439445941136154e-05   3.537997772687894e-06   4.630969468732635e-05
-4.7439445941136154e-05   3.537997772687894e-06   4.630969468732635e-05
-4.7439445941136154e-05   3.537997772687894e-06   4.630969468732635e-05
-4.399335118717096e-05   8.239755153313742e-06   5.487424037231136e-05
-4.399335118717096e-05   8.239755153313742e-06   5.487424037231136e-05
-4.399335118717096e-05   8.239755153313742e-06   5.487424037231136e-05
-4.399335118717096e-05   8.239755153313742e-06   5.487424037231136e-05
-4.4834593439111136e-05   9.334421682037977e-07   5.420106782509193e-05
-4.4834593439111136e-05   9.334421682037977e-07   5.420106782509193e-05
-4.4834593439111136e-05   9.334421682037977e-07   5.420106782509193e-05
-4.4834593439111136e-05   9.334421682037977e-07   5.420106782509193e-05
-5.2003911884030644e-05   3.409920035737056e-06   6.466404517943726e-05
-5.2003911884030644e-05   3.409920035737056e-06   6.466404517943726e-05
-5.2003911884030644e-05   3.409920035737056e-06   6.466404517943726e-05
-5.2003911884030644e-05   3.409920035737056e-06   6.466404517943726e-05
-4.492664123226676e-05   5.44970186897812e-06   5.164472499321815e-05
-4.492664123226676e-05   5.44970186897812e-06   5.164472499321815e-05
-4.492664123226676e-05   5.44970186897812e-06   5.164472499321815e-05
-4.492664123226676e-05   5.44970186897812e-06   5.164472499321815e-05
-4.1617138776877934e-05   7.986795067188926e-06   8.842128699591226e-05
-4.1617138776877934e-05   7.986795067188926e-06   8.842128699591226e-05
-4.1617138776877934e-05   7.986795067188926e-06   8.842128699591226e-05
-4.1617138776877934e-05   7.986795067188926e-06   8.842128699591226e-05
-4.173632337731842e-05   3.364091452858365e-06   8.544902382658006e-05
-4.173632337731842e-05   3.364091452858365e-06   8.544902382658006e-05
-4.173632337731842e-05   3.364091452858365e-06   8.544902382658006e-05
-4.173632337731842e-05   3.364091452858365e-06   8.544902382658006e-05
-4.203597891885597e-05   5.5198541560651584e-06   8.508519516210733e-05
-4.203597891885597e-05   5.5198541560651584e-06   8.508519516210733e-05
-4.203597891885597e-05   5.5198541560651584e-06   8.508519516210733e-05
-4.203597891885597e-05   5.5198541560651584e-06   8.508519516210733e-05
-4.265060211830573e-05   1.632459283740055e-06   8.844200408458531e-05
-4.265060211830573e-05   1.632459283740055e-06   8.844200408458531e-05
-4.265060211830573e-05   1.632459283740055e-06   8.844200408458531e-05
-4.265060211830573e-05   1.632459283740055e-06   8.844200408458531e-05
-4.187158020418378e-05   4.098307406557797e-06   8.566412535402474e-05
-4.187158020418378e-05   4.098307406557797e-06   8.566412535402474e-05
-4.187158020418378e-05   4.098307406557797e-06   8.566412535402474e-05
-4.187158020418378e-05   4.098307406557797e-06   8.566412535402474e-05
-4.265060211830569e-05   5.5198541560651584e-06   8.741763208550048e-05
-4.265060211830569e-05   5.5198541560651584e-06   8.741763208550048e-05
-4.265060211830569e-05   5.5198541560651584e-06   8.741763208550048e-05
-4.265060211830569e-05   5.5198541560651584e-06   8.741763208550048e-05
-4.203597891885575e-05   1.632459283740055e-06   8.610956716118999e-05
-4.203597891885575e-05   1.632459283740055e-06   8.610956716118999e-05
-4.203597891885575e-05   1.632459283740055e-06   8.610956716118999e-05
-4.203597891885575e-05   1.632459283740055e-06   8.610956716118999e-05
-4.2411126171955165e-05   3.233501041071535e-06   8.631041376764388e-05
-4.2411126171955165e-05   3.233501041071535e-06   8.631041376764388e-05
-4.2411126171955165e-05   3.233501041071535e-06   8.631041376764388e-05
-4.2411126171955165e-05   3.233501041071535e-06   8.631041376764388e-05
-4.399335118717096e-05   -3.931633764408561e-07   9.112345411017712e-05
-4.399335118717096e-05   -3.931633764408561e-07   9.112345411017712e-05
-4.399335118717096e-05   -3.931633764408561e-07   9.112345411017712e-05
-4.399335118717096e-05   -3.931633764408561e-07   9.112345411017712e-05
-4.224300883720756e-05   2.6543975894547864e-06   8.637768028070005e-05
-4.224300883720756e-05   2.6543975894547864e-06   8.637768028070005e-05
-4.224300883720756e-05   2.6543975894547864e-06   8.637768028070005e-05
-4.224300883720756e-05   2.6543975894547864e-06   8.637768028070005e-05
-4.399335118717096e-05   3.233501041071535e-06   8.848641241815001e-05
-4.399335118717096e-05   3.233501041071535e-06   8.848641241815001e-05
-4.399335118717096e-05   3.233501041071535e-06   8.848641241815001e-05
-4.399335118717096e-05   3.233501041071535e-06   8.848641241815001e-05
-4.241112617195495e-05   -3.931633764408561e-07   8.894745545966957e-05
-4.241112617195495e-05   -3.931633764408561e-07   8.894745545966957e-05
-4.241112617195495e-05   -3.931633764408561e-07   8.894745545966957e-05
-4.241112617195495e-05   -3.931633764408561e-07   8.894745545966957e-05
-4.2672794084782956e-05   7.468005675803635e-07   8.885087204193402e-05
-4.2672794084782956e-05   7.468005675803635e-07   8.885087204193402e-05
-4.2672794084782956e-05   7.468005675803635e-07   8.885087204193402e-05
-4.2672794084782956e-05   7.468005675803635e-07   8.885087204193402e-05
-4.483459343911111e-05   -3.0658748460532514e-06   9.474147621399393e-05
-4.483459343911111e-05   -3.0658748460532514e-06   9.474147621399393e-05
-4.483459343911111e-05   -3.0658748460532514e-06   9.474147621399393e-05
-4.483459343911111e-05   -3.0658748460532514e-06   9.474147621399393e-05
-4.2848170329347835e-05   9.469163057282751e-07   8.90230963399842e-05
-4.2848170329347835e-05   9.469163057282751e-07   8.90230963399842e-05
-4.2848170329347835e-05   9.469163057282751e-07   8.90230963399842e-05
-4.2848170329347835e-05   9.469163057282751e-07   8.90230963399842e-05
-4.173632337731864e-05   9.517346961284041e-06   9.756474054174085e-05
-4.173632337731864e-05   9.517346961284041e-06   9.756474054174085e-05
-4.173632337731864e-05   9.517346961284041e-06   9.756474054174085e-05
-4.173632337731864e-05   9.517346961284041e-06   9.756474054174085e-05
-4.458482106487415e-05   9.262966232221302e-07   8.766261419297747e-05
-4.458482106487415e-05   9.262966232221302e-07   8.766261419297747e-05
-4.458482106487415e-05   9.262966232221302e-07   8.766261419297747e-05
-4.458482106487415e-05   9.262966232221302e-07   8.766261419297747e-05
-4.4665624892721925e-05   7.223995879580836e-06   9.256993380193836e-05
-4.4665624892721925e-05   7.223995879580836e-06   9.256993380193836e-05
-4.4665624892721925e-05   7.223995879580836e-06   9.256993380193836e-05
-4.4665624892721925e-05   7.223995879580836e-06   9.256993380193836e-05
-4.203597891885575e-05   -5.473651853871858e-07   9.285000715114253e-05
-4.203597891885575e-05   -5.473651853871858e-07   9.285000715114253e-05
-4.203597891885575e-05   -5.473651853871858e-07   9.285000715114253e-05
-4.203597891885575e-05   -5.473651853871858e-07   9.285000715114253e-05
-4.3176851622021026e-05   4.14132549004468e-06   9.193824725115918e-05
-4.3176851622021026e-05   4.14132549004468e-06   9.193824725115918e-05
-4.3176851622021026e-05   4.14132549004468e-06   9.193824725115918e-05
-4.3176851622021026e-05   4.14132549004468e-06   9.193824725115918e-05
-4.203597891885597e-05   7.223995879581703e-06   9.723275044091952e-05
-4.203597891885597e-05   7.223995879581703e-06   9.723275044091952e-05
-4.203597891885597e-05   7.223995879581703e-06   9.723275044091952e-05
-4.203597891885597e-05   7.223995879581703e-06   9.723275044091952e-05
-4.4665624892721925e-05   -5.473651853876195e-07   8.818719051216159e-05
-4.4665624892721925e-05   -5.473651853876195e-07   8.818719051216159e-05
-4.4665624892721925e-05   -5.473651853876195e-07   8.818719051216159e-05
-4.4665624892721925e-05   -5.473651853876195e-07   8.818719051216159e-05
-4.483543413950062e-05   4.892398709504045e-06   9.405155868383828e-05
-4.483543413950062e-05   4.892398709504045e-06   9.405155868383828e-05
-4.483543413950062e-05   4.892398709504045e-06   9.405155868383828e-05
-4.483543413950062e-05   4.892398709504045e-06   9.405155868383828e-05
-4.2411126171955056e-05   -2.312855636859082e-06   9.433419801241284e-05
-4.2411126171955056e-05   -2.312855636859082e-06   9.433419801241284e-05
-4.2411126171955056e-05   -2.312855636859082e-06   9.433419801241284e-05
-4.2411126171955056e-05   -2.312855636859082e-06   9.433419801241284e-05
-4.317282854769574e-05   2.676987548409001e-06   9.26097960608171e-05
-4.317282854769574e-05   2.676987548409001e-06   9.26097960608171e-05
-4.317282854769574e-05   2.676987548409001e-06   9.26097960608171e-05
-4.317282854769574e-05   2.676987548409001e-06   9.26097960608171e-05
-4.2411126171955165e-05   4.892398709504045e-06   9.837471129165495e-05
-4.2411126171955165e-05   4.892398709504045e-06   9.837471129165495e-05
-4.2411126171955165e-05   4.892398709504045e-06   9.837471129165495e-05
-4.2411126171955165e-05   4.892398709504045e-06   9.837471129165495e-05
-4.483543413950062e-05   -2.3128556368595156e-06   9.001104540459488e-05
-4.483543413950062e-05   -2.3128556368595156e-06   9.001104540459488e-05
-4.483543413950062e-05   -2.3128556368595156e-06   9.001104540459488e-05
-4.483543413950062e-05   -2.3128556368595156e-06   9.001104540459488e-05
-4.493263588027652e-05   2.678432463745252e-06   9.667908564178328e-05
-4.493263588027652e-05   2.678432463745252e-06   9.667908564178328e-05
-4.493263588027652e-05   2.678432463745252e-06   9.667908564178328e-05
-4.493263588027652e-05   2.678432463745252e-06   9.667908564178328e-05
-4.2672794084782956e-05   -4.092545853426506e-06   9.697526963959604e-05
-4.2672794084782956e-05   -4.092545853426506e-06   9.697526963959604e-05
-4.2672794084782956e-05   -4.092545853426506e-06   9.697526963959604e-05
-4.2672794084782956e-05   -4.092545853426506e-06   9.697526963959604e-05
-4.3239027799644785e-05   1.1700241381975077e-06   9.476145050272243e-05
-4.3239027799644785e-05   1.1700241381975077e-06   9.476145050272243e-05
-4.3239027799644785e-05   1.1700241381975077e-06   9.476145050272243e-05
-4.3239027799644785e-05   1.1700241381975077e-06   9.476145050272243e-05
-4.458482106487415e-05   1.2827364445505869e-05   7.935895866622005e-05
-4.458482106487415e-05   1.2827364445505869e-05   7.935895866622005e-05
-4.458482106487415e-05   1.2827364445505869e-05   7.935895866622005e-05
-4.458482106487415e-05   1.2827364445505869e-05   7.935895866622005e-05
-4.8859092902139595e-05   4.193467828096566e-06   6.705483430033193e-05
-4.8859092902139595e-05   4.193467828096566e-06   6.705483430033193e-05
-4.8859092902139595e-05   4.193467828096566e-06   6.705483430033193e-05
-4.8859092902139595e-05   4.193467828096566e-06   6.705483430033193e-05
-4.8909553033045115e-05   1.0413684227500962e-05   7.49285276777428e-05
-4.8909553033045115e-05   1.0413684227500962e-05   7.49285276777428e-05
-4.8909553033045115e-05   1.0413684227500962e-05   7.49285276777428e-05
-4.8909553033045115e-05   1.0413684227500962e-05   7.49285276777428e-05
-4.4665624892721925e-05   2.255691510569778e-06   7.275010974069668e-05
-4.4665624892721925e-05   2.255691510569778e-06   7.275010974069668e-05
-4.4665624892721925e-05   2.255691510569778e-06   7.275010974069668e-05
-4.4665624892721925e-05   2.255691510569778e-06   7.275010974069668e-05
-4.66317021823665e-05   7.6077072166808035e-06   7.281569579977061e-05
-4.66317021823665e-05   7.6077072166808035e-06   7.281569579977061e-05
-4.66317021823665e-05   7.6077072166808035e-06   7.281569579977061e-05
-4.66317021823665e-05   7.6077072166808035e-06   7.281569579977061e-05
-4.4665624892721925e-05   1.0413684227500962e-05   7.982332330790055e-05
-4.4665624892721925e-05   1.0413684227500962e-05   7.982332330790055e-05
-4.4665624892721925e-05   1.0413684227500962e-05   7.982332330790055e-05
-4.4665624892721925e-05   1.0413684227500962e-05   7.982332330790055e-05
-4.8909553033045115e-05   2.255691510569778e-06   6.785531411053806e-05
-4.8909553033045115e-05   2.255691510569778e-06   6.785531411053806e-05
-4.8909553033045115e-05   2.255691510569778e-06   6.785531411053806e-05
-4.8909553033045115e-05   2.255691510569778e-06   6.785531411053806e-05
-4.941573791036858e-05   8.270095741998856e-06   7.77220483495272e-05
-4.941573791036858e-05   8.270095741998856e-06   7.77220483495272e-05
-4.941573791036858e-05   8.270095741998856e-06   7.77220483495272e-05
-4.941573791036858e-05   8.270095741998856e-06   7.77220483495272e-05
-4.483543413950062e-05   5.98529308979117e-07   7.469114859122482e-05
-4.483543413950062e-05   5.98529308979117e-07   7.469114859122482e-05
-4.483543413950062e-05   5.98529308979117e-07   7.469114859122482e-05
-4.483543413950062e-05   5.98529308979117e-07   7.469114859122482e-05
-4.6471791414201395e-05   6.010577554590828e-06   7.417118176835649e-05
-4.6471791414201395e-05   6.010577554590828e-06   7.417118176835649e-05
-4.6471791414201395e-05   6.010577554590828e-06   7.417118176835649e-05
-4.6471791414201395e-05   6.010577554590828e-06   7.417118176835649e-05
-4.483543413950062e-05   8.270095741998856e-06   8.232498820933678e-05
-4.483543413950062e-05   8.270095741998856e-06   8.232498820933678e-05
-4.483543413950062e-05   8.270095741998856e-06   8.232498820933678e-05
-4.483543413950062e-05   8.270095741998856e-06   8.232498820933678e-05
-4.941573791036858e-05   5.985293089795507e-07   7.008820873141285e-05
-4.941573791036858e-05   5.985293089795507e-07   7.008820873141285e-05
-4.941573791036858e-05   5.985293089795507e-07   7.008820873141285e-05
-4.941573791036858e-05   5.985293089795507e-07   7.008820873141285e-05
-4.970935958752121e-05   6.090368025342234e-06   8.119968963935745e-05
-4.970935958752121e-05   6.090368025342234e-06   8.119968963935745e-05
-4.970935958752121e-05   6.090368025342234e-06   8.119968963935745e-05
-4.970935958752121e-05   6.090368025342234e-06   8.119968963935745e-05
-4.493263588027652e-05   -1.0706080247192655e-06   7.753506909065236e-05
-4.493263588027652e-05   -1.0706080247192655e-06   7.753506909065236e-05
-4.493263588027652e-05   -1.0706080247192655e-06   7.753506909065236e-05
-4.493263588027652e-05   -1.0706080247192655e-06   7.753506909065236e-05
-4.6676415606405897e-05   4.586979583394435e-06   7.704681606933222e-05
-4.6676415606405897e-05   4.586979583394435e-06   7.704681606933222e-05
-4.6676415606405897e-05   4.586979583394435e-06   7.704681606933222e-05
-4.6676415606405897e-05   4.586979583394435e-06   7.704681606933222e-05
-4.8859092902139595e-05   1.5087178164341353e-05   3.0307183390202146e-05
-4.8859092902139595e-05   1.5087178164341353e-05   3.0307183390202146e-05
-4.8859092902139595e-05   1.5087178164341353e-05   3.0307183390202146e-05
-4.8859092902139595e-05   1.5087178164341353e-05   3.0307183390202146e-05
-4.783488082809196e-05   6.8619905780587485e-06   2.707909096184521e-05
-4.783488082809196e-05   6.8619905780587485e-06   2.707909096184521e-05
-4.783488082809196e-05   6.8619905780587485e-06   2.707909096184521e-05
-4.783488082809196e-05   6.8619905780587485e-06   2.707909096184521e-05
-5.0292575410817476e-05   1.3480022411363306e-05   3.3178671885018135e-05
-5.0292575410817476e-05   1.3480022411363306e-05   3.3178671885018135e-05
-5.0292575410817476e-05   1.3480022411363306e-05   3.3178671885018135e-05
-5.0292575410817476e-05   1.3480022411363306e-05   3.3178671885018135e-05
-4.89095530330449e-05   5.496911725137461e-06   3.566350100046639e-05
-4.89095530330449e-05   5.496911725137461e-06   3.566350100046639e-05
-4.89095530330449e-05   5.496911725137461e-06   3.566350100046639e-05
-4.89095530330449e-05   5.496911725137461e-06   3.566350100046639e-05
-4.73869149125104e-05   1.059617613362188e-05   3.006621215448542e-05
-4.73869149125104e-05   1.059617613362188e-05   3.006621215448542e-05
-4.73869149125104e-05   1.059617613362188e-05   3.006621215448542e-05
-4.73869149125104e-05   1.059617613362188e-05   3.006621215448542e-05
-4.890955303304468e-05   1.3480022411363306e-05   3.7968538296753295e-05
-4.890955303304468e-05   1.3480022411363306e-05   3.7968538296753295e-05
-4.890955303304468e-05   1.3480022411363306e-05   3.7968538296753295e-05
-4.890955303304468e-05   1.3480022411363306e-05   3.7968538296753295e-05
-5.029257541081769e-05   5.496911725137894e-06   3.087363458873123e-05
-5.029257541081769e-05   5.496911725137894e-06   3.087363458873123e-05
-5.029257541081769e-05   5.496911725137894e-06   3.087363458873123e-05
-5.029257541081769e-05   5.496911725137894e-06   3.087363458873123e-05
-5.245384015795953e-05   1.2379809112580617e-05   3.937993966138774e-05
-5.245384015795953e-05   1.2379809112580617e-05   3.937993966138774e-05
-5.245384015795953e-05   1.2379809112580617e-05   3.937993966138774e-05
-5.245384015795953e-05   1.2379809112580617e-05   3.937993966138774e-05
-4.941573791036858e-05   4.602738628825889e-06   3.8982678205654736e-05
-4.941573791036858e-05   4.602738628825889e-06   3.8982678205654736e-05
-4.941573791036858e-05   4.602738628825889e-06   3.8982678205654736e-05
-4.941573791036858e-05   4.602738628825889e-06   3.8982678205654736e-05
-4.912756971322716e-05   9.789064448401108e-06   3.539060238533795e-05
-4.912756971322716e-05   9.789064448401108e-06   3.539060238533795e-05
-4.912756971322716e-05   9.789064448401108e-06   3.539060238533795e-05
-4.912756971322716e-05   9.789064448401108e-06   3.539060238533795e-05
-4.941573791036836e-05   1.2379809112580617e-05   4.404618195163893e-05
-4.941573791036836e-05   1.2379809112580617e-05   4.404618195163893e-05
-4.941573791036836e-05   1.2379809112580617e-05   4.404618195163893e-05
-4.941573791036836e-05   1.2379809112580617e-05   4.404618195163893e-05
-5.2453840157959744e-05   4.602738628825889e-06   3.431643591540181e-05
-5.2453840157959744e-05   4.602738628825889e-06   3.431643591540181e-05
-5.2453840157959744e-05   4.602738628825889e-06   3.431643591540181e-05
-5.2453840157959744e-05   4.602738628825889e-06   3.431643591540181e-05
-5.5692611545649605e-05   9.870835847457585e-06   5.077693787015718e-05
-5.5692611545649605e-05   9.870835847457585e-06   5.077693787015718e-05
-5.5692611545649605e-05   9.870835847457585e-06   5.077693787015718e-05
-5.5692611545649605e-05   9.870835847457585e-06   5.077693787015718e-05
-4.970935958752121e-05   2.822632348955731e-06   4.503377337237687e-05
-4.970935958752121e-05   2.822632348955731e-06   4.503377337237687e-05
-4.970935958752121e-05   2.822632348955731e-06   4.503377337237687e-05
-4.970935958752121e-05   2.822632348955731e-06   4.503377337237687e-05
-4.9713582452568655e-05   8.843751647001283e-06   4.142813990195681e-05
-4.9713582452568655e-05   8.843751647001283e-06   4.142813990195681e-05
-4.9713582452568655e-05   8.843751647001283e-06   4.142813990195681e-05
-4.9713582452568655e-05   8.843751647001283e-06   4.142813990195681e-05
-9.841687773858314e-05   1.3023031742092923e-05   3.656970738445198e-05
-9.841687773858314e-05   1.3023031742092923e-05   3.656970738445198e-05
-9.841687773858314e-05   1.3023031742092923e-05   3.656970738445198e-05
-9.841687773858314e-05   1.3023031742092923e-05   3.656970738445198e-05
-6.608956449477715e-05   1.8076132786081075e-05   9.348042341718777e-05
-6.608956449477715e-05   1.8076132786081075e-05   9.348042341718777e-05
-6.608956449477715e-05   1.8076132786081075e-05   9.348042341718777e-05
-6.608956449477715e-05   1.8076132786081075e-05   9.348042341718777e-05
-6.603328727293199e-05   1.0201068359350345e-05   4.187450918887261e-05
-6.603328727293199e-05   1.0201068359350345e-05   4.187450918887261e-05
-6.603328727293199e-05   1.0201068359350345e-05   4.187450918887261e-05
-6.603328727293199e-05   1.0201068359350345e-05   4.187450918887261e-05
-0.0001082083003226064   7.500676881258203e-06   0.00011378643249185277
-0.0001082083003226064   7.500676881258203e-06   0.00011378643249185277
-0.0001082083003226064   7.500676881258203e-06   0.00011378643249185277
-0.0001082083003226064   7.500676881258203e-06   0.00011378643249185277
-8.032436296982009e-05   1.0752941732358051e-05   6.536184465988217e-05
-8.032436296982009e-05   1.0752941732358051e-05   6.536184465988217e-05
-8.032436296982009e-05   1.0752941732358051e-05   6.536184465988217e-05
-8.032436296982009e-05   1.0752941732358051e-05   6.536184465988217e-05
-0.00010820830032260665   1.0201068359349912e-05   4.349474407572772e-05
-0.00010820830032260665   1.0201068359349912e-05   4.349474407572772e-05
-0.00010820830032260665   1.0201068359349912e-05   4.349474407572772e-05
-0.00010820830032260665   1.0201068359349912e-05   4.349474407572772e-05
-6.603328727293199e-05   7.500676881258203e-06   0.0001121661976049976
-6.603328727293199e-05   7.500676881258203e-06   0.0001121661976049976
-6.603328727293199e-05   7.500676881258203e-06   0.0001121661976049976
-6.603328727293199e-05   7.500676881258203e-06   0.0001121661976049976
-6.687139545524581e-05   8.239755153313742e-06   4.6995293298651404e-05
-6.687139545524581e-05   8.239755153313742e-06   4.6995293298651404e-05
-6.687139545524581e-05   8.239755153313742e-06   4.6995293298651404e-05
-6.687139545524581e-05   8.239755153313742e-06   4.6995293298651404e-05
-0.00010853230839923453   5.445490204216818e-06   0.00011810670717475689
-0.00010853230839923453   5.445490204216818e-06   0.00011810670717475689
-0.00010853230839923453   5.445490204216818e-06   0.00011810670717475689
-0.00010853230839923453   5.445490204216818e-06   0.00011810670717475689
-8.56123226439954e-05   6.783299317291661e-06   7.910404544817943e-05
-8.56123226439954e-05   6.783299317291661e-06   7.910404544817943e-05
-8.56123226439954e-05   6.783299317291661e-06   7.910404544817943e-05
-8.56123226439954e-05   6.783299317291661e-06   7.910404544817943e-05
-0.00010853230839923467   8.239755153313742e-06   4.8671852268109515e-05
-0.00010853230839923467   8.239755153313742e-06   4.8671852268109515e-05
-0.00010853230839923467   8.239755153313742e-06   4.8671852268109515e-05
-0.00010853230839923467   8.239755153313742e-06   4.8671852268109515e-05
-6.68713954552457e-05   5.445490204216818e-06   0.000116430148205299
-6.68713954552457e-05   5.445490204216818e-06   0.000116430148205299
-6.68713954552457e-05   5.445490204216818e-06   0.000116430148205299
-6.68713954552457e-05   5.445490204216818e-06   0.000116430148205299
-6.609581535331225e-05   3.409920035737056e-06   5.596419666627477e-05
-6.609581535331225e-05   3.409920035737056e-06   5.596419666627477e-05
-6.609581535331225e-05   3.409920035737056e-06   5.596419666627477e-05
-6.609581535331225e-05   3.409920035737056e-06   5.596419666627477e-05
-0.00010960889962789624   -3.2571235852874025e-06   0.00013248622996319553
-0.00010960889962789624   -3.2571235852874025e-06   0.00013248622996319553
-0.00010960889962789624   -3.2571235852874025e-06   0.00013248622996319553
-0.00010960889962789624   -3.2571235852874025e-06   0.00013248622996319553
-8.424207157293941e-05   3.368484861512172e-06   8.623281813685416e-05
-8.424207157293941e-05   3.368484861512172e-06   8.623281813685416e-05
-8.424207157293941e-05   3.368484861512172e-06   8.623281813685416e-05
-8.424207157293941e-05   3.368484861512172e-06   8.623281813685416e-05
-6.608956449477725e-05   3.364091452858365e-06   8.496646848682519e-05
-6.608956449477725e-05   3.364091452858365e-06   8.496646848682519e-05
-6.608956449477725e-05   3.364091452858365e-06   8.496646848682519e-05
-6.608956449477725e-05   3.364091452858365e-06   8.496646848682519e-05
-4.0382171463715887e-05   -1.9839731170381847e-05   0.00011388982996465011
-4.0382171463715887e-05   -1.9839731170381847e-05   0.00011388982996465011
-4.0382171463715887e-05   -1.9839731170381847e-05   0.00011388982996465011
-4.0382171463715887e-05   -1.9839731170381847e-05   0.00011388982996465011
-4.04241350588962e-05   1.6324592837404887e-06   7.128150056815688e-05
-4.04241350588962e-05   1.6324592837404887e-06   7.128150056815688e-05
-4.04241350588962e-05   1.6324592837404887e-06   7.128150056815688e-05
-4.04241350588962e-05   1.6324592837404887e-06   7.128150056815688e-05
-6.603328727293199e-05   -1.6192739253480855e-05   0.00012465854004721678
-6.603328727293199e-05   -1.6192739253480855e-05   0.00012465854004721678
-6.603328727293199e-05   -1.6192739253480855e-05   0.00012465854004721678
-6.603328727293199e-05   -1.6192739253480855e-05   0.00012465854004721678
-5.29349672332083e-05   -9.799982740668796e-06   9.899235273999043e-05
-5.29349672332083e-05   -9.799982740668796e-06   9.899235273999043e-05
-5.29349672332083e-05   -9.799982740668796e-06   9.899235273999043e-05
-5.29349672332083e-05   -9.799982740668796e-06   9.899235273999043e-05
-6.603328727293204e-05   1.6324592837404887e-06   8.197661969048912e-05
-6.603328727293204e-05   1.6324592837404887e-06   8.197661969048912e-05
-6.603328727293204e-05   1.6324592837404887e-06   8.197661969048912e-05
-6.603328727293204e-05   1.6324592837404887e-06   8.197661969048912e-05
-4.042413505889609e-05   -1.6192739253480855e-05   0.0001139634209248841
-4.042413505889609e-05   -1.6192739253480855e-05   0.0001139634209248841
-4.042413505889609e-05   -1.6192739253480855e-05   0.0001139634209248841
-4.042413505889609e-05   -1.6192739253480855e-05   0.0001139634209248841
-4.052624208693994e-05   -3.931633764408561e-07   7.353386477161779e-05
-4.052624208693994e-05   -3.931633764408561e-07   7.353386477161779e-05
-4.052624208693994e-05   -3.931633764408561e-07   7.353386477161779e-05
-4.052624208693994e-05   -3.931633764408561e-07   7.353386477161779e-05
-6.68713954552457e-05   -1.6577567151273686e-05   0.00012715309598369307
-6.68713954552457e-05   -1.6577567151273686e-05   0.00012715309598369307
-6.68713954552457e-05   -1.6577567151273686e-05   0.00012715309598369307
-6.68713954552457e-05   -1.6577567151273686e-05   0.00012715309598369307
-5.250810846413022e-05   -8.559470633761126e-06   9.840342642132604e-05
-5.250810846413022e-05   -8.559470633761126e-06   9.840342642132604e-05
-5.250810846413022e-05   -8.559470633761126e-06   9.840342642132604e-05
-5.250810846413022e-05   -8.559470633761126e-06   9.840342642132604e-05
-6.687139545524581e-05   -3.931633764408561e-07   8.324450703651727e-05
-6.687139545524581e-05   -3.931633764408561e-07   8.324450703651727e-05
-6.687139545524581e-05   -3.931633764408561e-07   8.324450703651727e-05
-6.687139545524581e-05   -3.931633764408561e-07   8.324450703651727e-05
-4.052624208693994e-05   -1.6577567151273686e-05   0.00011744245371879348
-4.052624208693994e-05   -1.6577567151273686e-05   0.00011744245371879348
-4.052624208693994e-05   -1.6577567151273686e-05   0.00011744245371879348
-4.052624208693994e-05   -1.6577567151273686e-05   0.00011744245371879348
-4.0062659704911355e-05   -3.0658748460532514e-06   7.632887426799228e-05
-4.0062659704911355e-05   -3.0658748460532514e-06   7.632887426799228e-05
-4.0062659704911355e-05   -3.0658748460532514e-06   7.632887426799228e-05
-4.0062659704911355e-05   -3.0658748460532514e-06   7.632887426799228e-05
-6.609581535331209e-05   -1.6777319366585632e-05   0.00012794433372764546
-6.609581535331209e-05   -1.6777319366585632e-05   0.00012794433372764546
-6.609581535331209e-05   -1.6777319366585632e-05   0.00012794433372764546
-6.609581535331209e-05   -1.6777319366585632e-05   0.00012794433372764546
-5.2692338103893207e-05   -9.644461629977358e-06   0.00010132549033664941
-5.2692338103893207e-05   -9.644461629977358e-06   0.00010132549033664941
-5.2692338103893207e-05   -9.644461629977358e-06   0.00010132549033664941
-5.2692338103893207e-05   -9.644461629977358e-06   0.00010132549033664941
-4.0382171463715887e-05   9.262966232216965e-07   7.841239548211573e-05
-4.0382171463715887e-05   9.262966232216965e-07   7.841239548211573e-05
-4.0382171463715887e-05   9.262966232216965e-07   7.841239548211573e-05
-4.0382171463715887e-05   9.262966232216965e-07   7.841239548211573e-05
-2.9518356106855454e-05   -1.5492937564741318e-05   8.666721389743916e-05
-2.9518356106855454e-05   -1.5492937564741318e-05   8.666721389743916e-05
-2.9518356106855454e-05   -1.5492937564741318e-05   8.666721389743916e-05
-2.9518356106855454e-05   -1.5492937564741318e-05   8.666721389743916e-05
-2.9210188403262392e-05   -5.473651853871858e-07   6.922098219258642e-05
-2.9210188403262392e-05   -5.473651853871858e-07   6.922098219258642e-05
-2.9210188403262392e-05   -5.473651853871858e-07   6.922098219258642e-05
-2.9210188403262392e-05   -5.473651853871858e-07   6.922098219258642e-05
-4.042413505889609e-05   -1.52156291279256e-05   9.671185165083338e-05
-4.042413505889609e-05   -1.52156291279256e-05   9.671185165083338e-05
-4.042413505889609e-05   -1.52156291279256e-05   9.671185165083338e-05
-4.042413505889609e-05   -1.52156291279256e-05   9.671185165083338e-05
-3.4662631563645214e-05   -7.84101304969996e-06   8.268457617848076e-05
-3.4662631563645214e-05   -7.84101304969996e-06   8.268457617848076e-05
-3.4662631563645214e-05   -7.84101304969996e-06   8.268457617848076e-05
-3.4662631563645214e-05   -7.84101304969996e-06   8.268457617848076e-05
-4.042413505889609e-05   -5.473651853871858e-07   7.802194055810943e-05
-4.042413505889609e-05   -5.473651853871858e-07   7.802194055810943e-05
-4.042413505889609e-05   -5.473651853871858e-07   7.802194055810943e-05
-4.042413505889609e-05   -5.473651853871858e-07   7.802194055810943e-05
-2.9210188403262392e-05   -1.52156291279256e-05   8.79108932853106e-05
-2.9210188403262392e-05   -1.52156291279256e-05   8.79108932853106e-05
-2.9210188403262392e-05   -1.52156291279256e-05   8.79108932853106e-05
-2.9210188403262392e-05   -1.52156291279256e-05   8.79108932853106e-05
-2.893087613575437e-05   -2.312855636859082e-06   7.089409134514776e-05
-2.893087613575437e-05   -2.312855636859082e-06   7.089409134514776e-05
-2.893087613575437e-05   -2.312855636859082e-06   7.089409134514776e-05
-2.893087613575437e-05   -2.312855636859082e-06   7.089409134514776e-05
-4.052624208693994e-05   -1.5690382268881324e-05   9.824621724300328e-05
-4.052624208693994e-05   -1.5690382268881324e-05   9.824621724300328e-05
-4.052624208693994e-05   -1.5690382268881324e-05   9.824621724300328e-05
-4.052624208693994e-05   -1.5690382268881324e-05   9.824621724300328e-05
-3.431195861268254e-05   -8.385393045934851e-06   8.350608458547091e-05
-3.431195861268254e-05   -8.385393045934851e-06   8.350608458547091e-05
-3.431195861268254e-05   -8.385393045934851e-06   8.350608458547091e-05
-3.431195861268254e-05   -8.385393045934851e-06   8.350608458547091e-05
-4.052624208693994e-05   -2.3128556368595156e-06   7.892060732436128e-05
-4.052624208693994e-05   -2.3128556368595156e-06   7.892060732436128e-05
-4.052624208693994e-05   -2.3128556368595156e-06   7.892060732436128e-05
-4.052624208693994e-05   -2.3128556368595156e-06   7.892060732436128e-05
-2.8930876135754586e-05   -1.569038226888154e-05   9.021970126379009e-05
-2.8930876135754586e-05   -1.569038226888154e-05   9.021970126379009e-05
-2.8930876135754586e-05   -1.569038226888154e-05   9.021970126379009e-05
-2.8930876135754586e-05   -1.569038226888154e-05   9.021970126379009e-05
-2.830123809061764e-05   -4.092545853426072e-06   7.347807671677191e-05
-2.830123809061764e-05   -4.092545853426072e-06   7.347807671677191e-05
-2.830123809061764e-05   -4.092545853426072e-06   7.347807671677191e-05
-2.830123809061764e-05   -4.092545853426072e-06   7.347807671677191e-05
-4.0062659704911355e-05   -1.63795395617635e-05   0.00010045264229893041
-4.0062659704911355e-05   -1.63795395617635e-05   0.00010045264229893041
-4.0062659704911355e-05   -1.63795395617635e-05   0.00010045264229893041
-4.0062659704911355e-05   -1.63795395617635e-05   0.00010045264229893041
-3.389865377628179e-05   -9.168938230625506e-06   8.585293828586521e-05
-3.389865377628179e-05   -9.168938230625506e-06   8.585293828586521e-05
-3.389865377628179e-05   -9.168938230625506e-06   8.585293828586521e-05
-3.389865377628179e-05   -9.168938230625506e-06   8.585293828586521e-05
-2.9518356106855237e-05   4.193467828097e-06   5.3133413047137855e-05
-2.9518356106855237e-05   4.193467828097e-06   5.3133413047137855e-05
-2.9518356106855237e-05   4.193467828097e-06   5.3133413047137855e-05
-2.9518356106855237e-05   4.193467828097e-06   5.3133413047137855e-05
-2.438661191723969e-05   -6.3380408461136475e-06   5.536741482530471e-05
-2.438661191723969e-05   -6.3380408461136475e-06   5.536741482530471e-05
-2.438661191723969e-05   -6.3380408461136475e-06   5.536741482530471e-05
-2.438661191723969e-05   -6.3380408461136475e-06   5.536741482530471e-05
-2.381167039967381e-05   2.255691510569778e-06   4.796811463705789e-05
-2.381167039967381e-05   2.255691510569778e-06   4.796811463705789e-05
-2.381167039967381e-05   2.255691510569778e-06   4.796811463705789e-05
-2.381167039967381e-05   2.255691510569778e-06   4.796811463705789e-05
-2.9210188403262392e-05   -7.437286462869596e-06   6.27814314271035e-05
-2.9210188403262392e-05   -7.437286462869596e-06   6.27814314271035e-05
-2.9210188403262392e-05   -7.437286462869596e-06   6.27814314271035e-05
-2.9210188403262392e-05   -7.437286462869596e-06   6.27814314271035e-05
-2.6534356538200263e-05   -1.4427709920218981e-06   5.472500236949245e-05
-2.6534356538200263e-05   -1.4427709920218981e-06   5.472500236949245e-05
-2.6534356538200263e-05   -1.4427709920218981e-06   5.472500236949245e-05
-2.6534356538200263e-05   -1.4427709920218981e-06   5.472500236949245e-05
-2.9210188403262392e-05   2.255691510569778e-06   5.378390142112173e-05
-2.9210188403262392e-05   2.255691510569778e-06   5.378390142112173e-05
-2.9210188403262392e-05   2.255691510569778e-06   5.378390142112173e-05
-2.9210188403262392e-05   2.255691510569778e-06   5.378390142112173e-05
-2.381167039967381e-05   -7.437286462869596e-06   5.696564464303987e-05
-2.381167039967381e-05   -7.437286462869596e-06   5.696564464303987e-05
-2.381167039967381e-05   -7.437286462869596e-06   5.696564464303987e-05
-2.381167039967381e-05   -7.437286462869596e-06   5.696564464303987e-05
-2.3523043447207757e-05   5.985293089795507e-07   5.025017655317307e-05
-2.3523043447207757e-05   5.985293089795507e-07   5.025017655317307e-05
-2.3523043447207757e-05   5.985293089795507e-07   5.025017655317307e-05
-2.3523043447207757e-05   5.985293089795507e-07   5.025017655317307e-05
-2.893087613575437e-05   -8.274833988695983e-06   6.458724901268857e-05
-2.893087613575437e-05   -8.274833988695983e-06   6.458724901268857e-05
-2.893087613575437e-05   -8.274833988695983e-06   6.458724901268857e-05
-2.893087613575437e-05   -8.274833988695983e-06   6.458724901268857e-05
-2.596591375316371e-05   -2.6307219026053957e-06   5.625917779004735e-05
-2.596591375316371e-05   -2.6307219026053957e-06   5.625917779004735e-05
-2.596591375316371e-05   -2.6307219026053957e-06   5.625917779004735e-05
-2.596591375316371e-05   -2.6307219026053957e-06   5.625917779004735e-05
-2.8930876135754152e-05   5.985293089795507e-07   5.557419453177726e-05
-2.8930876135754152e-05   5.985293089795507e-07   5.557419453177726e-05
-2.8930876135754152e-05   5.985293089795507e-07   5.557419453177726e-05
-2.8930876135754152e-05   5.985293089795507e-07   5.557419453177726e-05
-2.3523043447207757e-05   -8.274833988695983e-06   5.9263231034083295e-05
-2.3523043447207757e-05   -8.274833988695983e-06   5.9263231034083295e-05
-2.3523043447207757e-05   -8.274833988695983e-06   5.9263231034083295e-05
-2.3523043447207757e-05   -8.274833988695983e-06   5.9263231034083295e-05
-2.3078747493292034e-05   -1.0706080247192655e-06   5.311614338064869e-05
-2.3078747493292034e-05   -1.0706080247192655e-06   5.311614338064869e-05
-2.3078747493292034e-05   -1.0706080247192655e-06   5.311614338064869e-05
-2.3078747493292034e-05   -1.0706080247192655e-06   5.311614338064869e-05
-2.830123809061764e-05   -9.377807653857722e-06   6.680461415367427e-05
-2.830123809061764e-05   -9.377807653857722e-06   6.680461415367427e-05
-2.830123809061764e-05   -9.377807653857722e-06   6.680461415367427e-05
-2.830123809061764e-05   -9.377807653857722e-06   6.680461415367427e-05
-2.550704052560655e-05   -3.6671133419106765e-06   5.87212016248226e-05
-2.550704052560655e-05   -3.6671133419106765e-06   5.87212016248226e-05
-2.550704052560655e-05   -3.6671133419106765e-06   5.87212016248226e-05
-2.550704052560655e-05   -3.6671133419106765e-06   5.87212016248226e-05
-2.438661191723969e-05   6.8619905780587485e-06   1.1773877055895002e-05
-2.438661191723969e-05   6.8619905780587485e-06   1.1773877055895002e-05
-2.438661191723969e-05   6.8619905780587485e-06   1.1773877055895002e-05
-2.438661191723969e-05   6.8619905780587485e-06   1.1773877055895002e-05
-1.3756778321843358e-05   -7.405405349327279e-07   2.492874771376093e-05
-1.3756778321843358e-05   -7.405405349327279e-07   2.492874771376093e-05
-1.3756778321843358e-05   -7.405405349327279e-07   2.492874771376093e-05
-1.3756778321843358e-05   -7.405405349327279e-07   2.492874771376093e-05
-1.4497996250012642e-05   5.496911725137894e-06   1.1866520007485122e-05
-1.4497996250012642e-05   5.496911725137894e-06   1.1866520007485122e-05
-1.4497996250012642e-05   5.496911725137894e-06   1.1866520007485122e-05
-1.4497996250012642e-05   5.496911725137894e-06   1.1866520007485122e-05
-2.381167039967381e-05   -1.0193908073642243e-06   3.1299091776422656e-05
-2.381167039967381e-05   -1.0193908073642243e-06   3.1299091776422656e-05
-2.381167039967381e-05   -1.0193908073642243e-06   3.1299091776422656e-05
-2.381167039967381e-05   -1.0193908073642243e-06   3.1299091776422656e-05
-1.8457002065568246e-05   3.519703561097407e-06   1.9651187931838364e-05
-1.8457002065568246e-05   3.519703561097407e-06   1.9651187931838364e-05
-1.8457002065568246e-05   3.519703561097407e-06   1.9651187931838364e-05
-1.8457002065568246e-05   3.519703561097407e-06   1.9651187931838364e-05
-2.381167039967381e-05   5.496911725137461e-06   1.5776301526985786e-05
-2.381167039967381e-05   5.496911725137461e-06   1.5776301526985786e-05
-2.381167039967381e-05   5.496911725137461e-06   1.5776301526985786e-05
-2.381167039967381e-05   5.496911725137461e-06   1.5776301526985786e-05
-1.4497996250012642e-05   -1.0193908073644412e-06   2.7389310256921776e-05
-1.4497996250012642e-05   -1.0193908073644412e-06   2.7389310256921776e-05
-1.4497996250012642e-05   -1.0193908073644412e-06   2.7389310256921776e-05
-1.4497996250012642e-05   -1.0193908073644412e-06   2.7389310256921776e-05
-1.5099769124493232e-05   4.602738628825889e-06   1.55422621850752e-05
-1.5099769124493232e-05   4.602738628825889e-06   1.55422621850752e-05
-1.5099769124493232e-05   4.602738628825889e-06   1.55422621850752e-05
-1.5099769124493232e-05   4.602738628825889e-06   1.55422621850752e-05
-2.3523043447207757e-05   -1.4012344417386417e-06   3.318343656527091e-05
-2.3523043447207757e-05   -1.4012344417386417e-06   3.318343656527091e-05
-2.3523043447207757e-05   -1.4012344417386417e-06   3.318343656527091e-05
-2.3523043447207757e-05   -1.4012344417386417e-06   3.318343656527091e-05
-1.8729132814717764e-05   2.8364953160390366e-06   2.2650947656452803e-05
-1.8729132814717764e-05   2.8364953160390366e-06   2.2650947656452803e-05
-1.8729132814717764e-05   2.8364953160390366e-06   2.2650947656452803e-05
-1.8729132814717764e-05   2.8364953160390366e-06   2.2650947656452803e-05
-2.3523043447207757e-05   4.602738628825889e-06   1.9144646027414308e-05
-2.3523043447207757e-05   4.602738628825889e-06   1.9144646027414308e-05
-2.3523043447207757e-05   4.602738628825889e-06   1.9144646027414308e-05
-2.3523043447207757e-05   4.602738628825889e-06   1.9144646027414308e-05
-1.5099769124493232e-05   -1.4012344417386417e-06   2.9581052722932235e-05
-1.5099769124493232e-05   -1.4012344417386417e-06   2.9581052722932235e-05
-1.5099769124493232e-05   -1.4012344417386417e-06   2.9581052722932235e-05
-1.5099769124493232e-05   -1.4012344417386417e-06   2.9581052722932235e-05
-1.6668252990365267e-05   2.822632348955731e-06   2.210795822752982e-05
-1.6668252990365267e-05   2.822632348955731e-06   2.210795822752982e-05
-1.6668252990365267e-05   2.822632348955731e-06   2.210795822752982e-05
-1.6668252990365267e-05   2.822632348955731e-06   2.210795822752982e-05
-2.3078747493292034e-05   -1.8498260925118356e-06   3.559559079728677e-05
-2.3078747493292034e-05   -1.8498260925118356e-06   3.559559079728677e-05
-2.3078747493292034e-05   -1.8498260925118356e-06   3.559559079728677e-05
-2.3078747493292034e-05   -1.8498260925118356e-06   3.559559079728677e-05
-1.8727630798614798e-05   2.3820639329539747e-06   2.580459562421221e-05
-1.8727630798614798e-05   2.3820639329539747e-06   2.580459562421221e-05
-1.8727630798614798e-05   2.3820639329539747e-06   2.580459562421221e-05
-1.8727630798614798e-05   2.3820639329539747e-06   2.580459562421221e-05
-0.00022856049565933147   1.807613278608086e-05   9.559037565126064e-05
-0.00022856049565933147   1.807613278608086e-05   9.559037565126064e-05
-0.00022856049565933147   1.807613278608086e-05   9.559037565126064e-05
-0.00022856049565933147   1.807613278608086e-05   9.559037565126064e-05
-5.400330918564928e-05   -0.00010880022411435331   0.0003103932056338041
-5.400330918564928e-05   -0.00010880022411435331   0.0003103932056338041
-5.400330918564928e-05   -0.00010880022411435331   0.0003103932056338041
-5.400330918564928e-05   -0.00010880022411435331   0.0003103932056338041
-6.320056469888598e-05   7.50067688125842e-06   5.270936251255905e-05
-6.320056469888598e-05   7.50067688125842e-06   5.270936251255905e-05
-6.320056469888598e-05   7.50067688125842e-06   5.270936251255905e-05
-6.320056469888598e-05   7.50067688125842e-06   5.270936251255905e-05
-0.00020845188244670768   -8.412891303461057e-05   0.00034977264604178266
-0.00020845188244670768   -8.412891303461057e-05   0.00034977264604178266
-0.00020845188244670768   -8.412891303461057e-05   0.00034977264604178266
-0.00020845188244670768   -8.412891303461057e-05   0.00034977264604178266
-0.00013905596074023668   -4.190291011211514e-05   0.00020877717477750038
-0.00013905596074023668   -4.190291011211514e-05   0.00020877717477750038
-0.00013905596074023668   -4.190291011211514e-05   0.00020877717477750038
-0.00013905596074023668   -4.190291011211514e-05   0.00020877717477750038
-0.00020845188244670733   7.50067688125842e-06   0.00010768711646208019
-0.00020845188244670733   7.50067688125842e-06   0.00010768711646208019
-0.00020845188244670733   7.50067688125842e-06   0.00010768711646208019
-0.00020845188244670733   7.50067688125842e-06   0.00010768711646208019
-6.320056469888609e-05   -8.412891303461057e-05   0.0002947948920922614
-6.320056469888609e-05   -8.412891303461057e-05   0.0002947948920922614
-6.320056469888609e-05   -8.412891303461057e-05   0.0002947948920922614
-6.320056469888609e-05   -8.412891303461057e-05   0.0002947948920922614
-6.453691739851435e-05   5.445490204216818e-06   5.790468754639011e-05
-6.453691739851435e-05   5.445490204216818e-06   5.790468754639011e-05
-6.453691739851435e-05   5.445490204216818e-06   5.790468754639011e-05
-6.453691739851435e-05   5.445490204216818e-06   5.790468754639011e-05
-0.00019665967934319272   -7.218275050609338e-05   0.00032468623521370623
-0.00019665967934319272   -7.218275050609338e-05   0.00032468623521370623
-0.00019665967934319272   -7.218275050609338e-05   0.00032468623521370623
-0.00019665967934319272   -7.218275050609338e-05   0.00032468623521370623
-0.00013482392473052285   -3.965248275391523e-05   0.0002021084835412832
-0.00013482392473052285   -3.965248275391523e-05   0.0002021084835412832
-0.00013482392473052285   -3.965248275391523e-05   0.0002021084835412832
-0.00013482392473052285   -3.965248275391523e-05   0.0002021084835412832
-0.00019665967934319237   5.445490204216818e-06   0.00010448163197257596
-0.00019665967934319237   5.445490204216818e-06   0.00010448163197257596
-0.00019665967934319237   5.445490204216818e-06   0.00010448163197257596
-0.00019665967934319237   5.445490204216818e-06   0.00010448163197257596
-6.453691739851446e-05   -7.218275050609338e-05   0.00027810929078752016
-6.453691739851446e-05   -7.218275050609338e-05   0.00027810929078752016
-6.453691739851446e-05   -7.218275050609338e-05   0.00027810929078752016
-6.453691739851446e-05   -7.218275050609338e-05   0.00027810929078752016
-7.050377515831227e-05   -3.2571235852874025e-06   7.259685258177685e-05
-7.050377515831227e-05   -3.2571235852874025e-06   7.259685258177685e-05
-7.050377515831227e-05   -3.2571235852874025e-06   7.259685258177685e-05
-7.050377515831227e-05   -3.2571235852874025e-06   7.259685258177685e-05
-0.00018157501032555463   -5.63556245749301e-05   0.00028957467845429905
-0.00018157501032555463   -5.63556245749301e-05   0.00028957467845429905
-0.00018157501032555463   -5.63556245749301e-05   0.00028957467845429905
-0.00018157501032555463   -5.63556245749301e-05   0.00028957467845429905
-0.0001295836512821206   -3.6582232762400455e-05   0.00019105837829439166
-0.0001295836512821206   -3.6582232762400455e-05   0.00019105837829439166
-0.0001295836512821206   -3.6582232762400455e-05   0.00019105837829439166
-0.0001295836512821206   -3.6582232762400455e-05   0.00019105837829439166
-5.4003309185649174e-05   -1.9839731170381847e-05   5.379626163240655e-05
-5.4003309185649174e-05   -1.9839731170381847e-05   5.379626163240655e-05
-5.4003309185649174e-05   -1.9839731170381847e-05   5.379626163240655e-05
-5.4003309185649174e-05   -1.9839731170381847e-05   5.379626163240655e-05
-1.8890914407791596e-05   -3.293046998429779e-05   0.00010446247630715343
-1.8890914407791596e-05   -3.293046998429779e-05   0.00010446247630715343
-1.8890914407791596e-05   -3.293046998429779e-05   0.00010446247630715343
-1.8890914407791596e-05   -3.293046998429779e-05   0.00010446247630715343
-2.0994016069586182e-05   -1.6192739253481072e-05   4.852132954876712e-05
-2.0994016069586182e-05   -1.6192739253481072e-05   4.852132954876712e-05
-2.0994016069586182e-05   -1.6192739253481072e-05   4.852132954876712e-05
-2.0994016069586182e-05   -1.6192739253481072e-05   4.852132954876712e-05
-6.320056469888609e-05   -4.399336493016608e-05   0.00013554595267027767
-6.320056469888609e-05   -4.399336493016608e-05   0.00013554595267027767
-6.320056469888609e-05   -4.399336493016608e-05   0.00013554595267027767
-6.320056469888609e-05   -4.399336493016608e-05   0.00013554595267027767
-3.7225900492501987e-05   -2.3169684545841745e-05   7.976063742904239e-05
-3.7225900492501987e-05   -2.3169684545841745e-05   7.976063742904239e-05
-3.7225900492501987e-05   -2.3169684545841745e-05   7.976063742904239e-05
-3.7225900492501987e-05   -2.3169684545841745e-05   7.976063742904239e-05
-6.320056469888595e-05   -1.6192739253481072e-05   6.520170495477758e-05
-6.320056469888595e-05   -1.6192739253481072e-05   6.520170495477758e-05
-6.320056469888595e-05   -1.6192739253481072e-05   6.520170495477758e-05
-6.320056469888595e-05   -1.6192739253481072e-05   6.520170495477758e-05
-2.0994016069586182e-05   -4.399336493016608e-05   0.00011886557726426662
-2.0994016069586182e-05   -4.399336493016608e-05   0.00011886557726426662
-2.0994016069586182e-05   -4.399336493016608e-05   0.00011886557726426662
-2.0994016069586182e-05   -4.399336493016608e-05   0.00011886557726426662
-2.278747466043186e-05   -1.6577567151273686e-05   5.454393262780094e-05
-2.278747466043186e-05   -1.6577567151273686e-05   5.454393262780094e-05
-2.278747466043186e-05   -1.6577567151273686e-05   5.454393262780094e-05
-2.278747466043186e-05   -1.6577567151273686e-05   5.454393262780094e-05
-6.453691739851446e-05   -4.00504049795793e-05   0.00013821003988825496
-6.453691739851446e-05   -4.00504049795793e-05   0.00013821003988825496
-6.453691739851446e-05   -4.00504049795793e-05   0.00013821003988825496
-6.453691739851446e-05   -4.00504049795793e-05   0.00013821003988825496
-4.1854362886718135e-05   -2.8432343455248618e-05   9.343494545399655e-05
-4.1854362886718135e-05   -2.8432343455248618e-05   9.343494545399655e-05
-4.1854362886718135e-05   -2.8432343455248618e-05   9.343494545399655e-05
-4.1854362886718135e-05   -2.8432343455248618e-05   9.343494545399655e-05
-6.453691739851435e-05   -1.6577567151273686e-05   6.862763532478446e-05
-6.453691739851435e-05   -1.6577567151273686e-05   6.862763532478446e-05
-6.453691739851435e-05   -1.6577567151273686e-05   6.862763532478446e-05
-6.453691739851435e-05   -1.6577567151273686e-05   6.862763532478446e-05
-2.278747466043197e-05   -4.00504049795793e-05   0.0001241263371912716
-2.278747466043197e-05   -4.00504049795793e-05   0.0001241263371912716
-2.278747466043197e-05   -4.00504049795793e-05   0.0001241263371912716
-2.278747466043197e-05   -4.00504049795793e-05   0.0001241263371912716
-2.568659583521756e-05   -1.6777319366585415e-05   5.9571740483390116e-05
-2.568659583521756e-05   -1.6777319366585415e-05   5.9571740483390116e-05
-2.568659583521756e-05   -1.6777319366585415e-05   5.9571740483390116e-05
-2.568659583521756e-05   -1.6777319366585415e-05   5.9571740483390116e-05
-7.050377515831235e-05   -3.7583056092338425e-05   0.000146750481390666
-7.050377515831235e-05   -3.7583056092338425e-05   0.000146750481390666
-7.050377515831235e-05   -3.7583056092338425e-05   0.000146750481390666
-7.050377515831235e-05   -3.7583056092338425e-05   0.000146750481390666
-4.4493066000633e-05   -2.594260733851622e-05   9.64150302089074e-05
-4.4493066000633e-05   -2.594260733851622e-05   9.64150302089074e-05
-4.4493066000633e-05   -2.594260733851622e-05   9.64150302089074e-05
-4.4493066000633e-05   -2.594260733851622e-05   9.64150302089074e-05
-1.8890914407791596e-05   -1.5492937564741318e-05   2.857074278962376e-05
-1.8890914407791596e-05   -1.5492937564741318e-05   2.857074278962376e-05
-1.8890914407791596e-05   -1.5492937564741318e-05   2.857074278962376e-05
-1.8890914407791596e-05   -1.5492937564741318e-05   2.857074278962376e-05
-1.0490633703011875e-05   -8.749254826114915e-06   4.661742027409904e-05
-1.0490633703011875e-05   -8.749254826114915e-06   4.661742027409904e-05
-1.0490633703011875e-05   -8.749254826114915e-06   4.661742027409904e-05
-1.0490633703011875e-05   -8.749254826114915e-06   4.661742027409904e-05
-1.0027114689144592e-05   -1.52156291279256e-05   3.343883777096111e-05
-1.0027114689144592e-05   -1.52156291279256e-05   3.343883777096111e-05
-1.0027114689144592e-05   -1.52156291279256e-05   3.343883777096111e-05
-1.0027114689144592e-05   -1.52156291279256e-05   3.343883777096111e-05
-2.0994016069586182e-05   -1.1600499967517674e-05   4.9547929242118845e-05
-2.0994016069586182e-05   -1.1600499967517674e-05   4.9547929242118845e-05
-2.0994016069586182e-05   -1.1600499967517674e-05   4.9547929242118845e-05
-2.0994016069586182e-05   -1.1600499967517674e-05   4.9547929242118845e-05
-1.4150400529237589e-05   -1.2154798693081947e-05   3.8474482576875526e-05
-1.4150400529237589e-05   -1.2154798693081947e-05   3.8474482576875526e-05
-1.4150400529237589e-05   -1.2154798693081947e-05   3.8474482576875526e-05
-1.4150400529237589e-05   -1.2154798693081947e-05   3.8474482576875526e-05
-2.0994016069586182e-05   -1.52156291279256e-05   3.1269760274716665e-05
-2.0994016069586182e-05   -1.52156291279256e-05   3.1269760274716665e-05
-2.0994016069586182e-05   -1.52156291279256e-05   3.1269760274716665e-05
-2.0994016069586182e-05   -1.52156291279256e-05   3.1269760274716665e-05
-1.0027114689144592e-05   -1.1600499967517674e-05   5.17170067383634e-05
-1.0027114689144592e-05   -1.1600499967517674e-05   5.17170067383634e-05
-1.0027114689144592e-05   -1.1600499967517674e-05   5.17170067383634e-05
-1.0027114689144592e-05   -1.1600499967517674e-05   5.17170067383634e-05
-9.987721062019051e-06   -1.5690382268881324e-05   3.571585769065891e-05
-9.987721062019051e-06   -1.5690382268881324e-05   3.571585769065891e-05
-9.987721062019051e-06   -1.5690382268881324e-05   3.571585769065891e-05
-9.987721062019051e-06   -1.5690382268881324e-05   3.571585769065891e-05
-2.278747466043197e-05   -1.507677970446804e-05   5.6680618816031545e-05
-2.278747466043197e-05   -1.507677970446804e-05   5.6680618816031545e-05
-2.278747466043197e-05   -1.507677970446804e-05   5.6680618816031545e-05
-2.278747466043197e-05   -1.507677970446804e-05   5.6680618816031545e-05
-1.4934611933383986e-05   -1.3293081830725623e-05   4.25222955467066e-05
-1.4934611933383986e-05   -1.3293081830725623e-05   4.25222955467066e-05
-1.4934611933383986e-05   -1.3293081830725623e-05   4.25222955467066e-05
-1.4934611933383986e-05   -1.3293081830725623e-05   4.25222955467066e-05
-2.278747466043186e-05   -1.569038226888154e-05   3.534769615201074e-05
-2.278747466043186e-05   -1.569038226888154e-05   3.534769615201074e-05
-2.278747466043186e-05   -1.569038226888154e-05   3.534769615201074e-05
-2.278747466043186e-05   -1.569038226888154e-05   3.534769615201074e-05
-9.987721062019051e-06   -1.507677970446804e-05   5.704878035467972e-05
-9.987721062019051e-06   -1.507677970446804e-05   5.704878035467972e-05
-9.987721062019051e-06   -1.507677970446804e-05   5.704878035467972e-05
-9.987721062019051e-06   -1.507677970446804e-05   5.704878035467972e-05
-1.0037930305930014e-05   -1.6379539561763717e-05   3.910123083206542e-05
-1.0037930305930014e-05   -1.6379539561763717e-05   3.910123083206542e-05
-1.0037930305930014e-05   -1.6379539561763717e-05   3.910123083206542e-05
-1.0037930305930014e-05   -1.6379539561763717e-05   3.910123083206542e-05
-2.5686595835217453e-05   -1.838901445331126e-05   6.63880249824726e-05
-2.5686595835217453e-05   -1.838901445331126e-05   6.63880249824726e-05
-2.5686595835217453e-05   -1.838901445331126e-05   6.63880249824726e-05
-2.5686595835217453e-05   -1.838901445331126e-05   6.63880249824726e-05
-1.5814588339129864e-05   -1.456844352653035e-05   4.764233659959138e-05
-1.5814588339129864e-05   -1.456844352653035e-05   4.764233659959138e-05
-1.5814588339129864e-05   -1.456844352653035e-05   4.764233659959138e-05
-1.5814588339129864e-05   -1.456844352653035e-05   4.764233659959138e-05
-1.0490633703011875e-05   -6.338040846113864e-06   7.63605856519121e-06
-1.0490633703011875e-05   -6.338040846113864e-06   7.63605856519121e-06
-1.0490633703011875e-05   -6.338040846113864e-06   7.63605856519121e-06
-1.0490633703011875e-05   -6.338040846113864e-06   7.63605856519121e-06
-7.682989946897418e-06   2.0204145278460064e-06   1.733053804975804e-05
-7.682989946897418e-06   2.0204145278460064e-06   1.733053804975804e-05
-7.682989946897418e-06   2.0204145278460064e-06   1.733053804975804e-05
-7.682989946897418e-06   2.0204145278460064e-06   1.733053804975804e-05
-6.170724962245621e-06   -7.437286462869596e-06   1.3394783053150006e-05
-6.170724962245621e-06   -7.437286462869596e-06   1.3394783053150006e-05
-6.170724962245621e-06   -7.437286462869596e-06   1.3394783053150006e-05
-6.170724962245621e-06   -7.437286462869596e-06   1.3394783053150006e-05
-1.0027114689144592e-05   1.038392104456894e-06   1.4736692124251794e-05
-1.0027114689144592e-05   1.038392104456894e-06   1.4736692124251794e-05
-1.0027114689144592e-05   1.038392104456894e-06   1.4736692124251794e-05
-1.0027114689144592e-05   1.038392104456894e-06   1.4736692124251794e-05
-8.06663571057797e-06   -2.8221810868900386e-06   1.3785571074781747e-05
-8.06663571057797e-06   -2.8221810868900386e-06   1.3785571074781747e-05
-8.06663571057797e-06   -2.8221810868900386e-06   1.3785571074781747e-05
-8.06663571057797e-06   -2.8221810868900386e-06   1.3785571074781747e-05
-1.0027114689144592e-05   -7.437286462869596e-06   8.309375912753905e-06
-1.0027114689144592e-05   -7.437286462869596e-06   8.309375912753905e-06
-1.0027114689144592e-05   -7.437286462869596e-06   8.309375912753905e-06
-1.0027114689144592e-05   -7.437286462869596e-06   8.309375912753905e-06
-6.170724962245621e-06   1.038392104456894e-06   1.982209926464757e-05
-6.170724962245621e-06   1.038392104456894e-06   1.982209926464757e-05
-6.170724962245621e-06   1.038392104456894e-06   1.982209926464757e-05
-6.170724962245621e-06   1.038392104456894e-06   1.982209926464757e-05
-5.3212579717955896e-06   -8.274833988695983e-06   1.470988210203368e-05
-5.3212579717955896e-06   -8.274833988695983e-06   1.470988210203368e-05
-5.3212579717955896e-06   -8.274833988695983e-06   1.470988210203368e-05
-5.3212579717955896e-06   -8.274833988695983e-06   1.470988210203368e-05
-9.987721062019051e-06   -5.640395512353507e-07   1.786084392326262e-05
-9.987721062019051e-06   -5.640395512353507e-07   1.786084392326262e-05
-9.987721062019051e-06   -5.640395512353507e-07   1.786084392326262e-05
-9.987721062019051e-06   -5.640395512353507e-07   1.786084392326262e-05
-7.268826815919711e-06   -3.648303719578543e-06   1.5179912014103274e-05
-7.268826815919711e-06   -3.648303719578543e-06   1.5179912014103274e-05
-7.268826815919711e-06   -3.648303719578543e-06   1.5179912014103274e-05
-7.268826815919711e-06   -3.648303719578543e-06   1.5179912014103274e-05
-9.987721062019051e-06   -8.274833988695983e-06   1.0083405439556634e-05
-9.987721062019051e-06   -8.274833988695983e-06   1.0083405439556634e-05
-9.987721062019051e-06   -8.274833988695983e-06   1.0083405439556634e-05
-9.987721062019051e-06   -8.274833988695983e-06   1.0083405439556634e-05
-5.3212579717955896e-06   -5.640395512353507e-07   2.2487320585739016e-05
-5.3212579717955896e-06   -5.640395512353507e-07   2.2487320585739016e-05
-5.3212579717955896e-06   -5.640395512353507e-07   2.2487320585739016e-05
-5.3212579717955896e-06   -5.640395512353507e-07   2.2487320585739016e-05
-4.0154427794125355e-06   -9.377807653857722e-06   1.6104631491190794e-05
-4.0154427794125355e-06   -9.377807653857722e-06   1.6104631491190794e-05
-4.0154427794125355e-06   -9.377807653857722e-06   1.6104631491190794e-05
-4.0154427794125355e-06   -9.377807653857722e-06   1.6104631491190794e-05
-1.0037930305930014e-05   -3.912420021558792e-06   2.2862878122673546e-05
-1.0037930305930014e-05   -3.912420021558792e-06   2.2862878122673546e-05
-1.0037930305930014e-05   -3.912420021558792e-06   2.2862878122673546e-05
-1.0037930305930014e-05   -3.912420021558792e-06   2.2862878122673546e-05
-6.596481677409644e-06   -4.933910898541859e-06   1.774002493466374e-05
-6.596481677409644e-06   -4.933910898541859e-06   1.774002493466374e-05
-6.596481677409644e-06   -4.933910898541859e-06   1.774002493466374e-05
-6.596481677409644e-06   -4.933910898541859e-06   1.774002493466374e-05
-7.682989946897418e-06   -7.405405349327279e-07   -1.3226016654181694e-05
-7.682989946897418e-06   -7.405405349327279e-07   -1.3226016654181694e-05
-7.682989946897418e-06   -7.405405349327279e-07   -1.3226016654181694e-05
-7.682989946897418e-06   -7.405405349327279e-07   -1.3226016654181694e-05
-1.3156550525811848e-06   1.1457361835198287e-06   -1.482025799249588e-06
-1.3156550525811848e-06   1.1457361835198287e-06   -1.482025799249588e-06
-1.3156550525811848e-06   1.1457361835198287e-06   -1.482025799249588e-06
-1.3156550525811848e-06   1.1457361835198287e-06   -1.482025799249588e-06
1.7353158719918618e-07   -1.0193908073644412e-06   -1.046002030430978e-05
1.7353158719918618e-07   -1.0193908073644412e-06   -1.046002030430978e-05
1.7353158719918618e-07   -1.0193908073644412e-06   -1.046002030430978e-05
1.7353158719918618e-07   -1.0193908073644412e-06   -1.046002030430978e-05
-6.170724962245621e-06   2.0001917078980858e-06   -1.6980088977268035e-06
-6.170724962245621e-06   2.0001917078980858e-06   -1.6980088977268035e-06
-6.170724962245621e-06   2.0001917078980858e-06   -1.6980088977268035e-06
-6.170724962245621e-06   2.0001917078980858e-06   -1.6980088977268035e-06
-3.427506884658778e-06   5.160804671044354e-07   -5.379572282562285e-06
-3.427506884658778e-06   5.160804671044354e-07   -5.379572282562285e-06
-3.427506884658778e-06   5.160804671044354e-07   -5.379572282562285e-06
-3.427506884658778e-06   5.160804671044354e-07   -5.379572282562285e-06
-6.170724962245621e-06   -1.0193908073642243e-06   -1.2271769813467859e-05
-6.170724962245621e-06   -1.0193908073642243e-06   -1.2271769813467859e-05
-6.170724962245621e-06   -1.0193908073642243e-06   -1.2271769813467859e-05
-6.170724962245621e-06   -1.0193908073642243e-06   -1.2271769813467859e-05
1.7353158719918618e-07   2.0001917078980858e-06   1.1374061143062594e-07
1.7353158719918618e-07   2.0001917078980858e-06   1.1374061143062594e-07
1.7353158719918618e-07   2.0001917078980858e-06   1.1374061143062594e-07
1.7353158719918618e-07   2.0001917078980858e-06   1.1374061143062594e-07
9.741493389022957e-07   -1.4012344417386417e-06   -9.472177763095429e-06
9.741493389022957e-07   -1.4012344417386417e-06   -9.472177763095429e-06
9.741493389022957e-07   -1.4012344417386417e-06   -9.472177763095429e-06
9.741493389022957e-07   -1.4012344417386417e-06   -9.472177763095429e-06
-5.3212579717955896e-06   1.7616565643998792e-06   -8.775668489495458e-07
-5.3212579717955896e-06   1.7616565643998792e-06   -8.775668489495458e-07
-5.3212579717955896e-06   1.7616565643998792e-06   -8.775668489495458e-07
-5.3212579717955896e-06   1.7616565643998792e-06   -8.775668489495458e-07
-2.3169007777791182e-06   3.4105010105888334e-07   -5.032464960971067e-06
-2.3169007777791182e-06   3.4105010105888334e-07   -5.032464960971067e-06
-2.3169007777791182e-06   3.4105010105888334e-07   -5.032464960971067e-06
-2.3169007777791182e-06   3.4105010105888334e-07   -5.032464960971067e-06
-5.3212579717955896e-06   -1.4012344417386417e-06   -1.1369912366778379e-05
-5.3212579717955896e-06   -1.4012344417386417e-06   -1.1369912366778379e-05
-5.3212579717955896e-06   -1.4012344417386417e-06   -1.1369912366778379e-05
-5.3212579717955896e-06   -1.4012344417386417e-06   -1.1369912366778379e-05
9.74149338901862e-07   1.7616565643998792e-06   1.0201677547332956e-06
9.74149338901862e-07   1.7616565643998792e-06   1.0201677547332956e-06
9.74149338901862e-07   1.7616565643998792e-06   1.0201677547332956e-06
9.74149338901862e-07   1.7616565643998792e-06   1.0201677547332956e-06
1.9839657073614063e-06   -1.8498260925118356e-06   -8.047444467735795e-06
1.9839657073614063e-06   -1.8498260925118356e-06   -8.047444467735795e-06
1.9839657073614063e-06   -1.8498260925118356e-06   -8.047444467735795e-06
1.9839657073614063e-06   -1.8498260925118356e-06   -8.047444467735795e-06
-4.0154427794125355e-06   1.6045532741178659e-06   -1.210579430909256e-07
-4.0154427794125355e-06   1.6045532741178659e-06   -1.210579430909256e-07
-4.0154427794125355e-06   1.6045532741178659e-06   -1.210579430909256e-07
-4.0154427794125355e-06   1.6045532741178659e-06   -1.210579430909256e-07
-1.3070186219392562e-06   1.3867212019424893e-07   -3.7555695131920655e-06
-1.3070186219392562e-06   1.3867212019424893e-07   -3.7555695131920655e-06
-1.3070186219392562e-06   1.3867212019424893e-07   -3.7555695131920655e-06
-1.3070186219392562e-06   1.3867212019424893e-07   -3.7555695131920655e-06
              </DataArray>   
             <DataArray type="Float64" NumberOfComponents="3" Name="Stress" format="ascii">   
-11.823427875853735   -2.9558569689634338   -2.9558569689634338
-11.823427875853735   -2.9558569689634338   -2.9558569689634338
-11.823427875853735   -2.9558569689634338   -2.9558569689634338
-11.823427875853735   -2.9558569689634338   -2.9558569689634338
-6.843374296192432   -0.2141501402828212   -0.13616126395739991
-6.843374296192432   -0.2141501402828212   -0.13616126395739991
-6.843374296192432   -0.2141501402828212   -0.13616126395739991
-6.843374296192432   -0.2141501402828212   -0.13616126395739991
-7.378764210337836   -1.844691052584459   -1.844691052584459
-7.378764210337836   -1.844691052584459   -1.844691052584459
-7.378764210337836   -1.844691052584459   -1.844691052584459
-7.378764210337836   -1.844691052584459   -1.844691052584459
-11.396338166574866   -0.9337862576871301   -0.35644901437928295
-11.396338166574866   -0.9337862576871301   -0.35644901437928295
-11.396338166574866   -0.9337862576871301   -0.35644901437928295
-11.396338166574866   -0.9337862576871301   -0.35644901437928295
-8.938735596673009   -1.4642086372106635   -0.024537152223407008
-8.938735596673009   -1.4642086372106635   -0.024537152223407008
-8.938735596673009   -1.4642086372106635   -0.024537152223407008
-8.938735596673009   -1.4642086372106635   -0.024537152223407008
-12.375879013512892   -3.093969753378223   -3.093969753378223
-12.375879013512892   -3.093969753378223   -3.093969753378223
-12.375879013512892   -3.093969753378223   -3.093969753378223
-12.375879013512892   -3.093969753378223   -3.093969753378223
-6.6313076710431575   0.08340813546330406   -0.03550754415882984
-6.6313076710431575   0.08340813546330406   -0.03550754415882984
-6.6313076710431575   0.08340813546330406   -0.03550754415882984
-6.6313076710431575   0.08340813546330406   -0.03550754415882984
-7.401411848349524   -1.850352962087381   -1.850352962087381
-7.401411848349524   -1.850352962087381   -1.850352962087381
-7.401411848349524   -1.850352962087381   -1.850352962087381
-7.401411848349524   -1.850352962087381   -1.850352962087381
-11.781411770914742   -0.9433204055218003   -0.5225707936286859
-11.781411770914742   -0.9433204055218003   -0.5225707936286859
-11.781411770914742   -0.9433204055218003   -0.5225707936286859
-11.781411770914742   -0.9433204055218003   -0.5225707936286859
-9.274102223058675   -1.3792384769055124   -0.4923681991974995
-9.274102223058675   -1.3792384769055124   -0.4923681991974995
-9.274102223058675   -1.3792384769055124   -0.4923681991974995
-9.274102223058675   -1.3792384769055124   -0.4923681991974995
-12.764703923427405   -3.191175980856851   -3.191175980856851
-12.764703923427405   -3.191175980856851   -3.191175980856851
-12.764703923427405   -3.191175980856851   -3.191175980856851
-12.764703923427405   -3.191175980856851   -3.191175980856851
-6.6137481335461485   0.2018741755384017   0.03573847430371602
-6.6137481335461485   0.2018741755384017   0.03573847430371602
-6.6137481335461485   0.2018741755384017   0.03573847430371602
-6.6137481335461485   0.2018741755384017   0.03573847430371602
-7.3995936870347006   -1.8498984217586751   -1.8498984217586751
-7.3995936870347006   -1.8498984217586751   -1.8498984217586751
-7.3995936870347006   -1.8498984217586751   -1.8498984217586751
-7.3995936870347006   -1.8498984217586751   -1.8498984217586751
-12.468718516369425   -0.8287254704742808   -0.3125466052492666
-12.468718516369425   -0.8287254704742808   -0.3125466052492666
-12.468718516369425   -0.8287254704742808   -0.3125466052492666
-12.468718516369425   -0.8287254704742808   -0.3125466052492666
-9.523646927608567   -1.358336984916774   -0.8902280295864112
-9.523646927608567   -1.358336984916774   -0.8902280295864112
-9.523646927608567   -1.358336984916774   -0.8902280295864112
-9.523646927608567   -1.358336984916774   -0.8902280295864112
-7.525902239271555   -1.8814755598178887   -1.8814755598178887
-7.525902239271555   -1.8814755598178887   -1.8814755598178887
-7.525902239271555   -1.8814755598178887   -1.8814755598178887
-7.525902239271555   -1.8814755598178887   -1.8814755598178887
-3.1375811949169257   -0.20701718457570978   -0.06744013374566692
-3.1375811949169257   -0.20701718457570978   -0.06744013374566692
-3.1375811949169257   -0.20701718457570978   -0.06744013374566692
-3.1375811949169257   -0.20701718457570978   -0.06744013374566692
-3.29611089914497   -0.8240277247862425   -0.8240277247862425
-3.29611089914497   -0.8240277247862425   -0.8240277247862425
-3.29611089914497   -0.8240277247862425   -0.8240277247862425
-3.29611089914497   -0.8240277247862425   -0.8240277247862425
-6.8531414415847625   -0.804986330353539   -0.256281931050008
-6.8531414415847625   -0.804986330353539   -0.256281931050008
-6.8531414415847625   -0.804986330353539   -0.256281931050008
-6.8531414415847625   -0.804986330353539   -0.256281931050008
-5.053283262804595   -0.9566811702469448   0.03979441766110568
-5.053283262804595   -0.9566811702469448   0.03979441766110568
-5.053283262804595   -0.9566811702469448   0.03979441766110568
-5.053283262804595   -0.9566811702469448   0.03979441766110568
-7.37876421033783   -1.8446910525844575   -1.8446910525844575
-7.37876421033783   -1.8446910525844575   -1.8446910525844575
-7.37876421033783   -1.8446910525844575   -1.8446910525844575
-7.37876421033783   -1.8446910525844575   -1.8446910525844575
-2.961880905157683   0.02428422267889041   -0.0011897023149402552
-2.961880905157683   0.02428422267889041   -0.0011897023149402552
-2.961880905157683   0.02428422267889041   -0.0011897023149402552
-2.961880905157683   0.02428422267889041   -0.0011897023149402552
-3.2243558298341775   -0.8060889574585444   -0.8060889574585444
-3.2243558298341775   -0.8060889574585444   -0.8060889574585444
-3.2243558298341775   -0.8060889574585444   -0.8060889574585444
-3.2243558298341775   -0.8060889574585444   -0.8060889574585444
-6.837688711232218   -0.6571873827491073   -0.22490285583912417
-6.837688711232218   -0.6571873827491073   -0.22490285583912417
-6.837688711232218   -0.6571873827491073   -0.22490285583912417
-6.837688711232218   -0.6571873827491073   -0.22490285583912417
-4.984722299719482   -0.8057727149662739   -0.2608186932441536
-4.984722299719482   -0.8057727149662739   -0.2608186932441536
-4.984722299719482   -0.8057727149662739   -0.2608186932441536
-4.984722299719482   -0.8057727149662739   -0.2608186932441536
-7.401411848349524   -1.850352962087381   -1.850352962087381
-7.401411848349524   -1.850352962087381   -1.850352962087381
-7.401411848349524   -1.850352962087381   -1.850352962087381
-7.401411848349524   -1.850352962087381   -1.850352962087381
-2.846002844901488   0.2017064696951133   0.077880540051248
-2.846002844901488   0.2017064696951133   0.077880540051248
-2.846002844901488   0.2017064696951133   0.077880540051248
-2.846002844901488   0.2017064696951133   0.077880540051248
-3.159320881930121   -0.7898302204825303   -0.7898302204825303
-3.159320881930121   -0.7898302204825303   -0.7898302204825303
-3.159320881930121   -0.7898302204825303   -0.7898302204825303
-3.159320881930121   -0.7898302204825303   -0.7898302204825303
-6.789416870890209   -0.507618878768499   -0.1412938840264787
-6.789416870890209   -0.507618878768499   -0.1412938840264787
-6.789416870890209   -0.507618878768499   -0.1412938840264787
-6.789416870890209   -0.507618878768499   -0.1412938840264787
-5.011317580501797   -0.7135748158667652   -0.5813644435130215
-5.011317580501797   -0.7135748158667652   -0.5813644435130215
-5.011317580501797   -0.7135748158667652   -0.5813644435130215
-5.011317580501797   -0.7135748158667652   -0.5813644435130215
-3.425210812502951   -0.8563027031257378   -0.8563027031257378
-3.425210812502951   -0.8563027031257378   -0.8563027031257378
-3.425210812502951   -0.8563027031257378   -0.8563027031257378
-3.425210812502951   -0.8563027031257378   -0.8563027031257378
0.41190080662269374   0.027864365439889356   0.0032950463762180266
0.41190080662269374   0.027864365439889356   0.0032950463762180266
0.41190080662269374   0.027864365439889356   0.0032950463762180266
0.41190080662269374   0.027864365439889356   0.0032950463762180266
0.5322953944866645   0.13307384862166613   0.13307384862166613
0.5322953944866645   0.13307384862166613   0.13307384862166613
0.5322953944866645   0.13307384862166613   0.13307384862166613
0.5322953944866645   0.13307384862166613   0.13307384862166613
-3.0987053070298143   -0.53563830811967   -0.12538918087703504
-3.0987053070298143   -0.53563830811967   -0.12538918087703504
-3.0987053070298143   -0.53563830811967   -0.12538918087703504
-3.0987053070298143   -0.53563830811967   -0.12538918087703504
-1.3237832605941733   -0.3359288513929025   0.22607223895866574
-1.3237832605941733   -0.3359288513929025   0.22607223895866574
-1.3237832605941733   -0.3359288513929025   0.22607223895866574
-1.3237832605941733   -0.3359288513929025   0.22607223895866574
-3.29611089914497   -0.8240277247862425   -0.8240277247862425
-3.29611089914497   -0.8240277247862425   -0.8240277247862425
-3.29611089914497   -0.8240277247862425   -0.8240277247862425
-3.29611089914497   -0.8240277247862425   -0.8240277247862425
0.5415149134893753   0.2332771921757928   0.07896810008108943
0.5415149134893753   0.2332771921757928   0.07896810008108943
0.5415149134893753   0.2332771921757928   0.07896810008108943
0.5415149134893753   0.2332771921757928   0.07896810008108943
0.5964185518109562   0.14910463795273904   0.14910463795273904
0.5964185518109562   0.14910463795273904   0.14910463795273904
0.5964185518109562   0.14910463795273904   0.14910463795273904
0.5964185518109562   0.14910463795273904   0.14910463795273904
-2.990981694156449   -0.3612004432316665   -0.08410679329680633
-2.990981694156449   -0.3612004432316665   -0.08410679329680633
-2.990981694156449   -0.3612004432316665   -0.08410679329680633
-2.990981694156449   -0.3612004432316665   -0.08410679329680633
-1.271769876882863   -0.20788946440824285   -0.07665213850454167
-1.271769876882863   -0.20788946440824285   -0.07665213850454167
-1.271769876882863   -0.20788946440824285   -0.07665213850454167
-1.271769876882863   -0.20788946440824285   -0.07665213850454167
-3.2243558298341775   -0.8060889574585444   -0.8060889574585444
-3.2243558298341775   -0.8060889574585444   -0.8060889574585444
-3.2243558298341775   -0.8060889574585444   -0.8060889574585444
-3.2243558298341775   -0.8060889574585444   -0.8060889574585444
0.6453900701130836   0.40959053480401963   0.1334763326120917
0.6453900701130836   0.40959053480401963   0.1334763326120917
0.6453900701130836   0.40959053480401963   0.1334763326120917
0.6453900701130836   0.40959053480401963   0.1334763326120917
0.6833067737876539   0.17082669344691348   0.17082669344691348
0.6833067737876539   0.17082669344691348   0.17082669344691348
0.6833067737876539   0.17082669344691348   0.17082669344691348
0.6833067737876539   0.17082669344691348   0.17082669344691348
-2.873714894750735   -0.15302278434209554   0.0013922792739559514
-2.873714894750735   -0.15302278434209554   0.0013922792739559514
-2.873714894750735   -0.15302278434209554   0.0013922792739559514
-2.873714894750735   -0.15302278434209554   0.0013922792739559514
-1.235698969284966   -0.08445807911731529   -0.3766763912028504
-1.235698969284966   -0.08445807911731529   -0.3766763912028504
-1.235698969284966   -0.08445807911731529   -0.3766763912028504
-1.235698969284966   -0.08445807911731529   -0.3766763912028504
0.4507432491771922   0.11268581229429805   0.11268581229429805
0.4507432491771922   0.11268581229429805   0.11268581229429805
0.4507432491771922   0.11268581229429805   0.11268581229429805
0.4507432491771922   0.11268581229429805   0.11268581229429805
4.295881318600812   0.3939197884358304   0.13137708204550627
4.295881318600812   0.3939197884358304   0.13137708204550627
4.295881318600812   0.3939197884358304   0.13137708204550627
4.295881318600812   0.3939197884358304   0.13137708204550627
4.6623684982228895   1.1655921245557224   1.1655921245557224
4.6623684982228895   1.1655921245557224   1.1655921245557224
4.6623684982228895   1.1655921245557224   1.1655921245557224
4.6623684982228895   1.1655921245557224   1.1655921245557224
0.405719195890223   -0.30268262240052457   -0.06405067333835891
0.405719195890223   -0.30268262240052457   -0.06405067333835891
0.405719195890223   -0.30268262240052457   -0.06405067333835891
0.405719195890223   -0.30268262240052457   -0.06405067333835891
2.4510495408559745   0.3050431289631915   0.445703143666499
2.4510495408559745   0.3050431289631915   0.445703143666499
2.4510495408559745   0.3050431289631915   0.445703143666499
2.4510495408559745   0.3050431289631915   0.445703143666499
0.5322953944866663   0.13307384862166657   0.13307384862166657
0.5322953944866663   0.13307384862166657   0.13307384862166657
0.5322953944866663   0.13307384862166657   0.13307384862166657
0.5322953944866663   0.13307384862166657   0.13307384862166657
4.344554616040211   0.5385979699472973   0.20351686825076085
4.344554616040211   0.5385979699472973   0.20351686825076085
4.344554616040211   0.5385979699472973   0.20351686825076085
4.344554616040211   0.5385979699472973   0.20351686825076085
4.640348940730561   1.1600872351826403   1.1600872351826403
4.640348940730561   1.1600872351826403   1.1600872351826403
4.640348940730561   1.1600872351826403   1.1600872351826403
4.640348940730561   1.1600872351826403   1.1600872351826403
0.5102638761436161   -0.13218879717333767   -0.00037530525788850855
0.5102638761436161   -0.13218879717333767   -0.00037530525788850855
0.5102638761436161   -0.13218879717333767   -0.00037530525788850855
0.5102638761436161   -0.13218879717333767   -0.00037530525788850855
2.430871658583778   0.39956452309660634   0.11634401558352091
2.430871658583778   0.39956452309660634   0.11634401558352091
2.430871658583778   0.39956452309660634   0.11634401558352091
2.430871658583778   0.39956452309660634   0.11634401558352091
0.5964185518109566   0.14910463795273915   0.14910463795273915
0.5964185518109566   0.14910463795273915   0.14910463795273915
0.5964185518109566   0.14910463795273915   0.14910463795273915
0.5964185518109566   0.14910463795273915   0.14910463795273915
4.364782801743654   0.6893823367369964   0.25296143869374477
4.364782801743654   0.6893823367369964   0.25296143869374477
4.364782801743654   0.6893823367369964   0.25296143869374477
4.364782801743654   0.6893823367369964   0.25296143869374477
4.7282475007839855   1.1820618751959964   1.1820618751959964
4.7282475007839855   1.1820618751959964   1.1820618751959964
4.7282475007839855   1.1820618751959964   1.1820618751959964
4.7282475007839855   1.1820618751959964   1.1820618751959964
0.6478406070074176   0.09356184996873756   0.0707607030239021
0.6478406070074176   0.09356184996873756   0.0707607030239021
0.6478406070074176   0.09356184996873756   0.0707607030239021
0.6478406070074176   0.09356184996873756   0.0707607030239021
2.4665956110486404   0.5415368078521997   -0.18905737094760877
2.4665956110486404   0.5415368078521997   -0.18905737094760877
2.4665956110486404   0.5415368078521997   -0.18905737094760877
2.4665956110486404   0.5415368078521997   -0.18905737094760877
4.656468827227272   1.164117206806818   1.164117206806818
4.656468827227272   1.164117206806818   1.164117206806818
4.656468827227272   1.164117206806818   1.164117206806818
4.656468827227272   1.164117206806818   1.164117206806818
9.646892076802622   0.7346905932934322   0.24951029403214942
9.646892076802622   0.7346905932934322   0.24951029403214942
9.646892076802622   0.7346905932934322   0.24951029403214942
9.646892076802622   0.7346905932934322   0.24951029403214942
9.858156777451283   2.4645391943628208   2.4645391943628208
9.858156777451283   2.4645391943628208   2.4645391943628208
9.858156777451283   2.4645391943628208   2.4645391943628208
9.858156777451283   2.4645391943628208   2.4645391943628208
4.143851115399954   -0.23632479060116496   -0.025077874402065103
4.143851115399954   -0.23632479060116496   -0.025077874402065103
4.143851115399954   -0.23632479060116496   -0.025077874402065103
4.143851115399954   -0.23632479060116496   -0.025077874402065103
6.8817698239722604   0.9733009043053377   0.7776406050292181
6.8817698239722604   0.9733009043053377   0.7776406050292181
6.8817698239722604   0.9733009043053377   0.7776406050292181
6.8817698239722604   0.9733009043053377   0.7776406050292181
4.662368498222885   1.1655921245557213   1.1655921245557213
4.662368498222885   1.1655921245557213   1.1655921245557213
4.662368498222885   1.1655921245557213   1.1655921245557213
4.662368498222885   1.1655921245557213   1.1655921245557213
9.134723721115348   0.8577066056929612   0.45420650135315804
9.134723721115348   0.8577066056929612   0.45420650135315804
9.134723721115348   0.8577066056929612   0.45420650135315804
9.134723721115348   0.8577066056929612   0.45420650135315804
9.561224055949225   2.3903060139873062   2.3903060139873062
9.561224055949225   2.3903060139873062   2.3903060139873062
9.561224055949225   2.3903060139873062   2.3903060139873062
9.561224055949225   2.3903060139873062   2.3903060139873062
4.15640755371865   -0.13141693874271998   0.03188447404844419
4.15640755371865   -0.13141693874271998   0.03188447404844419
4.15640755371865   -0.13141693874271998   0.03188447404844419
4.15640755371865   -0.13141693874271998   0.03188447404844419
6.67537131225852   1.0007673374194184   0.3730059769859425
6.67537131225852   1.0007673374194184   0.3730059769859425
6.67537131225852   1.0007673374194184   0.3730059769859425
6.67537131225852   1.0007673374194184   0.3730059769859425
4.640348940730561   1.1600872351826403   1.1600872351826403
4.640348940730561   1.1600872351826403   1.1600872351826403
4.640348940730561   1.1600872351826403   1.1600872351826403
4.640348940730561   1.1600872351826403   1.1600872351826403
8.838415066943632   0.859934238068293   0.3066328448785106
8.838415066943632   0.859934238068293   0.3066328448785106
8.838415066943632   0.859934238068293   0.3066328448785106
8.838415066943632   0.859934238068293   0.3066328448785106
9.120608504378893   2.2801521260947233   2.2801521260947233
9.120608504378893   2.2801521260947233   2.2801521260947233
9.120608504378893   2.2801521260947233   2.2801521260947233
9.120608504378893   2.2801521260947233   2.2801521260947233
4.308139094577981   0.1331879078739654   0.13039381148800402
4.308139094577981   0.1331879078739654   0.13039381148800402
4.308139094577981   0.1331879078739654   0.13039381148800402
4.308139094577981   0.1331879078739654   0.13039381148800402
6.389831400971237   1.0843499247532002   -0.09734717139332646
6.389831400971237   1.0843499247532002   -0.09734717139332646
6.389831400971237   1.0843499247532002   -0.09734717139332646
6.389831400971237   1.0843499247532002   -0.09734717139332646
-9.362400957700654   -0.6701084208399919   0.10307399476498286
-9.362400957700654   -0.6701084208399919   0.10307399476498286
-9.362400957700654   -0.6701084208399919   0.10307399476498286
-9.362400957700654   -0.6701084208399919   0.10307399476498286
-5.957022772951117   -0.13522359544122242   -0.03771069001644517
-5.957022772951117   -0.13522359544122242   -0.03771069001644517
-5.957022772951117   -0.13522359544122242   -0.03771069001644517
-5.957022772951117   -0.13522359544122242   -0.03771069001644517
-5.999259844741263   0.24168493795138035   0.12382864197967253
-5.999259844741263   0.24168493795138035   0.12382864197967253
-5.999259844741263   0.24168493795138035   0.12382864197967253
-5.999259844741263   0.24168493795138035   0.12382864197967253
-9.502739963008734   -0.6470380110196556   -0.11149657673212299
-9.502739963008734   -0.6470380110196556   -0.11149657673212299
-9.502739963008734   -0.6470380110196556   -0.11149657673212299
-9.502739963008734   -0.6470380110196556   -0.11149657673212299
-7.401909327544224   -0.25208195708621806   -0.028148722435980156
-7.401909327544224   -0.25208195708621806   -0.028148722435980156
-7.401909327544224   -0.25208195708621806   -0.028148722435980156
-7.401909327544224   -0.25208195708621806   -0.028148722435980156
-9.434718156019777   -0.46154796938471265   0.043122416577721256
-9.434718156019777   -0.46154796938471265   0.043122416577721256
-9.434718156019777   -0.46154796938471265   0.043122416577721256
-9.434718156019777   -0.46154796938471265   0.043122416577721256
-6.077364298842465   0.04611224920421031   -0.07112093977906264
-6.077364298842465   0.04611224920421031   -0.07112093977906264
-6.077364298842465   0.04611224920421031   -0.07112093977906264
-6.077364298842465   0.04611224920421031   -0.07112093977906264
-6.007614169654942   0.34423247839700544   0.14139602470555074
-6.007614169654942   0.34423247839700544   0.14139602470555074
-6.007614169654942   0.34423247839700544   0.14139602470555074
-6.007614169654942   0.34423247839700544   0.14139602470555074
-9.562034143447027   -0.5703737137198568   -0.1473083933622587
-9.562034143447027   -0.5703737137198568   -0.1473083933622587
-9.562034143447027   -0.5703737137198568   -0.1473083933622587
-9.562034143447027   -0.5703737137198568   -0.1473083933622587
-7.611276356652802   -0.16924487839022095   -0.07160347732049632
-7.611276356652802   -0.16924487839022095   -0.07160347732049632
-7.611276356652802   -0.16924487839022095   -0.07160347732049632
-7.611276356652802   -0.16924487839022095   -0.07160347732049632
-9.391547941282221   -0.2782364167676614   0.4129853205094948
-9.391547941282221   -0.2782364167676614   0.4129853205094948
-9.391547941282221   -0.2782364167676614   0.4129853205094948
-9.391547941282221   -0.2782364167676614   0.4129853205094948
-6.1067937279709845   0.12340182529356913   -0.1336711137711714
-6.1067937279709845   0.12340182529356913   -0.1336711137711714
-6.1067937279709845   0.12340182529356913   -0.1336711137711714
-6.1067937279709845   0.12340182529356913   -0.1336711137711714
-5.899692558763186   0.5991916592993163   0.25801308601248774
-5.899692558763186   0.5991916592993163   0.25801308601248774
-5.899692558763186   0.5991916592993163   0.25801308601248774
-5.899692558763186   0.5991916592993163   0.25801308601248774
-9.30030089476982   -0.46126885275055174   -0.241533518543461
-9.30030089476982   -0.46126885275055174   -0.241533518543461
-9.30030089476982   -0.46126885275055174   -0.241533518543461
-9.30030089476982   -0.46126885275055174   -0.241533518543461
-7.322074208444662   0.06716821431801967   0.1618715297905443
-7.322074208444662   0.06716821431801967   0.1618715297905443
-7.322074208444662   0.06716821431801967   0.1618715297905443
-7.322074208444662   0.06716821431801967   0.1618715297905443
-6.105670266373298   -0.8086511021929719   -0.10752065037560475
-6.105670266373298   -0.8086511021929719   -0.10752065037560475
-6.105670266373298   -0.8086511021929719   -0.10752065037560475
-6.105670266373298   -0.8086511021929719   -0.10752065037560475
-2.8099329276127127   -0.06101668109714242   0.030171051904138296
-2.8099329276127127   -0.06101668109714242   0.030171051904138296
-2.8099329276127127   -0.06101668109714242   0.030171051904138296
-2.8099329276127127   -0.06101668109714242   0.030171051904138296
-2.852368846675382   0.05481846812697111   0.04196946644317798
-2.852368846675382   0.05481846812697111   0.04196946644317798
-2.852368846675382   0.05481846812697111   0.04196946644317798
-2.852368846675382   0.05481846812697111   0.04196946644317798
-6.227424375992842   -0.5921356539919082   -0.18317342233492737
-6.227424375992842   -0.5921356539919082   -0.18317342233492737
-6.227424375992842   -0.5921356539919082   -0.18317342233492737
-6.227424375992842   -0.5921356539919082   -0.18317342233492737
-4.498616428293029   -0.36456114893416003   -0.10252935886304868
-4.498616428293029   -0.36456114893416003   -0.10252935886304868
-4.498616428293029   -0.36456114893416003   -0.10252935886304868
-4.498616428293029   -0.36456114893416003   -0.10252935886304868
-6.221799871049812   -0.6474157836324118   -0.09977076797930676
-6.221799871049812   -0.6474157836324118   -0.09977076797930676
-6.221799871049812   -0.6474157836324118   -0.09977076797930676
-6.221799871049812   -0.6474157836324118   -0.09977076797930676
-2.8468698117311773   0.12122213765470824   0.003060971636490356
-2.8468698117311773   0.12122213765470824   0.003060971636490356
-2.8468698117311773   0.12122213765470824   0.003060971636490356
-2.8468698117311773   0.12122213765470824   0.003060971636490356
-2.842713025323291   0.19827680356638888   0.05744238982943717
-2.842713025323291   0.19827680356638888   0.05744238982943717
-2.842713025323291   0.19827680356638888   0.05744238982943717
-2.842713025323291   0.19827680356638888   0.05744238982943717
-6.231252639085441   -0.4345356553178644   -0.19802818873207576
-6.231252639085441   -0.4345356553178644   -0.19802818873207576
-6.231252639085441   -0.4345356553178644   -0.19802818873207576
-6.231252639085441   -0.4345356553178644   -0.19802818873207576
-4.490996565123262   -0.20314130885149462   -0.04869904641554401
-4.490996565123262   -0.20314130885149462   -0.04869904641554401
-4.490996565123262   -0.20314130885149462   -0.04869904641554401
-4.490996565123262   -0.20314130885149462   -0.04869904641554401
-6.207087579036497   -0.49036191158598674   -0.021376632219235248
-6.207087579036497   -0.49036191158598674   -0.021376632219235248
-6.207087579036497   -0.49036191158598674   -0.021376632219235248
-6.207087579036497   -0.49036191158598674   -0.021376632219235248
-2.8462380123305038   0.27474313287625585   -0.03664887451644269
-2.8462380123305038   0.27474313287625585   -0.03664887451644269
-2.8462380123305038   0.27474313287625585   -0.03664887451644269
-2.8462380123305038   0.27474313287625585   -0.03664887451644269
-2.7961475655658177   0.3424956453099429   0.11600943104134645
-2.7961475655658177   0.3424956453099429   0.11600943104134645
-2.7961475655658177   0.3424956453099429   0.11600943104134645
-2.7961475655658177   0.3424956453099429   0.11600943104134645
-6.1657524018518535   -0.2524593804379138   -0.22063508969364332
-6.1657524018518535   -0.2524593804379138   -0.22063508969364332
-6.1657524018518535   -0.2524593804379138   -0.22063508969364332
-6.1657524018518535   -0.2524593804379138   -0.22063508969364332
-4.473426090537954   -0.050410447069699216   0.022513352333008302
-4.473426090537954   -0.050410447069699216   0.022513352333008302
-4.473426090537954   -0.050410447069699216   0.022513352333008302
-4.473426090537954   -0.050410447069699216   0.022513352333008302
-2.963541797250962   -0.6730509667391165   -0.12583901064515549
-2.963541797250962   -0.6730509667391165   -0.12583901064515549
-2.963541797250962   -0.6730509667391165   -0.12583901064515549
-2.963541797250962   -0.6730509667391165   -0.12583901064515549
0.3130723005017432   0.07122562384410411   0.11545809896602492
0.3130723005017432   0.07122562384410411   0.11545809896602492
0.3130723005017432   0.07122562384410411   0.11545809896602492
0.3130723005017432   0.07122562384410411   0.11545809896602492
0.29799122158435554   0.17059050524446404   0.009058357329465326
0.29799122158435554   0.17059050524446404   0.009058357329465326
0.29799122158435554   0.17059050524446404   0.009058357329465326
0.29799122158435554   0.17059050524446404   0.009058357329465326
-2.977046404694086   -0.44629295685888415   -0.08030689866448457
-2.977046404694086   -0.44629295685888415   -0.08030689866448457
-2.977046404694086   -0.44629295685888415   -0.08030689866448457
-2.977046404694086   -0.44629295685888415   -0.08030689866448457
-1.3452473393630668   -0.2227472471225436   -0.04225108982230589
-1.3452473393630668   -0.2227472471225436   -0.04225108982230589
-1.3452473393630668   -0.2227472471225436   -0.04225108982230589
-1.3452473393630668   -0.2227472471225436   -0.04225108982230589
-2.997609864087537   -0.5135206782116101   -0.11589647427901334
-2.997609864087537   -0.5135206782116101   -0.11589647427901334
-2.997609864087537   -0.5135206782116101   -0.11589647427901334
-2.997609864087537   -0.5135206782116101   -0.11589647427901334
0.33006672820443195   0.24933027382382056   0.09069612185049089
0.33006672820443195   0.24933027382382056   0.09069612185049089
0.33006672820443195   0.24933027382382056   0.09069612185049089
0.33006672820443195   0.24933027382382056   0.09069612185049089
0.3202001241920003   0.3286116873486206   0.05377204125617999
0.3202001241920003   0.3286116873486206   0.05377204125617999
0.3202001241920003   0.3286116873486206   0.05377204125617999
0.3202001241920003   0.3286116873486206   0.05377204125617999
-2.9684870762718893   -0.27303679378714596   -0.10011426756002126
-2.9684870762718893   -0.27303679378714596   -0.10011426756002126
-2.9684870762718893   -0.27303679378714596   -0.10011426756002126
-2.9684870762718893   -0.27303679378714596   -0.10011426756002126
-1.325167114395104   -0.05474351817806705   0.016087385968105564
-1.325167114395104   -0.05474351817806705   0.016087385968105564
-1.325167114395104   -0.05474351817806705   0.016087385968105564
-1.325167114395104   -0.05474351817806705   0.016087385968105564
-2.976352885182866   -0.3532911199649989   -0.059188985937051644
-2.976352885182866   -0.3532911199649989   -0.059188985937051644
-2.976352885182866   -0.3532911199649989   -0.059188985937051644
-2.976352885182866   -0.3532911199649989   -0.059188985937051644
0.3404426999806933   0.4212427804041895   0.062353827144073753
0.3404426999806933   0.4212427804041895   0.062353827144073753
0.3404426999806933   0.4212427804041895   0.062353827144073753
0.3404426999806933   0.4212427804041895   0.062353827144073753
0.32659571494731676   0.5045007840274485   0.08869951142362412
0.32659571494731676   0.5045007840274485   0.08869951142362412
0.32659571494731676   0.5045007840274485   0.08869951142362412
0.32659571494731676   0.5045007840274485   0.08869951142362412
-2.930600305331447   -0.08774055232079947   -0.12601807015604555
-2.930600305331447   -0.08774055232079947   -0.12601807015604555
-2.930600305331447   -0.08774055232079947   -0.12601807015604555
-2.930600305331447   -0.08774055232079947   -0.12601807015604555
-1.2929356756217854   0.1209535148772784   0.07995126071372763
-1.2929356756217854   0.1209535148772784   0.07995126071372763
-1.2929356756217854   0.1209535148772784   0.07995126071372763
-1.2929356756217854   0.1209535148772784   0.07995126071372763
0.14632009556365017   -0.49306944413063947   -0.15400785774969644
0.14632009556365017   -0.49306944413063947   -0.15400785774969644
0.14632009556365017   -0.49306944413063947   -0.15400785774969644
0.14632009556365017   -0.49306944413063947   -0.15400785774969644
3.540562262119419   0.24499638704839044   0.21154768016087644
3.540562262119419   0.24499638704839044   0.21154768016087644
3.540562262119419   0.24499638704839044   0.21154768016087644
3.540562262119419   0.24499638704839044   0.21154768016087644
3.5354602511142055   0.3293515682126551   -0.033620775496450095
3.5354602511142055   0.3293515682126551   -0.033620775496450095
3.5354602511142055   0.3293515682126551   -0.033620775496450095
3.5354602511142055   0.3293515682126551   -0.033620775496450095
0.20679921937098428   -0.29689125538665057   0.02058010689372375
0.20679921937098428   -0.29689125538665057   0.02058010689372375
0.20679921937098428   -0.29689125538665057   0.02058010689372375
0.20679921937098428   -0.29689125538665057   0.02058010689372375
1.8344628158727683   -0.04181080493740902   0.004218830230705725
1.8344628158727683   -0.04181080493740902   0.004218830230705725
1.8344628158727683   -0.04181080493740902   0.004218830230705725
1.8344628158727683   -0.04181080493740902   0.004218830230705725
0.1670108745320657   -0.36055393878498854   -0.11469893390252875
0.1670108745320657   -0.36055393878498854   -0.11469893390252875
0.1670108745320657   -0.36055393878498854   -0.11469893390252875
0.1670108745320657   -0.36055393878498854   -0.11469893390252875
3.595876856523592   0.4136425121814613   0.18417130758164452
3.595876856523592   0.4136425121814613   0.18417130758164452
3.595876856523592   0.4136425121814613   0.18417130758164452
3.595876856523592   0.4136425121814613   0.18417130758164452
3.562262220407308   0.48557676224783775   0.036454147584289
3.562262220407308   0.48557676224783775   0.036454147584289
3.562262220407308   0.48557676224783775   0.036454147584289
3.562262220407308   0.48557676224783775   0.036454147584289
0.21310519115951276   -0.14210724686198328   -0.010983689695653727
0.21310519115951276   -0.14210724686198328   -0.010983689695653727
0.21310519115951276   -0.14210724686198328   -0.010983689695653727
0.21310519115951276   -0.14210724686198328   -0.010983689695653727
1.85788844357224   0.1075605180312782   0.07590908939116646
1.85788844357224   0.1075605180312782   0.07590908939116646
1.85788844357224   0.1075605180312782   0.07590908939116646
1.85788844357224   0.1075605180312782   0.07590908939116646
0.18422422615620812   -0.2140173486950599   -0.08347841287909928
0.18422422615620812   -0.2140173486950599   -0.08347841287909928
0.18422422615620812   -0.2140173486950599   -0.08347841287909928
0.18422422615620812   -0.2140173486950599   -0.08347841287909928
3.606060460440735   0.5724041391110273   0.16861797088817643
3.606060460440735   0.5724041391110273   0.16861797088817643
3.606060460440735   0.5724041391110273   0.16861797088817643
3.606060460440735   0.5724041391110273   0.16861797088817643
3.504202377196406   0.6659123340511814   0.07615135324713301
3.504202377196406   0.6659123340511814   0.07615135324713301
3.504202377196406   0.6659123340511814   0.07615135324713301
3.504202377196406   0.6659123340511814   0.07615135324713301
0.2103178488781566   0.0497755535521181   -0.03796458844684634
0.2103178488781566   0.0497755535521181   -0.03796458844684634
0.2103178488781566   0.0497755535521181   -0.03796458844684634
0.2103178488781566   0.0497755535521181   -0.03796458844684634
1.884325561980189   0.2783637493234505   0.14220825438538814
1.884325561980189   0.2783637493234505   0.14220825438538814
1.884325561980189   0.2783637493234505   0.14220825438538814
1.884325561980189   0.2783637493234505   0.14220825438538814
3.2627335484652553   -0.6488025594939841   -0.2837969415675672
3.2627335484652553   -0.6488025594939841   -0.2837969415675672
3.2627335484652553   -0.6488025594939841   -0.2837969415675672
3.2627335484652553   -0.6488025594939841   -0.2837969415675672
6.7131795833582695   0.4433561104760697   0.20506072058929153
6.7131795833582695   0.4433561104760697   0.20506072058929153
6.7131795833582695   0.4433561104760697   0.20506072058929153
6.7131795833582695   0.4433561104760697   0.20506072058929153
6.787952714957878   0.21215412999139094   -0.4267848709972101
6.787952714957878   0.21215412999139094   -0.4267848709972101
6.787952714957878   0.21215412999139094   -0.4267848709972101
6.787952714957878   0.21215412999139094   -0.4267848709972101
3.473829885923314   -0.1346858006252406   0.1222647673869261
3.473829885923314   -0.1346858006252406   0.1222647673869261
3.473829885923314   -0.1346858006252406   0.1222647673869261
3.473829885923314   -0.1346858006252406   0.1222647673869261
4.808105774088364   -0.0828353761064815   -0.11941527422464104
4.808105774088364   -0.0828353761064815   -0.11941527422464104
4.808105774088364   -0.0828353761064815   -0.11941527422464104
4.808105774088364   -0.0828353761064815   -0.11941527422464104
3.353350911815665   -0.42697703099409334   -0.18783887278242517
3.353350911815665   -0.42697703099409334   -0.18783887278242517
3.353350911815665   -0.42697703099409334   -0.18783887278242517
3.353350911815665   -0.42697703099409334   -0.18783887278242517
6.9698381735034864   0.5658518447982104   0.12894470692400878
6.9698381735034864   0.5658518447982104   0.12894470692400878
6.9698381735034864   0.5658518447982104   0.12894470692400878
6.9698381735034864   0.5658518447982104   0.12894470692400878
6.861026263848244   0.38407817315181103   -0.09525867660849519
6.861026263848244   0.38407817315181103   -0.09525867660849519
6.861026263848244   0.38407817315181103   -0.09525867660849519
6.861026263848244   0.38407817315181103   -0.09525867660849519
3.4588311352081007   -0.05763181420518548   0.06250729804121685
3.4588311352081007   -0.05763181420518548   0.06250729804121685
3.4588311352081007   -0.05763181420518548   0.06250729804121685
3.4588311352081007   -0.05763181420518548   0.06250729804121685
5.057902748549065   0.12623695926143452   0.08289025972942249
5.057902748549065   0.12623695926143452   0.08289025972942249
5.057902748549065   0.12623695926143452   0.08289025972942249
5.057902748549065   0.12623695926143452   0.08289025972942249
3.3623547834625107   -0.32675470215167857   -0.15075157274021722
3.3623547834625107   -0.32675470215167857   -0.15075157274021722
3.3623547834625107   -0.32675470215167857   -0.15075157274021722
3.3623547834625107   -0.32675470215167857   -0.15075157274021722
6.949249196757387   0.6449476422618623   0.08498651882716862
6.949249196757387   0.6449476422618623   0.08498651882716862
6.949249196757387   0.6449476422618623   0.08498651882716862
6.949249196757387   0.6449476422618623   0.08498651882716862
6.847615397221471   0.585730852884527   -0.14636776610267818
6.847615397221471   0.585730852884527   -0.14636776610267818
6.847615397221471   0.585730852884527   -0.14636776610267818
6.847615397221471   0.585730852884527   -0.14636776610267818
3.386737595834986   0.12038934195527573   0.03435043853587627
3.386737595834986   0.12038934195527573   0.03435043853587627
3.386737595834986   0.12038934195527573   0.03435043853587627
3.386737595834986   0.12038934195527573   0.03435043853587627
4.92723015583054   0.22054857426107   0.06076191028005018
4.92723015583054   0.22054857426107   0.06076191028005018
4.92723015583054   0.22054857426107   0.06076191028005018
4.92723015583054   0.22054857426107   0.06076191028005018
-7.3728415768841264   -0.33548653925540495   0.3767933948456515
-7.3728415768841264   -0.33548653925540495   0.3767933948456515
-7.3728415768841264   -0.33548653925540495   0.3767933948456515
-7.3728415768841264   -0.33548653925540495   0.3767933948456515
-4.892167437609591   -0.1840860624029057   -0.0980444986471265
-4.892167437609591   -0.1840860624029057   -0.0980444986471265
-4.892167437609591   -0.1840860624029057   -0.0980444986471265
-4.892167437609591   -0.1840860624029057   -0.0980444986471265
-4.7172820374634465   0.395634713197597   0.3164091188088527
-4.7172820374634465   0.395634713197597   0.3164091188088527
-4.7172820374634465   0.395634713197597   0.3164091188088527
-4.7172820374634465   0.395634713197597   0.3164091188088527
-7.407333100175646   -0.5282029740801644   -0.1537977494699324
-7.407333100175646   -0.5282029740801644   -0.1537977494699324
-7.407333100175646   -0.5282029740801644   -0.1537977494699324
-7.407333100175646   -0.5282029740801644   -0.1537977494699324
-5.849532244220412   -0.09048190213119067   -0.009551384399596408
-5.849532244220412   -0.09048190213119067   -0.009551384399596408
-5.849532244220412   -0.09048190213119067   -0.009551384399596408
-5.849532244220412   -0.09048190213119067   -0.009551384399596408
-7.202430374128575   -0.08014516380012404   0.42265807048537707
-7.202430374128575   -0.08014516380012404   0.42265807048537707
-7.202430374128575   -0.08014516380012404   0.42265807048537707
-7.202430374128575   -0.08014516380012404   0.42265807048537707
-4.889885063283117   -0.020123396855044273   -0.1308479002368601
-4.889885063283117   -0.020123396855044273   -0.1308479002368601
-4.889885063283117   -0.020123396855044273   -0.1308479002368601
-4.889885063283117   -0.020123396855044273   -0.1308479002368601
-4.698577744697479   0.490481280150336   0.2935101772391567
-4.698577744697479   0.490481280150336   0.2935101772391567
-4.698577744697479   0.490481280150336   0.2935101772391567
-4.698577744697479   0.490481280150336   0.2935101772391567
-7.293838867423283   -0.44228790168641985   -0.21077103399981828
-7.293838867423283   -0.44228790168641985   -0.21077103399981828
-7.293838867423283   -0.44228790168641985   -0.21077103399981828
-7.293838867423283   -0.44228790168641985   -0.21077103399981828
-5.862999918099589   0.020970573002093706   0.0681850362605404
-5.862999918099589   0.020970573002093706   0.0681850362605404
-5.862999918099589   0.020970573002093706   0.0681850362605404
-5.862999918099589   0.020970573002093706   0.0681850362605404
-7.102953637928202   0.009314590345160356   0.2920526214440014
-7.102953637928202   0.009314590345160356   0.2920526214440014
-7.102953637928202   0.009314590345160356   0.2920526214440014
-7.102953637928202   0.009314590345160356   0.2920526214440014
-4.878810724780123   0.04953103753120991   -0.16670448055489112
-4.878810724780123   0.04953103753120991   -0.16670448055489112
-4.878810724780123   0.04953103753120991   -0.16670448055489112
-4.878810724780123   0.04953103753120991   -0.16670448055489112
-4.703607877650242   0.5529516589884458   0.23287602303195093
-4.703607877650242   0.5529516589884458   0.23287602303195093
-4.703607877650242   0.5529516589884458   0.23287602303195093
-4.703607877650242   0.5529516589884458   0.23287602303195093
-7.146185978377198   -0.3513126331202798   -0.2689501463011071
-7.146185978377198   -0.3513126331202798   -0.2689501463011071
-7.146185978377198   -0.3513126331202798   -0.2689501463011071
-7.146185978377198   -0.3513126331202798   -0.2689501463011071
-5.695353272522669   0.12062552740443166   0.1408194051987881
-5.695353272522669   0.12062552740443166   0.1408194051987881
-5.695353272522669   0.12062552740443166   0.1408194051987881
-5.695353272522669   0.12062552740443166   0.1408194051987881
-4.9075808399699286   -0.46534999043313097   0.10615241758141072
-4.9075808399699286   -0.46534999043313097   0.10615241758141072
-4.9075808399699286   -0.46534999043313097   0.10615241758141072
-4.9075808399699286   -0.46534999043313097   0.10615241758141072
-2.4743975952152697   -0.08846880184536943   0.004934822591441429
-2.4743975952152697   -0.08846880184536943   0.004934822591441429
-2.4743975952152697   -0.08846880184536943   0.004934822591441429
-2.4743975952152697   -0.08846880184536943   0.004934822591441429
-2.404925601993211   0.2434103707546843   0.17205792739840411
-2.404925601993211   0.2434103707546843   0.17205792739840411
-2.404925601993211   0.2434103707546843   0.17205792739840411
-2.404925601993211   0.2434103707546843   0.17205792739840411
-4.985824323984354   -0.45892411429718394   -0.17174348630093642
-4.985824323984354   -0.45892411429718394   -0.17174348630093642
-4.985824323984354   -0.45892411429718394   -0.17174348630093642
-4.985824323984354   -0.45892411429718394   -0.17174348630093642
-3.6799244581269575   -0.1805661059594178   -0.07397898970288899
-3.6799244581269575   -0.1805661059594178   -0.07397898970288899
-3.6799244581269575   -0.1805661059594178   -0.07397898970288899
-3.6799244581269575   -0.1805661059594178   -0.07397898970288899
-4.892680511010197   -0.2679515863948797   0.10300305066757001
-4.892680511010197   -0.2679515863948797   0.10300305066757001
-4.892680511010197   -0.2679515863948797   0.10300305066757001
-4.892680511010197   -0.2679515863948797   0.10300305066757001
-2.479147658873588   0.07135959894616717   -0.02700158519494636
-2.479147658873588   0.07135959894616717   -0.02700158519494636
-2.479147658873588   0.07135959894616717   -0.02700158519494636
-2.479147658873588   0.07135959894616717   -0.02700158519494636
-2.397748618020693   0.4015613991781557   0.14895306268327677
-2.397748618020693   0.4015613991781557   0.14895306268327677
-2.397748618020693   0.4015613991781557   0.14895306268327677
-2.397748618020693   0.4015613991781557   0.14895306268327677
-4.958162864457069   -0.31121280025651366   -0.20272134115194437
-4.958162864457069   -0.31121280025651366   -0.20272134115194437
-4.958162864457069   -0.31121280025651366   -0.20272134115194437
-4.958162864457069   -0.31121280025651366   -0.20272134115194437
-3.6402331069688825   -0.020387251002072504   5.421248901546494e-05
-3.6402331069688825   -0.020387251002072504   5.421248901546494e-05
-3.6402331069688825   -0.020387251002072504   5.421248901546494e-05
-3.6402331069688825   -0.020387251002072504   5.421248901546494e-05
-4.8631045465809875   -0.10752409123013529   0.06888153920208565
-4.8631045465809875   -0.10752409123013529   0.06888153920208565
-4.8631045465809875   -0.10752409123013529   0.06888153920208565
-4.8631045465809875   -0.10752409123013529   0.06888153920208565
-2.4773958188987386   0.2132838071498241   -0.0610053496785862
-2.4773958188987386   0.2132838071498241   -0.0610053496785862
-2.4773958188987386   0.2132838071498241   -0.0610053496785862
-2.4773958188987386   0.2132838071498241   -0.0610053496785862
-2.397466474249765   0.5676626920063848   0.1116893449257294
-2.397466474249765   0.5676626920063848   0.1116893449257294
-2.397466474249765   0.5676626920063848   0.1116893449257294
-2.397466474249765   0.5676626920063848   0.1116893449257294
-4.9348030109760055   -0.15194903275677152   -0.21819895185166396
-4.9348030109760055   -0.15194903275677152   -0.21819895185166396
-4.9348030109760055   -0.15194903275677152   -0.21819895185166396
-4.9348030109760055   -0.15194903275677152   -0.21819895185166396
-3.6431281394468362   0.12633863240619958   0.0565603932715521
-3.6431281394468362   0.12633863240619958   0.0565603932715521
-3.6431281394468362   0.12633863240619958   0.0565603932715521
-3.6431281394468362   0.12633863240619958   0.0565603932715521
-2.5669118555170156   -0.5309032360878179   -0.015202044674857258
-2.5669118555170156   -0.5309032360878179   -0.015202044674857258
-2.5669118555170156   -0.5309032360878179   -0.015202044674857258
-2.5669118555170156   -0.5309032360878179   -0.015202044674857258
-0.0793095264441473   0.02756866714922746   0.10966028227413427
-0.0793095264441473   0.02756866714922746   0.10966028227413427
-0.0793095264441473   0.02756866714922746   0.10966028227413427
-0.0793095264441473   0.02756866714922746   0.10966028227413427
-0.08911802394401816   0.15782195925587786   0.05233930115922741
-0.08911802394401816   0.15782195925587786   0.05233930115922741
-0.08911802394401816   0.15782195925587786   0.05233930115922741
-0.08911802394401816   0.15782195925587786   0.05233930115922741
-2.569068481814008   -0.34078375549305595   -0.06446234545784355
-2.569068481814008   -0.34078375549305595   -0.06446234545784355
-2.569068481814008   -0.34078375549305595   -0.06446234545784355
-2.569068481814008   -0.34078375549305595   -0.06446234545784355
-1.330140240361625   -0.16605315516914299   -0.041284192413935786
-1.330140240361625   -0.16605315516914299   -0.041284192413935786
-1.330140240361625   -0.16605315516914299   -0.041284192413935786
-1.330140240361625   -0.16605315516914299   -0.041284192413935786
-2.566308010064083   -0.3553105388668679   -0.03613320333440604
-2.566308010064083   -0.3553105388668679   -0.03613320333440604
-2.566308010064083   -0.3553105388668679   -0.03613320333440604
-2.566308010064083   -0.3553105388668679   -0.03613320333440604
-0.07776329067861723   0.1864639476450109   0.08047097909709977
-0.07776329067861723   0.1864639476450109   0.08047097909709977
-0.07776329067861723   0.1864639476450109   0.08047097909709977
-0.07776329067861723   0.1864639476450109   0.08047097909709977
-0.07785442968352549   0.330168495983498   0.025279534704834877
-0.07785442968352549   0.330168495983498   0.025279534704834877
-0.07785442968352549   0.330168495983498   0.025279534704834877
-0.07785442968352549   0.330168495983498   0.025279534704834877
-2.56305741321413   -0.18164504854453795   -0.09438446556119583
-2.56305741321413   -0.18164504854453795   -0.09438446556119583
-2.56305741321413   -0.18164504854453795   -0.09438446556119583
-2.56305741321413   -0.18164504854453795   -0.09438446556119583
-1.3176426101983578   -0.006622698855025089   0.018508793909132237
-1.3176426101983578   -0.006622698855025089   0.018508793909132237
-1.3176426101983578   -0.006622698855025089   0.018508793909132237
-1.3176426101983578   -0.006622698855025089   0.018508793909132237
-2.55918679589397   -0.1854076414171204   -0.0712687860878127
-2.55918679589397   -0.1854076414171204   -0.0712687860878127
-2.55918679589397   -0.1854076414171204   -0.0712687860878127
-2.55918679589397   -0.1854076414171204   -0.0712687860878127
-0.0700658807903669   0.34559025506939944   0.048800520084727836
-0.0700658807903669   0.34559025506939944   0.048800520084727836
-0.0700658807903669   0.34559025506939944   0.048800520084727836
-0.0700658807903669   0.34559025506939944   0.048800520084727836
-0.07581025624218718   0.5077000078041602   -0.00360531862050667
-0.07581025624218718   0.5077000078041602   -0.00360531862050667
-0.07581025624218718   0.5077000078041602   -0.00360531862050667
-0.07581025624218718   0.5077000078041602   -0.00360531862050667
-2.5622060043961095   -0.019767887993000888   -0.12457772580662538
-2.5622060043961095   -0.019767887993000888   -0.12457772580662538
-2.5622060043961095   -0.019767887993000888   -0.12457772580662538
-2.5622060043961095   -0.019767887993000888   -0.12457772580662538
-1.3080366398565224   0.15295640229333485   0.07333230739114555
-1.3080366398565224   0.15295640229333485   0.07333230739114555
-1.3080366398565224   0.15295640229333485   0.07333230739114555
-1.3080366398565224   0.15295640229333485   0.07333230739114555
-0.24829120906280316   -0.5805164466285104   -0.12716301704140573
-0.24829120906280316   -0.5805164466285104   -0.12716301704140573
-0.24829120906280316   -0.5805164466285104   -0.12716301704140573
-0.24829120906280316   -0.5805164466285104   -0.12716301704140573
2.3075769829279005   0.16354700139759065   0.20840699448146327
2.3075769829279005   0.16354700139759065   0.20840699448146327
2.3075769829279005   0.16354700139759065   0.20840699448146327
2.3075769829279005   0.16354700139759065   0.20840699448146327
2.2322383110004766   0.08776798340206748   -0.0815627907921783
2.2322383110004766   0.08776798340206748   -0.0815627907921783
2.2322383110004766   0.08776798340206748   -0.0815627907921783
2.2322383110004766   0.08776798340206748   -0.0815627907921783
-0.16491809762007953   -0.21321995214525388   0.04438084418005309
-0.16491809762007953   -0.21321995214525388   0.04438084418005309
-0.16491809762007953   -0.21321995214525388   0.04438084418005309
-0.16491809762007953   -0.21321995214525388   0.04438084418005309
1.017094239084008   -0.13358923588257576   -0.02316326877427463
1.017094239084008   -0.13358923588257576   -0.02316326877427463
1.017094239084008   -0.13358923588257576   -0.02316326877427463
1.017094239084008   -0.13358923588257576   -0.02316326877427463
-0.24781986202858422   -0.4238338992057064   -0.15951403080201776
-0.24781986202858422   -0.4238338992057064   -0.15951403080201776
-0.24781986202858422   -0.4238338992057064   -0.15951403080201776
-0.24781986202858422   -0.4238338992057064   -0.15951403080201776
2.3311899874876643   0.31443184254120793   0.18653173250461869
2.3311899874876643   0.31443184254120793   0.18653173250461869
2.3311899874876643   0.31443184254120793   0.18653173250461869
2.3311899874876643   0.31443184254120793   0.18653173250461869
2.2675327572845148   0.24805187641839085   -0.11461563941878505
2.2675327572845148   0.24805187641839085   -0.11461563941878505
2.2675327572845148   0.24805187641839085   -0.11461563941878505
2.2675327572845148   0.24805187641839085   -0.11461563941878505
-0.1605787928938998   -0.07065739540714883   0.012483610043612854
-0.1605787928938998   -0.07065739540714883   0.012483610043612854
-0.1605787928938998   -0.07065739540714883   0.012483610043612854
-0.1605787928938998   -0.07065739540714883   0.012483610043612854
1.0253659912509325   0.010511806833172904   0.036201131943886716
1.0253659912509325   0.010511806833172904   0.036201131943886716
1.0253659912509325   0.010511806833172904   0.036201131943886716
1.0253659912509325   0.010511806833172904   0.036201131943886716
-0.24119193315900736   -0.2691815259369765   -0.19205796075209958
-0.24119193315900736   -0.2691815259369765   -0.19205796075209958
-0.24119193315900736   -0.2691815259369765   -0.19205796075209958
-0.24119193315900736   -0.2691815259369765   -0.19205796075209958
2.3656324069348162   0.46406251633342227   0.15987196891769068
2.3656324069348162   0.46406251633342227   0.15987196891769068
2.3656324069348162   0.46406251633342227   0.15987196891769068
2.3656324069348162   0.46406251633342227   0.15987196891769068
2.2890620176995773   0.449234162405541   -0.11941571300115246
2.2890620176995773   0.449234162405541   -0.11941571300115246
2.2890620176995773   0.449234162405541   -0.11941571300115246
2.2890620176995773   0.449234162405541   -0.11941571300115246
-0.16126889136099604   0.09613303886074101   -0.019331525271129676
-0.16126889136099604   0.09613303886074101   -0.019331525271129676
-0.16126889136099604   0.09613303886074101   -0.019331525271129676
-0.16126889136099604   0.09613303886074101   -0.019331525271129676
1.060021100245032   0.17140640959573   0.10678679118855917
1.060021100245032   0.17140640959573   0.10678679118855917
1.060021100245032   0.17140640959573   0.10678679118855917
1.060021100245032   0.17140640959573   0.10678679118855917
2.0685802041728376   -0.575984907548436   -0.24704499034780675
2.0685802041728376   -0.575984907548436   -0.24704499034780675
2.0685802041728376   -0.575984907548436   -0.24704499034780675
2.0685802041728376   -0.575984907548436   -0.24704499034780675
4.541350104858898   0.33731040718806826   0.23091006273084433
4.541350104858898   0.33731040718806826   0.23091006273084433
4.541350104858898   0.33731040718806826   0.23091006273084433
4.541350104858898   0.33731040718806826   0.23091006273084433
4.50576534789588   -0.018510761903943407   -0.3287955009791842
4.50576534789588   -0.018510761903943407   -0.3287955009791842
4.50576534789588   -0.018510761903943407   -0.3287955009791842
4.50576534789588   -0.018510761903943407   -0.3287955009791842
2.2520831000077446   -0.049308066643050985   0.15473720428930374
2.2520831000077446   -0.049308066643050985   0.15473720428930374
2.2520831000077446   -0.049308066643050985   0.15473720428930374
2.2520831000077446   -0.049308066643050985   0.15473720428930374
3.1797673477435557   -0.11165444633922161   -0.10379452198697947
3.1797673477435557   -0.11165444633922161   -0.10379452198697947
3.1797673477435557   -0.11165444633922161   -0.10379452198697947
3.1797673477435557   -0.11165444633922161   -0.10379452198697947
2.07009772012981   -0.5006539496750075   -0.3038438120684042
2.07009772012981   -0.5006539496750075   -0.3038438120684042
2.07009772012981   -0.5006539496750075   -0.3038438120684042
2.07009772012981   -0.5006539496750075   -0.3038438120684042
4.700844583979823   0.4459289773340177   0.18216094020256837
4.700844583979823   0.4459289773340177   0.18216094020256837
4.700844583979823   0.4459289773340177   0.18216094020256837
4.700844583979823   0.4459289773340177   0.18216094020256837
4.614728112936642   0.07291311135674927   -0.44066505187765087
4.614728112936642   0.07291311135674927   -0.44066505187765087
4.614728112936642   0.07291311135674927   -0.44066505187765087
4.614728112936642   0.07291311135674927   -0.44066505187765087
2.2679433427560793   0.020410941089504586   0.11507822326796105
2.2679433427560793   0.020410941089504586   0.11507822326796105
2.2679433427560793   0.020410941089504586   0.11507822326796105
2.2679433427560793   0.020410941089504586   0.11507822326796105
3.3223650434845013   -0.012948611441895297   -0.03196487468850559
3.3223650434845013   -0.012948611441895297   -0.03196487468850559
3.3223650434845013   -0.012948611441895297   -0.03196487468850559
3.3223650434845013   -0.012948611441895297   -0.03196487468850559
2.0928909971280936   -0.40939651182160597   -0.33037605196087855
2.0928909971280936   -0.40939651182160597   -0.33037605196087855
2.0928909971280936   -0.40939651182160597   -0.33037605196087855
2.0928909971280936   -0.40939651182160597   -0.33037605196087855
4.818680471040846   0.5316205767440821   0.12038927325608231
4.818680471040846   0.5316205767440821   0.12038927325608231
4.818680471040846   0.5316205767440821   0.12038927325608231
4.818680471040846   0.5316205767440821   0.12038927325608231
4.787828545174322   0.3109166834662551   -0.4141038032485628
4.787828545174322   0.3109166834662551   -0.4141038032485628
4.787828545174322   0.3109166834662551   -0.4141038032485628
4.787828545174322   0.3109166834662551   -0.4141038032485628
2.2748576841468218   0.1749102171227071   0.08388656451795025
2.2748576841468218   0.1749102171227071   0.08388656451795025
2.2748576841468218   0.1749102171227071   0.08388656451795025
2.2748576841468218   0.1749102171227071   0.08388656451795025
3.3455848721637467   0.10012211963886408   0.04731325972069825
3.3455848721637467   0.10012211963886408   0.04731325972069825
3.3455848721637467   0.10012211963886408   0.04731325972069825
3.3455848721637467   0.10012211963886408   0.04731325972069825
-5.281813910886486   -0.17397616738340926   0.34215144972725064
-5.281813910886486   -0.17397616738340926   0.34215144972725064
-5.281813910886486   -0.17397616738340926   0.34215144972725064
-5.281813910886486   -0.17397616738340926   0.34215144972725064
-3.6898372005112723   -0.24501711188551945   -0.12957259873363738
-3.6898372005112723   -0.24501711188551945   -0.12957259873363738
-3.6898372005112723   -0.24501711188551945   -0.12957259873363738
-3.6898372005112723   -0.24501711188551945   -0.12957259873363738
-3.4739323746782915   0.34762569395545395   0.2919448652108053
-3.4739323746782915   0.34762569395545395   0.2919448652108053
-3.4739323746782915   0.34762569395545395   0.2919448652108053
-3.4739323746782915   0.34762569395545395   0.2919448652108053
-5.282290625710698   -0.43447102904431467   -0.18946059472979035
-5.282290625710698   -0.43447102904431467   -0.18946059472979035
-5.282290625710698   -0.43447102904431467   -0.18946059472979035
-5.282290625710698   -0.43447102904431467   -0.18946059472979035
-4.250089019155121   -0.068066086158027   -0.008198142542383074
-4.250089019155121   -0.068066086158027   -0.008198142542383074
-4.250089019155121   -0.068066086158027   -0.008198142542383074
-4.250089019155121   -0.068066086158027   -0.008198142542383074
-5.085983246709009   0.03195633396168063   0.3256489372726564
-5.085983246709009   0.03195633396168063   0.3256489372726564
-5.085983246709009   0.03195633396168063   0.3256489372726564
-5.085983246709009   0.03195633396168063   0.3256489372726564
-3.654295603184215   -0.10285751855477132   -0.15938806480855625
-3.654295603184215   -0.10285751855477132   -0.15938806480855625
-3.654295603184215   -0.10285751855477132   -0.15938806480855625
-3.654295603184215   -0.10285751855477132   -0.15938806480855625
-3.4412687280637084   0.4197503564802757   0.24685011747408564
-3.4412687280637084   0.4197503564802757   0.24685011747408564
-3.4412687280637084   0.4197503564802757   0.24685011747408564
-3.4412687280637084   0.4197503564802757   0.24685011747408564
-5.158013656898453   -0.35410599952605204   -0.23969058775109325
-5.158013656898453   -0.35410599952605204   -0.23969058775109325
-5.158013656898453   -0.35410599952605204   -0.23969058775109325
-5.158013656898453   -0.35410599952605204   -0.23969058775109325
-4.220915377940465   0.027139279485793977   0.045377129721702186
-4.220915377940465   0.027139279485793977   0.045377129721702186
-4.220915377940465   0.027139279485793977   0.045377129721702186
-4.220915377940465   0.027139279485793977   0.045377129721702186
-4.9632871397709755   0.11828654193004495   0.2615494564301995
-4.9632871397709755   0.11828654193004495   0.2615494564301995
-4.9632871397709755   0.11828654193004495   0.2615494564301995
-4.9632871397709755   0.11828654193004495   0.2615494564301995
-3.6215558686049003   -0.03820280838953005   -0.19663242036203638
-3.6215558686049003   -0.03820280838953005   -0.19663242036203638
-3.6215558686049003   -0.03820280838953005   -0.19663242036203638
-3.6215558686049003   -0.03820280838953005   -0.19663242036203638
-3.423157868449904   0.4895697862149688   0.2124338404479027
-3.423157868449904   0.4895697862149688   0.2124338404479027
-3.423157868449904   0.4895697862149688   0.2124338404479027
-3.423157868449904   0.4895697862149688   0.2124338404479027
-4.9913486081786775   -0.24804269640660914   -0.287088131880408
-4.9913486081786775   -0.24804269640660914   -0.287088131880408
-4.9913486081786775   -0.24804269640660914   -0.287088131880408
-4.9913486081786775   -0.24804269640660914   -0.287088131880408
-4.062906964016759   0.11616110588433637   0.12077405564147736
-4.062906964016759   0.11616110588433637   0.12077405564147736
-4.062906964016759   0.11616110588433637   0.12077405564147736
-4.062906964016759   0.11616110588433637   0.12077405564147736
-3.6491797443097136   -0.2988939017540213   0.1275914721426258
-3.6491797443097136   -0.2988939017540213   0.1275914721426258
-3.6491797443097136   -0.2988939017540213   0.1275914721426258
-3.6491797443097136   -0.2988939017540213   0.1275914721426258
-2.110838773913681   -0.158802707604966   -0.020890854052460592
-2.110838773913681   -0.158802707604966   -0.020890854052460592
-2.110838773913681   -0.158802707604966   -0.020890854052460592
-2.110838773913681   -0.158802707604966   -0.020890854052460592
-2.0037128568924603   0.2033333151108303   0.15743219364724179
-2.0037128568924603   0.2033333151108303   0.15743219364724179
-2.0037128568924603   0.2033333151108303   0.15743219364724179
-2.0037128568924603   0.2033333151108303   0.15743219364724179
-3.703797853205735   -0.3553296054796093   -0.15442722799135095
-3.703797853205735   -0.3553296054796093   -0.15442722799135095
-3.703797853205735   -0.3553296054796093   -0.15442722799135095
-3.703797853205735   -0.3553296054796093   -0.15442722799135095
-2.8551919627616567   -0.13958016951955138   -0.0577934148105065
-2.8551919627616567   -0.13958016951955138   -0.0577934148105065
-2.8551919627616567   -0.13958016951955138   -0.0577934148105065
-2.8551919627616567   -0.13958016951955138   -0.0577934148105065
-3.6065674184709735   -0.12787080657813032   0.10426614678095145
-3.6065674184709735   -0.12787080657813032   0.10426614678095145
-3.6065674184709735   -0.12787080657813032   0.10426614678095145
-3.6065674184709735   -0.12787080657813032   0.10426614678095145
-2.0884800892043374   -0.011662281367768423   -0.05140837143354442
-2.0884800892043374   -0.011662281367768423   -0.05140837143354442
-2.0884800892043374   -0.011662281367768423   -0.05140837143354442
-2.0884800892043374   -0.011662281367768423   -0.05140837143354442
-1.9782073749744855   0.3511515377390837   0.1291448593434589
-1.9782073749744855   0.3511515377390837   0.1291448593434589
-1.9782073749744855   0.3511515377390837   0.1291448593434589
-1.9782073749744855   0.3511515377390837   0.1291448593434589
-3.6541030845592988   -0.21566104262580998   -0.18191026589778073
-3.6541030845592988   -0.21566104262580998   -0.18191026589778073
-3.6541030845592988   -0.21566104262580998   -0.18191026589778073
-3.6541030845592988   -0.21566104262580998   -0.18191026589778073
-2.8004030798176527   0.005914620798363801   0.004697084203057367
-2.8004030798176527   0.005914620798363801   0.004697084203057367
-2.8004030798176527   0.005914620798363801   0.004697084203057367
-2.8004030798176527   0.005914620798363801   0.004697084203057367
-3.5495110537939287   0.030116332639295917   0.09527251266396322
-3.5495110537939287   0.030116332639295917   0.09527251266396322
-3.5495110537939287   0.030116332639295917   0.09527251266396322
-3.5495110537939287   0.030116332639295917   0.09527251266396322
-2.067321615249296   0.12085195296454088   -0.08612675725602911
-2.067321615249296   0.12085195296454088   -0.08612675725602911
-2.067321615249296   0.12085195296454088   -0.08612675725602911
-2.067321615249296   0.12085195296454088   -0.08612675725602911
-1.9535705526816511   0.5084977476035601   0.10280249165557853
-1.9535705526816511   0.5084977476035601   0.10280249165557853
-1.9535705526816511   0.5084977476035601   0.10280249165557853
-1.9535705526816511   0.5084977476035601   0.10280249165557853
-3.616843994166748   -0.0653145984373602   -0.2011124034839719
-3.616843994166748   -0.0653145984373602   -0.2011124034839719
-3.616843994166748   -0.0653145984373602   -0.2011124034839719
-3.616843994166748   -0.0653145984373602   -0.2011124034839719
-2.779259069275644   0.14260636570899488   0.06412425817660022
-2.779259069275644   0.14260636570899488   0.06412425817660022
-2.779259069275644   0.14260636570899488   0.06412425817660022
-2.779259069275644   0.14260636570899488   0.06412425817660022
-2.155720452317214   -0.40872163767936226   0.004619684004252547
-2.155720452317214   -0.40872163767936226   0.004619684004252547
-2.155720452317214   -0.40872163767936226   0.004619684004252547
-2.155720452317214   -0.40872163767936226   0.004619684004252547
-0.5486333533059888   -0.04650673308392092   0.08800897441045707
-0.5486333533059888   -0.04650673308392092   0.08800897441045707
-0.5486333533059888   -0.04650673308392092   0.08800897441045707
-0.5486333533059888   -0.04650673308392092   0.08800897441045707
-0.5349306025522956   0.0849382876826952   0.030009991159199695
-0.5349306025522956   0.0849382876826952   0.030009991159199695
-0.5349306025522956   0.0849382876826952   0.030009991159199695
-0.5349306025522956   0.0849382876826952   0.030009991159199695
-2.1320505521634368   -0.2396252495128433   -0.04129771808398723
-2.1320505521634368   -0.2396252495128433   -0.04129771808398723
-2.1320505521634368   -0.2396252495128433   -0.04129771808398723
-2.1320505521634368   -0.2396252495128433   -0.04129771808398723
-1.3450978795087345   -0.1459998168413345   -0.04101137160174399
-1.3450978795087345   -0.1459998168413345   -0.04101137160174399
-1.3450978795087345   -0.1459998168413345   -0.04101137160174399
-1.3450978795087345   -0.1459998168413345   -0.04101137160174399
-2.12860705495123   -0.24378341444674267   -0.01992206708905528
-2.12860705495123   -0.24378341444674267   -0.01992206708905528
-2.12860705495123   -0.24378341444674267   -0.01992206708905528
-2.12860705495123   -0.24378341444674267   -0.01992206708905528
-0.5258805233592485   0.10159002902184823   0.05860864578528248
-0.5258805233592485   0.10159002902184823   0.05860864578528248
-0.5258805233592485   0.10159002902184823   0.05860864578528248
-0.5258805233592485   0.10159002902184823   0.05860864578528248
-0.5041456486113015   0.2506193136297699   0.008025580707514732
-0.5041456486113015   0.2506193136297699   0.008025580707514732
-0.5041456486113015   0.2506193136297699   0.008025580707514732
-0.5041456486113015   0.2506193136297699   0.008025580707514732
-2.106527934758336   -0.09051743130493328   -0.07078897053177713
-2.106527934758336   -0.09051743130493328   -0.07078897053177713
-2.106527934758336   -0.09051743130493328   -0.07078897053177713
-2.106527934758336   -0.09051743130493328   -0.07078897053177713
-1.3122250102996322   0.0029745755557951115   0.01784651824895747
-1.3122250102996322   0.0029745755557951115   0.01784651824895747
-1.3122250102996322   0.0029745755557951115   0.01784651824895747
-1.3122250102996322   0.0029745755557951115   0.01784651824895747
-2.0987239549117374   -0.07863230357713608   -0.04365419902657951
-2.0987239549117374   -0.07863230357713608   -0.04365419902657951
-2.0987239549117374   -0.07863230357713608   -0.04365419902657951
-2.0987239549117374   -0.07863230357713608   -0.04365419902657951
-0.5004152998057151   0.25026851455415877   0.027028123811062107
-0.5004152998057151   0.25026851455415877   0.027028123811062107
-0.5004152998057151   0.25026851455415877   0.027028123811062107
-0.5004152998057151   0.25026851455415877   0.027028123811062107
-0.47655651866264936   0.41870252355655674   -0.017875153792297205
-0.47655651866264936   0.41870252355655674   -0.017875153792297205
-0.47655651866264936   0.41870252355655674   -0.017875153792297205
-0.47655651866264936   0.41870252355655674   -0.017875153792297205
-2.0840796570472033   0.06033622803323957   -0.10158151060187082
-2.0840796570472033   0.06033622803323957   -0.10158151060187082
-2.0840796570472033   0.06033622803323957   -0.10158151060187082
-2.0840796570472033   0.06033622803323957   -0.10158151060187082
-1.2822060724505107   0.15266140692147917   0.0745494636658548
-1.2822060724505107   0.15266140692147917   0.0745494636658548
-1.2822060724505107   0.15266140692147917   0.0745494636658548
-1.2822060724505107   0.15266140692147917   0.0745494636658548
-0.6798268183989841   -0.49875681215980655   -0.11570827197863835
-0.6798268183989841   -0.49875681215980655   -0.11570827197863835
-0.6798268183989841   -0.49875681215980655   -0.11570827197863835
-0.6798268183989841   -0.49875681215980655   -0.11570827197863835
0.9940343635735215   0.07952347890867426   0.19091662809832016
0.9940343635735215   0.07952347890867426   0.19091662809832016
0.9940343635735215   0.07952347890867426   0.19091662809832016
0.9940343635735215   0.07952347890867426   0.19091662809832016
0.9260797691756473   -0.025017622220658592   -0.10560537299263575
0.9260797691756473   -0.025017622220658592   -0.10560537299263575
0.9260797691756473   -0.025017622220658592   -0.10560537299263575
0.9260797691756473   -0.025017622220658592   -0.10560537299263575
-0.5670892304373307   -0.11622000515354348   0.07037514457026266
-0.5670892304373307   -0.11622000515354348   0.07037514457026266
-0.5670892304373307   -0.11622000515354348   0.07037514457026266
-0.5670892304373307   -0.11622000515354348   0.07037514457026266
0.1619841388900986   -0.1362440306566299   -0.0291456222746826
0.1619841388900986   -0.1362440306566299   -0.0291456222746826
0.1619841388900986   -0.1362440306566299   -0.0291456222746826
0.1619841388900986   -0.1362440306566299   -0.0291456222746826
-0.6561285241767016   -0.3487887267905133   -0.14225260248962196
-0.6561285241767016   -0.3487887267905133   -0.14225260248962196
-0.6561285241767016   -0.3487887267905133   -0.14225260248962196
-0.6561285241767016   -0.3487887267905133   -0.14225260248962196
1.0299928652490884   0.2224249017503891   0.16651758340350628
1.0299928652490884   0.2224249017503891   0.16651758340350628
1.0299928652490884   0.2224249017503891   0.16651758340350628
1.0299928652490884   0.2224249017503891   0.16651758340350628
0.9832611572573345   0.1316935335462893   -0.11960169534043096
0.9832611572573345   0.1316935335462893   -0.11960169534043096
0.9832611572573345   0.1316935335462893   -0.11960169534043096
0.9832611572573345   0.1316935335462893   -0.11960169534043096
-0.5448648225063984   0.01712937059193477   0.037919654269869804
-0.5448648225063984   0.01712937059193477   0.037919654269869804
-0.5448648225063984   0.01712937059193477   0.037919654269869804
-0.5448648225063984   0.01712937059193477   0.037919654269869804
0.19233910083937444   -0.0012848086033484668   0.030690058727144275
0.19233910083937444   -0.0012848086033484668   0.030690058727144275
0.19233910083937444   -0.0012848086033484668   0.030690058727144275
0.19233910083937444   -0.0012848086033484668   0.030690058727144275
-0.6307892287564459   -0.20175900488838977   -0.1728140015000458
-0.6307892287564459   -0.20175900488838977   -0.1728140015000458
-0.6307892287564459   -0.20175900488838977   -0.1728140015000458
-0.6307892287564459   -0.20175900488838977   -0.1728140015000458
1.082080934835132   0.3634772803543594   0.14271344574046263
1.082080934835132   0.3634772803543594   0.14271344574046263
1.082080934835132   0.3634772803543594   0.14271344574046263
1.082080934835132   0.3634772803543594   0.14271344574046263
1.029268256088242   0.3104834380220345   -0.13811667691390023
1.029268256088242   0.3104834380220345   -0.13811667691390023
1.029268256088242   0.3104834380220345   -0.13811667691390023
1.029268256088242   0.3104834380220345   -0.13811667691390023
-0.5211025502562625   0.17105020082172376   0.007047010974465626
-0.5211025502562625   0.17105020082172376   0.007047010974465626
-0.5211025502562625   0.17105020082172376   0.007047010974465626
-0.5211025502562625   0.17105020082172376   0.007047010974465626
0.23943484163486822   0.14577014106763825   0.09273186521038061
0.23943484163486822   0.14577014106763825   0.09273186521038061
0.23943484163486822   0.14577014106763825   0.09273186521038061
0.23943484163486822   0.14577014106763825   0.09273186521038061
0.7935627611041584   -0.5040105459808427   -0.22790735935897036
0.7935627611041584   -0.5040105459808427   -0.22790735935897036
0.7935627611041584   -0.5040105459808427   -0.22790735935897036
0.7935627611041584   -0.5040105459808427   -0.22790735935897036
2.36901076094592   0.2328604419350485   0.24650662485059127
2.36901076094592   0.2328604419350485   0.24650662485059127
2.36901076094592   0.2328604419350485   0.24650662485059127
2.36901076094592   0.2328604419350485   0.24650662485059127
2.345865262746884   -0.12148840872805283   -0.2999466688747841
2.345865262746884   -0.12148840872805283   -0.2999466688747841
2.345865262746884   -0.12148840872805283   -0.2999466688747841
2.345865262746884   -0.12148840872805283   -0.2999466688747841
0.9971675408491988   0.04098107948561108   0.18383478366884454
0.9971675408491988   0.04098107948561108   0.18383478366884454
0.9971675408491988   0.04098107948561108   0.18383478366884454
0.9971675408491988   0.04098107948561108   0.18383478366884454
1.5417029814694392   -0.10351155133385342   -0.08074759107783341
1.5417029814694392   -0.10351155133385342   -0.08074759107783341
1.5417029814694392   -0.10351155133385342   -0.08074759107783341
1.5417029814694392   -0.10351155133385342   -0.08074759107783341
0.8154313088526707   -0.42029910424796957   -0.2635661925802155
0.8154313088526707   -0.42029910424796957   -0.2635661925802155
0.8154313088526707   -0.42029910424796957   -0.2635661925802155
0.8154313088526707   -0.42029910424796957   -0.2635661925802155
2.542766900226582   0.3549571804887151   0.20811592930698136
2.542766900226582   0.3549571804887151   0.20811592930698136
2.542766900226582   0.3549571804887151   0.20811592930698136
2.542766900226582   0.3549571804887151   0.20811592930698136
2.472225349447826   -0.03364379443735982   -0.35947746105810807
2.472225349447826   -0.03364379443735982   -0.35947746105810807
2.472225349447826   -0.03364379443735982   -0.35947746105810807
2.472225349447826   -0.03364379443735982   -0.35947746105810807
1.0305460987843422   0.10531108006699577   0.14320546577387838
1.0305460987843422   0.10531108006699577   0.14320546577387838
1.0305460987843422   0.10531108006699577   0.14320546577387838
1.0305460987843422   0.10531108006699577   0.14320546577387838
1.669799440317148   -0.015056574013042945   -0.010139573974413243
1.669799440317148   -0.015056574013042945   -0.010139573974413243
1.669799440317148   -0.015056574013042945   -0.010139573974413243
1.669799440317148   -0.015056574013042945   -0.010139573974413243
0.850308547392612   -0.34722158738361253   -0.3054496237341572
0.850308547392612   -0.34722158738361253   -0.3054496237341572
0.850308547392612   -0.34722158738361253   -0.3054496237341572
0.850308547392612   -0.34722158738361253   -0.3054496237341572
2.668243087520522   0.4346690596942227   0.15229837517383354
2.668243087520522   0.4346690596942227   0.15229837517383354
2.668243087520522   0.4346690596942227   0.15229837517383354
2.668243087520522   0.4346690596942227   0.15229837517383354
2.6659959993053217   0.15944397912795483   -0.38458294061424936
2.6659959993053217   0.15944397912795483   -0.38458294061424936
2.6659959993053217   0.15944397912795483   -0.38458294061424936
2.6659959993053217   0.15944397912795483   -0.38458294061424936
1.064720851981394   0.23590313956254289   0.11372660101135176
1.064720851981394   0.23590313956254289   0.11372660101135176
1.064720851981394   0.23590313956254289   0.11372660101135176
1.064720851981394   0.23590313956254289   0.11372660101135176
1.732957792662798   0.08263987802804718   0.05043572292869457
1.732957792662798   0.08263987802804718   0.05043572292869457
1.732957792662798   0.08263987802804718   0.05043572292869457
1.732957792662798   0.08263987802804718   0.05043572292869457
-3.1768477944433267   -0.05500028693613912   0.307522119945319
-3.1768477944433267   -0.05500028693613912   0.307522119945319
-3.1768477944433267   -0.05500028693613912   0.307522119945319
-3.1768477944433267   -0.05500028693613912   0.307522119945319
-2.4704595216198055   -0.3123062401502469   -0.1527270082297404
-2.4704595216198055   -0.3123062401502469   -0.1527270082297404
-2.4704595216198055   -0.3123062401502469   -0.1527270082297404
-2.4704595216198055   -0.3123062401502469   -0.1527270082297404
-2.236508659474832   0.2652049890822476   0.26313752966721643
-2.236508659474832   0.2652049890822476   0.26313752966721643
-2.236508659474832   0.2652049890822476   0.26313752966721643
-2.236508659474832   0.2652049890822476   0.26313752966721643
-3.1630558962969033   -0.3442717479608022   -0.2076446748963266
-3.1630558962969033   -0.3442717479608022   -0.2076446748963266
-3.1630558962969033   -0.3442717479608022   -0.2076446748963266
-3.1630558962969033   -0.3442717479608022   -0.2076446748963266
-2.655665860718202   -0.07347883614845752   -0.03790518805087631
-2.655665860718202   -0.07347883614845752   -0.03790518805087631
-2.655665860718202   -0.07347883614845752   -0.03790518805087631
-2.655665860718202   -0.07347883614845752   -0.03790518805087631
-2.968910524534537   0.12488266443983687   0.2939277715148679
-2.968910524534537   0.12488266443983687   0.2939277715148679
-2.968910524534537   0.12488266443983687   0.2939277715148679
-2.968910524534537   0.12488266443983687   0.2939277715148679
-2.4172339283981126   -0.19052932047928262   -0.18475450538764238
-2.4172339283981126   -0.19052932047928262   -0.18475450538764238
-2.4172339283981126   -0.19052932047928262   -0.18475450538764238
-2.4172339283981126   -0.19052932047928262   -0.18475450538764238
-2.1806175272373123   0.33384911955703445   0.22268887800319775
-2.1806175272373123   0.33384911955703445   0.22268887800319775
-2.1806175272373123   0.33384911955703445   0.22268887800319775
-2.1806175272373123   0.33384911955703445   0.22268887800319775
-3.018289158702541   -0.2665033452193701   -0.25963755853841364
-3.018289158702541   -0.2665033452193701   -0.25963755853841364
-3.018289158702541   -0.2665033452193701   -0.25963755853841364
-3.018289158702541   -0.2665033452193701   -0.25963755853841364
-2.5800003700556777   0.016461556258677956   0.01937217367341315
-2.5800003700556777   0.016461556258677956   0.01937217367341315
-2.5800003700556777   0.016461556258677956   0.01937217367341315
-2.5800003700556777   0.016461556258677956   0.01937217367341315
-2.823894148156502   0.2081857079725279   0.23764844099985466
-2.823894148156502   0.2081857079725279   0.23764844099985466
-2.823894148156502   0.2081857079725279   0.23764844099985466
-2.823894148156502   0.2081857079725279   0.23764844099985466
-2.36228357631438   -0.12811097216589157   -0.2236812756591824
-2.36228357631438   -0.12811097216589157   -0.2236812756591824
-2.36228357631438   -0.12811097216589157   -0.2236812756591824
-2.36228357631438   -0.12811097216589157   -0.2236812756591824
-2.1352223617812203   0.4190157789427861   0.19207799846917203
-2.1352223617812203   0.4190157789427861   0.19207799846917203
-2.1352223617812203   0.4190157789427861   0.19207799846917203
-2.1352223617812203   0.4190157789427861   0.19207799846917203
-2.82374114541358   -0.14206391263994778   -0.3005505906086965
-2.82374114541358   -0.14206391263994778   -0.3005505906086965
-2.82374114541358   -0.14206391263994778   -0.3005505906086965
-2.82374114541358   -0.14206391263994778   -0.3005505906086965
-2.4269801096053816   0.10495871918638733   0.09058778899317022
-2.4269801096053816   0.10495871918638733   0.09058778899317022
-2.4269801096053816   0.10495871918638733   0.09058778899317022
-2.4269801096053816   0.10495871918638733   0.09058778899317022
-2.38468611278924   -0.1805227045125251   0.14435650028536495
-2.38468611278924   -0.1805227045125251   0.14435650028536495
-2.38468611278924   -0.1805227045125251   0.14435650028536495
-2.38468611278924   -0.1805227045125251   0.14435650028536495
-1.7440041360464662   -0.23687874946132853   -0.04526067505042593
-1.7440041360464662   -0.23687874946132853   -0.04526067505042593
-1.7440041360464662   -0.23687874946132853   -0.04526067505042593
-1.7440041360464662   -0.23687874946132853   -0.04526067505042593
-1.6132545259103892   0.12056438853288304   0.13449941477576444
-1.6132545259103892   0.12056438853288304   0.13449941477576444
-1.6132545259103892   0.12056438853288304   0.13449941477576444
-1.6132545259103892   0.12056438853288304   0.13449941477576444
-2.4192298733653836   -0.25436976679538037   -0.1308937839078827
-2.4192298733653836   -0.25436976679538037   -0.1308937839078827
-2.4192298733653836   -0.25436976679538037   -0.1308937839078827
-2.4192298733653836   -0.25436976679538037   -0.1308937839078827
-2.0344928144240346   -0.12704833475394234   -0.05439548183253841
-2.0344928144240346   -0.12704833475394234   -0.05439548183253841
-2.0344928144240346   -0.12704833475394234   -0.05439548183253841
-2.0344928144240346   -0.12704833475394234   -0.05439548183253841
-2.322319634055507   -0.02357582240172218   0.12286346824779518
-2.322319634055507   -0.02357582240172218   0.12286346824779518
-2.322319634055507   -0.02357582240172218   0.12286346824779518
-2.322319634055507   -0.02357582240172218   0.12286346824779518
-1.6993386142060805   -0.0994034048465875   -0.07595323332322129
-1.6993386142060805   -0.0994034048465875   -0.07595323332322129
-1.6993386142060805   -0.0994034048465875   -0.07595323332322129
-1.6993386142060805   -0.0994034048465875   -0.07595323332322129
-1.5650146387910948   0.2600647236374152   0.10763011965014083
-1.5650146387910948   0.2600647236374152   0.10763011965014083
-1.5650146387910948   0.2600647236374152   0.10763011965014083
-1.5650146387910948   0.2600647236374152   0.10763011965014083
-2.347266673043965   -0.12004378437669383   -0.156663947096292
-2.347266673043965   -0.12004378437669383   -0.156663947096292
-2.347266673043965   -0.12004378437669383   -0.156663947096292
-2.347266673043965   -0.12004378437669383   -0.156663947096292
-1.9649414941368617   0.0076650711174076624   0.0059445352246763755
-1.9649414941368617   0.0076650711174076624   0.0059445352246763755
-1.9649414941368617   0.0076650711174076624   0.0059445352246763755
-1.9649414941368617   0.0076650711174076624   0.0059445352246763755
-2.244677656804162   0.12487797170830878   0.11135937801767601
-2.244677656804162   0.12487797170830878   0.11135937801767601
-2.244677656804162   0.12487797170830878   0.11135937801767601
-2.244677656804162   0.12487797170830878   0.11135937801767601
-1.655104246901616   0.027642375681684317   -0.11039557294675012
-1.655104246901616   0.027642375681684317   -0.11039557294675012
-1.655104246901616   0.027642375681684317   -0.11039557294675012
-1.655104246901616   0.027642375681684317   -0.11039557294675012
-1.516936156968774   0.41129733172964833   0.08203941015309679
-1.516936156968774   0.41129733172964833   0.08203941015309679
-1.516936156968774   0.41129733172964833   0.08203941015309679
-1.516936156968774   0.41129733172964833   0.08203941015309679
-2.2877145638277567   0.026481704923325244   -0.17784893774401736
-2.2877145638277567   0.026481704923325244   -0.17784893774401736
-2.2877145638277567   0.026481704923325244   -0.17784893774401736
-2.2877145638277567   0.026481704923325244   -0.17784893774401736
-1.914579698569097   0.1395026020616078   0.06488333515975339
-1.914579698569097   0.1395026020616078   0.06488333515975339
-1.914579698569097   0.1395026020616078   0.06488333515975339
-1.914579698569097   0.1395026020616078   0.06488333515975339
-1.7421248387861064   -0.2977961772533607   0.025053239043375333
-1.7421248387861064   -0.2977961772533607   0.025053239043375333
-1.7421248387861064   -0.2977961772533607   0.025053239043375333
-1.7421248387861064   -0.2977961772533607   0.025053239043375333
-1.0278613391065294   -0.12401343752507352   0.06420861360623659
-1.0278613391065294   -0.12401343752507352   0.06420861360623659
-1.0278613391065294   -0.12401343752507352   0.06420861360623659
-1.0278613391065294   -0.12401343752507352   0.06420861360623659
-0.9917924214249423   -0.0016441440288096076   0.008349678597687135
-0.9917924214249423   -0.0016441440288096076   0.008349678597687135
-0.9917924214249423   -0.0016441440288096076   0.008349678597687135
-0.9917924214249423   -0.0016441440288096076   0.008349678597687135
-1.6945621128973294   -0.13623134258143135   -0.015242789044622153
-1.6945621128973294   -0.13623134258143135   -0.015242789044622153
-1.6945621128973294   -0.13623134258143135   -0.015242789044622153
-1.6945621128973294   -0.13623134258143135   -0.015242789044622153
-1.3662408238228292   -0.13339994512001818   -0.03955091672487038
-1.3662408238228292   -0.13339994512001818   -0.03955091672487038
-1.3662408238228292   -0.13339994512001818   -0.03955091672487038
-1.3662408238228292   -0.13339994512001818   -0.03955091672487038
-1.6926123997419324   -0.14318599048464514   0.0014604246355612166
-1.6926123997419324   -0.14318599048464514   0.0014604246355612166
-1.6926123997419324   -0.14318599048464514   0.0014604246355612166
-1.6926123997419324   -0.14318599048464514   0.0014604246355612166
-0.9829810615777603   0.016071576876970223   0.03469075692781672
-0.9829810615777603   0.016071576876970223   0.03469075692781672
-0.9829810615777603   0.016071576876970223   0.03469075692781672
-0.9829810615777603   0.016071576876970223   0.03469075692781672
-0.9394521890433705   0.15434455553461737   -0.013554782048989633
-0.9394521890433705   0.15434455553461737   -0.013554782048989633
-0.9394521890433705   0.15434455553461737   -0.013554782048989633
-0.9394521890433705   0.15434455553461737   -0.013554782048989633
-1.646241491782884   0.005844755164882309   -0.04428417683628805
-1.646241491782884   0.005844755164882309   -0.04428417683628805
-1.646241491782884   0.005844755164882309   -0.04428417683628805
-1.646241491782884   0.005844755164882309   -0.04428417683628805
-1.3110631859516082   0.0069349818910189875   0.01892152765621946
-1.3110631859516082   0.0069349818910189875   0.01892152765621946
-1.3110631859516082   0.0069349818910189875   0.01892152765621946
-1.3110631859516082   0.0069349818910189875   0.01892152765621946
-1.6405836957889965   0.012332601879077698   -0.022483043581061846
-1.6405836957889965   0.012332601879077698   -0.022483043581061846
-1.6405836957889965   0.012332601879077698   -0.022483043581061846
-1.6405836957889965   0.012332601879077698   -0.022483043581061846
-0.9353815070542275   0.15758518680345118   0.003557996627899962
-0.9353815070542275   0.15758518680345118   0.003557996627899962
-0.9353815070542275   0.15758518680345118   0.003557996627899962
-0.9353815070542275   0.15758518680345118   0.003557996627899962
-0.8900240073853893   0.31174395412795414   -0.038598529790112135
-0.8900240073853893   0.31174395412795414   -0.038598529790112135
-0.8900240073853893   0.31174395412795414   -0.038598529790112135
-0.8900240073853893   0.31174395412795414   -0.038598529790112135
-1.6008527030882016   0.14902312550500857   -0.07526911421940241
-1.6008527030882016   0.14902312550500857   -0.07526911421940241
-1.6008527030882016   0.14902312550500857   -0.07526911421940241
-1.6008527030882016   0.14902312550500857   -0.07526911421940241
-1.2588356714115416   0.1477710503750032   0.07504550463048153
-1.2588356714115416   0.1477710503750032   0.07504550463048153
-1.2588356714115416   0.1477710503750032   0.07504550463048153
-1.2588356714115416   0.1477710503750032   0.07504550463048153
-1.1150086736189662   -0.3996472945380689   -0.09589420194296949
-1.1150086736189662   -0.3996472945380689   -0.09589420194296949
-1.1150086736189662   -0.3996472945380689   -0.09589420194296949
-1.1150086736189662   -0.3996472945380689   -0.09589420194296949
-0.33052682614475154   -0.004147718846202041   0.1684545819483035
-0.33052682614475154   -0.004147718846202041   0.1684545819483035
-0.33052682614475154   -0.004147718846202041   0.1684545819483035
-0.33052682614475154   -0.004147718846202041   0.1684545819483035
-0.37750831950176483   -0.1169147632710176   -0.12267955695267393
-0.37750831950176483   -0.1169147632710176   -0.12267955695267393
-0.37750831950176483   -0.1169147632710176   -0.12267955695267393
-0.37750831950176483   -0.1169147632710176   -0.12267955695267393
-0.9769695186051421   -0.015308013786378083   0.09612806245425007
-0.9769695186051421   -0.015308013786378083   0.09612806245425007
-0.9769695186051421   -0.015308013786378083   0.09612806245425007
-0.9769695186051421   -0.015308013786378083   0.09612806245425007
-0.7000281758696691   -0.12813624813467017   -0.028525194517397795
-0.7000281758696691   -0.12813624813467017   -0.028525194517397795
-0.7000281758696691   -0.12813624813467017   -0.028525194517397795
-0.7000281758696691   -0.12813624813467017   -0.028525194517397795
-1.0683179324117262   -0.2547709821128955   -0.12115103825216335
-1.0683179324117262   -0.2547709821128955   -0.12115103825216335
-1.0683179324117262   -0.2547709821128955   -0.12115103825216335
-1.0683179324117262   -0.2547709821128955   -0.12115103825216335
-0.2740936142056413   0.13461449654502727   0.1428647097118988
-0.2740936142056413   0.13461449654502727   0.1428647097118988
-0.2740936142056413   0.13461449654502727   0.1428647097118988
-0.2740936142056413   0.13461449654502727   0.1428647097118988
-0.3012487352117119   0.030651576863699764   -0.13808540166599165
-0.3012487352117119   0.030651576863699764   -0.13808540166599165
-0.3012487352117119   0.030651576863699764   -0.13808540166599165
-0.3012487352117119   0.030651576863699764   -0.13808540166599165
-0.9323426596079977   0.11227774893009657   0.06405967173239452
-0.9323426596079977   0.11227774893009657   0.06405967173239452
-0.9323426596079977   0.11227774893009657   0.06405967173239452
-0.9323426596079977   0.11227774893009657   0.06405967173239452
-0.6414547670564759   0.0024691228458299797   0.031029886122513874
-0.6414547670564759   0.0024691228458299797   0.031029886122513874
-0.6414547670564759   0.0024691228458299797   0.031029886122513874
-0.6414547670564759   0.0024691228458299797   0.031029886122513874
-1.0207957471837108   -0.11568862386726575   -0.15023939334882042
-1.0207957471837108   -0.11568862386726575   -0.15023939334882042
-1.0207957471837108   -0.11568862386726575   -0.15023939334882042
-1.0207957471837108   -0.11568862386726575   -0.15023939334882042
-0.201566258649663   0.26984733864739735   0.12113121936056347
-0.201566258649663   0.26984733864739735   0.12113121936056347
-0.201566258649663   0.26984733864739735   0.12113121936056347
-0.201566258649663   0.26984733864739735   0.12113121936056347
-0.2367184795518961   0.19559295221473016   -0.1546233027648688
-0.2367184795518961   0.19559295221473016   -0.1546233027648688
-0.2367184795518961   0.19559295221473016   -0.1546233027648688
-0.2367184795518961   0.19559295221473016   -0.1546233027648688
-0.8866601505632201   0.25681623156939676   0.03314847687929055
-0.8866601505632201   0.25681623156939676   0.03314847687929055
-0.8866601505632201   0.25681623156939676   0.03314847687929055
-0.8866601505632201   0.25681623156939676   0.03314847687929055
-0.5806862860919195   0.13883507098332876   0.09066967211832633
-0.5806862860919195   0.13883507098332876   0.09066967211832633
-0.5806862860919195   0.13883507098332876   0.09066967211832633
-0.5806862860919195   0.13883507098332876   0.09066967211832633
-0.4909974363008478   -0.430043133350084   -0.2080030543283038
-0.4909974363008478   -0.430043133350084   -0.2080030543283038
-0.4909974363008478   -0.430043133350084   -0.2080030543283038
-0.4909974363008478   -0.430043133350084   -0.2080030543283038
0.2008879177557337   0.12936520637902013   0.2561314003862268
0.2008879177557337   0.12936520637902013   0.2561314003862268
0.2008879177557337   0.12936520637902013   0.2561314003862268
0.2008879177557337   0.12936520637902013   0.2561314003862268
0.20284470339931837   -0.2096981039034312   -0.27523829582642495
0.20284470339931837   -0.2096981039034312   -0.27523829582642495
0.20284470339931837   -0.2096981039034312   -0.27523829582642495
0.20284470339931837   -0.2096981039034312   -0.27523829582642495
-0.26121205253706753   0.1322832784672619   0.20960373613253308
-0.26121205253706753   0.1322832784672619   0.20960373613253308
-0.26121205253706753   0.1322832784672619   0.20960373613253308
-0.26121205253706753   0.1322832784672619   0.20960373613253308
-0.09385645627597326   -0.09056081972600653   -0.049250683345291646
-0.09385645627597326   -0.09056081972600653   -0.049250683345291646
-0.09385645627597326   -0.09056081972600653   -0.049250683345291646
-0.09385645627597326   -0.09056081972600653   -0.049250683345291646
-0.44376199367847363   -0.3317869353126265   -0.2390757557946092
-0.44376199367847363   -0.3317869353126265   -0.2390757557946092
-0.44376199367847363   -0.3317869353126265   -0.2390757557946092
-0.44376199367847363   -0.3317869353126265   -0.2390757557946092
0.39830571520264824   0.26728318053838085   0.22508547874841228
0.39830571520264824   0.26728318053838085   0.22508547874841228
0.39830571520264824   0.26728318053838085   0.22508547874841228
0.39830571520264824   0.26728318053838085   0.22508547874841228
0.3484056619080906   -0.12511213682700234   -0.3267701818198604
0.3484056619080906   -0.12511213682700234   -0.3267701818198604
0.3484056619080906   -0.12511213682700234   -0.3267701818198604
0.3484056619080906   -0.12511213682700234   -0.3267701818198604
-0.20743031083274685   0.19365318834589107   0.16800510874665045
-0.20743031083274685   0.19365318834589107   0.16800510874665045
-0.20743031083274685   0.19365318834589107   0.16800510874665045
-0.20743031083274685   0.19365318834589107   0.16800510874665045
0.026290767545111792   -0.0036369751210685603   0.015403457531376424
0.026290767545111792   -0.0036369751210685603   0.015403457531376424
0.026290767545111792   -0.0036369751210685603   0.015403457531376424
0.026290767545111792   -0.0036369751210685603   0.015403457531376424
-0.3874681419853051   -0.2621991941464674   -0.2763316645237901
-0.3874681419853051   -0.2621991941464674   -0.2763316645237901
-0.3874681419853051   -0.2621991941464674   -0.2763316645237901
-0.3874681419853051   -0.2621991941464674   -0.2763316645237901
0.5413481614501054   0.3436449140548115   0.1691852650084003
0.5413481614501054   0.3436449140548115   0.1691852650084003
0.5413481614501054   0.3436449140548115   0.1691852650084003
0.5413481614501054   0.3436449140548115   0.1691852650084003
0.5519628412087522   0.04065408333361519   -0.349760669360645
0.5519628412087522   0.04065408333361519   -0.349760669360645
0.5519628412087522   0.04065408333361519   -0.349760669360645
0.5519628412087522   0.04065408333361519   -0.349760669360645
-0.1571508759156744   0.3023023662109068   0.13650530142006306
-0.1571508759156744   0.3023023662109068   0.13650530142006306
-0.1571508759156744   0.3023023662109068   0.13650530142006306
-0.1571508759156744   0.3023023662109068   0.13650530142006306
0.13379551384755317   0.08788316049167191   0.07843683701543011
0.13379551384755317   0.08788316049167191   0.07843683701543011
0.13379551384755317   0.08788316049167191   0.07843683701543011
0.13379551384755317   0.08788316049167191   0.07843683701543011
-1.0644314923896192   0.057949665038746434   0.29252448848504
-1.0644314923896192   0.057949665038746434   0.29252448848504
-1.0644314923896192   0.057949665038746434   0.29252448848504
-1.0644314923896192   0.057949665038746434   0.29252448848504
-1.2509990654371326   -0.38207605958579793   -0.17307476047519746
-1.2509990654371326   -0.38207605958579793   -0.17307476047519746
-1.2509990654371326   -0.38207605958579793   -0.17307476047519746
-1.2509990654371326   -0.38207605958579793   -0.17307476047519746
-0.9987502828569821   0.17805575751773142   0.23968723905641998
-0.9987502828569821   0.17805575751773142   0.23968723905641998
-0.9987502828569821   0.17805575751773142   0.23968723905641998
-0.9987502828569821   0.17805575751773142   0.23968723905641998
-1.0332341207930837   -0.25317632094546166   -0.22272045963248122
-1.0332341207930837   -0.25317632094546166   -0.22272045963248122
-1.0332341207930837   -0.25317632094546166   -0.22272045963248122
-1.0332341207930837   -0.25317632094546166   -0.22272045963248122
-1.0589162921129112   -0.08153149640186796   -0.07935538077876325
-1.0589162921129112   -0.08153149640186796   -0.07935538077876325
-1.0589162921129112   -0.08153149640186796   -0.07935538077876325
-1.0589162921129112   -0.08153149640186796   -0.07935538077876325
-0.8402860417183802   0.21631656741106908   0.2725270473845064
-0.8402860417183802   0.21631656741106908   0.2725270473845064
-0.8402860417183802   0.21631656741106908   0.2725270473845064
-0.8402860417183802   0.21631656741106908   0.2725270473845064
-1.179706260985082   -0.2794450298921931   -0.20759186417414044
-1.179706260985082   -0.2794450298921931   -0.20759186417414044
-1.179706260985082   -0.2794450298921931   -0.20759186417414044
-1.179706260985082   -0.2794450298921931   -0.20759186417414044
-0.9202220712041124   0.2454045104347929   0.20183463223397274
-0.9202220712041124   0.2454045104347929   0.20183463223397274
-0.9202220712041124   0.2454045104347929   0.20183463223397274
-0.9202220712041124   0.2454045104347929   0.20183463223397274
-0.8661999015369959   -0.17706349422073006   -0.2776798151715736
-0.8661999015369959   -0.17706349422073006   -0.2776798151715736
-0.8661999015369959   -0.17706349422073006   -0.2776798151715736
-0.8661999015369959   -0.17706349422073006   -0.2776798151715736
-0.935664735973685   0.004617664173191233   -0.015889455732013592
-0.935664735973685   0.004617664173191233   -0.015889455732013592
-0.935664735973685   0.004617664173191233   -0.015889455732013592
-0.935664735973685   0.004617664173191233   -0.015889455732013592
-0.6720312609453581   0.29824643729410005   0.21785345627175434
-0.6720312609453581   0.29824643729410005   0.21785345627175434
-0.6720312609453581   0.29824643729410005   0.21785345627175434
-0.6720312609453581   0.29824643729410005   0.21785345627175434
-1.1030503022161133   -0.21856501150042587   -0.2483370008908125
-1.1030503022161133   -0.21856501150042587   -0.2483370008908125
-1.1030503022161133   -0.21856501150042587   -0.2483370008908125
-1.1030503022161133   -0.21856501150042587   -0.2483370008908125
-0.8482767410926384   0.34800785782255006   0.17434385738285121
-0.8482767410926384   0.34800785782255006   0.17434385738285121
-0.8482767410926384   0.34800785782255006   0.17434385738285121
-0.8482767410926384   0.34800785782255006   0.17434385738285121
-0.6432909184850579   -0.032357806862562455   -0.31288868255674823
-0.6432909184850579   -0.032357806862562455   -0.31288868255674823
-0.6432909184850579   -0.032357806862562455   -0.31288868255674823
-0.6432909184850579   -0.032357806862562455   -0.31288868255674823
-0.787190352474199   0.09444837429705988   0.05218430023600537
-0.787190352474199   0.09444837429705988   0.05218430023600537
-0.787190352474199   0.09444837429705988   0.05218430023600537
-0.787190352474199   0.09444837429705988   0.05218430023600537
-1.1208542357826081   -0.07006830729676822   0.1656416355083948
-1.1208542357826081   -0.07006830729676822   0.1656416355083948
-1.1208542357826081   -0.07006830729676822   0.1656416355083948
-1.1208542357826081   -0.07006830729676822   0.1656416355083948
-1.3817270737302987   -0.3115909670467018   -0.06764124111332921
-1.3817270737302987   -0.3115909670467018   -0.06764124111332921
-1.3817270737302987   -0.3115909670467018   -0.06764124111332921
-1.3817270737302987   -0.3115909670467018   -0.06764124111332921
-1.2304715238419979   0.03179685348689515   0.11118096798010946
-1.2304715238419979   0.03179685348689515   0.11118096798010946
-1.2304715238419979   0.03179685348689515   0.11118096798010946
-1.2304715238419979   0.03179685348689515   0.11118096798010946
-1.1325799345301484   -0.14869128284584024   -0.10271397894580905
-1.1325799345301484   -0.14869128284584024   -0.10271397894580905
-1.1325799345301484   -0.14869128284584024   -0.10271397894580905
-1.1325799345301484   -0.14869128284584024   -0.10271397894580905
-1.2171182739083466   -0.11517202620383915   -0.05619264982546829
-1.2171182739083466   -0.11517202620383915   -0.05619264982546829
-1.2171182739083466   -0.11517202620383915   -0.05619264982546829
-1.2171182739083466   -0.11517202620383915   -0.05619264982546829
-1.0379840054555944   0.07697753357030995   0.14459685001077982
-1.0379840054555944   0.07697753357030995   0.14459685001077982
-1.0379840054555944   0.07697753357030995   0.14459685001077982
-1.0379840054555944   0.07697753357030995   0.14459685001077982
-1.3156863254318898   -0.184490835444579   -0.09860535103788416
-1.3156863254318898   -0.184490835444579   -0.09860535103788416
-1.3156863254318898   -0.184490835444579   -0.09860535103788416
-1.3156863254318898   -0.184490835444579   -0.09860535103788416
-1.1602929813308975   0.16565735232229645   0.08486804468559206
-1.1602929813308975   0.16565735232229645   0.08486804468559206
-1.1602929813308975   0.16565735232229645   0.08486804468559206
-1.1602929813308975   0.16565735232229645   0.08486804468559206
-1.0390527052818523   -0.019451567220730992   -0.12746246049920207
-1.0390527052818523   -0.019451567220730992   -0.12746246049920207
-1.0390527052818523   -0.019451567220730992   -0.12746246049920207
-1.0390527052818523   -0.019451567220730992   -0.12746246049920207
-1.1334382944416432   0.009935956661815959   0.002450972113367228
-1.1334382944416432   0.009935956661815959   0.002450972113367228
-1.1334382944416432   0.009935956661815959   0.002450972113367228
-1.1334382944416432   0.009935956661815959   0.002450972113367228
-0.9398721181286767   0.2188047480290093   0.1301841600169354
-0.9398721181286767   0.2188047480290093   0.1301841600169354
-0.9398721181286767   0.2188047480290093   0.1301841600169354
-0.9398721181286767   0.2188047480290093   0.1301841600169354
-1.249478076071386   -0.06260347051474019   -0.13279660617983668
-1.249478076071386   -0.06260347051474019   -0.13279660617983668
-1.249478076071386   -0.06260347051474019   -0.13279660617983668
-1.249478076071386   -0.06260347051474019   -0.13279660617983668
-1.08979100018551   0.3136082556797967   0.05986025239609358
-1.08979100018551   0.3136082556797967   0.05986025239609358
-1.08979100018551   0.3136082556797967   0.05986025239609358
-1.08979100018551   0.3136082556797967   0.05986025239609358
-0.9581708629381468   0.12377434726082781   -0.15089324128296844
-0.9581708629381468   0.12377434726082781   -0.15089324128296844
-0.9581708629381468   0.12377434726082781   -0.15089324128296844
-0.9581708629381468   0.12377434726082781   -0.15089324128296844
-1.0543452985871833   0.1389028024183862   0.062054826778390096
-1.0543452985871833   0.1389028024183862   0.062054826778390096
-1.0543452985871833   0.1389028024183862   0.062054826778390096
-1.0543452985871833   0.1389028024183862   0.062054826778390096
-1.334413755213064   -0.18891563881867116   0.046250023244782994
-1.334413755213064   -0.18891563881867116   0.046250023244782994
-1.334413755213064   -0.18891563881867116   0.046250023244782994
-1.334413755213064   -0.18891563881867116   0.046250023244782994
-1.5125363867363173   -0.1956151886986073   0.04104050583693875
-1.5125363867363173   -0.1956151886986073   0.04104050583693875
-1.5125363867363173   -0.1956151886986073   0.04104050583693875
-1.5125363867363173   -0.1956151886986073   0.04104050583693875
-1.4560947954057561   -0.0883504159415747   -0.014305473336912101
-1.4560947954057561   -0.0883504159415747   -0.014305473336912101
-1.4560947954057561   -0.0883504159415747   -0.014305473336912101
-1.4560947954057561   -0.0883504159415747   -0.014305473336912101
-1.261837042093594   -0.027087273678606305   0.013237503887630842
-1.261837042093594   -0.027087273678606305   0.013237503887630842
-1.261837042093594   -0.027087273678606305   0.013237503887630842
-1.261837042093594   -0.027087273678606305   0.013237503887630842
-1.3933043524148803   -0.11790006503850858   -0.03717696788296891
-1.3933043524148803   -0.11790006503850858   -0.03717696788296891
-1.3933043524148803   -0.11790006503850858   -0.03717696788296891
-1.3933043524148803   -0.11790006503850858   -0.03717696788296891
-1.2629843178464755   -0.04232037956117987   0.022734231005781223
-1.2629843178464755   -0.04232037956117987   0.022734231005781223
-1.2629843178464755   -0.04232037956117987   0.022734231005781223
-1.2629843178464755   -0.04232037956117987   0.022734231005781223
-1.446116527268684   -0.0642863176748317   0.011521769081716933
-1.446116527268684   -0.0642863176748317   0.011521769081716933
-1.446116527268684   -0.0642863176748317   0.011521769081716933
-1.446116527268684   -0.0642863176748317   0.011521769081716933
-1.3824363480408903   0.060187183471352046   -0.036377179045932906
-1.3824363480408903   0.060187183471352046   -0.036377179045932906
-1.3824363480408903   0.060187183471352046   -0.036377179045932906
-1.3824363480408903   0.060187183471352046   -0.036377179045932906
-1.1918970315161401   0.10787872603957938   -0.01537357995790252
-1.1918970315161401   0.10787872603957938   -0.01537357995790252
-1.1918970315161401   0.10787872603957938   -0.01537357995790252
-1.1918970315161401   0.10787872603957938   -0.01537357995790252
-1.3163958632348058   0.01496528922006779   0.020673587096316517
-1.3163958632348058   0.01496528922006779   0.020673587096316517
-1.3163958632348058   0.01496528922006779   0.020673587096316517
-1.3163958632348058   0.01496528922006779   0.020673587096316517
-1.189595986873314   0.10569397114434231   -0.0016836018485580917
-1.189595986873314   0.10569397114434231   -0.0016836018485580917
-1.189595986873314   0.10569397114434231   -0.0016836018485580917
-1.189595986873314   0.10569397114434231   -0.0016836018485580917
-1.3770433694659074   0.07006596158439443   -0.01929106428405998
-1.3770433694659074   0.07006596158439443   -0.01929106428405998
-1.3770433694659074   0.07006596158439443   -0.01929106428405998
-1.3770433694659074   0.07006596158439443   -0.01929106428405998
-1.3119133462494132   0.20959556041904298   -0.061346296488018814
-1.3119133462494132   0.20959556041904298   -0.061346296488018814
-1.3119133462494132   0.20959556041904298   -0.061346296488018814
-1.3119133462494132   0.20959556041904298   -0.061346296488018814
-1.1251515454067   0.2433969899282532   -0.04673120795829769
-1.1251515454067   0.2433969899282532   -0.04673120795829769
-1.1251515454067   0.2433969899282532   -0.04673120795829769
-1.1251515454067   0.2433969899282532   -0.04673120795829769
-1.2429951476070127   0.14806523880325956   0.07582296193056222
-1.2429951476070127   0.14806523880325956   0.07582296193056222
-1.2429951476070127   0.14806523880325956   0.07582296193056222
-1.2429951476070127   0.14806523880325956   0.07582296193056222
-1.5565654171473038   -0.2983252670164359   -0.07639456790019081
-1.5565654171473038   -0.2983252670164359   -0.07639456790019081
-1.5565654171473038   -0.2983252670164359   -0.07639456790019081
-1.5565654171473038   -0.2983252670164359   -0.07639456790019081
-1.65387521305081   -0.08207175774260447   0.145024645950803
-1.65387521305081   -0.08207175774260447   0.145024645950803
-1.65387521305081   -0.08207175774260447   0.145024645950803
-1.65387521305081   -0.08207175774260447   0.145024645950803
-1.6798058159145455   -0.2033491876941581   -0.1412415097752465
-1.6798058159145455   -0.2033491876941581   -0.1412415097752465
-1.6798058159145455   -0.2033491876941581   -0.1412415097752465
-1.6798058159145455   -0.2033491876941581   -0.1412415097752465
-1.393224320083532   0.0897254420211791   0.1219710453114562
-1.393224320083532   0.0897254420211791   0.1219710453114562
-1.393224320083532   0.0897254420211791   0.1219710453114562
-1.393224320083532   0.0897254420211791   0.1219710453114562
-1.5644417835456264   -0.1154414610948565   -0.023319521235098305
-1.5644417835456264   -0.1154414610948565   -0.023319521235098305
-1.5644417835456264   -0.1154414610948565   -0.023319521235098305
-1.5644417835456264   -0.1154414610948565   -0.023319521235098305
-1.487033760802348   -0.15668051497413427   -0.10067020128732476
-1.487033760802348   -0.15668051497413427   -0.10067020128732476
-1.487033760802348   -0.15668051497413427   -0.10067020128732476
-1.487033760802348   -0.15668051497413427   -0.10067020128732476
-1.576733995689258   0.05231914880762434   0.11844925484940855
-1.576733995689258   0.05231914880762434   0.11844925484940855
-1.576733995689258   0.05231914880762434   0.11844925484940855
-1.576733995689258   0.05231914880762434   0.11844925484940855
-1.5835956972700167   -0.062475535615398425   -0.15845371333306144
-1.5835956972700167   -0.062475535615398425   -0.15845371333306144
-1.5835956972700167   -0.062475535615398425   -0.15845371333306144
-1.5835956972700167   -0.062475535615398425   -0.15845371333306144
-1.3267939818155121   0.2114819115374859   0.09053992401481176
-1.3267939818155121   0.2114819115374859   0.09053992401481176
-1.3267939818155121   0.2114819115374859   0.09053992401481176
-1.3267939818155121   0.2114819115374859   0.09053992401481176
-1.4772837813802346   0.01242995616925735   0.03635864576244589
-1.4772837813802346   0.01242995616925735   0.03635864576244589
-1.4772837813802346   0.01242995616925735   0.03635864576244589
-1.4772837813802346   0.01242995616925735   0.03635864576244589
-1.4177060523668399   -0.023428806174206118   -0.129109711030154
-1.4177060523668399   -0.023428806174206118   -0.129109711030154
-1.4177060523668399   -0.023428806174206118   -0.129109711030154
-1.4177060523668399   -0.023428806174206118   -0.129109711030154
-1.4833221529778013   0.18179665583717963   0.09864181667544619
-1.4833221529778013   0.18179665583717963   0.09864181667544619
-1.4833221529778013   0.18179665583717963   0.09864181667544619
-1.4833221529778013   0.18179665583717963   0.09864181667544619
-1.4993569189892904   0.09288323585516284   -0.17381973326580885
-1.4993569189892904   0.09288323585516284   -0.17381973326580885
-1.4993569189892904   0.09288323585516284   -0.17381973326580885
-1.4993569189892904   0.09288323585516284   -0.17381973326580885
-1.2601772592061933   0.34738394474676715   0.05954575440035739
-1.2601772592061933   0.34738394474676715   0.05954575440035739
-1.2601772592061933   0.34738394474676715   0.05954575440035739
-1.2601772592061933   0.34738394474676715   0.05954575440035739
-1.4029563566038707   0.13953988595560912   0.09349676940858255
-1.4029563566038707   0.13953988595560912   0.09349676940858255
-1.4029563566038707   0.13953988595560912   0.09349676940858255
-1.4029563566038707   0.13953988595560912   0.09349676940858255
-1.7756978691868504   -0.3553419246509561   -0.19081846782107018
-1.7756978691868504   -0.3553419246509561   -0.19081846782107018
-1.7756978691868504   -0.3553419246509561   -0.19081846782107018
-1.7756978691868504   -0.3553419246509561   -0.19081846782107018
-1.9538647170723074   0.02974235575308165   0.259978798883728
-1.9538647170723074   0.02974235575308165   0.259978798883728
-1.9538647170723074   0.02974235575308165   0.259978798883728
-1.9538647170723074   0.02974235575308165   0.259978798883728
-1.926068940544473   -0.29337025924025995   -0.2538070643976706
-1.926068940544473   -0.29337025924025995   -0.2538070643976706
-1.926068940544473   -0.29337025924025995   -0.2538070643976706
-1.926068940544473   -0.29337025924025995   -0.2538070643976706
-1.5195271201470126   0.22374513774013605   0.2330576436281075
-1.5195271201470126   0.22374513774013605   0.2330576436281075
-1.5195271201470126   0.22374513774013605   0.2330576436281075
-1.5195271201470126   0.22374513774013605   0.2330576436281075
-1.7221209818167778   -0.0755584563274661   -0.012329655810365034
-1.7221209818167778   -0.0755584563274661   -0.012329655810365034
-1.7221209818167778   -0.0755584563274661   -0.012329655810365034
-1.7221209818167778   -0.0755584563274661   -0.012329655810365034
-1.7028292307473445   -0.24158538227332182   -0.21812238936010858
-1.7028292307473445   -0.24158538227332182   -0.21812238936010858
-1.7028292307473445   -0.24158538227332182   -0.21812238936010858
-1.7028292307473445   -0.24158538227332182   -0.21812238936010858
-1.7329706707558012   0.18175641996151237   0.2365576053439001
-1.7329706707558012   0.18175641996151237   0.2365576053439001
-1.7329706707558012   0.18175641996151237   0.2365576053439001
-1.7329706707558012   0.18175641996151237   0.2365576053439001
-1.7605653445681708   -0.2110457437637598   -0.3023545180661797
-1.7605653445681708   -0.2110457437637598   -0.3023545180661797
-1.7605653445681708   -0.2110457437637598   -0.3023545180661797
-1.7605653445681708   -0.2110457437637598   -0.3023545180661797
-1.444926396778406   0.2817252571996165   0.19069199630997738
-1.444926396778406   0.2817252571996165   0.19069199630997738
-1.444926396778406   0.2817252571996165   0.19069199630997738
-1.444926396778406   0.2817252571996165   0.19069199630997738
-1.6094023499308001   0.010374584126342012   0.04503376519660242
-1.6094023499308001   0.010374584126342012   0.04503376519660242
-1.6094023499308001   0.010374584126342012   0.04503376519660242
-1.6094023499308001   0.010374584126342012   0.04503376519660242
-1.6246183771658778   -0.1738283136296844   -0.2522143347980958
-1.6246183771658778   -0.1738283136296844   -0.2522143347980958
-1.6246183771658778   -0.1738283136296844   -0.2522143347980958
-1.6246183771658778   -0.1738283136296844   -0.2522143347980958
-1.5706157131413825   0.25476547810485534   0.1815824171991481
-1.5706157131413825   0.25476547810485534   0.1815824171991481
-1.5706157131413825   0.25476547810485534   0.1815824171991481
-1.5706157131413825   0.25476547810485534   0.1815824171991481
-1.5438307747868034   -0.06838601547637602   -0.330256708145222
-1.5438307747868034   -0.06838601547637602   -0.330256708145222
-1.5438307747868034   -0.06838601547637602   -0.330256708145222
-1.5438307747868034   -0.06838601547637602   -0.330256708145222
-1.3780253315480537   0.3686496583346349   0.15707178146088674
-1.3780253315480537   0.3686496583346349   0.15707178146088674
-1.3780253315480537   0.3686496583346349   0.15707178146088674
-1.3780253315480537   0.3686496583346349   0.15707178146088674
-1.4566219396149016   0.09642376019629123   0.11126345434453774
-1.4566219396149016   0.09642376019629123   0.11126345434453774
-1.4566219396149016   0.09642376019629123   0.11126345434453774
-1.4566219396149016   0.09642376019629123   0.11126345434453774
1.072674342175368   0.17405507652273594   0.2839075124548487
1.072674342175368   0.17405507652273594   0.2839075124548487
1.072674342175368   0.17405507652273594   0.2839075124548487
1.072674342175368   0.17405507652273594   0.2839075124548487
-0.030139809438230317   -0.4569163655073783   -0.18805835724111403
-0.030139809438230317   -0.4569163655073783   -0.18805835724111403
-0.030139809438230317   -0.4569163655073783   -0.18805835724111403
-0.030139809438230317   -0.4569163655073783   -0.18805835724111403
0.2399375535969311   0.08990381344665892   0.21950853793810665
0.2399375535969311   0.08990381344665892   0.21950853793810665
0.2399375535969311   0.08990381344665892   0.21950853793810665
0.2399375535969311   0.08990381344665892   0.21950853793810665
1.121012131369778   -0.16219682889900644   -0.23508210021975068
1.121012131369778   -0.16219682889900644   -0.23508210021975068
1.121012131369778   -0.16219682889900644   -0.23508210021975068
1.121012131369778   -0.16219682889900644   -0.23508210021975068
0.5469585856903856   -0.08958590394926932   -0.13482801872053793
0.5469585856903856   -0.08958590394926932   -0.13482801872053793
0.5469585856903856   -0.08958590394926932   -0.13482801872053793
0.5469585856903856   -0.08958590394926932   -0.13482801872053793
1.3141275355260393   0.3120831004811407   0.2562149911814076
1.3141275355260393   0.3120831004811407   0.2562149911814076
1.3141275355260393   0.3120831004811407   0.2562149911814076
1.3141275355260393   0.3120831004811407   0.2562149911814076
0.05859239355609362   -0.37260587181806465   -0.22470757700135718
0.05859239355609362   -0.37260587181806465   -0.22470757700135718
0.05859239355609362   -0.37260587181806465   -0.22470757700135718
0.05859239355609362   -0.37260587181806465   -0.22470757700135718
0.3392243681723096   0.15622289196104275   0.18332784602798505
0.3392243681723096   0.15622289196104275   0.18332784602798505
0.3392243681723096   0.15622289196104275   0.18332784602798505
0.3392243681723096   0.15622289196104275   0.18332784602798505
1.3099213283171716   -0.08724926470743599   -0.29441467669309324
1.3099213283171716   -0.08724926470743599   -0.29441467669309324
1.3099213283171716   -0.08724926470743599   -0.29441467669309324
1.3099213283171716   -0.08724926470743599   -0.29441467669309324
0.71729991791394   -0.0067691991987069156   -0.06300997191795055
0.71729991791394   -0.0067691991987069156   -0.06300997191795055
0.71729991791394   -0.0067691991987069156   -0.06300997191795055
0.71729991791394   -0.0067691991987069156   -0.06300997191795055
1.5052694383396852   0.39315138210944045   0.2019252266025979
1.5052694383396852   0.39315138210944045   0.2019252266025979
1.5052694383396852   0.39315138210944045   0.2019252266025979
1.5052694383396852   0.39315138210944045   0.2019252266025979
0.1554381870053791   -0.3126158260002506   -0.2667643418453739
0.1554381870053791   -0.3126158260002506   -0.2667643418453739
0.1554381870053791   -0.3126158260002506   -0.2667643418453739
0.1554381870053791   -0.3126158260002506   -0.2667643418453739
0.43563188296853755   0.27773643502994527   0.15865972545219498
0.43563188296853755   0.27773643502994527   0.15865972545219498
0.43563188296853755   0.27773643502994527   0.15865972545219498
0.43563188296853755   0.27773643502994527   0.15865972545219498
1.5605560770451157   0.08057642957561345   -0.3247958574542257
1.5605560770451157   0.08057642957561345   -0.3247958574542257
1.5605560770451157   0.08057642957561345   -0.3247958574542257
1.5605560770451157   0.08057642957561345   -0.3247958574542257
0.8609244178334734   0.08585880558711871   0.005052000963172269
0.8609244178334734   0.08585880558711871   0.005052000963172269
0.8609244178334734   0.08585880558711871   0.005052000963172269
0.8609244178334734   0.08585880558711871   0.005052000963172269
0.1464565280270134   0.04597949536912514   0.19202746920861635
0.1464565280270134   0.04597949536912514   0.19202746920861635
0.1464565280270134   0.04597949536912514   0.19202746920861635
0.1464565280270134   0.04597949536912514   0.19202746920861635
-1.029759959781928   -0.387617875233056   -0.086211568702978
-1.029759959781928   -0.387617875233056   -0.086211568702978
-1.029759959781928   -0.387617875233056   -0.086211568702978
-1.029759959781928   -0.387617875233056   -0.086211568702978
-0.8588597214904728   -0.05578579156242035   0.08809326443149225
-0.8588597214904728   -0.05578579156242035   0.08809326443149225
-0.8588597214904728   -0.05578579156242035   0.08809326443149225
-0.8588597214904728   -0.05578579156242035   0.08809326443149225
0.15505761038388724   -0.04612647042103249   -0.06886089425942134
0.15505761038388724   -0.04612647042103249   -0.06886089425942134
0.15505761038388724   -0.04612647042103249   -0.06886089425942134
0.15505761038388724   -0.04612647042103249   -0.06886089425942134
-0.405178022056107   -0.10095626009395701   -0.06499073996737426
-0.405178022056107   -0.10095626009395701   -0.06499073996737426
-0.405178022056107   -0.10095626009395701   -0.06499073996737426
-0.405178022056107   -0.10095626009395701   -0.06499073996737426
0.24856284086960495   0.1821565213107493   0.17038226643738544
0.24856284086960495   0.1821565213107493   0.17038226643738544
0.24856284086960495   0.1821565213107493   0.17038226643738544
0.24856284086960495   0.1821565213107493   0.17038226643738544
-0.9438301224834885   -0.2755339538015411   -0.11701057829446586
-0.9438301224834885   -0.2755339538015411   -0.11701057829446586
-0.9438301224834885   -0.2755339538015411   -0.11701057829446586
-0.9438301224834885   -0.2755339538015411   -0.11701057829446586
-0.768265588580574   0.0726601467746339   0.062308992776221594
-0.768265588580574   0.0726601467746339   0.062308992776221594
-0.768265588580574   0.0726601467746339   0.062308992776221594
-0.768265588580574   0.0726601467746339   0.062308992776221594
0.2678891075400633   0.07600124555728634   -0.09312681072949
0.2678891075400633   0.07600124555728634   -0.09312681072949
0.2678891075400633   0.07600124555728634   -0.09312681072949
0.2678891075400633   0.07600124555728634   -0.09312681072949
-0.30918957061217606   0.012531679782647367   -0.0077327686163791605
-0.30918957061217606   0.012531679782647367   -0.0077327686163791605
-0.30918957061217606   0.012531679782647367   -0.0077327686163791605
-0.30918957061217606   0.012531679782647367   -0.0077327686163791605
0.3653040028016651   0.3174183739358116   0.15253053719999377
0.3653040028016651   0.3174183739358116   0.15253053719999377
0.3653040028016651   0.3174183739358116   0.15253053719999377
0.3653040028016651   0.3174183739358116   0.15253053719999377
-0.8574807678306019   -0.1605572655923379   -0.15054949110694604
-0.8574807678306019   -0.1605572655923379   -0.15054949110694604
-0.8574807678306019   -0.1605572655923379   -0.15054949110694604
-0.8574807678306019   -0.1605572655923379   -0.15054949110694604
-0.677160991272922   0.21770049044484635   0.03772760297177653
-0.677160991272922   0.21770049044484635   0.03772760297177653
-0.677160991272922   0.21770049044484635   0.03772760297177653
-0.677160991272922   0.21770049044484635   0.03772760297177653
0.36740525798303314   0.2142589983370067   -0.11899596278238858
0.36740525798303314   0.2142589983370067   -0.11899596278238858
0.36740525798303314   0.2142589983370067   -0.11899596278238858
0.36740525798303314   0.2142589983370067   -0.11899596278238858
-0.2032637286332492   0.13760669800966369   0.053226892245654786
-0.2032637286332492   0.13760669800966369   0.053226892245654786
-0.2032637286332492   0.13760669800966369   0.053226892245654786
-0.2032637286332492   0.13760669800966369   0.053226892245654786
-0.9361860915154343   -0.07478770945210592   0.06882760684856282
-0.9361860915154343   -0.07478770945210592   0.06882760684856282
-0.9361860915154343   -0.07478770945210592   0.06882760684856282
-0.9361860915154343   -0.07478770945210592   0.06882760684856282
-2.011440696435816   -0.2741968380148536   0.01817174275589669
-2.011440696435816   -0.2741968380148536   0.01817174275589669
-2.011440696435816   -0.2741968380148536   0.01817174275589669
-2.011440696435816   -0.2741968380148536   0.01817174275589669
-1.9318856014424275   -0.17133931895712032   -0.037974163155982836
-1.9318856014424275   -0.17133931895712032   -0.037974163155982836
-1.9318856014424275   -0.17133931895712032   -0.037974163155982836
-1.9318856014424275   -0.17133931895712032   -0.037974163155982836
-0.842445924029264   0.07133470556746194   0.04304175460766145
-0.842445924029264   0.07133470556746194   0.04304175460766145
-0.842445924029264   0.07133470556746194   0.04304175460766145
-0.842445924029264   0.07133470556746194   0.04304175460766145
-1.4325886448410452   -0.10299826541706353   -0.03767913534734342
-1.4325886448410452   -0.10299826541706353   -0.03767913534734342
-1.4325886448410452   -0.10299826541706353   -0.03767913534734342
-1.4325886448410452   -0.10299826541706353   -0.03767913534734342
-0.843672819210322   0.06295538914540727   0.045286595124426676
-0.843672819210322   0.06295538914540727   0.045286595124426676
-0.843672819210322   0.06295538914540727   0.045286595124426676
-0.843672819210322   0.06295538914540727   0.045286595124426676
-1.9233681405106864   -0.1556694367843413   -0.011056740670055187
-1.9233681405106864   -0.1556694367843413   -0.011056740670055187
-1.9233681405106864   -0.1556694367843413   -0.011056740670055187
-1.9233681405106864   -0.1556694367843413   -0.011056740670055187
-1.8366798561255868   -0.029947759918405092   -0.05972318513837828
-1.8366798561255868   -0.029947759918405092   -0.05972318513837828
-1.8366798561255868   -0.029947759918405092   -0.05972318513837828
-1.8366798561255868   -0.029947759918405092   -0.05972318513837828
-0.7527383036761794   0.19690915653794522   0.015696407534890155
-0.7527383036761794   0.19690915653794522   0.015696407534890155
-0.7527383036761794   0.19690915653794522   0.015696407534890155
-0.7527383036761794   0.19690915653794522   0.015696407534890155
-1.3343320256613387   0.021271847083712936   0.019949229339961863
-1.3343320256613387   0.021271847083712936   0.019949229339961863
-1.3343320256613387   0.021271847083712936   0.019949229339961863
-1.3343320256613387   0.021271847083712936   0.019949229339961863
-0.7505791984697796   0.20324768888449904   0.02015340122033553
-0.7505791984697796   0.20324768888449904   0.02015340122033553
-0.7505791984697796   0.20324768888449904   0.02015340122033553
-0.7505791984697796   0.20324768888449904   0.02015340122033553
-1.8330355153271594   -0.030482846260134866   -0.04096639480453035
-1.8330355153271594   -0.030482846260134866   -0.04096639480453035
-1.8330355153271594   -0.030482846260134866   -0.04096639480453035
-1.8330355153271594   -0.030482846260134866   -0.04096639480453035
-1.7453299516747092   0.11178670381017819   -0.08460423228066358
-1.7453299516747092   0.11178670381017819   -0.08460423228066358
-1.7453299516747092   0.11178670381017819   -0.08460423228066358
-1.7453299516747092   0.11178670381017819   -0.08460423228066358
-0.6668228287401664   0.3228544635423336   -0.01573555746192465
-0.6668228287401664   0.3228544635423336   -0.01573555746192465
-0.6668228287401664   0.3228544635423336   -0.01573555746192465
-0.6668228287401664   0.3228544635423336   -0.01573555746192465
-1.2411454788735243   0.14517933472794647   0.07381423903505151
-1.2411454788735243   0.14517933472794647   0.07381423903505151
-1.2411454788735243   0.14517933472794647   0.07381423903505151
-1.2411454788735243   0.14517933472794647   0.07381423903505151
-2.0107148702596644   -0.19410317604181024   -0.05829278833637131
-2.0107148702596644   -0.19410317604181024   -0.05829278833637131
-2.0107148702596644   -0.19410317604181024   -0.05829278833637131
-2.0107148702596644   -0.19410317604181024   -0.05829278833637131
-2.981224153033054   -0.16765747243263784   0.12079324902809213
-2.981224153033054   -0.16765747243263784   0.12079324902809213
-2.981224153033054   -0.16765747243263784   0.12079324902809213
-2.981224153033054   -0.16765747243263784   0.12079324902809213
-2.9807671404264533   -0.28433875906756045   -0.16080713978931999
-2.9807671404264533   -0.28433875906756045   -0.16080713978931999
-2.9807671404264533   -0.28433875906756045   -0.16080713978931999
-2.9807671404264533   -0.28433875906756045   -0.16080713978931999
-1.8240061717144658   0.1829880426863062   0.14709562384039868
-1.8240061717144658   0.1829880426863062   0.14709562384039868
-1.8240061717144658   0.1829880426863062   0.14709562384039868
-1.8240061717144658   0.1829880426863062   0.14709562384039868
-2.435551869300777   -0.10371315827913519   -0.01573767833509282
-2.435551869300777   -0.10371315827913519   -0.01573767833509282
-2.435551869300777   -0.10371315827913519   -0.01573767833509282
-2.435551869300777   -0.10371315827913519   -0.01573767833509282
-1.9173647736203414   -0.055698938624170524   -0.08101040437848234
-1.9173647736203414   -0.055698938624170524   -0.08101040437848234
-1.9173647736203414   -0.055698938624170524   -0.08101040437848234
-1.9173647736203414   -0.055698938624170524   -0.08101040437848234
-2.8814216623454185   -0.039664901581936696   0.09124639313025937
-2.8814216623454185   -0.039664901581936696   0.09124639313025937
-2.8814216623454185   -0.039664901581936696   0.09124639313025937
-2.8814216623454185   -0.039664901581936696   0.09124639313025937
-2.8617936840673455   -0.14940762107642214   -0.1789080368030182
-2.8617936840673455   -0.14940762107642214   -0.1789080368030182
-2.8617936840673455   -0.14940762107642214   -0.1789080368030182
-2.8617936840673455   -0.14940762107642214   -0.1789080368030182
-1.7358724873825346   0.2973246844550279   0.11704121420344898
-1.7358724873825346   0.2973246844550279   0.11704121420344898
-1.7358724873825346   0.2973246844550279   0.11704121420344898
-1.7358724873825346   0.2973246844550279   0.11704121420344898
-2.318055954614236   0.021513168999932497   0.04358314717334594
-2.318055954614236   0.021513168999932497   0.04358314717334594
-2.318055954614236   0.021513168999932497   0.04358314717334594
-2.318055954614236   0.021513168999932497   0.04358314717334594
-1.826151535574172   0.07174712293572694   -0.10877646523544637
-1.826151535574172   0.07174712293572694   -0.10877646523544637
-1.826151535574172   0.07174712293572694   -0.10877646523544637
-1.826151535574172   0.07174712293572694   -0.10877646523544637
-2.7647726113065993   0.08291196501198617   0.07387774091230476
-2.7647726113065993   0.08291196501198617   0.07387774091230476
-2.7647726113065993   0.08291196501198617   0.07387774091230476
-2.7647726113065993   0.08291196501198617   0.07387774091230476
-2.7553140904709945   -0.0020580758170732905   -0.19252751715404307
-2.7553140904709945   -0.0020580758170732905   -0.19252751715404307
-2.7553140904709945   -0.0020580758170732905   -0.19252751715404307
-2.7553140904709945   -0.0020580758170732905   -0.19252751715404307
-1.6486440131339681   0.42383640778923715   0.0867757564439823
-1.6486440131339681   0.42383640778923715   0.0867757564439823
-1.6486440131339681   0.42383640778923715   0.0867757564439823
-1.6486440131339681   0.42383640778923715   0.0867757564439823
-2.2295819865311   0.13851794641774573   0.0968145404979279
-2.2295819865311   0.13851794641774573   0.0968145404979279
-2.2295819865311   0.13851794641774573   0.0968145404979279
-2.2295819865311   0.13851794641774573   0.0968145404979279
-3.0629643483078532   -0.27932197518871416   -0.1762432245898276
-3.0629643483078532   -0.27932197518871416   -0.1762432245898276
-3.0629643483078532   -0.27932197518871416   -0.1762432245898276
-3.0629643483078532   -0.27932197518871416   -0.1762432245898276
-4.0851667671439476   -0.06993784358392685   0.2602758641571604
-4.0851667671439476   -0.06993784358392685   0.2602758641571604
-4.0851667671439476   -0.06993784358392685   0.2602758641571604
-4.0851667671439476   -0.06993784358392685   0.2602758641571604
-4.026181393869579   -0.37112900755759504   -0.23465880913785878
-4.026181393869579   -0.37112900755759504   -0.23465880913785878
-4.026181393869579   -0.37112900755759504   -0.23465880913785878
-4.026181393869579   -0.37112900755759504   -0.23465880913785878
-2.7786670732579637   0.3087652312632776   0.25658920572229016
-2.7786670732579637   0.3087652312632776   0.25658920572229016
-2.7786670732579637   0.3087652312632776   0.25658920572229016
-2.7786670732579637   0.3087652312632776   0.25658920572229016
-3.338024389372469   -0.05900344164161975   0.027044577881085247
-3.338024389372469   -0.05900344164161975   0.027044577881085247
-3.338024389372469   -0.05900344164161975   0.027044577881085247
-3.338024389372469   -0.05900344164161975   0.027044577881085247
-2.961827940375192   -0.15118044562604838   -0.1992694529745128
-2.961827940375192   -0.15118044562604838   -0.1992694529745128
-2.961827940375192   -0.15118044562604838   -0.1992694529745128
-2.961827940375192   -0.15118044562604838   -0.1992694529745128
-3.8376152278793763   0.09422196820469497   0.24282104505079016
-3.8376152278793763   0.09422196820469497   0.24282104505079016
-3.8376152278793763   0.09422196820469497   0.24282104505079016
-3.8376152278793763   0.09422196820469497   0.24282104505079016
-3.838683180603183   -0.2909913905738648   -0.27913445873265175
-3.838683180603183   -0.2909913905738648   -0.27913445873265175
-3.838683180603183   -0.2909913905738648   -0.27913445873265175
-3.838683180603183   -0.2909913905738648   -0.27913445873265175
-2.681554879063447   0.36143803086415005   0.211440336275871
-2.681554879063447   0.36143803086415005   0.211440336275871
-2.681554879063447   0.36143803086415005   0.211440336275871
-2.681554879063447   0.36143803086415005   0.211440336275871
-3.230654281745634   0.02498457066002402   0.07504573983811003
-3.230654281745634   0.02498457066002402   0.07504573983811003
-3.230654281745634   0.02498457066002402   0.07504573983811003
-3.230654281745634   0.02498457066002402   0.07504573983811003
-2.8591675434913832   -0.08524863533743787   -0.22993631966219377
-2.8591675434913832   -0.08524863533743787   -0.22993631966219377
-2.8591675434913832   -0.08524863533743787   -0.22993631966219377
-2.8591675434913832   -0.08524863533743787   -0.22993631966219377
-3.654431836691386   0.16233395511154236   0.18879691514089464
-3.654431836691386   0.16233395511154236   0.18879691514089464
-3.654431836691386   0.16233395511154236   0.18879691514089464
-3.654431836691386   0.16233395511154236   0.18879691514089464
-3.6081836590955962   -0.1710137676974578   -0.3110870211521573
-3.6081836590955962   -0.1710137676974578   -0.3110870211521573
-3.6081836590955962   -0.1710137676974578   -0.3110870211521573
-3.6081836590955962   -0.1710137676974578   -0.3110870211521573
-2.596057405272679   0.42554953658647554   0.17614829643398666
-2.596057405272679   0.42554953658647554   0.17614829643398666
-2.596057405272679   0.42554953658647554   0.17614829643398666
-2.596057405272679   0.42554953658647554   0.17614829643398666
-3.0323233105924725   0.1038446432622494   0.1424335716601602
-3.0323233105924725   0.1038446432622494   0.1424335716601602
-3.0323233105924725   0.1038446432622494   0.1424335716601602
-3.0323233105924725   0.1038446432622494   0.1424335716601602
3.2617326506525686   0.2960104915024223   0.28470346771709004
3.2617326506525686   0.2960104915024223   0.28470346771709004
3.2617326506525686   0.2960104915024223   0.28470346771709004
3.2617326506525686   0.2960104915024223   0.28470346771709004
1.196715296998206   -0.5457627365853597   -0.18749224585590898
1.196715296998206   -0.5457627365853597   -0.18749224585590898
1.196715296998206   -0.5457627365853597   -0.18749224585590898
1.196715296998206   -0.5457627365853597   -0.18749224585590898
1.4806211489423942   -0.0022533164929546268   0.20502644423789257
1.4806211489423942   -0.0022533164929546268   0.20502644423789257
1.4806211489423942   -0.0022533164929546268   0.20502644423789257
1.4806211489423942   -0.0022533164929546268   0.20502644423789257
3.3225999330486937   -0.07836404450893453   -0.23924274261097775
3.3225999330486937   -0.07836404450893453   -0.23924274261097775
3.3225999330486937   -0.07836404450893453   -0.23924274261097775
3.3225999330486937   -0.07836404450893453   -0.23924274261097775
2.172965226842961   -0.09958069596559171   -0.21063334568398737
2.172965226842961   -0.09958069596559171   -0.21063334568398737
2.172965226842961   -0.09958069596559171   -0.21063334568398737
2.172965226842961   -0.09958069596559171   -0.21063334568398737
3.5183758992629643   0.4137891279282197   0.24748391602319342
3.5183758992629643   0.4137891279282197   0.24748391602319342
3.5183758992629643   0.4137891279282197   0.24748391602319342
3.5183758992629643   0.4137891279282197   0.24748391602319342
1.2986221143548085   -0.4806295573034231   -0.22659248788953587
1.2986221143548085   -0.4806295573034231   -0.22659248788953587
1.2986221143548085   -0.4806295573034231   -0.22659248788953587
1.2986221143548085   -0.4806295573034231   -0.22659248788953587
1.5933821690177092   0.06216682214813185   0.1692049168842083
1.5933821690177092   0.06216682214813185   0.1692049168842083
1.5933821690177092   0.06216682214813185   0.1692049168842083
1.5933821690177092   0.06216682214813185   0.1692049168842083
3.527142528577957   -0.0050857730737835505   -0.30176152629299036
3.527142528577957   -0.0050857730737835505   -0.30176152629299036
3.527142528577957   -0.0050857730737835505   -0.30176152629299036
3.527142528577957   -0.0050857730737835505   -0.30176152629299036
2.38618277089311   -0.020324554070545453   -0.12734013156691554
2.38618277089311   -0.020324554070545453   -0.12734013156691554
2.38618277089311   -0.020324554070545453   -0.12734013156691554
2.38618277089311   -0.020324554070545453   -0.12734013156691554
3.725187499998514   0.4928020137622056   0.19057554397377235
3.725187499998514   0.4928020137622056   0.19057554397377235
3.725187499998514   0.4928020137622056   0.19057554397377235
3.725187499998514   0.4928020137622056   0.19057554397377235
1.4100684996390302   -0.4209896626459848   -0.26420694521507027
1.4100684996390302   -0.4209896626459848   -0.26420694521507027
1.4100684996390302   -0.4209896626459848   -0.26420694521507027
1.4100684996390302   -0.4209896626459848   -0.26420694521507027
1.705969429380132   0.2039492561451956   0.14665492305866895
1.705969429380132   0.2039492561451956   0.14665492305866895
1.705969429380132   0.2039492561451956   0.14665492305866895
1.705969429380132   0.2039492561451956   0.14665492305866895
3.795549226475594   0.18607307962360553   -0.3256429309670135
3.795549226475594   0.18607307962360553   -0.3256429309670135
3.795549226475594   0.18607307962360553   -0.3256429309670135
3.795549226475594   0.18607307962360553   -0.3256429309670135
2.5187330412425086   0.07590562467892725   -0.055067698071772725
2.5187330412425086   0.07590562467892725   -0.055067698071772725
2.5187330412425086   0.07590562467892725   -0.055067698071772725
2.5187330412425086   0.07590562467892725   -0.055067698071772725
1.4217762450438245   0.16528469252504582   0.22676506526177873
1.4217762450438245   0.16528469252504582   0.22676506526177873
1.4217762450438245   0.16528469252504582   0.22676506526177873
1.4217762450438245   0.16528469252504582   0.22676506526177873
-0.6887772024344742   -0.5090790585710891   -0.0980801726544103
-0.6887772024344742   -0.5090790585710891   -0.0980801726544103
-0.6887772024344742   -0.5090790585710891   -0.0980801726544103
-0.6887772024344742   -0.5090790585710891   -0.0980801726544103
-0.49301504936530144   -0.14816315190999335   0.0690283580449629
-0.49301504936530144   -0.14816315190999335   0.0690283580449629
-0.49301504936530144   -0.14816315190999335   0.0690283580449629
-0.49301504936530144   -0.14816315190999335   0.0690283580449629
1.4342791649329272   0.0015751105412568078   -0.03051190284363843
1.4342791649329272   0.0015751105412568078   -0.03051190284363843
1.4342791649329272   0.0015751105412568078   -0.03051190284363843
1.4342791649329272   0.0015751105412568078   -0.03051190284363843
0.3998867913375885   -0.10838230047317976   -0.09003360904194302
0.3998867913375885   -0.10838230047317976   -0.09003360904194302
0.3998867913375885   -0.10838230047317976   -0.09003360904194302
0.3998867913375885   -0.10838230047317976   -0.09003360904194302
1.5374987218274243   0.28463844096131685   0.20252255120878832
1.5374987218274243   0.28463844096131685   0.20252255120878832
1.5374987218274243   0.28463844096131685   0.20252255120878832
1.5374987218274243   0.28463844096131685   0.20252255120878832
-0.588001104202189   -0.4229929802724436   -0.1310720877770244
-0.588001104202189   -0.4229929802724436   -0.1310720877770244
-0.588001104202189   -0.4229929802724436   -0.1310720877770244
-0.588001104202189   -0.4229929802724436   -0.1310720877770244
-0.3879133778042128   -0.02778955946388685   0.04372164950892014
-0.3879133778042128   -0.02778955946388685   0.04372164950892014
-0.3879133778042128   -0.02778955946388685   0.04372164950892014
-0.3879133778042128   -0.02778955946388685   0.04372164950892014
1.557712427251361   0.10972628670844953   -0.05670325650785084
1.557712427251361   0.10972628670844953   -0.05670325650785084
1.557712427251361   0.10972628670844953   -0.05670325650785084
1.557712427251361   0.10972628670844953   -0.05670325650785084
0.5015319743284883   -0.013183219299917656   -0.035844452505409796
0.5015319743284883   -0.013183219299917656   -0.035844452505409796
0.5015319743284883   -0.013183219299917656   -0.035844452505409796
0.5015319743284883   -0.013183219299917656   -0.035844452505409796
1.6650420158315946   0.40999281998486986   0.17967815311689633
1.6650420158315946   0.40999281998486986   0.17967815311689633
1.6650420158315946   0.40999281998486986   0.17967815311689633
1.6650420158315946   0.40999281998486986   0.17967815311689633
-0.48698003109216764   -0.3197931574480285   -0.15960801894671223
-0.48698003109216764   -0.3197931574480285   -0.15960801894671223
-0.48698003109216764   -0.3197931574480285   -0.15960801894671223
-0.48698003109216764   -0.3197931574480285   -0.15960801894671223
-0.2841787538708203   0.11144360571188468   0.01851108594585476
-0.2841787538708203   0.11144360571188468   0.01851108594585476
-0.2841787538708203   0.11144360571188468   0.01851108594585476
-0.2841787538708203   0.11144360571188468   0.01851108594585476
1.6673331075011917   0.23831555076883756   -0.08089298095967351
1.6673331075011917   0.23831555076883756   -0.08089298095967351
1.6673331075011917   0.23831555076883756   -0.08089298095967351
1.6673331075011917   0.23831555076883756   -0.08089298095967351
0.6266407189838891   0.10338030663374541   0.027363285138504657
0.6266407189838891   0.10338030663374541   0.027363285138504657
0.6266407189838891   0.10338030663374541   0.027363285138504657
0.6266407189838891   0.10338030663374541   0.027363285138504657
-0.5410167982600924   0.03548512583199212   0.0961576638144018
-0.5410167982600924   0.03548512583199212   0.0961576638144018
-0.5410167982600924   0.03548512583199212   0.0961576638144018
-0.5410167982600924   0.03548512583199212   0.0961576638144018
-2.536749712981287   -0.4490210961887654   -0.012655416103874884
-2.536749712981287   -0.4490210961887654   -0.012655416103874884
-2.536749712981287   -0.4490210961887654   -0.012655416103874884
-2.536749712981287   -0.4490210961887654   -0.012655416103874884
-2.4119120666456104   -0.2631078193895388   -0.05970472756099608
-2.4119120666456104   -0.2631078193895388   -0.05970472756099608
-2.4119120666456104   -0.2631078193895388   -0.05970472756099608
-2.4119120666456104   -0.2631078193895388   -0.05970472756099608
-0.45140477491437925   0.06475537818812827   0.06416120020145219
-0.45140477491437925   0.06475537818812827   0.06416120020145219
-0.45140477491437925   0.06475537818812827   0.06416120020145219
-0.45140477491437925   0.06475537818812827   0.06416120020145219
-1.4879101498217684   -0.13829643375539333   -0.05614344192123626
-1.4879101498217684   -0.13829643375539333   -0.05614344192123626
-1.4879101498217684   -0.13829643375539333   -0.05614344192123626
-1.4879101498217684   -0.13829643375539333   -0.05614344192123626
-0.4307429405430172   0.1595934178270476   0.0726323324193431
-0.4307429405430172   0.1595934178270476   0.0726323324193431
-0.4307429405430172   0.1595934178270476   0.0726323324193431
-0.4307429405430172   0.1595934178270476   0.0726323324193431
-2.4271357630110417   -0.3525077210225276   -0.04642330775516463
-2.4271357630110417   -0.3525077210225276   -0.04642330775516463
-2.4271357630110417   -0.3525077210225276   -0.04642330775516463
-2.4271357630110417   -0.3525077210225276   -0.04642330775516463
-2.296114641367242   -0.13104148250431769   -0.08068044998536167
-2.296114641367242   -0.13104148250431769   -0.08068044998536167
-2.296114641367242   -0.13104148250431769   -0.08068044998536167
-2.296114641367242   -0.13104148250431769   -0.08068044998536167
-0.3490830520407684   0.17397800012708659   0.036105718735168824
-0.3490830520407684   0.17397800012708659   0.036105718735168824
-0.3490830520407684   0.17397800012708659   0.036105718735168824
-0.3490830520407684   0.17397800012708659   0.036105718735168824
-1.3711477586625838   -0.027770416814410004   -0.0008971118905290731
-1.3711477586625838   -0.027770416814410004   -0.0008971118905290731
-1.3711477586625838   -0.027770416814410004   -0.0008971118905290731
-1.3711477586625838   -0.027770416814410004   -0.0008971118905290731
-0.3241732033080647   0.28867457300812077   0.0459583895176531
-0.3241732033080647   0.28867457300812077   0.0459583895176531
-0.3241732033080647   0.28867457300812077   0.0459583895176531
-0.3241732033080647   0.28867457300812077   0.0459583895176531
-2.315960519979947   -0.24067408526535322   -0.07027724028785155
-2.315960519979947   -0.24067408526535322   -0.07027724028785155
-2.315960519979947   -0.24067408526535322   -0.07027724028785155
-2.315960519979947   -0.24067408526535322   -0.07027724028785155
-2.1883499664601076   0.0005308378488656507   -0.10582654820932288
-2.1883499664601076   0.0005308378488656507   -0.10582654820932288
-2.1883499664601076   0.0005308378488656507   -0.10582654820932288
-2.1883499664601076   0.0005308378488656507   -0.10582654820932288
-0.2513329571079657   0.2855863734435656   0.008597302028446968
-0.2513329571079657   0.2855863734435656   0.008597302028446968
-0.2513329571079657   0.2855863734435656   0.008597302028446968
-0.2513329571079657   0.2855863734435656   0.008597302028446968
-1.263838211486484   0.08232645116793724   0.051699317357157784
-1.263838211486484   0.08232645116793724   0.051699317357157784
-1.263838211486484   0.08232645116793724   0.051699317357157784
-1.263838211486484   0.08232645116793724   0.051699317357157784
-2.4716471344657407   -0.09761120205647544   -0.0385524176584095
-2.4716471344657407   -0.09761120205647544   -0.0385524176584095
-2.4716471344657407   -0.09761120205647544   -0.0385524176584095
-2.4716471344657407   -0.09761120205647544   -0.0385524176584095
-4.340460802605542   -0.36293643804617015   0.08514563665080965
-4.340460802605542   -0.36293643804617015   0.08514563665080965
-4.340460802605542   -0.36293643804617015   0.08514563665080965
-4.340460802605542   -0.36293643804617015   0.08514563665080965
-4.278653788414837   -0.3733258772231204   -0.17982635900636387
-4.278653788414837   -0.3733258772231204   -0.17982635900636387
-4.278653788414837   -0.3733258772231204   -0.17982635900636387
-4.278653788414837   -0.3733258772231204   -0.17982635900636387
-2.281461197098319   0.16769607872955405   0.16174572205638563
-2.281461197098319   0.16769607872955405   0.16174572205638563
-2.281461197098319   0.16769607872955405   0.16174572205638563
-2.281461197098319   0.16769607872955405   0.16174572205638563
-3.3199194549304485   -0.14537448639363182   -0.01950543256954751
-3.3199194549304485   -0.14537448639363182   -0.01950543256954751
-3.3199194549304485   -0.14537448639363182   -0.01950543256954751
-3.3199194549304485   -0.14537448639363182   -0.01950543256954751
-2.351743694992211   0.03635606293831162   -0.058326751621829515
-2.351743694992211   0.03635606293831162   -0.058326751621829515
-2.351743694992211   0.03635606293831162   -0.058326751621829515
-2.351743694992211   0.03635606293831162   -0.058326751621829515
-4.208269089470433   -0.24188366038136078   0.04065491887392572
-4.208269089470433   -0.24188366038136078   0.04065491887392572
-4.208269089470433   -0.24188366038136078   0.04065491887392572
-4.208269089470433   -0.24188366038136078   0.04065491887392572
-4.127560213457557   -0.24419871974564844   -0.19888808072491065
-4.127560213457557   -0.24419871974564844   -0.19888808072491065
-4.127560213457557   -0.24419871974564844   -0.19888808072491065
-4.127560213457557   -0.24419871974564844   -0.19888808072491065
-2.1735441603923964   0.2719449295095818   0.12918554287498335
-2.1735441603923964   0.2719449295095818   0.12918554287498335
-2.1735441603923964   0.2719449295095818   0.12918554287498335
-2.1735441603923964   0.2719449295095818   0.12918554287498335
-3.1664472150066065   -0.02315491937446479   0.035816890709990196
-3.1664472150066065   -0.02315491937446479   0.035816890709990196
-3.1664472150066065   -0.02315491937446479   0.035816890709990196
-3.1664472150066065   -0.02315491937446479   0.035816890709990196
-2.23951466746485   0.15620299416861128   -0.08492505714631915
-2.23951466746485   0.15620299416861128   -0.08492505714631915
-2.23951466746485   0.15620299416861128   -0.08492505714631915
-2.23951466746485   0.15620299416861128   -0.08492505714631915
-4.05828157768698   -0.12514865570655576   0.028455034088879894
-4.05828157768698   -0.12514865570655576   0.028455034088879894
-4.05828157768698   -0.12514865570655576   0.028455034088879894
-4.05828157768698   -0.12514865570655576   0.028455034088879894
-3.992432065414172   -0.10408714847700162   -0.20905397260700745
-3.992432065414172   -0.10408714847700162   -0.20905397260700745
-3.992432065414172   -0.10408714847700162   -0.20905397260700745
-3.992432065414172   -0.10408714847700162   -0.20905397260700745
-2.0690200208147296   0.3867569510568229   0.10459706680962724
-2.0690200208147296   0.3867569510568229   0.10459706680962724
-2.0690200208147296   0.3867569510568229   0.10459706680962724
-2.0690200208147296   0.3867569510568229   0.10459706680962724
-3.061973754144641   0.08147432868384741   0.08359206415066295
-3.061973754144641   0.08147432868384741   0.08359206415066295
-3.061973754144641   0.08147432868384741   0.08359206415066295
-3.061973754144641   0.08147432868384741   0.08359206415066295
-4.359444627269779   -0.20949214448652909   -0.16321778023001887
-4.359444627269779   -0.20949214448652909   -0.16321778023001887
-4.359444627269779   -0.20949214448652909   -0.16321778023001887
-4.359444627269779   -0.20949214448652909   -0.16321778023001887
-6.209085090385683   -0.22330048000177327   0.2830951456287199
-6.209085090385683   -0.22330048000177327   0.2830951456287199
-6.209085090385683   -0.22330048000177327   0.2830951456287199
-6.209085090385683   -0.22330048000177327   0.2830951456287199
-6.086916775205955   -0.44731235835257266   -0.21554904040897016
-6.086916775205955   -0.44731235835257266   -0.21554904040897016
-6.086916775205955   -0.44731235835257266   -0.21554904040897016
-6.086916775205955   -0.44731235835257266   -0.21554904040897016
-4.040796615073632   0.348723223925095   0.28741040655144146
-4.040796615073632   0.348723223925095   0.28741040655144146
-4.040796615073632   0.348723223925095   0.28741040655144146
-4.040796615073632   0.348723223925095   0.28741040655144146
-4.944732188694327   -0.06118840679561344   0.05637756109181585
-4.944732188694327   -0.06118840679561344   0.05637756109181585
-4.944732188694327   -0.06118840679561344   0.05637756109181585
-4.944732188694327   -0.06118840679561344   0.05637756109181585
-4.217624681663783   -0.0666212267143198   -0.18138547575987785
-4.217624681663783   -0.0666212267143198   -0.18138547575987785
-4.217624681663783   -0.0666212267143198   -0.18138547575987785
-4.217624681663783   -0.0666212267143198   -0.18138547575987785
-5.907321298892729   -0.029200497990088614   0.26431648079462
-5.907321298892729   -0.029200497990088614   0.26431648079462
-5.907321298892729   -0.029200497990088614   0.26431648079462
-5.907321298892729   -0.029200497990088614   0.26431648079462
-5.859004807282659   -0.36708361971773584   -0.25371798841434634
-5.859004807282659   -0.36708361971773584   -0.25371798841434634
-5.859004807282659   -0.36708361971773584   -0.25371798841434634
-5.859004807282659   -0.36708361971773584   -0.25371798841434634
-3.913781918669053   0.39822965696790347   0.2275750165040546
-3.913781918669053   0.39822965696790347   0.2275750165040546
-3.913781918669053   0.39822965696790347   0.2275750165040546
-3.913781918669053   0.39822965696790347   0.2275750165040546
-4.825720343094472   0.02632055349136997   0.10266305977070456
-4.825720343094472   0.02632055349136997   0.10266305977070456
-4.825720343094472   0.02632055349136997   0.10266305977070456
-4.825720343094472   0.02632055349136997   0.10266305977070456
-4.080572389961355   -0.0019025626404298723   -0.20624512034912046
-4.080572389961355   -0.0019025626404298723   -0.20624512034912046
-4.080572389961355   -0.0019025626404298723   -0.20624512034912046
-4.080572389961355   -0.0019025626404298723   -0.20624512034912046
-5.6894875488275325   0.03577538705336458   0.19100929709008396
-5.6894875488275325   0.03577538705336458   0.19100929709008396
-5.6894875488275325   0.03577538705336458   0.19100929709008396
-5.6894875488275325   0.03577538705336458   0.19100929709008396
-5.610330107723748   -0.2703172595917842   -0.28891298200624305
-5.610330107723748   -0.2703172595917842   -0.28891298200624305
-5.610330107723748   -0.2703172595917842   -0.28891298200624305
-5.610330107723748   -0.2703172595917842   -0.28891298200624305
-3.801947632477693   0.44544124110528127   0.19383980249310467
-3.801947632477693   0.44544124110528127   0.19383980249310467
-3.801947632477693   0.44544124110528127   0.19383980249310467
-3.801947632477693   0.44544124110528127   0.19383980249310467
-4.575474793374123   0.09924529206408916   0.1722053343223781
-4.575474793374123   0.09924529206408916   0.1722053343223781
-4.575474793374123   0.09924529206408916   0.1722053343223781
-4.575474793374123   0.09924529206408916   0.1722053343223781
5.4953864810887065   0.4100702339413381   0.2930014226870794
5.4953864810887065   0.4100702339413381   0.2930014226870794
5.4953864810887065   0.4100702339413381   0.2930014226870794
5.4953864810887065   0.4100702339413381   0.2930014226870794
2.4271981926667956   -0.650727506149508   -0.13384098180551068
2.4271981926667956   -0.650727506149508   -0.13384098180551068
2.4271981926667956   -0.650727506149508   -0.13384098180551068
2.4271981926667956   -0.650727506149508   -0.13384098180551068
2.7091107804549295   -0.1129015071614482   0.20155909672021802
2.7091107804549295   -0.1129015071614482   0.20155909672021802
2.7091107804549295   -0.1129015071614482   0.20155909672021802
2.7091107804549295   -0.1129015071614482   0.20155909672021802
5.557564385784479   -0.01376085950048278   -0.21033770381267242
5.557564385784479   -0.01376085950048278   -0.21033770381267242
5.557564385784479   -0.01376085950048278   -0.21033770381267242
5.557564385784479   -0.01376085950048278   -0.21033770381267242
3.8100914436240534   -0.11695104706598725   -0.2992914815457549
3.8100914436240534   -0.11695104706598725   -0.2992914815457549
3.8100914436240534   -0.11695104706598725   -0.2992914815457549
3.8100914436240534   -0.11695104706598725   -0.2992914815457549
5.752313342721715   0.504463691852051   0.24518252952092803
5.752313342721715   0.504463691852051   0.24518252952092803
5.752313342721715   0.504463691852051   0.24518252952092803
5.752313342721715   0.504463691852051   0.24518252952092803
2.533031052528813   -0.6124568295028672   -0.17928422056892862
2.533031052528813   -0.6124568295028672   -0.17928422056892862
2.533031052528813   -0.6124568295028672   -0.17928422056892862
2.533031052528813   -0.6124568295028672   -0.17928422056892862
2.8199558975468397   -0.05355287289531019   0.163089605630493
2.8199558975468397   -0.05355287289531019   0.163089605630493
2.8199558975468397   -0.05355287289531019   0.163089605630493
2.8199558975468397   -0.05355287289531019   0.163089605630493
5.7503716067924175   0.051739519955707136   -0.2631935502505568
5.7503716067924175   0.051739519955707136   -0.2631935502505568
5.7503716067924175   0.051739519955707136   -0.2631935502505568
5.7503716067924175   0.051739519955707136   -0.2631935502505568
4.051607965255724   -0.04681725186974117   -0.20335680596017125
4.051607965255724   -0.04681725186974117   -0.20335680596017125
4.051607965255724   -0.04681725186974117   -0.20335680596017125
4.051607965255724   -0.04681725186974117   -0.20335680596017125
5.94403341269109   0.5750130907059526   0.18184190849255796
5.94403341269109   0.5750130907059526   0.18184190849255796
5.94403341269109   0.5750130907059526   0.18184190849255796
5.94403341269109   0.5750130907059526   0.18184190849255796
2.6426681782179147   -0.5604523570758091   -0.21644950683363484
2.6426681782179147   -0.5604523570758091   -0.21644950683363484
2.6426681782179147   -0.5604523570758091   -0.21644950683363484
2.6426681782179147   -0.5604523570758091   -0.21644950683363484
2.9202886424797336   0.10474640853571904   0.14298429758941428
2.9202886424797336   0.10474640853571904   0.14298429758941428
2.9202886424797336   0.10474640853571904   0.14298429758941428
2.9202886424797336   0.10474640853571904   0.14298429758941428
5.987292021512063   0.24326644880766224   -0.2757514897759449
5.987292021512063   0.24326644880766224   -0.2757514897759449
5.987292021512063   0.24326644880766224   -0.2757514897759449
5.987292021512063   0.24326644880766224   -0.2757514897759449
4.143108725404122   0.047376212308119836   -0.1367446052693752
4.143108725404122   0.047376212308119836   -0.1367446052693752
4.143108725404122   0.047376212308119836   -0.1367446052693752
4.143108725404122   0.047376212308119836   -0.1367446052693752
2.6852936720942826   0.23877744391835398   0.2671314652640491
2.6852936720942826   0.23877744391835398   0.2671314652640491
2.6852936720942826   0.23877744391835398   0.2671314652640491
2.6852936720942826   0.23877744391835398   0.2671314652640491
-0.3257609231514309   -0.8032147431383524   -0.07600283732504488
-0.3257609231514309   -0.8032147431383524   -0.07600283732504488
-0.3257609231514309   -0.8032147431383524   -0.07600283732504488
-0.3257609231514309   -0.8032147431383524   -0.07600283732504488
-0.08232048003462175   -0.28191358455788507   0.06864426662820101
-0.08232048003462175   -0.28191358455788507   0.06864426662820101
-0.08232048003462175   -0.28191358455788507   0.06864426662820101
-0.08232048003462175   -0.28191358455788507   0.06864426662820101
2.66321648511088   -0.15360172089557056   0.012787833734093729
2.66321648511088   -0.15360172089557056   0.012787833734093729
2.66321648511088   -0.15360172089557056   0.012787833734093729
2.66321648511088   -0.15360172089557056   0.012787833734093729
1.2016722912690236   -0.22547848762647382   -0.1433201887441933
1.2016722912690236   -0.22547848762647382   -0.1433201887441933
1.2016722912690236   -0.22547848762647382   -0.1433201887441933
1.2016722912690236   -0.22547848762647382   -0.1433201887441933
2.804485474721191   0.32902080437137754   0.23651025651870078
2.804485474721191   0.32902080437137754   0.23651025651870078
2.804485474721191   0.32902080437137754   0.23651025651870078
2.804485474721191   0.32902080437137754   0.23651025651870078
-0.2138166080915463   -0.7547632482714466   -0.11598670994286008
-0.2138166080915463   -0.7547632482714466   -0.11598670994286008
-0.2138166080915463   -0.7547632482714466   -0.11598670994286008
-0.2138166080915463   -0.7547632482714466   -0.11598670994286008
0.03074568303065589   -0.17590753925970215   0.042094357872095936
0.03074568303065589   -0.17590753925970215   0.042094357872095936
0.03074568303065589   -0.17590753925970215   0.042094357872095936
0.03074568303065589   -0.17590753925970215   0.042094357872095936
2.778834765943841   -0.07369734441205289   -0.022371580867760227
2.778834765943841   -0.07369734441205289   -0.022371580867760227
2.778834765943841   -0.07369734441205289   -0.022371580867760227
2.778834765943841   -0.07369734441205289   -0.022371580867760227
1.3001251049662281   -0.16044905751190336   -0.09303258918574113
1.3001251049662281   -0.16044905751190336   -0.09303258918574113
1.3001251049662281   -0.16044905751190336   -0.09303258918574113
1.3001251049662281   -0.16044905751190336   -0.09303258918574113
2.927693317762578   0.4372565690625317   0.2109672647513426
2.927693317762578   0.4372565690625317   0.2109672647513426
2.927693317762578   0.4372565690625317   0.2109672647513426
2.927693317762578   0.4372565690625317   0.2109672647513426
-0.11235749818626459   -0.6811060821324671   -0.16822300533972606
-0.11235749818626459   -0.6811060821324671   -0.16822300533972606
-0.11235749818626459   -0.6811060821324671   -0.16822300533972606
-0.11235749818626459   -0.6811060821324671   -0.16822300533972606
0.11946097300831651   -0.05203387215125496   0.015232038932739313
0.11946097300831651   -0.05203387215125496   0.015232038932739313
0.11946097300831651   -0.05203387215125496   0.015232038932739313
0.11946097300831651   -0.05203387215125496   0.015232038932739313
2.8655130688917003   0.028035746223874836   -0.05418290803894091
2.8655130688917003   0.028035746223874836   -0.05418290803894091
2.8655130688917003   0.028035746223874836   -0.05418290803894091
2.8655130688917003   0.028035746223874836   -0.05418290803894091
1.4200429621608106   -0.06329032124682632   -0.03925760341053246
1.4200429621608106   -0.06329032124682632   -0.03925760341053246
1.4200429621608106   -0.06329032124682632   -0.03925760341053246
1.4200429621608106   -0.06329032124682632   -0.03925760341053246
-0.11036628307223237   0.065281497500283   0.1324741224323125
-0.11036628307223237   0.065281497500283   0.1324741224323125
-0.11036628307223237   0.065281497500283   0.1324741224323125
-0.11036628307223237   0.065281497500283   0.1324741224323125
-3.0577522272515556   -1.0095347372861019   -0.061527432156762984
-3.0577522272515556   -1.0095347372861019   -0.061527432156762984
-3.0577522272515556   -1.0095347372861019   -0.061527432156762984
-3.0577522272515556   -1.0095347372861019   -0.061527432156762984
-2.81070738789368   -0.4327770112684818   -0.06419813410229686
-2.81070738789368   -0.4327770112684818   -0.06419813410229686
-2.81070738789368   -0.4327770112684818   -0.06419813410229686
-2.81070738789368   -0.4327770112684818   -0.06419813410229686
-0.09849831481630605   -0.3535426040064634   0.05938411216835787
-0.09849831481630605   -0.3535426040064634   0.05938411216835787
-0.09849831481630605   -0.3535426040064634   0.05938411216835787
-0.09849831481630605   -0.3535426040064634   0.05938411216835787
-1.526374263444174   -0.4094766397173724   -0.12821564216323922
-1.526374263444174   -0.4094766397173724   -0.12821564216323922
-1.526374263444174   -0.4094766397173724   -0.12821564216323922
-1.526374263444174   -0.4094766397173724   -0.12821564216323922
0.015184543459410851   0.1667434681089097   0.1075123314315693
0.015184543459410851   0.1667434681089097   0.1075123314315693
0.015184543459410851   0.1667434681089097   0.1075123314315693
0.015184543459410851   0.1667434681089097   0.1075123314315693
-2.9173576976637623   -0.94603053487822   -0.08419615934296848
-2.9173576976637623   -0.94603053487822   -0.08419615934296848
-2.9173576976637623   -0.94603053487822   -0.08419615934296848
-2.9173576976637623   -0.94603053487822   -0.08419615934296848
-2.6705270351639485   -0.3150541081675326   -0.08761083961474699
-2.6705270351639485   -0.3150541081675326   -0.08761083961474699
-2.6705270351639485   -0.3150541081675326   -0.08761083961474699
-2.6705270351639485   -0.3150541081675326   -0.08761083961474699
0.006896565642700872   -0.2768061189880372   0.02374735066067124
0.006896565642700872   -0.2768061189880372   0.02374735066067124
0.006896565642700872   -0.2768061189880372   0.02374735066067124
0.006896565642700872   -0.2768061189880372   0.02374735066067124
-1.3902945564046374   -0.324939549537381   -0.07143369540919073
-1.3902945564046374   -0.324939549537381   -0.07143369540919073
-1.3902945564046374   -0.324939549537381   -0.07143369540919073
-1.3902945564046374   -0.324939549537381   -0.07143369540919073
0.13009815632839716   0.2793191125617575   0.08363007253935795
0.13009815632839716   0.2793191125617575   0.08363007253935795
0.13009815632839716   0.2793191125617575   0.08363007253935795
0.13009815632839716   0.2793191125617575   0.08363007253935795
-2.7939167493549704   -0.8713674632226085   -0.14824605551475917
-2.7939167493549704   -0.8713674632226085   -0.14824605551475917
-2.7939167493549704   -0.8713674632226085   -0.14824605551475917
-2.7939167493549704   -0.8713674632226085   -0.14824605551475917
-2.5714998360553274   -0.20293387504330018   -0.11383706145852002
-2.5714998360553274   -0.20293387504330018   -0.11383706145852002
-2.5714998360553274   -0.20293387504330018   -0.11383706145852002
-2.5714998360553274   -0.20293387504330018   -0.11383706145852002
0.07618801309010395   -0.21572828845968298   -0.03743834434989551
0.07618801309010395   -0.21572828845968298   -0.03743834434989551
0.07618801309010395   -0.21572828845968298   -0.03743834434989551
0.07618801309010395   -0.21572828845968298   -0.03743834434989551
-1.2904478513249802   -0.24621992327851144   -0.036059051451087384
-1.2904478513249802   -0.24621992327851144   -0.036059051451087384
-1.2904478513249802   -0.24621992327851144   -0.036059051451087384
-1.2904478513249802   -0.24621992327851144   -0.036059051451087384
-2.8615371757158337   -0.08514851862603834   -0.004838393138238861
-2.8615371757158337   -0.08514851862603834   -0.004838393138238861
-2.8615371757158337   -0.08514851862603834   -0.004838393138238861
-2.8615371757158337   -0.08514851862603834   -0.004838393138238861
-5.8009598658422155   -1.0853713205726363   -0.04987015536821457
-5.8009598658422155   -1.0853713205726363   -0.04987015536821457
-5.8009598658422155   -1.0853713205726363   -0.04987015536821457
-5.8009598658422155   -1.0853713205726363   -0.04987015536821457
-5.534855200163009   -0.5537094347343244   -0.19188784219831775
-5.534855200163009   -0.5537094347343244   -0.19188784219831775
-5.534855200163009   -0.5537094347343244   -0.19188784219831775
-5.534855200163009   -0.5537094347343244   -0.19188784219831775
-2.7593948790692044   -0.36705298848778456   0.12664038723936763
-2.7593948790692044   -0.36705298848778456   0.12664038723936763
-2.7593948790692044   -0.36705298848778456   0.12664038723936763
-2.7593948790692044   -0.36705298848778456   0.12664038723936763
-4.201844794779682   -0.49147305272215797   -0.09047521909348964
-4.201844794779682   -0.49147305272215797   -0.09047521909348964
-4.201844794779682   -0.49147305272215797   -0.09047521909348964
-4.201844794779682   -0.49147305272215797   -0.09047521909348964
-2.7066957979134987   0.04576381255105311   -0.022681008020939836
-2.7066957979134987   0.04576381255105311   -0.022681008020939836
-2.7066957979134987   0.04576381255105311   -0.022681008020939836
-2.7066957979134987   0.04576381255105311   -0.022681008020939836
-5.590020611133316   -0.9689925655877559   -0.05243176619637716
-5.590020611133316   -0.9689925655877559   -0.05243176619637716
-5.590020611133316   -0.9689925655877559   -0.05243176619637716
-5.590020611133316   -0.9689925655877559   -0.05243176619637716
-5.334694311703669   -0.4305967583614161   -0.22237274516873246
-5.334694311703669   -0.4305967583614161   -0.22237274516873246
-5.334694311703669   -0.4305967583614161   -0.22237274516873246
-5.334694311703669   -0.4305967583614161   -0.22237274516873246
-2.6230951500530972   -0.27447331615234183   0.10896779392434017
-2.6230951500530972   -0.27447331615234183   0.10896779392434017
-2.6230951500530972   -0.27447331615234183   0.10896779392434017
-2.6230951500530972   -0.27447331615234183   0.10896779392434017
-3.9965091428712833   -0.3733723847557989   -0.030227348784801905
-3.9965091428712833   -0.3733723847557989   -0.030227348784801905
-3.9965091428712833   -0.3733723847557989   -0.030227348784801905
-3.9965091428712833   -0.3733723847557989   -0.030227348784801905
-2.5661416246265807   0.15953395755721533   -0.04027185265266453
-2.5661416246265807   0.15953395755721533   -0.04027185265266453
-2.5661416246265807   0.15953395755721533   -0.04027185265266453
-2.5661416246265807   0.15953395755721533   -0.04027185265266453
-5.401492072356869   -0.8744482672976545   -0.11251003949845109
-5.401492072356869   -0.8744482672976545   -0.11251003949845109
-5.401492072356869   -0.8744482672976545   -0.11251003949845109
-5.401492072356869   -0.8744482672976545   -0.11251003949845109
-5.171916190780086   -0.3006147164331875   -0.22936510067506768
-5.171916190780086   -0.3006147164331875   -0.22936510067506768
-5.171916190780086   -0.3006147164331875   -0.22936510067506768
-5.171916190780086   -0.3006147164331875   -0.22936510067506768
-2.544720456683792   -0.21561727942343295   0.03274323977931161
-2.544720456683792   -0.21561727942343295   0.03274323977931161
-2.544720456683792   -0.21561727942343295   0.03274323977931161
-2.544720456683792   -0.21561727942343295   0.03274323977931161
-3.8822223398016504   -0.3012999273222041   -0.010675120092182855
-3.8822223398016504   -0.3012999273222041   -0.010675120092182855
-3.8822223398016504   -0.3012999273222041   -0.010675120092182855
-3.8822223398016504   -0.3012999273222041   -0.010675120092182855
-5.641089913579273   -0.1945823472428858   -0.14130936738325212
-5.641089913579273   -0.1945823472428858   -0.14130936738325212
-5.641089913579273   -0.1945823472428858   -0.14130936738325212
-5.641089913579273   -0.1945823472428858   -0.14130936738325212
-8.505221677302252   -0.7304016732957768   0.32537960383166686
-8.505221677302252   -0.7304016732957768   0.32537960383166686
-8.505221677302252   -0.7304016732957768   0.32537960383166686
-8.505221677302252   -0.7304016732957768   0.32537960383166686
-8.208810408854351   -0.5799995630773633   -0.18818973468013167
-8.208810408854351   -0.5799995630773633   -0.18818973468013167
-8.208810408854351   -0.5799995630773633   -0.18818973468013167
-8.208810408854351   -0.5799995630773633   -0.18818973468013167
-5.296028712630534   0.15028735111753   0.29824780961215197
-5.296028712630534   0.15028735111753   0.29824780961215197
-5.296028712630534   0.15028735111753   0.29824780961215197
-5.296028712630534   0.15028735111753   0.29824780961215197
-6.603921569743717   -0.23023578734690187   0.02951992458835967
-6.603921569743717   -0.23023578734690187   0.02951992458835967
-6.603921569743717   -0.23023578734690187   0.02951992458835967
-6.603921569743717   -0.23023578734690187   0.02951992458835967
-5.42023806795336   -0.015957892615011238   -0.156553723269362
-5.42023806795336   -0.015957892615011238   -0.156553723269362
-5.42023806795336   -0.015957892615011238   -0.156553723269362
-5.42023806795336   -0.015957892615011238   -0.156553723269362
-8.064553072942221   -0.3937063387555064   0.34680372055865677
-8.064553072942221   -0.3937063387555064   0.34680372055865677
-8.064553072942221   -0.3937063387555064   0.34680372055865677
-8.064553072942221   -0.3937063387555064   0.34680372055865677
-7.891096788255081   -0.4875708580688316   -0.22411268909359278
-7.891096788255081   -0.4875708580688316   -0.22411268909359278
-7.891096788255081   -0.4875708580688316   -0.22411268909359278
-7.891096788255081   -0.4875708580688316   -0.22411268909359278
-5.097901494402348   0.2426700105909121   0.28832457238554865
-5.097901494402348   0.2426700105909121   0.28832457238554865
-5.097901494402348   0.2426700105909121   0.28832457238554865
-5.097901494402348   0.2426700105909121   0.28832457238554865
-6.414510246956263   -0.09290035897328974   0.13095563988133085
-6.414510246956263   -0.09290035897328974   0.13095563988133085
-6.414510246956263   -0.09290035897328974   0.13095563988133085
-6.414510246956263   -0.09290035897328974   0.13095563988133085
-5.226608201617244   0.05636800538154896   -0.16890695847952747
-5.226608201617244   0.05636800538154896   -0.16890695847952747
-5.226608201617244   0.05636800538154896   -0.16890695847952747
-5.226608201617244   0.05636800538154896   -0.16890695847952747
-7.758460360690849   -0.29733913251017974   0.24883772316883812
-7.758460360690849   -0.29733913251017974   0.24883772316883812
-7.758460360690849   -0.29733913251017974   0.24883772316883812
-7.758460360690849   -0.29733913251017974   0.24883772316883812
-7.562713666404938   -0.3996230489020858   -0.27071561361648705
-7.562713666404938   -0.3996230489020858   -0.27071561361648705
-7.562713666404938   -0.3996230489020858   -0.27071561361648705
-7.562713666404938   -0.3996230489020858   -0.27071561361648705
-4.950379269755793   0.3542521779432668   0.22345261006994716
-4.950379269755793   0.3542521779432668   0.22345261006994716
-4.950379269755793   0.3542521779432668   0.22345261006994716
-4.950379269755793   0.3542521779432668   0.22345261006994716
-6.062474295324597   0.024734802596808825   0.2319633591504891
-6.062474295324597   0.024734802596808825   0.2319633591504891
-6.062474295324597   0.024734802596808825   0.2319633591504891
-6.062474295324597   0.024734802596808825   0.2319633591504891
7.519310292860537   0.44939150015715557   0.2746419495340667
7.519310292860537   0.44939150015715557   0.2746419495340667
7.519310292860537   0.44939150015715557   0.2746419495340667
7.519310292860537   0.44939150015715557   0.2746419495340667
3.588523056004604   -0.6744876573868224   0.06354371560007521
3.588523056004604   -0.6744876573868224   0.06354371560007521
3.588523056004604   -0.6744876573868224   0.06354371560007521
3.588523056004604   -0.6744876573868224   0.06354371560007521
3.7884102524220893   -0.28314037409935977   0.21191885655557763
3.7884102524220893   -0.28314037409935977   0.21191885655557763
3.7884102524220893   -0.28314037409935977   0.21191885655557763
3.7884102524220893   -0.28314037409935977   0.21191885655557763
7.560078700903796   0.06011283964136216   -0.05934923955388649
7.560078700903796   0.06011283964136216   -0.05934923955388649
7.560078700903796   0.06011283964136216   -0.05934923955388649
7.560078700903796   0.06011283964136216   -0.05934923955388649
5.288887488210521   -0.14607903990694626   -0.35283869114303373
5.288887488210521   -0.14607903990694626   -0.35283869114303373
5.288887488210521   -0.14607903990694626   -0.35283869114303373
5.288887488210521   -0.14607903990694626   -0.35283869114303373
7.703578320013927   0.5009681726962647   0.21729352294186255
7.703578320013927   0.5009681726962647   0.21729352294186255
7.703578320013927   0.5009681726962647   0.21729352294186255
7.703578320013927   0.5009681726962647   0.21729352294186255
3.6794824760519056   -0.6894238644143156   0.07356346501961541
3.6794824760519056   -0.6894238644143156   0.07356346501961541
3.6794824760519056   -0.6894238644143156   0.07356346501961541
3.6794824760519056   -0.6894238644143156   0.07356346501961541
3.864583405092339   -0.24049571579721607   0.16141847268490672
3.864583405092339   -0.24049571579721607   0.16141847268490672
3.864583405092339   -0.24049571579721607   0.16141847268490672
3.864583405092339   -0.24049571579721607   0.16141847268490672
7.693978107245747   0.10826972736283702   -0.0164455497964055
7.693978107245747   0.10826972736283702   -0.0164455497964055
7.693978107245747   0.10826972736283702   -0.0164455497964055
7.693978107245747   0.10826972736283702   -0.0164455497964055
5.508493058583403   -0.11582003087725012   -0.24063645833061398
5.508493058583403   -0.11582003087725012   -0.24063645833061398
5.508493058583403   -0.11582003087725012   -0.24063645833061398
5.508493058583403   -0.11582003087725012   -0.24063645833061398
7.8152482810381345   0.5474904784671963   0.15068456806117292
7.8152482810381345   0.5474904784671963   0.15068456806117292
7.8152482810381345   0.5474904784671963   0.15068456806117292
7.8152482810381345   0.5474904784671963   0.15068456806117292
3.767366419155885   -0.6556632790456413   0.09050110625106406
3.767366419155885   -0.6556632790456413   0.09050110625106406
3.767366419155885   -0.6556632790456413   0.09050110625106406
3.767366419155885   -0.6556632790456413   0.09050110625106406
3.976475768629008   -0.07423542425105278   0.14755539781353508
3.976475768629008   -0.07423542425105278   0.14755539781353508
3.976475768629008   -0.07423542425105278   0.14755539781353508
3.976475768629008   -0.07423542425105278   0.14755539781353508
7.832914041736492   0.21785254988725833   -0.0008328551813405194
7.832914041736492   0.21785254988725833   -0.0008328551813405194
7.832914041736492   0.21785254988725833   -0.0008328551813405194
7.832914041736492   0.21785254988725833   -0.0008328551813405194
5.537060074420452   -0.05426416615927421   -0.1793161440789277
5.537060074420452   -0.05426416615927421   -0.1793161440789277
5.537060074420452   -0.05426416615927421   -0.1793161440789277
5.537060074420452   -0.05426416615927421   -0.1793161440789277
3.7863472964710527   0.09170243363354358   0.2864748269119511
3.7863472964710527   0.09170243363354358   0.2864748269119511
3.7863472964710527   0.09170243363354358   0.2864748269119511
3.7863472964710527   0.09170243363354358   0.2864748269119511
0.20888216231429046   -1.3490783017427594   0.140435981820469
0.20888216231429046   -1.3490783017427594   0.140435981820469
0.20888216231429046   -1.3490783017427594   0.140435981820469
0.20888216231429046   -1.3490783017427594   0.140435981820469
0.47015482125604013   -0.5687572587255556   0.13007180843900865
0.47015482125604013   -0.5687572587255556   0.13007180843900865
0.47015482125604013   -0.5687572587255556   0.13007180843900865
0.47015482125604013   -0.5687572587255556   0.13007180843900865
3.6886702244515037   -0.6569936151362978   0.08707195773955989
3.6886702244515037   -0.6569936151362978   0.08707195773955989
3.6886702244515037   -0.6569936151362978   0.08707195773955989
3.6886702244515037   -0.6569936151362978   0.08707195773955989
1.972055555302327   -0.6077279392530885   -0.22700916742826172
1.972055555302327   -0.6077279392530885   -0.22700916742826172
1.972055555302327   -0.6077279392530885   -0.22700916742826172
1.972055555302327   -0.6077279392530885   -0.22700916742826172
3.877337937190187   0.1344569866940165   0.23895991960272286
3.877337937190187   0.1344569866940165   0.23895991960272286
3.877337937190187   0.1344569866940165   0.23895991960272286
3.877337937190187   0.1344569866940165   0.23895991960272286
0.3312762860661476   -1.3104186830070281   0.17734055677101918
0.3312762860661476   -1.3104186830070281   0.17734055677101918
0.3312762860661476   -1.3104186830070281   0.17734055677101918
0.3312762860661476   -1.3104186830070281   0.17734055677101918
0.5754790805077756   -0.4909678644160992   0.09463150454807381
0.5754790805077756   -0.4909678644160992   0.09463150454807381
0.5754790805077756   -0.4909678644160992   0.09463150454807381
0.5754790805077756   -0.4909678644160992   0.09463150454807381
3.7786985180190498   -0.6164942706455521   0.10799259216679696
3.7786985180190498   -0.6164942706455521   0.10799259216679696
3.7786985180190498   -0.6164942706455521   0.10799259216679696
3.7786985180190498   -0.6164942706455521   0.10799259216679696
2.062006998967808   -0.5781390334048345   -0.11348057793768984
2.062006998967808   -0.5781390334048345   -0.11348057793768984
2.062006998967808   -0.5781390334048345   -0.11348057793768984
2.062006998967808   -0.5781390334048345   -0.11348057793768984
3.962142433991633   0.20765173803990788   0.20106616334425212
3.962142433991633   0.20765173803990788   0.20106616334425212
3.962142433991633   0.20765173803990788   0.20106616334425212
3.962142433991633   0.20765173803990788   0.20106616334425212
0.43996044895785696   -1.2671885886788936   0.19325907106128243
0.43996044895785696   -1.2671885886788936   0.19325907106128243
0.43996044895785696   -1.2671885886788936   0.19325907106128243
0.43996044895785696   -1.2671885886788936   0.19325907106128243
0.7369506683143592   -0.37423769104841237   0.06301230617720965
0.7369506683143592   -0.37423769104841237   0.06301230617720965
0.7369506683143592   -0.37423769104841237   0.06301230617720965
0.7369506683143592   -0.37423769104841237   0.06301230617720965
3.8773814724409297   -0.5548235667459285   0.13267205936801862
3.8773814724409297   -0.5548235667459285   0.13267205936801862
3.8773814724409297   -0.5548235667459285   0.13267205936801862
3.8773814724409297   -0.5548235667459285   0.13267205936801862
2.21870089652745   -0.5061410159512072   0.018523317025762986
2.21870089652745   -0.5061410159512072   0.018523317025762986
2.21870089652745   -0.5061410159512072   0.018523317025762986
2.21870089652745   -0.5061410159512072   0.018523317025762986
0.4351544432565189   -0.2617534164961366   0.1844725012849882
0.4351544432565189   -0.2617534164961366   0.1844725012849882
0.4351544432565189   -0.2617534164961366   0.1844725012849882
0.4351544432565189   -0.2617534164961366   0.1844725012849882
-3.200091024049623   -2.32144212526638   0.20204924471870267
-3.200091024049623   -2.32144212526638   0.20204924471870267
-3.200091024049623   -2.32144212526638   0.20204924471870267
-3.200091024049623   -2.32144212526638   0.20204924471870267
-2.7862900699689748   -0.900045195957526   0.014662907565468328
-2.7862900699689748   -0.900045195957526   0.014662907565468328
-2.7862900699689748   -0.900045195957526   0.014662907565468328
-2.7862900699689748   -0.900045195957526   0.014662907565468328
0.23316288524359574   -1.698960764253042   0.07531563390427354
0.23316288524359574   -1.698960764253042   0.07531563390427354
0.23316288524359574   -1.698960764253042   0.07531563390427354
0.23316288524359574   -1.698960764253042   0.07531563390427354
-1.3720153293152741   -1.304930746645369   -0.272475424140365
-1.3720153293152741   -1.304930746645369   -0.272475424140365
-1.3720153293152741   -1.304930746645369   -0.272475424140365
-1.3720153293152741   -1.304930746645369   -0.272475424140365
0.5454380953073088   -0.20757163368450302   0.14530255365429967
0.5454380953073088   -0.20757163368450302   0.14530255365429967
0.5454380953073088   -0.20757163368450302   0.14530255365429967
0.5454380953073088   -0.20757163368450302   0.14530255365429967
-3.026738244181481   -2.3196072906748126   0.23198413122025358
-3.026738244181481   -2.3196072906748126   0.23198413122025358
-3.026738244181481   -2.3196072906748126   0.23198413122025358
-3.026738244181481   -2.3196072906748126   0.23198413122025358
-2.6267212484158557   -0.8079705254535232   0.001543132391552196
-2.6267212484158557   -0.8079705254535232   0.001543132391552196
-2.6267212484158557   -0.8079705254535232   0.001543132391552196
-2.6267212484158557   -0.8079705254535232   0.001543132391552196
0.3441214701879362   -1.6625981180533338   0.10947370658611882
0.3441214701879362   -1.6625981180533338   0.10947370658611882
0.3441214701879362   -1.6625981180533338   0.10947370658611882
0.3441214701879362   -1.6625981180533338   0.10947370658611882
-1.2105982143298155   -1.2613539998695824   -0.10218798725595457
-1.2105982143298155   -1.2613539998695824   -0.10218798725595457
-1.2105982143298155   -1.2613539998695824   -0.10218798725595457
-1.2105982143298155   -1.2613539998695824   -0.10218798725595457
0.6462556162224652   -0.135145429385903   0.09269174809133272
0.6462556162224652   -0.135145429385903   0.09269174809133272
0.6462556162224652   -0.135145429385903   0.09269174809133272
0.6462556162224652   -0.135145429385903   0.09269174809133272
-2.863816339217129   -2.2703841588876497   0.278481311819359
-2.863816339217129   -2.2703841588876497   0.278481311819359
-2.863816339217129   -2.2703841588876497   0.278481311819359
-2.863816339217129   -2.2703841588876497   0.278481311819359
-2.3634597024838575   -0.7018191597955202   -0.02824498545512045
-2.3634597024838575   -0.7018191597955202   -0.02824498545512045
-2.3634597024838575   -0.7018191597955202   -0.02824498545512045
-2.3634597024838575   -0.7018191597955202   -0.02824498545512045
0.5173888942940665   -1.5593472773641377   0.15031302239147243
0.5173888942940665   -1.5593472773641377   0.15031302239147243
0.5173888942940665   -1.5593472773641377   0.15031302239147243
0.5173888942940665   -1.5593472773641377   0.15031302239147243
-1.0008935698134052   -1.1623183922671803   0.07663036258765915
-1.0008935698134052   -1.1623183922671803   0.07663036258765915
-1.0008935698134052   -1.1623183922671803   0.07663036258765915
-1.0008935698134052   -1.1623183922671803   0.07663036258765915
-2.8522569853722533   -0.46808437569764294   0.08786168853678925
-2.8522569853722533   -0.46808437569764294   0.08786168853678925
-2.8522569853722533   -0.46808437569764294   0.08786168853678925
-2.8522569853722533   -0.46808437569764294   0.08786168853678925
-7.139202669161456   -3.619503192734559   -0.17470578689049843
-7.139202669161456   -3.619503192734559   -0.17470578689049843
-7.139202669161456   -3.619503192734559   -0.17470578689049843
-7.139202669161456   -3.619503192734559   -0.17470578689049843
-6.455526683045921   -1.171197164239517   -0.19794868754233186
-6.455526683045921   -1.171197164239517   -0.19794868754233186
-6.455526683045921   -1.171197164239517   -0.19794868754233186
-6.455526683045921   -1.171197164239517   -0.19794868754233186
-3.204075273768482   -3.0332076060148303   0.058899298625237906
-3.204075273768482   -3.0332076060148303   0.058899298625237906
-3.204075273768482   -3.0332076060148303   0.058899298625237906
-3.204075273768482   -3.0332076060148303   0.058899298625237906
-4.907056620660066   -2.1405120683096164   -0.28578025501777854
-4.907056620660066   -2.1405120683096164   -0.28578025501777854
-4.907056620660066   -2.1405120683096164   -0.28578025501777854
-4.907056620660066   -2.1405120683096164   -0.28578025501777854
-2.6635764033663034   -0.3563168015590557   0.08450284618035618
-2.6635764033663034   -0.3563168015590557   0.08450284618035618
-2.6635764033663034   -0.3563168015590557   0.08450284618035618
-2.6635764033663034   -0.3563168015590557   0.08450284618035618
-6.980669730192722   -3.8327321454399543   -0.16212894207589745
-6.980669730192722   -3.8327321454399543   -0.16212894207589745
-6.980669730192722   -3.8327321454399543   -0.16212894207589745
-6.980669730192722   -3.8327321454399543   -0.16212894207589745
-6.243603743252295   -1.0606651765391395   -0.20148291481045114
-6.243603743252295   -1.0606651765391395   -0.20148291481045114
-6.243603743252295   -1.0606651765391395   -0.20148291481045114
-6.243603743252295   -1.0606651765391395   -0.20148291481045114
-3.0497179896204907   -3.0106006161271153   0.08918951704199107
-3.0497179896204907   -3.0106006161271153   0.08918951704199107
-3.0497179896204907   -3.0106006161271153   0.08918951704199107
-3.0497179896204907   -3.0106006161271153   0.08918951704199107
-4.685443970568925   -2.0840951461070567   -0.20253385869933171
-4.685443970568925   -2.0840951461070567   -0.20253385869933171
-4.685443970568925   -2.0840951461070567   -0.20253385869933171
-4.685443970568925   -2.0840951461070567   -0.20253385869933171
-2.5134944825388015   -0.2686712118080744   0.02837764813138141
-2.5134944825388015   -0.2686712118080744   0.02837764813138141
-2.5134944825388015   -0.2686712118080744   0.02837764813138141
-2.5134944825388015   -0.2686712118080744   0.02837764813138141
-6.780253001227618   -3.803020331751849   -0.14237404947430743
-6.780253001227618   -3.803020331751849   -0.14237404947430743
-6.780253001227618   -3.803020331751849   -0.14237404947430743
-6.780253001227618   -3.803020331751849   -0.14237404947430743
-5.913468587182201   -0.9415819700830985   -0.22833208302060748
-5.913468587182201   -0.9415819700830985   -0.22833208302060748
-5.913468587182201   -0.9415819700830985   -0.22833208302060748
-5.913468587182201   -0.9415819700830985   -0.22833208302060748
-2.7158411150213797   -2.7117703303118748   0.21979912237366217
-2.7158411150213797   -2.7117703303118748   0.21979912237366217
-2.7158411150213797   -2.7117703303118748   0.21979912237366217
-2.7158411150213797   -2.7117703303118748   0.21979912237366217
-4.437562675789152   -1.8917359072421938   -0.11525210357890892
-4.437562675789152   -1.8917359072421938   -0.11525210357890892
-4.437562675789152   -1.8917359072421938   -0.11525210357890892
-4.437562675789152   -1.8917359072421938   -0.11525210357890892
-6.4690224082313135   -0.3974160627023675   -0.04589161227198052
-6.4690224082313135   -0.3974160627023675   -0.04589161227198052
-6.4690224082313135   -0.3974160627023675   -0.04589161227198052
-6.4690224082313135   -0.3974160627023675   -0.04589161227198052
-11.436291410114801   -2.26398302781977   0.11637627101594994
-11.436291410114801   -2.26398302781977   0.11637627101594994
-11.436291410114801   -2.26398302781977   0.11637627101594994
-11.436291410114801   -2.26398302781977   0.11637627101594994
-10.983113616476645   -1.0954196681697221   -0.24320238297799784
-10.983113616476645   -1.0954196681697221   -0.24320238297799784
-10.983113616476645   -1.0954196681697221   -0.24320238297799784
-10.983113616476645   -1.0954196681697221   -0.24320238297799784
-6.319376295908183   -1.167961702000233   0.479567785907018
-6.319376295908183   -1.167961702000233   0.479567785907018
-6.319376295908183   -1.167961702000233   0.479567785907018
-6.319376295908183   -1.167961702000233   0.479567785907018
-8.444934642049304   -1.3148284702252364   0.12353992418279097
-8.444934642049304   -1.3148284702252364   0.12353992418279097
-8.444934642049304   -1.3148284702252364   0.12353992418279097
-8.444934642049304   -1.3148284702252364   0.12353992418279097
-6.199326569413649   -0.08970903240468941   0.001563748784169594
-6.199326569413649   -0.08970903240468941   0.001563748784169594
-6.199326569413649   -0.08970903240468941   0.001563748784169594
-6.199326569413649   -0.08970903240468941   0.001563748784169594
-11.146892158805988   -2.2174011536000853   0.059886390805562684
-11.146892158805988   -2.2174011536000853   0.059886390805562684
-11.146892158805988   -2.2174011536000853   0.059886390805562684
-11.146892158805988   -2.2174011536000853   0.059886390805562684
-10.731757775259286   -1.0034847400920466   -0.3085929001720613
-10.731757775259286   -1.0034847400920466   -0.3085929001720613
-10.731757775259286   -1.0034847400920466   -0.3085929001720613
-10.731757775259286   -1.0034847400920466   -0.3085929001720613
-6.101151407466362   -1.108506303314373   0.5586198908944973
-6.101151407466362   -1.108506303314373   0.5586198908944973
-6.101151407466362   -1.108506303314373   0.5586198908944973
-6.101151407466362   -1.108506303314373   0.5586198908944973
-8.310807172234407   -1.0821929918184066   0.11818064532445485
-8.310807172234407   -1.0821929918184066   0.11818064532445485
-8.310807172234407   -1.0821929918184066   0.11818064532445485
-8.310807172234407   -1.0821929918184066   0.11818064532445485
-6.004842521250797   -0.00837625460362279   -0.05996572673843037
-6.004842521250797   -0.00837625460362279   -0.05996572673843037
-6.004842521250797   -0.00837625460362279   -0.05996572673843037
-6.004842521250797   -0.00837625460362279   -0.05996572673843037
-10.8446269109532   -2.120175038281163   0.24375171954738706
-10.8446269109532   -2.120175038281163   0.24375171954738706
-10.8446269109532   -2.120175038281163   0.24375171954738706
-10.8446269109532   -2.120175038281163   0.24375171954738706
-10.209973014237573   -0.8112046762237204   -0.34423791628320993
-10.209973014237573   -0.8112046762237204   -0.34423791628320993
-10.209973014237573   -0.8112046762237204   -0.34423791628320993
-10.209973014237573   -0.8112046762237204   -0.34423791628320993
-5.7621284692011905   -1.0292236553999676   0.6160101922013528
-5.7621284692011905   -1.0292236553999676   0.6160101922013528
-5.7621284692011905   -1.0292236553999676   0.6160101922013528
-5.7621284692011905   -1.0292236553999676   0.6160101922013528
-7.8089061071505   -0.8268384322352083   0.2398233211968091
-7.8089061071505   -0.8268384322352083   0.2398233211968091
-7.8089061071505   -0.8268384322352083   0.2398233211968091
-7.8089061071505   -0.8268384322352083   0.2398233211968091
8.235501741700643   0.2655644757998046   0.1168256958371714
8.235501741700643   0.2655644757998046   0.1168256958371714
8.235501741700643   0.2655644757998046   0.1168256958371714
8.235501741700643   0.2655644757998046   0.1168256958371714
4.21157527488169   -0.21912676776620754   0.08773303205332739
4.21157527488169   -0.21912676776620754   0.08773303205332739
4.21157527488169   -0.21912676776620754   0.08773303205332739
4.21157527488169   -0.21912676776620754   0.08773303205332739
4.044958125744195   -0.5969747659111555   0.1703333078431266
4.044958125744195   -0.5969747659111555   0.1703333078431266
4.044958125744195   -0.5969747659111555   0.1703333078431266
4.044958125744195   -0.5969747659111555   0.1703333078431266
8.175454021682956   0.4609371856110216   0.06413689753155766
8.175454021682956   0.4609371856110216   0.06413689753155766
8.175454021682956   0.4609371856110216   0.06413689753155766
8.175454021682956   0.4609371856110216   0.06413689753155766
5.838160085236234   -0.0840375237934552   -0.2151979708349332
5.838160085236234   -0.0840375237934552   -0.2151979708349332
5.838160085236234   -0.0840375237934552   -0.2151979708349332
5.838160085236234   -0.0840375237934552   -0.2151979708349332
8.129119069686395   0.2037255216171776   0.0896738015425923
8.129119069686395   0.2037255216171776   0.0896738015425923
8.129119069686395   0.2037255216171776   0.0896738015425923
8.129119069686395   0.2037255216171776   0.0896738015425923
4.077543112946616   -0.35351306671145133   0.08979654465553338
4.077543112946616   -0.35351306671145133   0.08979654465553338
4.077543112946616   -0.35351306671145133   0.08979654465553338
4.077543112946616   -0.35351306671145133   0.08979654465553338
3.939051129928867   -0.6112022545892537   0.14112151776002008
3.939051129928867   -0.6112022545892537   0.14112151776002008
3.939051129928867   -0.6112022545892537   0.14112151776002008
3.939051129928867   -0.6112022545892537   0.14112151776002008
8.078393106684393   0.4404603742164488   0.10984927394100502
8.078393106684393   0.4404603742164488   0.10984927394100502
8.078393106684393   0.4404603742164488   0.10984927394100502
8.078393106684393   0.4404603742164488   0.10984927394100502
5.819173544899013   -0.11601081964274673   -0.25013987470168725
5.819173544899013   -0.11601081964274673   -0.25013987470168725
5.819173544899013   -0.11601081964274673   -0.25013987470168725
5.819173544899013   -0.11601081964274673   -0.25013987470168725
8.009750486271816   0.18011051862186078   0.026986027472644614
8.009750486271816   0.18011051862186078   0.026986027472644614
8.009750486271816   0.18011051862186078   0.026986027472644614
8.009750486271816   0.18011051862186078   0.026986027472644614
3.983145240439836   -0.3754009088962844   0.12579072462189717
3.983145240439836   -0.3754009088962844   0.12579072462189717
3.983145240439836   -0.3754009088962844   0.12579072462189717
3.983145240439836   -0.3754009088962844   0.12579072462189717
3.827116264988545   -0.558774675188248   0.12182879618907466
3.827116264988545   -0.558774675188248   0.12182879618907466
3.827116264988545   -0.558774675188248   0.12182879618907466
3.827116264988545   -0.558774675188248   0.12182879618907466
7.928590344607026   0.4440042449851014   0.1570605311713938
7.928590344607026   0.4440042449851014   0.1570605311713938
7.928590344607026   0.4440042449851014   0.1570605311713938
7.928590344607026   0.4440042449851014   0.1570605311713938
5.599018109274188   -0.11746097798037902   -0.3386483113170944
5.599018109274188   -0.11746097798037902   -0.3386483113170944
5.599018109274188   -0.11746097798037902   -0.3386483113170944
5.599018109274188   -0.11746097798037902   -0.3386483113170944
4.170336331501074   -0.5436602956605725   0.20607184304461923
4.170336331501074   -0.5436602956605725   0.20607184304461923
4.170336331501074   -0.5436602956605725   0.20607184304461923
4.170336331501074   -0.5436602956605725   0.20607184304461923
0.8257155423543729   -0.4969303995004202   0.04607010033503475
0.8257155423543729   -0.4969303995004202   0.04607010033503475
0.8257155423543729   -0.4969303995004202   0.04607010033503475
0.8257155423543729   -0.4969303995004202   0.04607010033503475
0.5385659273745387   -1.2595741531909788   0.22427356454287478
0.5385659273745387   -1.2595741531909788   0.22427356454287478
0.5385659273745387   -1.2595741531909788   0.22427356454287478
0.5385659273745387   -1.2595741531909788   0.22427356454287478
4.193918587628567   0.15844483599824133   0.15971601535559274
4.193918587628567   0.15844483599824133   0.15971601535559274
4.193918587628567   0.15844483599824133   0.15971601535559274
4.193918587628567   0.15844483599824133   0.15971601535559274
2.3948266777079765   -0.5375413493378265   -0.008877357562354471
2.3948266777079765   -0.5375413493378265   -0.008877357562354471
2.3948266777079765   -0.5375413493378265   -0.008877357562354471
2.3948266777079765   -0.5375413493378265   -0.008877357562354471
4.051265377930224   -0.5674250128467062   0.17231981570879795
4.051265377930224   -0.5674250128467062   0.17231981570879795
4.051265377930224   -0.5674250128467062   0.17231981570879795
4.051265377930224   -0.5674250128467062   0.17231981570879795
0.6452277925274094   -0.5696956488915492   0.0677043860077979
0.6452277925274094   -0.5696956488915492   0.0677043860077979
0.6452277925274094   -0.5696956488915492   0.0677043860077979
0.6452277925274094   -0.5696956488915492   0.0677043860077979
0.41021108543551493   -1.2716125259857904   0.2008887480491402
0.41021108543551493   -1.2716125259857904   0.2008887480491402
0.41021108543551493   -1.2716125259857904   0.2008887480491402
0.41021108543551493   -1.2716125259857904   0.2008887480491402
4.096219657193884   0.12627286054047904   0.18948903895537286
4.096219657193884   0.12627286054047904   0.18948903895537286
4.096219657193884   0.12627286054047904   0.18948903895537286
4.096219657193884   0.12627286054047904   0.18948903895537286
2.2207482501659315   -0.5731857461234046   -0.11560634260971431
2.2207482501659315   -0.5731857461234046   -0.11560634260971431
2.2207482501659315   -0.5731857461234046   -0.11560634260971431
2.2207482501659315   -0.5731857461234046   -0.11560634260971431
3.9462769707569816   -0.5761395042242619   0.14218797153556234
3.9462769707569816   -0.5761395042242619   0.14218797153556234
3.9462769707569816   -0.5761395042242619   0.14218797153556234
3.9462769707569816   -0.5761395042242619   0.14218797153556234
0.5210711800250887   -0.6082827530684256   0.09185944807964477
0.5210711800250887   -0.6082827530684256   0.09185944807964477
0.5210711800250887   -0.6082827530684256   0.09185944807964477
0.5210711800250887   -0.6082827530684256   0.09185944807964477
0.266513569653542   -1.2720104964476777   0.15760531364665953
0.266513569653542   -1.2720104964476777   0.15760531364665953
0.266513569653542   -1.2720104964476777   0.15760531364665953
0.266513569653542   -1.2720104964476777   0.15760531364665953
3.9853438143604896   0.12740103889607335   0.22679082896449937
3.9853438143604896   0.12740103889607335   0.22679082896449937
3.9853438143604896   0.12740103889607335   0.22679082896449937
3.9853438143604896   0.12740103889607335   0.22679082896449937
2.1139304212768213   -0.5696233695558223   -0.20660609839920396
2.1139304212768213   -0.5696233695558223   -0.20660609839920396
2.1139304212768213   -0.5696233695558223   -0.20660609839920396
2.1139304212768213   -0.5696233695558223   -0.20660609839920396
0.6417199580710515   -1.5563811849186577   0.18554296433664152
0.6417199580710515   -1.5563811849186577   0.18554296433664152
0.6417199580710515   -1.5563811849186577   0.18554296433664152
0.6417199580710515   -1.5563811849186577   0.18554296433664152
-2.4281295345473666   -0.7733875477434198   0.004413849990330759
-2.4281295345473666   -0.7733875477434198   0.004413849990330759
-2.4281295345473666   -0.7733875477434198   0.004413849990330759
-2.4281295345473666   -0.7733875477434198   0.004413849990330759
-2.94764519724396   -2.298770979692434   0.2570726391946246
-2.94764519724396   -2.298770979692434   0.2570726391946246
-2.94764519724396   -2.298770979692434   0.2570726391946246
-2.94764519724396   -2.298770979692434   0.2570726391946246
0.7382839540007057   -0.13723359840138277   0.1005231428841057
0.7382839540007057   -0.13723359840138277   0.1005231428841057
0.7382839540007057   -0.13723359840138277   0.1005231428841057
0.7382839540007057   -0.13723359840138277   0.1005231428841057
-0.9852658138069054   -1.1747225028290982   0.043807385410736976
-0.9852658138069054   -1.1747225028290982   0.043807385410736976
-0.9852658138069054   -1.1747225028290982   0.043807385410736976
-0.9852658138069054   -1.1747225028290982   0.043807385410736976
0.4430602079147835   -1.645508553074196   0.13267936712731587
0.4430602079147835   -1.645508553074196   0.13267936712731587
0.4430602079147835   -1.645508553074196   0.13267936712731587
0.4430602079147835   -1.645508553074196   0.13267936712731587
-2.7026365646963266   -0.8407111385579515   0.024055960798293488
-2.7026365646963266   -0.8407111385579515   0.024055960798293488
-2.7026365646963266   -0.8407111385579515   0.024055960798293488
-2.7026365646963266   -0.8407111385579515   0.024055960798293488
-3.1267033737642427   -2.336953453617929   0.20852187271507794
-3.1267033737642427   -2.336953453617929   0.20852187271507794
-3.1267033737642427   -2.336953453617929   0.20852187271507794
-3.1267033737642427   -2.336953453617929   0.20852187271507794
0.6180823445596422   -0.1729849237571403   0.14161744144112623
0.6180823445596422   -0.1729849237571403   0.14161744144112623
0.6180823445596422   -0.1729849237571403   0.14161744144112623
0.6180823445596422   -0.1729849237571403   0.14161744144112623
-1.2088712339178858   -1.2468677508129498   -0.10572995257712792
-1.2088712339178858   -1.2468677508129498   -0.10572995257712792
-1.2088712339178858   -1.2468677508129498   -0.10572995257712792
-1.2088712339178858   -1.2468677508129498   -0.10572995257712792
0.30633636380242185   -1.6750577982234016   0.08496041212129374
0.30633636380242185   -1.6750577982234016   0.08496041212129374
0.30633636380242185   -1.6750577982234016   0.08496041212129374
0.30633636380242185   -1.6750577982234016   0.08496041212129374
-2.8744592220751923   -0.8943824082198805   0.027171585762259726
-2.8744592220751923   -0.8943824082198805   0.027171585762259726
-2.8744592220751923   -0.8943824082198805   0.027171585762259726
-2.8744592220751923   -0.8943824082198805   0.027171585762259726
-3.3204328754298573   -2.3215909047045296   0.17691665541343732
-3.3204328754298573   -2.3215909047045296   0.17691665541343732
-3.3204328754298573   -2.3215909047045296   0.17691665541343732
-3.3204328754298573   -2.3215909047045296   0.17691665541343732
0.4842660355781931   -0.19316485248477017   0.1675219993069998
0.4842660355781931   -0.19316485248477017   0.1675219993069998
0.4842660355781931   -0.19316485248477017   0.1675219993069998
0.4842660355781931   -0.19316485248477017   0.1675219993069998
-1.390047246722034   -1.2745884306998383   -0.2546125834380255
-1.390047246722034   -1.2745884306998383   -0.2546125834380255
-1.390047246722034   -1.2745884306998383   -0.2546125834380255
-1.390047246722034   -1.2745884306998383   -0.2546125834380255
-2.763251335258131   -2.665240257364311   0.22065755605741488
-2.763251335258131   -2.665240257364311   0.22065755605741488
-2.763251335258131   -2.665240257364311   0.22065755605741488
-2.763251335258131   -2.665240257364311   0.22065755605741488
-6.135656163675393   -0.9635830500605727   -0.1432992863213246
-6.135656163675393   -0.9635830500605727   -0.1432992863213246
-6.135656163675393   -0.9635830500605727   -0.1432992863213246
-6.135656163675393   -0.9635830500605727   -0.1432992863213246
-7.042869001188907   -3.853181139764404   -0.20217464270195762
-7.042869001188907   -3.853181139764404   -0.20217464270195762
-7.042869001188907   -3.853181139764404   -0.20217464270195762
-7.042869001188907   -3.853181139764404   -0.20217464270195762
-2.5664988862251796   -0.2228202288394811   0.08685344343555586
-2.5664988862251796   -0.2228202288394811   0.08685344343555586
-2.5664988862251796   -0.2228202288394811   0.08685344343555586
-2.5664988862251796   -0.2228202288394811   0.08685344343555586
-4.583163914891196   -1.852755136156285   -0.16267827291329057
-4.583163914891196   -1.852755136156285   -0.16267827291329057
-4.583163914891196   -1.852755136156285   -0.16267827291329057
-4.583163914891196   -1.852755136156285   -0.16267827291329057
-3.1278170248256414   -3.015206093027169   0.07264861462095018
-3.1278170248256414   -3.015206093027169   0.07264861462095018
-3.1278170248256414   -3.015206093027169   0.07264861462095018
-3.1278170248256414   -3.015206093027169   0.07264861462095018
-6.466621214485179   -1.045865627473406   -0.1282512214743145
-6.466621214485179   -1.045865627473406   -0.1282512214743145
-6.466621214485179   -1.045865627473406   -0.1282512214743145
-6.466621214485179   -1.045865627473406   -0.1282512214743145
-7.255546988363229   -3.9163707418838665   -0.23383211299878137
-7.255546988363229   -3.9163707418838665   -0.23383211299878137
-7.255546988363229   -3.9163707418838665   -0.23383211299878137
-7.255546988363229   -3.9163707418838665   -0.23383211299878137
-2.73119259939669   -0.2811372421957679   0.13025953313065747
-2.73119259939669   -0.2811372421957679   0.13025953313065747
-2.73119259939669   -0.2811372421957679   0.13025953313065747
-2.73119259939669   -0.2811372421957679   0.13025953313065747
-4.842723347363819   -2.0513862192458094   -0.22744300943986057
-4.842723347363819   -2.0513862192458094   -0.22744300943986057
-4.842723347363819   -2.0513862192458094   -0.22744300943986057
-4.842723347363819   -2.0513862192458094   -0.22744300943986057
-3.31034492791827   -3.074909814608061   0.028270462935042318
-3.31034492791827   -3.074909814608061   0.028270462935042318
-3.31034492791827   -3.074909814608061   0.028270462935042318
-3.31034492791827   -3.074909814608061   0.028270462935042318
-6.676386469770109   -1.1225899794000043   -0.13181028251710553
-6.676386469770109   -1.1225899794000043   -0.13181028251710553
-6.676386469770109   -1.1225899794000043   -0.13181028251710553
-6.676386469770109   -1.1225899794000043   -0.13181028251710553
-7.437315351265087   -3.7527723881892032   -0.26373693076927196
-7.437315351265087   -3.7527723881892032   -0.26373693076927196
-7.437315351265087   -3.7527723881892032   -0.26373693076927196
-7.437315351265087   -3.7527723881892032   -0.26373693076927196
-2.940115760105659   -0.363337860391908   0.12024918772175931
-2.940115760105659   -0.363337860391908   0.12024918772175931
-2.940115760105659   -0.363337860391908   0.12024918772175931
-2.940115760105659   -0.363337860391908   0.12024918772175931
-5.081046019270183   -2.1196377531505624   -0.28874310847336454
-5.081046019270183   -2.1196377531505624   -0.28874310847336454
-5.081046019270183   -2.1196377531505624   -0.28874310847336454
-5.081046019270183   -2.1196377531505624   -0.28874310847336454
-6.022245388918691   -1.0936789752528613   0.5538505126543849
-6.022245388918691   -1.0936789752528613   0.5538505126543849
-6.022245388918691   -1.0936789752528613   0.5538505126543849
-6.022245388918691   -1.0936789752528613   0.5538505126543849
-10.635915567867434   -0.799508683687171   -0.19229780920119927
-10.635915567867434   -0.799508683687171   -0.19229780920119927
-10.635915567867434   -0.799508683687171   -0.19229780920119927
-10.635915567867434   -0.799508683687171   -0.19229780920119927
-11.292249190379202   -2.2279724728858707   0.1523868259498493
-11.292249190379202   -2.2279724728858707   0.1523868259498493
-11.292249190379202   -2.2279724728858707   0.1523868259498493
-11.292249190379202   -2.2279724728858707   0.1523868259498493
-6.203920538239938   0.08635173625045911   0.05303479602796968
-6.203920538239938   0.08635173625045911   0.05303479602796968
-6.203920538239938   0.08635173625045911   0.05303479602796968
-6.203920538239938   0.08635173625045911   0.05303479602796968
-8.131887037656492   -0.7828795750820994   0.16418951587227465
-8.131887037656492   -0.7828795750820994   0.16418951587227465
-8.131887037656492   -0.7828795750820994   0.16418951587227465
-8.131887037656492   -0.7828795750820994   0.16418951587227465
-6.368511096036623   -1.175346225456939   0.49177996875192864
-6.368511096036623   -1.175346225456939   0.49177996875192864
-6.368511096036623   -1.175346225456939   0.49177996875192864
-6.368511096036623   -1.175346225456939   0.49177996875192864
-11.098335290940216   -0.9369511695361568   -0.1690649802048313
-11.098335290940216   -0.9369511695361568   -0.1690649802048313
-11.098335290940216   -0.9369511695361568   -0.1690649802048313
-11.098335290940216   -0.9369511695361568   -0.1690649802048313
-11.572820667460253   -2.323883280763651   -0.0465957363580034
-11.572820667460253   -2.323883280763651   -0.0465957363580034
-11.572820667460253   -2.323883280763651   -0.0465957363580034
-11.572820667460253   -2.323883280763651   -0.0465957363580034
-6.401599692068225   0.0213395150737965   0.09819411151851365
-6.401599692068225   0.0213395150737965   0.09819411151851365
-6.401599692068225   0.0213395150737965   0.09819411151851365
-6.401599692068225   0.0213395150737965   0.09819411151851365
-8.623239531865881   -1.0346272065826008   0.06835150568647075
-8.623239531865881   -1.0346272065826008   0.06835150568647075
-8.623239531865881   -1.0346272065826008   0.06835150568647075
-8.623239531865881   -1.0346272065826008   0.06835150568647075
-6.591040292340324   -1.2364516111847514   0.4087822364165665
-6.591040292340324   -1.2364516111847514   0.4087822364165665
-6.591040292340324   -1.2364516111847514   0.4087822364165665
-6.591040292340324   -1.2364516111847514   0.4087822364165665
-11.325144917732207   -1.0078570050491642   -0.12424326343206282
-11.325144917732207   -1.0078570050491642   -0.12424326343206282
-11.325144917732207   -1.0078570050491642   -0.12424326343206282
-11.325144917732207   -1.0078570050491642   -0.12424326343206282
-11.81899810860256   -2.3637678376935023   0.00015892013504714697
-11.81899810860256   -2.3637678376935023   0.00015892013504714697
-11.81899810860256   -2.3637678376935023   0.00015892013504714697
-11.81899810860256   -2.3637678376935023   0.00015892013504714697
-6.678769174332527   -0.2633413389550747   0.03956290465939982
-6.678769174332527   -0.2633413389550747   0.03956290465939982
-6.678769174332527   -0.2633413389550747   0.03956290465939982
-6.678769174332527   -0.2633413389550747   0.03956290465939982
-8.73162426237312   -1.2513686335830845   0.10814954320573025
-8.73162426237312   -1.2513686335830845   0.10814954320573025
-8.73162426237312   -1.2513686335830845   0.10814954320573025
-8.73162426237312   -1.2513686335830845   0.10814954320573025
7.194518835014363   0.32819564840076976   -0.15859844724421457
7.194518835014363   0.32819564840076976   -0.15859844724421457
7.194518835014363   0.32819564840076976   -0.15859844724421457
7.194518835014363   0.32819564840076976   -0.15859844724421457
3.626674570001547   -0.06968511563588908   0.07900449239945292
3.626674570001547   -0.06968511563588908   0.07900449239945292
3.626674570001547   -0.06968511563588908   0.07900449239945292
3.626674570001547   -0.06968511563588908   0.07900449239945292
3.393113209722438   -0.5362345435129177   -0.13938093612786484
3.393113209722438   -0.5362345435129177   -0.13938093612786484
3.393113209722438   -0.5362345435129177   -0.13938093612786484
3.393113209722438   -0.5362345435129177   -0.13938093612786484
7.1104271122799245   0.520809697833776   0.09243490140670285
7.1104271122799245   0.520809697833776   0.09243490140670285
7.1104271122799245   0.520809697833776   0.09243490140670285
7.1104271122799245   0.520809697833776   0.09243490140670285
5.05169892361454   0.012326030740105631   -0.1952235168643332
5.05169892361454   0.012326030740105631   -0.1952235168643332
5.05169892361454   0.012326030740105631   -0.1952235168643332
5.05169892361454   0.012326030740105631   -0.1952235168643332
6.9917250970156335   0.1794257714625913   -0.15969124854351557
6.9917250970156335   0.1794257714625913   -0.15969124854351557
6.9917250970156335   0.1794257714625913   -0.15969124854351557
6.9917250970156335   0.1794257714625913   -0.15969124854351557
3.5051418552731266   -0.20152398685533202   0.0860517349679607
3.5051418552731266   -0.20152398685533202   0.0860517349679607
3.5051418552731266   -0.20152398685533202   0.0860517349679607
3.5051418552731266   -0.20152398685533202   0.0860517349679607
3.267474523664838   -0.5666626136951775   -0.11484708259757054
3.267474523664838   -0.5666626136951775   -0.11484708259757054
3.267474523664838   -0.5666626136951775   -0.11484708259757054
3.267474523664838   -0.5666626136951775   -0.11484708259757054
6.935656107682087   0.47788324546101046   0.13449672591806117
6.935656107682087   0.47788324546101046   0.13449672591806117
6.935656107682087   0.47788324546101046   0.13449672591806117
6.935656107682087   0.47788324546101046   0.13449672591806117
4.981783090477797   -0.051468053072984965   -0.23397756573877493
4.981783090477797   -0.051468053072984965   -0.23397756573877493
4.981783090477797   -0.051468053072984965   -0.23397756573877493
4.981783090477797   -0.051468053072984965   -0.23397756573877493
6.816131656935952   0.14082481084019904   -0.12606709319180182
6.816131656935952   0.14082481084019904   -0.12606709319180182
6.816131656935952   0.14082481084019904   -0.12606709319180182
6.816131656935952   0.14082481084019904   -0.12606709319180182
3.377835803651018   -0.23876734983432102   0.10906405347247272
3.377835803651018   -0.23876734983432102   0.10906405347247272
3.377835803651018   -0.23876734983432102   0.10906405347247272
3.377835803651018   -0.23876734983432102   0.10906405347247272
3.1456048995867016   -0.5597212318824336   -0.07858140814595654
3.1456048995867016   -0.5597212318824336   -0.07858140814595654
3.1456048995867016   -0.5597212318824336   -0.07858140814595654
3.1456048995867016   -0.5597212318824336   -0.07858140814595654
6.719083901996023   0.44762123170601154   0.17440652563840503
6.719083901996023   0.44762123170601154   0.17440652563840503
6.719083901996023   0.44762123170601154   0.17440652563840503
6.719083901996023   0.44762123170601154   0.17440652563840503
4.733143959999298   -0.09006394408724239   -0.30791827740524785
4.733143959999298   -0.09006394408724239   -0.30791827740524785
4.733143959999298   -0.09006394408724239   -0.30791827740524785
4.733143959999298   -0.09006394408724239   -0.30791827740524785
3.643666272552027   0.06358442031274014   0.030693469203182888
3.643666272552027   0.06358442031274014   0.030693469203182888
3.643666272552027   0.06358442031274014   0.030693469203182888
3.643666272552027   0.06358442031274014   0.030693469203182888
0.36061064710140667   -0.2164346728321192   -0.007171152572551229
0.36061064710140667   -0.2164346728321192   -0.007171152572551229
0.36061064710140667   -0.2164346728321192   -0.007171152572551229
0.36061064710140667   -0.2164346728321192   -0.007171152572551229
0.14055217321006205   -0.7109239048701329   -0.13376127456777304
0.14055217321006205   -0.7109239048701329   -0.13376127456777304
0.14055217321006205   -0.7109239048701329   -0.13376127456777304
0.14055217321006205   -0.7109239048701329   -0.13376127456777304
3.6485282788421967   0.4201230072193495   0.18133685873863065
3.6485282788421967   0.4201230072193495   0.18133685873863065
3.6485282788421967   0.4201230072193495   0.18133685873863065
3.6485282788421967   0.4201230072193495   0.18133685873863065
1.9125645340372621   -0.10144398495616058   -0.07660015080064059
1.9125645340372621   -0.10144398495616058   -0.07660015080064059
1.9125645340372621   -0.10144398495616058   -0.07660015080064059
1.9125645340372621   -0.10144398495616058   -0.07660015080064059
3.540459353725639   0.006694028517981954   0.054421211857224455
3.540459353725639   0.006694028517981954   0.054421211857224455
3.540459353725639   0.006694028517981954   0.054421211857224455
3.540459353725639   0.006694028517981954   0.054421211857224455
0.25264943834157555   -0.2934665861538071   0.009267732373468701
0.25264943834157555   -0.2934665861538071   0.009267732373468701
0.25264943834157555   -0.2934665861538071   0.009267732373468701
0.25264943834157555   -0.2934665861538071   0.009267732373468701
0.019417041631166115   -0.7455095804601741   -0.09262055048517574
0.019417041631166115   -0.7455095804601741   -0.09262055048517574
0.019417041631166115   -0.7455095804601741   -0.09262055048517574
0.019417041631166115   -0.7455095804601741   -0.09262055048517574
3.5155054446034097   0.3585130484958543   0.20013185990425464
3.5155054446034097   0.3585130484958543   0.20013185990425464
3.5155054446034097   0.3585130484958543   0.20013185990425464
3.5155054446034097   0.3585130484958543   0.20013185990425464
1.773506533913182   -0.15799487989123312   -0.10847091778554702
1.773506533913182   -0.15799487989123312   -0.10847091778554702
1.773506533913182   -0.15799487989123312   -0.10847091778554702
1.773506533913182   -0.15799487989123312   -0.10847091778554702
3.4134663420325952   -0.03207144264469941   0.08052083819076908
3.4134663420325952   -0.03207144264469941   0.08052083819076908
3.4134663420325952   -0.03207144264469941   0.08052083819076908
3.4134663420325952   -0.03207144264469941   0.08052083819076908
0.12083782698721038   -0.35554340653438515   0.02451720236925642
0.12083782698721038   -0.35554340653438515   0.02451720236925642
0.12083782698721038   -0.35554340653438515   0.02451720236925642
0.12083782698721038   -0.35554340653438515   0.02451720236925642
-0.11073774666329836   -0.7497318712817218   -0.06279216090068884
-0.11073774666329836   -0.7497318712817218   -0.06279216090068884
-0.11073774666329836   -0.7497318712817218   -0.06279216090068884
-0.11073774666329836   -0.7497318712817218   -0.06279216090068884
3.3813111072624973   0.31892984515747036   0.22129855319312686
3.3813111072624973   0.31892984515747036   0.22129855319312686
3.3813111072624973   0.31892984515747036   0.22129855319312686
3.3813111072624973   0.31892984515747036   0.22129855319312686
1.6640779399896586   -0.18110570418802058   -0.1360917724161824
1.6640779399896586   -0.18110570418802058   -0.1360917724161824
1.6640779399896586   -0.18110570418802058   -0.1360917724161824
1.6640779399896586   -0.18110570418802058   -0.1360917724161824
0.36472108601710873   -0.21359243316151902   0.01053880233535906
0.36472108601710873   -0.21359243316151902   0.01053880233535906
0.36472108601710873   -0.21359243316151902   0.01053880233535906
0.36472108601710873   -0.21359243316151902   0.01053880233535906
-2.7952493646695116   -0.3237293642932201   -0.08814351496871181
-2.7952493646695116   -0.3237293642932201   -0.08814351496871181
-2.7952493646695116   -0.3237293642932201   -0.08814351496871181
-2.7952493646695116   -0.3237293642932201   -0.08814351496871181
-3.039882133270175   -0.9433575796598848   -0.15193067613752392
-3.039882133270175   -0.9433575796598848   -0.15193067613752392
-3.039882133270175   -0.9433575796598848   -0.15193067613752392
-3.039882133270175   -0.9433575796598848   -0.15193067613752392
0.3915615495408919   0.3067131164453946   0.10364858577084857
0.3915615495408919   0.3067131164453946   0.10364858577084857
0.3915615495408919   0.3067131164453946   0.10364858577084857
0.3915615495408919   0.3067131164453946   0.10364858577084857
-1.273608653325096   -0.2793973565072553   -0.07627215841266546
-1.273608653325096   -0.2793973565072553   -0.07627215841266546
-1.273608653325096   -0.2793973565072553   -0.07627215841266546
-1.273608653325096   -0.2793973565072553   -0.07627215841266546
0.2737666044146816   -0.23830358464864193   0.0596905612338338
0.2737666044146816   -0.23830358464864193   0.0596905612338338
0.2737666044146816   -0.23830358464864193   0.0596905612338338
0.2737666044146816   -0.23830358464864193   0.0596905612338338
-2.9131356014908474   -0.3893892919127311   -0.07216630498804066
-2.9131356014908474   -0.3893892919127311   -0.07216630498804066
-2.9131356014908474   -0.3893892919127311   -0.07216630498804066
-2.9131356014908474   -0.3893892919127311   -0.07216630498804066
-3.1820237767793067   -0.9813182157234863   -0.09994289705140948
-3.1820237767793067   -0.9813182157234863   -0.09994289705140948
-3.1820237767793067   -0.9813182157234863   -0.09994289705140948
-3.1820237767793067   -0.9813182157234863   -0.09994289705140948
0.2586453032360346   0.24070912874655856   0.11730204833243366
0.2586453032360346   0.24070912874655856   0.11730204833243366
0.2586453032360346   0.24070912874655856   0.11730204833243366
0.2586453032360346   0.24070912874655856   0.11730204833243366
-1.391114005760196   -0.3189158487218186   -0.09156407136698967
-1.391114005760196   -0.3189158487218186   -0.09156407136698967
-1.391114005760196   -0.3189158487218186   -0.09156407136698967
-1.391114005760196   -0.3189158487218186   -0.09156407136698967
0.14793032028110073   -0.27870963703350765   0.08314589933783073
0.14793032028110073   -0.27870963703350765   0.08314589933783073
0.14793032028110073   -0.27870963703350765   0.08314589933783073
0.14793032028110073   -0.27870963703350765   0.08314589933783073
-3.069476389885862   -0.4600670460048736   -0.058457132302830374
-3.069476389885862   -0.4600670460048736   -0.058457132302830374
-3.069476389885862   -0.4600670460048736   -0.058457132302830374
-3.069476389885862   -0.4600670460048736   -0.058457132302830374
-3.3398372518776043   -1.0092660599460195   -0.08888075054344896
-3.3398372518776043   -1.0092660599460195   -0.08888075054344896
-3.3398372518776043   -1.0092660599460195   -0.08888075054344896
-3.3398372518776043   -1.0092660599460195   -0.08888075054344896
0.11488974224544918   0.1843142880279561   0.1312991243333709
0.11488974224544918   0.1843142880279561   0.1312991243333709
0.11488974224544918   0.1843142880279561   0.1312991243333709
0.11488974224544918   0.1843142880279561   0.1312991243333709
-1.5438832388545152   -0.36624052264516516   -0.12828452568123883
-1.5438832388545152   -0.36624052264516516   -0.12828452568123883
-1.5438832388545152   -0.36624052264516516   -0.12828452568123883
-1.5438832388545152   -0.36624052264516516   -0.12828452568123883
-2.754048291355891   -0.24981260072598532   0.043945088032109725
-2.754048291355891   -0.24981260072598532   0.043945088032109725
-2.754048291355891   -0.24981260072598532   0.043945088032109725
-2.754048291355891   -0.24981260072598532   0.043945088032109725
-5.8720539466893005   -0.3786860417369088   -0.15604429954402002
-5.8720539466893005   -0.3786860417369088   -0.15604429954402002
-5.8720539466893005   -0.3786860417369088   -0.15604429954402002
-5.8720539466893005   -0.3786860417369088   -0.15604429954402002
-6.15043300086169   -0.987172238753321   -0.1509724914971336
-6.15043300086169   -0.987172238753321   -0.1509724914971336
-6.15043300086169   -0.987172238753321   -0.1509724914971336
-6.15043300086169   -0.987172238753321   -0.1509724914971336
-2.7684130914169285   0.2334061174402725   0.028650836028503268
-2.7684130914169285   0.2334061174402725   0.028650836028503268
-2.7684130914169285   0.2334061174402725   0.028650836028503268
-2.7684130914169285   0.2334061174402725   0.028650836028503268
-4.3499413700073175   -0.329517157290213   -0.06456948214673161
-4.3499413700073175   -0.329517157290213   -0.06456948214673161
-4.3499413700073175   -0.329517157290213   -0.06456948214673161
-4.3499413700073175   -0.329517157290213   -0.06456948214673161
-2.8548509909097524   -0.2765732060521028   0.10644066205677488
-2.8548509909097524   -0.2765732060521028   0.10644066205677488
-2.8548509909097524   -0.2765732060521028   0.10644066205677488
-2.8548509909097524   -0.2765732060521028   0.10644066205677488
-6.046335935417524   -0.45953374930957014   -0.15812565372011556
-6.046335935417524   -0.45953374930957014   -0.15812565372011556
-6.046335935417524   -0.45953374930957014   -0.15812565372011556
-6.046335935417524   -0.45953374930957014   -0.15812565372011556
-6.347305093841741   -1.051515231334427   -0.10551791811783115
-6.347305093841741   -1.051515231334427   -0.10551791811783115
-6.347305093841741   -1.051515231334427   -0.10551791811783115
-6.347305093841741   -1.051515231334427   -0.10551791811783115
-2.9264918647378777   0.16113178890593305   0.03526665852628616
-2.9264918647378777   0.16113178890593305   0.03526665852628616
-2.9264918647378777   0.16113178890593305   0.03526665852628616
-2.9264918647378777   0.16113178890593305   0.03526665852628616
-4.475013295728577   -0.36551243661014465   -0.0649964244425944
-4.475013295728577   -0.36551243661014465   -0.0649964244425944
-4.475013295728577   -0.36551243661014465   -0.0649964244425944
-4.475013295728577   -0.36551243661014465   -0.0649964244425944
-3.0119713705607114   -0.34128726615924704   0.11028818447728266
-3.0119713705607114   -0.34128726615924704   0.11028818447728266
-3.0119713705607114   -0.34128726615924704   0.11028818447728266
-3.0119713705607114   -0.34128726615924704   0.11028818447728266
-6.2500120789929055   -0.5372826672432881   -0.13328540796479163
-6.2500120789929055   -0.5372826672432881   -0.13328540796479163
-6.2500120789929055   -0.5372826672432881   -0.13328540796479163
-6.2500120789929055   -0.5372826672432881   -0.13328540796479163
-6.570262939274329   -1.1360735936224822   -0.11328229926244203
-6.570262939274329   -1.1360735936224822   -0.11328229926244203
-6.570262939274329   -1.1360735936224822   -0.11328229926244203
-6.570262939274329   -1.1360735936224822   -0.11328229926244203
-3.0972909915829554   0.07215927868749561   0.04242521229622476
-3.0972909915829554   0.07215927868749561   0.04242521229622476
-3.0972909915829554   0.07215927868749561   0.04242521229622476
-3.0972909915829554   0.07215927868749561   0.04242521229622476
-4.695316322182968   -0.4517874750957249   -0.1050477211837682
-4.695316322182968   -0.4517874750957249   -0.1050477211837682
-4.695316322182968   -0.4517874750957249   -0.1050477211837682
-4.695316322182968   -0.4517874750957249   -0.1050477211837682
-5.671596934883331   0.27110462358310206   0.1964500941658197
-5.671596934883331   0.27110462358310206   0.1964500941658197
-5.671596934883331   0.27110462358310206   0.1964500941658197
-5.671596934883331   0.27110462358310206   0.1964500941658197
-8.796824050735175   -0.4385601230821594   -0.12024781502098952
-8.796824050735175   -0.4385601230821594   -0.12024781502098952
-8.796824050735175   -0.4385601230821594   -0.12024781502098952
-8.796824050735175   -0.4385601230821594   -0.12024781502098952
-9.01671459110707   -0.4463804259905204   0.20216803769020364
-9.01671459110707   -0.4463804259905204   0.20216803769020364
-9.01671459110707   -0.4463804259905204   0.20216803769020364
-9.01671459110707   -0.4463804259905204   0.20216803769020364
-5.896474995309595   0.18069716535887603   -0.049051867848918906
-5.896474995309595   0.18069716535887603   -0.049051867848918906
-5.896474995309595   0.18069716535887603   -0.049051867848918906
-5.896474995309595   0.18069716535887603   -0.049051867848918906
-7.003272392349844   0.0061401152726263675   0.1773127467876543
-7.003272392349844   0.0061401152726263675   0.1773127467876543
-7.003272392349844   0.0061401152726263675   0.1773127467876543
-7.003272392349844   0.0061401152726263675   0.1773127467876543
-5.833455885454463   0.19932156413256452   0.2474192826530227
-5.833455885454463   0.19932156413256452   0.2474192826530227
-5.833455885454463   0.19932156413256452   0.2474192826530227
-5.833455885454463   0.19932156413256452   0.2474192826530227
-9.075692594490546   -0.4609637182925177   -0.07813868692518072
-9.075692594490546   -0.4609637182925177   -0.07813868692518072
-9.075692594490546   -0.4609637182925177   -0.07813868692518072
-9.075692594490546   -0.4609637182925177   -0.07813868692518072
-9.294694987760208   -0.521987191146482   0.2746558761091029
-9.294694987760208   -0.521987191146482   0.2746558761091029
-9.294694987760208   -0.521987191146482   0.2746558761091029
-9.294694987760208   -0.521987191146482   0.2746558761091029
-6.100247376239491   0.12938052548461898   -0.05112508692567114
-6.100247376239491   0.12938052548461898   -0.05112508692567114
-6.100247376239491   0.12938052548461898   -0.05112508692567114
-6.100247376239491   0.12938052548461898   -0.05112508692567114
-7.360093190617841   -0.08254399785029087   0.09548575615841381
-7.360093190617841   -0.08254399785029087   0.09548575615841381
-7.360093190617841   -0.08254399785029087   0.09548575615841381
-7.360093190617841   -0.08254399785029087   0.09548575615841381
-6.042663393695684   0.12226918558349786   0.24390616569447987
-6.042663393695684   0.12226918558349786   0.24390616569447987
-6.042663393695684   0.12226918558349786   0.24390616569447987
-6.042663393695684   0.12226918558349786   0.24390616569447987
-9.36311953280526   -0.5257164137466084   -0.06373762651603826
-9.36311953280526   -0.5257164137466084   -0.06373762651603826
-9.36311953280526   -0.5257164137466084   -0.06373762651603826
-9.36311953280526   -0.5257164137466084   -0.06373762651603826
-9.689414219852877   -0.8255084099586449   0.23937259516189935
-9.689414219852877   -0.8255084099586449   0.23937259516189935
-9.689414219852877   -0.8255084099586449   0.23937259516189935
-9.689414219852877   -0.8255084099586449   0.23937259516189935
-6.33516332756162   -0.025832258409670406   -0.0480255759118155
-6.33516332756162   -0.025832258409670406   -0.0480255759118155
-6.33516332756162   -0.025832258409670406   -0.0480255759118155
-6.33516332756162   -0.025832258409670406   -0.0480255759118155
-7.51483990731009   -0.19371799300935022   0.022788601285902488
-7.51483990731009   -0.19371799300935022   0.022788601285902488
-7.51483990731009   -0.19371799300935022   0.022788601285902488
-7.51483990731009   -0.19371799300935022   0.022788601285902488
5.809957015933026   0.30917319123393794   -0.20998641918264604
5.809957015933026   0.30917319123393794   -0.20998641918264604
5.809957015933026   0.30917319123393794   -0.20998641918264604
5.809957015933026   0.30917319123393794   -0.20998641918264604
2.8847323807471885   0.00014860093636925864   0.0768912494761407
2.8847323807471885   0.00014860093636925864   0.0768912494761407
2.8847323807471885   0.00014860093636925864   0.0768912494761407
2.8847323807471885   0.00014860093636925864   0.0768912494761407
2.6334328716096103   -0.4314765577208113   -0.19200213569591884
2.6334328716096103   -0.4314765577208113   -0.19200213569591884
2.6334328716096103   -0.4314765577208113   -0.19200213569591884
2.6334328716096103   -0.4314765577208113   -0.19200213569591884
5.699008696159773   0.4712643306607929   0.09632873138382048
5.699008696159773   0.4712643306607929   0.09632873138382048
5.699008696159773   0.4712643306607929   0.09632873138382048
5.699008696159773   0.4712643306607929   0.09632873138382048
4.0367139919739445   0.03579841298973674   -0.13276901915458056
4.0367139919739445   0.03579841298973674   -0.13276901915458056
4.0367139919739445   0.03579841298973674   -0.13276901915458056
4.0367139919739445   0.03579841298973674   -0.13276901915458056
5.57610735705257   0.15506336650724584   -0.20197699999859353
5.57610735705257   0.15506336650724584   -0.20197699999859353
5.57610735705257   0.15506336650724584   -0.20197699999859353
5.57610735705257   0.15506336650724584   -0.20197699999859353
2.751006687833438   -0.12060311645063737   0.08499350415300266
2.751006687833438   -0.12060311645063737   0.08499350415300266
2.751006687833438   -0.12060311645063737   0.08499350415300266
2.751006687833438   -0.12060311645063737   0.08499350415300266
2.5077137972613457   -0.4679483100618915   -0.1667187412757074
2.5077137972613457   -0.4679483100618915   -0.1667187412757074
2.5077137972613457   -0.4679483100618915   -0.1667187412757074
2.5077137972613457   -0.4679483100618915   -0.1667187412757074
5.51086679127927   0.4212828044281539   0.1312756609999358
5.51086679127927   0.4212828044281539   0.1312756609999358
5.51086679127927   0.4212828044281539   0.1312756609999358
5.51086679127927   0.4212828044281539   0.1312756609999358
3.937244248509442   -0.02960818131263121   -0.17533382789802682
3.937244248509442   -0.02960818131263121   -0.17533382789802682
3.937244248509442   -0.02960818131263121   -0.17533382789802682
3.937244248509442   -0.02960818131263121   -0.17533382789802682
5.390649602892642   0.11023092001543211   -0.1587583965203856
5.390649602892642   0.11023092001543211   -0.1587583965203856
5.390649602892642   0.11023092001543211   -0.1587583965203856
5.390649602892642   0.11023092001543211   -0.1587583965203856
2.6232043521390827   -0.16162305915804898   0.10440878220910851
2.6232043521390827   -0.16162305915804898   0.10440878220910851
2.6232043521390827   -0.16162305915804898   0.10440878220910851
2.6232043521390827   -0.16162305915804898   0.10440878220910851
2.3927770261973893   -0.47975030728294243   -0.13614429350797735
2.3927770261973893   -0.47975030728294243   -0.13614429350797735
2.3927770261973893   -0.47975030728294243   -0.13614429350797735
2.3927770261973893   -0.47975030728294243   -0.13614429350797735
5.2987630949657625   0.3767107829101414   0.1629620793138752
5.2987630949657625   0.3767107829101414   0.1629620793138752
5.2987630949657625   0.3767107829101414   0.1629620793138752
5.2987630949657625   0.3767107829101414   0.1629620793138752
3.708960269368111   -0.07497027051282112   -0.2385709818823081
3.708960269368111   -0.07497027051282112   -0.2385709818823081
3.708960269368111   -0.07497027051282112   -0.2385709818823081
3.708960269368111   -0.07497027051282112   -0.2385709818823081
2.932717131235327   0.3023446458998463   0.014618956953356035
2.932717131235327   0.3023446458998463   0.014618956953356035
2.932717131235327   0.3023446458998463   0.014618956953356035
2.932717131235327   0.3023446458998463   0.014618956953356035
0.10685127288248059   -0.09385718006094933   -0.011135235262394086
0.10685127288248059   -0.09385718006094933   -0.011135235262394086
0.10685127288248059   -0.09385718006094933   -0.011135235262394086
0.10685127288248059   -0.09385718006094933   -0.011135235262394086
-0.08252922734321232   -0.38839406702553897   -0.13019100630015745
-0.08252922734321232   -0.38839406702553897   -0.13019100630015745
-0.08252922734321232   -0.38839406702553897   -0.13019100630015745
-0.08252922734321232   -0.38839406702553897   -0.13019100630015745
2.875403590687599   0.42614927558018423   0.16022562639298588
2.875403590687599   0.42614927558018423   0.16022562639298588
2.875403590687599   0.42614927558018423   0.16022562639298588
2.875403590687599   0.42614927558018423   0.16022562639298588
1.4354232326234766   0.0606597846064047   -0.016770627816321826
1.4354232326234766   0.0606597846064047   -0.016770627816321826
1.4354232326234766   0.0606597846064047   -0.016770627816321826
1.4354232326234766   0.0606597846064047   -0.016770627816321826
2.808886828377608   0.22223796955275132   0.031553120870473655
2.808886828377608   0.22223796955275132   0.031553120870473655
2.808886828377608   0.22223796955275132   0.031553120870473655
2.808886828377608   0.22223796955275132   0.031553120870473655
-0.014854818267332752   -0.18332511423221595   0.0031120862859173107
-0.014854818267332752   -0.18332511423221595   0.0031120862859173107
-0.014854818267332752   -0.18332511423221595   0.0031120862859173107
-0.014854818267332752   -0.18332511423221595   0.0031120862859173107
-0.20163357865371445   -0.44741691551597695   -0.11237893689802325
-0.20163357865371445   -0.44741691551597695   -0.11237893689802325
-0.20163357865371445   -0.44741691551597695   -0.11237893689802325
-0.20163357865371445   -0.44741691551597695   -0.11237893689802325
2.740504742520423   0.35189494714769676   0.17739272781006646
2.740504742520423   0.35189494714769676   0.17739272781006646
2.740504742520423   0.35189494714769676   0.17739272781006646
2.740504742520423   0.35189494714769676   0.17739272781006646
1.2902472377564886   -0.012399653483651463   -0.05833395022912714
1.2902472377564886   -0.012399653483651463   -0.05833395022912714
1.2902472377564886   -0.012399653483651463   -0.05833395022912714
1.2902472377564886   -0.012399653483651463   -0.05833395022912714
2.676451327894143   0.1603999779486901   0.04862062387769994
2.676451327894143   0.1603999779486901   0.04862062387769994
2.676451327894143   0.1603999779486901   0.04862062387769994
2.676451327894143   0.1603999779486901   0.04862062387769994
-0.137457010913337   -0.2557987932029501   0.016885779490837208
-0.137457010913337   -0.2557987932029501   0.016885779490837208
-0.137457010913337   -0.2557987932029501   0.016885779490837208
-0.137457010913337   -0.2557987932029501   0.016885779490837208
-0.31957869701656394   -0.48333261516863707   -0.08912394415834883
-0.31957869701656394   -0.48333261516863707   -0.08912394415834883
-0.31957869701656394   -0.48333261516863707   -0.08912394415834883
-0.31957869701656394   -0.48333261516863707   -0.08912394415834883
2.6122154727858518   0.28896834498440543   0.1923292871669532
2.6122154727858518   0.28896834498440543   0.1923292871669532
2.6122154727858518   0.28896834498440543   0.1923292871669532
2.6122154727858518   0.28896834498440543   0.1923292871669532
1.1824100655283796   -0.05955448995891377   -0.08911067636436622
1.1824100655283796   -0.05955448995891377   -0.08911067636436622
1.1824100655283796   -0.05955448995891377   -0.08911067636436622
1.1824100655283796   -0.05955448995891377   -0.08911067636436622
0.2023171911101826   0.30656673751628766   0.06577043829888685
0.2023171911101826   0.30656673751628766   0.06577043829888685
0.2023171911101826   0.30656673751628766   0.06577043829888685
0.2023171911101826   0.30656673751628766   0.06577043829888685
-2.5839468077106877   -0.16574193239033447   -0.08910358228372907
-2.5839468077106877   -0.16574193239033447   -0.08910358228372907
-2.5839468077106877   -0.16574193239033447   -0.08910358228372907
-2.5839468077106877   -0.16574193239033447   -0.08910358228372907
-2.7317151187341677   -0.355010513487903   -0.08169289562057969
-2.7317151187341677   -0.355010513487903   -0.08169289562057969
-2.7317151187341677   -0.355010513487903   -0.08169289562057969
-2.7317151187341677   -0.355010513487903   -0.08169289562057969
0.10641004501088507   0.34880277772442814   0.07730851072036231
0.10641004501088507   0.34880277772442814   0.07730851072036231
0.10641004501088507   0.34880277772442814   0.07730851072036231
0.10641004501088507   0.34880277772442814   0.07730851072036231
-1.2501876774982355   0.03973141221526538   0.0045517051137290016
-1.2501876774982355   0.03973141221526538   0.0045517051137290016
-1.2501876774982355   0.03973141221526538   0.0045517051137290016
-1.2501876774982355   0.03973141221526538   0.0045517051137290016
0.08607038905740817   0.2414731407750078   0.08293986790239821
0.08607038905740817   0.2414731407750078   0.08293986790239821
0.08607038905740817   0.2414731407750078   0.08293986790239821
0.08607038905740817   0.2414731407750078   0.08293986790239821
-2.708141753988564   -0.24444716774639674   -0.07438941763406731
-2.708141753988564   -0.24444716774639674   -0.07438941763406731
-2.708141753988564   -0.24444716774639674   -0.07438941763406731
-2.708141753988564   -0.24444716774639674   -0.07438941763406731
-2.85956269312818   -0.41990380539517   -0.06755462601199494
-2.85956269312818   -0.41990380539517   -0.06755462601199494
-2.85956269312818   -0.41990380539517   -0.06755462601199494
-2.85956269312818   -0.41990380539517   -0.06755462601199494
-0.01640642153456018   0.2723942872523865   0.09394564592939232
-0.01640642153456018   0.2723942872523865   0.09394564592939232
-0.01640642153456018   0.2723942872523865   0.09394564592939232
-0.01640642153456018   0.2723942872523865   0.09394564592939232
-1.3726444773423365   -0.023593752867745066   -0.02678401204584198
-1.3726444773423365   -0.023593752867745066   -0.02678401204584198
-1.3726444773423365   -0.023593752867745066   -0.02678401204584198
-1.3726444773423365   -0.023593752867745066   -0.02678401204584198
-0.0338110155477923   0.17885070662206473   0.10046625649354586
-0.0338110155477923   0.17885070662206473   0.10046625649354586
-0.0338110155477923   0.17885070662206473   0.10046625649354586
-0.0338110155477923   0.17885070662206473   0.10046625649354586
-2.8393574840133478   -0.3235596096632059   -0.06287277616978239
-2.8393574840133478   -0.3235596096632059   -0.06287277616978239
-2.8393574840133478   -0.3235596096632059   -0.06287277616978239
-2.8393574840133478   -0.3235596096632059   -0.06287277616978239
-2.986587491482324   -0.4710564294463566   -0.04407722931041935
-2.986587491482324   -0.4710564294463566   -0.04407722931041935
-2.986587491482324   -0.4710564294463566   -0.04407722931041935
-2.986587491482324   -0.4710564294463566   -0.04407722931041935
-0.14362548492087335   0.20041471485128945   0.10689478630017785
-0.14362548492087335   0.20041471485128945   0.10689478630017785
-0.14362548492087335   0.20041471485128945   0.10689478630017785
-0.14362548492087335   0.20041471485128945   0.10689478630017785
-1.5043903657891198   -0.08800888949479296   -0.06097510987774939
-1.5043903657891198   -0.08800888949479296   -0.06097510987774939
-1.5043903657891198   -0.08800888949479296   -0.06097510987774939
-1.5043903657891198   -0.08800888949479296   -0.06097510987774939
-2.435923605769446   0.36400248780188205   0.12126800723032471
-2.435923605769446   0.36400248780188205   0.12126800723032471
-2.435923605769446   0.36400248780188205   0.12126800723032471
-2.435923605769446   0.36400248780188205   0.12126800723032471
-5.182465706739621   -0.22842802878109492   -0.14638174710666374
-5.182465706739621   -0.22842802878109492   -0.14638174710666374
-5.182465706739621   -0.22842802878109492   -0.14638174710666374
-5.182465706739621   -0.22842802878109492   -0.14638174710666374
-5.297771294622213   -0.28258937766987435   -0.021968436317192613
-5.297771294622213   -0.28258937766987435   -0.021968436317192613
-5.297771294622213   -0.28258937766987435   -0.021968436317192613
-5.297771294622213   -0.28258937766987435   -0.021968436317192613
-2.592719224725448   0.26332145011978825   -0.005045389184654914
-2.592719224725448   0.26332145011978825   -0.005045389184654914
-2.592719224725448   0.26332145011978825   -0.005045389184654914
-2.592719224725448   0.26332145011978825   -0.005045389184654914
-3.849254338013181   0.041220294945556235   0.02789091573032973
-3.849254338013181   0.041220294945556235   0.02789091573032973
-3.849254338013181   0.041220294945556235   0.02789091573032973
-3.849254338013181   0.041220294945556235   0.02789091573032973
-2.5577223626220054   0.29705514190339566   0.13620522954895017
-2.5577223626220054   0.29705514190339566   0.13620522954895017
-2.5577223626220054   0.29705514190339566   0.13620522954895017
-2.5577223626220054   0.29705514190339566   0.13620522954895017
-5.328308601399621   -0.311863514127411   -0.14538083374672298
-5.328308601399621   -0.311863514127411   -0.14538083374672298
-5.328308601399621   -0.311863514127411   -0.14538083374672298
-5.328308601399621   -0.311863514127411   -0.14538083374672298
-5.45526801040875   -0.355497745525872   -0.01910486796162117
-5.45526801040875   -0.355497745525872   -0.01910486796162117
-5.45526801040875   -0.355497745525872   -0.01910486796162117
-5.45526801040875   -0.355497745525872   -0.01910486796162117
-2.722029353161002   0.19040481029001366   0.009803458138727239
-2.722029353161002   0.19040481029001366   0.009803458138727239
-2.722029353161002   0.19040481029001366   0.009803458138727239
-2.722029353161002   0.19040481029001366   0.009803458138727239
-3.959946372196231   -0.016953419927450364   0.0021449655059460615
-3.959946372196231   -0.016953419927450364   0.0021449655059460615
-3.959946372196231   -0.016953419927450364   0.0021449655059460615
-3.959946372196231   -0.016953419927450364   0.0021449655059460615
-2.6837376784342966   0.234135519061494   0.1575311230007562
-2.6837376784342966   0.234135519061494   0.1575311230007562
-2.6837376784342966   0.234135519061494   0.1575311230007562
-2.6837376784342966   0.234135519061494   0.1575311230007562
-5.484595607592095   -0.39026437675400305   -0.1309762226502626
-5.484595607592095   -0.39026437675400305   -0.1309762226502626
-5.484595607592095   -0.39026437675400305   -0.1309762226502626
-5.484595607592095   -0.39026437675400305   -0.1309762226502626
-5.600381149775687   -0.43346284702586857   0.01740474192213448
-5.600381149775687   -0.43346284702586857   0.01740474192213448
-5.600381149775687   -0.43346284702586857   0.01740474192213448
-5.600381149775687   -0.43346284702586857   0.01740474192213448
-2.85905640835229   0.10385199666532108   0.018669760228134546
-2.85905640835229   0.10385199666532108   0.018669760228134546
-2.85905640835229   0.10385199666532108   0.018669760228134546
-2.85905640835229   0.10385199666532108   0.018669760228134546
-4.131574840729462   -0.09803135808172037   -0.03226097625353125
-4.131574840729462   -0.09803135808172037   -0.03226097625353125
-4.131574840729462   -0.09803135808172037   -0.03226097625353125
-4.131574840729462   -0.09803135808172037   -0.03226097625353125
-4.99751584945498   0.37944915190429507   0.1704903586310878
-4.99751584945498   0.37944915190429507   0.1704903586310878
-4.99751584945498   0.37944915190429507   0.1704903586310878
-4.99751584945498   0.37944915190429507   0.1704903586310878
-7.647311393339724   -0.35330140545680777   -0.13625119455045953
-7.647311393339724   -0.35330140545680777   -0.13625119455045953
-7.647311393339724   -0.35330140545680777   -0.13625119455045953
-7.647311393339724   -0.35330140545680777   -0.13625119455045953
-7.754330054399183   -0.15194882407992671   0.1455732440466555
-7.754330054399183   -0.15194882407992671   0.1455732440466555
-7.754330054399183   -0.15194882407992671   0.1455732440466555
-7.754330054399183   -0.15194882407992671   0.1455732440466555
-5.22115672267215   0.15579115858349657   -0.07727611282024982
-5.22115672267215   0.15579115858349657   -0.07727611282024982
-5.22115672267215   0.15579115858349657   -0.07727611282024982
-5.22115672267215   0.15579115858349657   -0.07727611282024982
-6.122379503371861   0.07980216562877818   0.13984557139254838
-6.122379503371861   0.07980216562877818   0.13984557139254838
-6.122379503371861   0.07980216562877818   0.13984557139254838
-6.122379503371861   0.07980216562877818   0.13984557139254838
-5.120718918356464   0.38483297315634135   0.19587109418527704
-5.120718918356464   0.38483297315634135   0.19587109418527704
-5.120718918356464   0.38483297315634135   0.19587109418527704
-5.120718918356464   0.38483297315634135   0.19587109418527704
-7.848830217336946   -0.37505299727483354   -0.10382339744710245
-7.848830217336946   -0.37505299727483354   -0.10382339744710245
-7.848830217336946   -0.37505299727483354   -0.10382339744710245
-7.848830217336946   -0.37505299727483354   -0.10382339744710245
-7.949866627086241   -0.19007755964245843   0.2012037382856922
-7.949866627086241   -0.19007755964245843   0.2012037382856922
-7.949866627086241   -0.19007755964245843   0.2012037382856922
-7.949866627086241   -0.19007755964245843   0.2012037382856922
-5.371342215944558   0.11386767721974467   -0.06884131838627594
-5.371342215944558   0.11386767721974467   -0.06884131838627594
-5.371342215944558   0.11386767721974467   -0.06884131838627594
-5.371342215944558   0.11386767721974467   -0.06884131838627594
-6.389640191459814   0.03919878506019092   0.088960512141538
-6.389640191459814   0.03919878506019092   0.088960512141538
-6.389640191459814   0.03919878506019092   0.088960512141538
-6.389640191459814   0.03919878506019092   0.088960512141538
-5.260433719845808   0.356235035011611   0.2433338043156062
-5.260433719845808   0.356235035011611   0.2433338043156062
-5.260433719845808   0.356235035011611   0.2433338043156062
-5.260433719845808   0.356235035011611   0.2433338043156062
-8.055077915846933   -0.426747710096246   -0.08818255506385375
-8.055077915846933   -0.426747710096246   -0.08818255506385375
-8.055077915846933   -0.426747710096246   -0.08818255506385375
-8.055077915846933   -0.426747710096246   -0.08818255506385375
-8.215016227654928   -0.35207547895130276   0.20061122147308474
-8.215016227654928   -0.35207547895130276   0.20061122147308474
-8.215016227654928   -0.35207547895130276   0.20061122147308474
-8.215016227654928   -0.35207547895130276   0.20061122147308474
-5.532208696429664   -0.01062489442220671   -0.06457094395141405
-5.532208696429664   -0.01062489442220671   -0.06457094395141405
-5.532208696429664   -0.01062489442220671   -0.06457094395141405
-5.532208696429664   -0.01062489442220671   -0.06457094395141405
-6.469798746330938   -0.01870138178364078   0.07160374100709999
-6.469798746330938   -0.01870138178364078   0.07160374100709999
-6.469798746330938   -0.01870138178364078   0.07160374100709999
-6.469798746330938   -0.01870138178364078   0.07160374100709999
4.38478874220197   0.24232083148345607   -0.21230395924320586
4.38478874220197   0.24232083148345607   -0.21230395924320586
4.38478874220197   0.24232083148345607   -0.21230395924320586
4.38478874220197   0.24232083148345607   -0.21230395924320586
2.0881830133818524   0.044669346911003605   0.08160990124087149
2.0881830133818524   0.044669346911003605   0.08160990124087149
2.0881830133818524   0.044669346911003605   0.08160990124087149
2.0881830133818524   0.044669346911003605   0.08160990124087149
1.8519833491601978   -0.35765014627249164   -0.20121830628302806
1.8519833491601978   -0.35765014627249164   -0.20121830628302806
1.8519833491601978   -0.35765014627249164   -0.20121830628302806
1.8519833491601978   -0.35765014627249164   -0.20121830628302806
4.288099584330303   0.4045310819971095   0.10081764949131708
4.288099584330303   0.4045310819971095   0.10081764949131708
4.288099584330303   0.4045310819971095   0.10081764949131708
4.288099584330303   0.4045310819971095   0.10081764949131708
2.9904124480502996   0.04055427885805829   -0.08835238716538041
2.9904124480502996   0.04055427885805829   -0.08835238716538041
2.9904124480502996   0.04055427885805829   -0.08835238716538041
2.9904124480502996   0.04055427885805829   -0.08835238716538041
4.168100538650277   0.1057397112498244   -0.2003862081615272
4.168100538650277   0.1057397112498244   -0.2003862081615272
4.168100538650277   0.1057397112498244   -0.2003862081615272
4.168100538650277   0.1057397112498244   -0.2003862081615272
1.9695959058253256   -0.06124526454010798   0.09043959531020726
1.9695959058253256   -0.06124526454010798   0.09043959531020726
1.9695959058253256   -0.06124526454010798   0.09043959531020726
1.9695959058253256   -0.06124526454010798   0.09043959531020726
1.7415057132965215   -0.3931268300637341   -0.1714114334770016
1.7415057132965215   -0.3931268300637341   -0.1714114334770016
1.7415057132965215   -0.3931268300637341   -0.1714114334770016
1.7415057132965215   -0.3931268300637341   -0.1714114334770016
4.116354216231732   0.3539206609910073   0.13223233762809672
4.116354216231732   0.3539206609910073   0.13223233762809672
4.116354216231732   0.3539206609910073   0.13223233762809672
4.116354216231732   0.3539206609910073   0.13223233762809672
2.890596685776621   -0.020713738444084417   -0.12486482330736712
2.890596685776621   -0.020713738444084417   -0.12486482330736712
2.890596685776621   -0.020713738444084417   -0.12486482330736712
2.890596685776621   -0.020713738444084417   -0.12486482330736712
3.999226689928507   0.060668937815514634   -0.16015357071249828
3.999226689928507   0.060668937815514634   -0.16015357071249828
3.999226689928507   0.060668937815514634   -0.16015357071249828
3.999226689928507   0.060668937815514634   -0.16015357071249828
1.8556749589188533   -0.1028333875691716   0.10914135214008125
1.8556749589188533   -0.1028333875691716   0.10914135214008125
1.8556749589188533   -0.1028333875691716   0.10914135214008125
1.8556749589188533   -0.1028333875691716   0.10914135214008125
1.6418101906521245   -0.4158138556944235   -0.1427082093955564
1.6418101906521245   -0.4158138556944235   -0.1427082093955564
1.6418101906521245   -0.4158138556944235   -0.1427082093955564
1.6418101906521245   -0.4158138556944235   -0.1427082093955564
3.9227974596024033   0.29852190419579494   0.15677558171550296
3.9227974596024033   0.29852190419579494   0.15677558171550296
3.9227974596024033   0.29852190419579494   0.15677558171550296
3.9227974596024033   0.29852190419579494   0.15677558171550296
2.696107795921409   -0.06730423844499844   -0.1784056065041661
2.696107795921409   -0.06730423844499844   -0.1784056065041661
2.696107795921409   -0.06730423844499844   -0.1784056065041661
2.696107795921409   -0.06730423844499844   -0.1784056065041661
2.1218398112667622   0.30856685181973176   -0.014003614243270464
2.1218398112667622   0.30856685181973176   -0.014003614243270464
2.1218398112667622   0.30856685181973176   -0.014003614243270464
2.1218398112667622   0.30856685181973176   -0.014003614243270464
-0.13560455268787078   -0.02808411003248305   -0.00028906837372612754
-0.13560455268787078   -0.02808411003248305   -0.00028906837372612754
-0.13560455268787078   -0.02808411003248305   -0.00028906837372612754
-0.13560455268787078   -0.02808411003248305   -0.00028906837372612754
-0.301973835634596   -0.2668719782849235   -0.1275032166106027
-0.301973835634596   -0.2668719782849235   -0.1275032166106027
-0.301973835634596   -0.2668719782849235   -0.1275032166106027
-0.301973835634596   -0.2668719782849235   -0.1275032166106027
2.065535834007423   0.36728947974733217   0.14160449193325123
2.065535834007423   0.36728947974733217   0.14160449193325123
2.065535834007423   0.36728947974733217   0.14160449193325123
2.065535834007423   0.36728947974733217   0.14160449193325123
0.9230451959218243   0.09100234084314704   0.00637163029898772
0.9230451959218243   0.09100234084314704   0.00637163029898772
0.9230451959218243   0.09100234084314704   0.00637163029898772
0.9230451959218243   0.09100234084314704   0.00637163029898772
2.0091567724238213   0.22187876616783528   0.005119897594773805
2.0091567724238213   0.22187876616783528   0.005119897594773805
2.0091567724238213   0.22187876616783528   0.005119897594773805
2.0091567724238213   0.22187876616783528   0.005119897594773805
-0.24461447860848895   -0.12048096926291546   0.012902559497924612
-0.24461447860848895   -0.12048096926291546   0.012902559497924612
-0.24461447860848895   -0.12048096926291546   0.012902559497924612
-0.24461447860848895   -0.12048096926291546   0.012902559497924612
-0.40606392710411277   -0.3339482029856998   -0.10525435323213546
-0.40606392710411277   -0.3339482029856998   -0.10525435323213546
-0.40606392710411277   -0.3339482029856998   -0.10525435323213546
-0.40606392710411277   -0.3339482029856998   -0.10525435323213546
1.9428793115407277   0.2874869985991436   0.15484272908113794
1.9428793115407277   0.2874869985991436   0.15484272908113794
1.9428793115407277   0.2874869985991436   0.15484272908113794
1.9428793115407277   0.2874869985991436   0.15484272908113794
0.7950337978993214   0.01218267523257785   -0.033230050631104215
0.7950337978993214   0.01218267523257785   -0.033230050631104215
0.7950337978993214   0.01218267523257785   -0.033230050631104215
0.7950337978993214   0.01218267523257785   -0.033230050631104215
1.8883504001981046   0.1499354727622132   0.019749698204966942
1.8883504001981046   0.1499354727622132   0.019749698204966942
1.8883504001981046   0.1499354727622132   0.019749698204966942
1.8883504001981046   0.1499354727622132   0.019749698204966942
-0.3522966728503385   -0.19715833423757498   0.026792049288611182
-0.3522966728503385   -0.19715833423757498   0.026792049288611182
-0.3522966728503385   -0.19715833423757498   0.026792049288611182
-0.3522966728503385   -0.19715833423757498   0.026792049288611182
-0.5088319668416141   -0.3905759281097124   -0.08434463867617069
-0.5088319668416141   -0.3905759281097124   -0.08434463867617069
-0.5088319668416141   -0.3905759281097124   -0.08434463867617069
-0.5088319668416141   -0.3905759281097124   -0.08434463867617069
1.8296372298900458   0.2134272060428881   0.16718592505673172
1.8296372298900458   0.2134272060428881   0.16718592505673172
1.8296372298900458   0.2134272060428881   0.16718592505673172
1.8296372298900458   0.2134272060428881   0.16718592505673172
0.6964321678967658   -0.047922246568498916   -0.06634234375177743
0.6964321678967658   -0.047922246568498916   -0.06634234375177743
0.6964321678967658   -0.047922246568498916   -0.06634234375177743
0.6964321678967658   -0.047922246568498916   -0.06634234375177743
-0.045718215623520006   0.36994683655579613   0.051111670359756424
-0.045718215623520006   0.36994683655579613   0.051111670359756424
-0.045718215623520006   0.36994683655579613   0.051111670359756424
-0.045718215623520006   0.36994683655579613   0.051111670359756424
-2.3118401547810135   -0.09846505959606644   -0.07670418418343714
-2.3118401547810135   -0.09846505959606644   -0.07670418418343714
-2.3118401547810135   -0.09846505959606644   -0.07670418418343714
-2.3118401547810135   -0.09846505959606644   -0.07670418418343714
-2.419098036837291   -0.18370586366200548   -0.059726614363383945
-2.419098036837291   -0.18370586366200548   -0.059726614363383945
-2.419098036837291   -0.18370586366200548   -0.059726614363383945
-2.419098036837291   -0.18370586366200548   -0.059726614363383945
-0.15146324072645095   0.29668480301678724   0.061492976628411904
-0.15146324072645095   0.29668480301678724   0.061492976628411904
-0.15146324072645095   0.29668480301678724   0.061492976628411904
-0.15146324072645095   0.29668480301678724   0.061492976628411904
-1.229122909488682   0.09683836093290027   0.024147448406088498
-1.229122909488682   0.09683836093290027   0.024147448406088498
-1.229122909488682   0.09683836093290027   0.024147448406088498
-1.229122909488682   0.09683836093290027   0.024147448406088498
-0.1493300131272104   0.2966348729008475   0.07220904474055448
-0.1493300131272104   0.2966348729008475   0.07220904474055448
-0.1493300131272104   0.2966348729008475   0.07220904474055448
-0.1493300131272104   0.2966348729008475   0.07220904474055448
-2.4192062038493862   -0.1816308729588792   -0.06234244012698527
-2.4192062038493862   -0.1816308729588792   -0.06234244012698527
-2.4192062038493862   -0.1816308729588792   -0.06234244012698527
-2.4192062038493862   -0.1816308729588792   -0.06234244012698527
-2.5257066981197114   -0.25630988732575594   -0.040274950376168586
-2.5257066981197114   -0.25630988732575594   -0.040274950376168586
-2.5257066981197114   -0.25630988732575594   -0.040274950376168586
-2.5257066981197114   -0.25630988732575594   -0.040274950376168586
-0.2599565231879169   0.21450343244043357   0.07683103092271036
-0.2599565231879169   0.21450343244043357   0.07683103092271036
-0.2599565231879169   0.21450343244043357   0.07683103092271036
-0.2599565231879169   0.21450343244043357   0.07683103092271036
-1.336827306631356   0.025352740143402386   -0.008045446123508493
-1.336827306631356   0.025352740143402386   -0.008045446123508493
-1.336827306631356   0.025352740143402386   -0.008045446123508493
-1.336827306631356   0.025352740143402386   -0.008045446123508493
-0.2556861890985189   0.2235720260964526   0.08911410771368136
-0.2556861890985189   0.2235720260964526   0.08911410771368136
-0.2556861890985189   0.2235720260964526   0.08911410771368136
-0.2556861890985189   0.2235720260964526   0.08911410771368136
-2.529356491230382   -0.26475794000304753   -0.050075863252230124
-2.529356491230382   -0.26475794000304753   -0.050075863252230124
-2.529356491230382   -0.26475794000304753   -0.050075863252230124
-2.529356491230382   -0.26475794000304753   -0.050075863252230124
-2.6311047342645444   -0.32266890951557964   -0.021044086190496483
-2.6311047342645444   -0.32266890951557964   -0.021044086190496483
-2.6311047342645444   -0.32266890951557964   -0.021044086190496483
-2.6311047342645444   -0.32266890951557964   -0.021044086190496483
-0.36886124524896385   0.13501853293414073   0.08991450824322772
-0.36886124524896385   0.13501853293414073   0.08991450824322772
-0.36886124524896385   0.13501853293414073   0.08991450824322772
-0.36886124524896385   0.13501853293414073   0.08991450824322772
-1.4494322729088982   -0.04675468655044496   -0.04387095095607639
-1.4494322729088982   -0.04675468655044496   -0.04387095095607639
-1.4494322729088982   -0.04675468655044496   -0.04387095095607639
-1.4494322729088982   -0.04675468655044496   -0.04387095095607639
-2.1691804434377255   0.4259426965733364   0.1121866163635975
-2.1691804434377255   0.4259426965733364   0.1121866163635975
-2.1691804434377255   0.4259426965733364   0.1121866163635975
-2.1691804434377255   0.4259426965733364   0.1121866163635975
-4.436198465414537   -0.1702135764313305   -0.1386957694501182
-4.436198465414537   -0.1702135764313305   -0.1386957694501182
-4.436198465414537   -0.1702135764313305   -0.1386957694501182
-4.436198465414537   -0.1702135764313305   -0.1386957694501182
-4.494905188231821   -0.113274450285763   0.014161072293962684
-4.494905188231821   -0.113274450285763   0.014161072293962684
-4.494905188231821   -0.113274450285763   0.014161072293962684
-4.494905188231821   -0.113274450285763   0.014161072293962684
-2.3315405070563093   0.2127553446656829   -0.018400173786146445
-2.3315405070563093   0.2127553446656829   -0.018400173786146445
-2.3315405070563093   0.2127553446656829   -0.018400173786146445
-2.3315405070563093   0.2127553446656829   -0.018400173786146445
-3.336256108882455   0.09316587646212748   0.040963055327479264
-3.336256108882455   0.09316587646212748   0.040963055327479264
-3.336256108882455   0.09316587646212748   0.040963055327479264
-3.336256108882455   0.09316587646212748   0.040963055327479264
-2.2729565070317   0.35478175474665175   0.13249341625591526
-2.2729565070317   0.35478175474665175   0.13249341625591526
-2.2729565070317   0.35478175474665175   0.13249341625591526
-2.2729565070317   0.35478175474665175   0.13249341625591526
-4.55289414813385   -0.25470582024415367   -0.13435235725778916
-4.55289414813385   -0.25470582024415367   -0.13435235725778916
-4.55289414813385   -0.25470582024415367   -0.13435235725778916
-4.55289414813385   -0.25470582024415367   -0.13435235725778916
-4.619014966299061   -0.18664883827663448   0.021520828443545803
-4.619014966299061   -0.18664883827663448   0.021520828443545803
-4.619014966299061   -0.18664883827663448   0.021520828443545803
-4.619014966299061   -0.18664883827663448   0.021520828443545803
-2.4396119527462354   0.13665525373337473   -0.0027663645679027182
-2.4396119527462354   0.13665525373337473   -0.0027663645679027182
-2.4396119527462354   0.13665525373337473   -0.0027663645679027182
-2.4396119527462354   0.13665525373337473   -0.0027663645679027182
-3.427688777323117   0.029200432174373625   0.01095450500243525
-3.427688777323117   0.029200432174373625   0.01095450500243525
-3.427688777323117   0.029200432174373625   0.01095450500243525
-3.427688777323117   0.029200432174373625   0.01095450500243525
-2.378610636238145   0.287422463656687   0.15147300804923675
-2.378610636238145   0.287422463656687   0.15147300804923675
-2.378610636238145   0.287422463656687   0.15147300804923675
-2.378610636238145   0.287422463656687   0.15147300804923675
-4.676855637290986   -0.33425540268378107   -0.1200759621089307
-4.676855637290986   -0.33425540268378107   -0.1200759621089307
-4.676855637290986   -0.33425540268378107   -0.1200759621089307
-4.676855637290986   -0.33425540268378107   -0.1200759621089307
-4.731691442076377   -0.2654973593379024   0.0445580139361042
-4.731691442076377   -0.2654973593379024   0.0445580139361042
-4.731691442076377   -0.2654973593379024   0.0445580139361042
-4.731691442076377   -0.2654973593379024   0.0445580139361042
-2.550694112270301   0.0497765947706208   0.008563519494519722
-2.550694112270301   0.0497765947706208   0.008563519494519722
-2.550694112270301   0.0497765947706208   0.008563519494519722
-2.550694112270301   0.0497765947706208   0.008563519494519722
-3.5660296263767717   -0.05061586077080482   -0.02698776146823459
-3.5660296263767717   -0.05061586077080482   -0.02698776146823459
-3.5660296263767717   -0.05061586077080482   -0.02698776146823459
-3.5660296263767717   -0.05061586077080482   -0.02698776146823459
-4.266238409120634   0.3819513478455965   0.15893958774247208
-4.266238409120634   0.3819513478455965   0.15893958774247208
-4.266238409120634   0.3819513478455965   0.15893958774247208
-4.266238409120634   0.3819513478455965   0.15893958774247208
-6.45227336756413   -0.2971683829232157   -0.15397685712848735
-6.45227336756413   -0.2971683829232157   -0.15397685712848735
-6.45227336756413   -0.2971683829232157   -0.15397685712848735
-6.45227336756413   -0.2971683829232157   -0.15397685712848735
-6.525455927133784   -0.060268149779544755   0.14672654982617794
-6.525455927133784   -0.060268149779544755   0.14672654982617794
-6.525455927133784   -0.060268149779544755   0.14672654982617794
-6.525455927133784   -0.060268149779544755   0.14672654982617794
-4.472074296314102   0.10572441828379775   -0.09068333668700251
-4.472074296314102   0.10572441828379775   -0.09068333668700251
-4.472074296314102   0.10572441828379775   -0.09068333668700251
-4.472074296314102   0.10572441828379775   -0.09068333668700251
-5.189122512521176   0.08671835734487465   0.12647332947564693
-5.189122512521176   0.08671835734487465   0.12647332947564693
-5.189122512521176   0.08671835734487465   0.12647332947564693
-5.189122512521176   0.08671835734487465   0.12647332947564693
-4.3617218709703245   0.38041166095920365   0.18639154735646069
-4.3617218709703245   0.38041166095920365   0.18639154735646069
-4.3617218709703245   0.38041166095920365   0.18639154735646069
-4.3617218709703245   0.38041166095920365   0.18639154735646069
-6.633893704522111   -0.33304074449949317   -0.12268974239544789
-6.633893704522111   -0.33304074449949317   -0.12268974239544789
-6.633893704522111   -0.33304074449949317   -0.12268974239544789
-6.633893704522111   -0.33304074449949317   -0.12268974239544789
-6.687803702201964   -0.09893526598698932   0.18360545183746013
-6.687803702201964   -0.09893526598698932   0.18360545183746013
-6.687803702201964   -0.09893526598698932   0.18360545183746013
-6.687803702201964   -0.09893526598698932   0.18360545183746013
-4.588747836028718   0.06399131025546634   -0.07778366873683884
-4.588747836028718   0.06399131025546634   -0.07778366873683884
-4.588747836028718   0.06399131025546634   -0.07778366873683884
-4.588747836028718   0.06399131025546634   -0.07778366873683884
-5.4145514190427555   0.0434645675159655   0.07618315652537633
-5.4145514190427555   0.0434645675159655   0.07618315652537633
-5.4145514190427555   0.0434645675159655   0.07618315652537633
-5.4145514190427555   0.0434645675159655   0.07618315652537633
-4.471682583062473   0.35156220728615595   0.21997169906369662
-4.471682583062473   0.35156220728615595   0.21997169906369662
-4.471682583062473   0.35156220728615595   0.21997169906369662
-4.471682583062473   0.35156220728615595   0.21997169906369662
-6.801764558446616   -0.3834017662960776   -0.1017323290766593
-6.801764558446616   -0.3834017662960776   -0.1017323290766593
-6.801764558446616   -0.3834017662960776   -0.1017323290766593
-6.801764558446616   -0.3834017662960776   -0.1017323290766593
-6.902036553411227   -0.23554294285388533   0.18066667087175492
-6.902036553411227   -0.23554294285388533   0.18066667087175492
-6.902036553411227   -0.23554294285388533   0.18066667087175492
-6.902036553411227   -0.23554294285388533   0.18066667087175492
-4.711822886960134   -0.05114853192881719   -0.07044803789176757
-4.711822886960134   -0.05114853192881719   -0.07044803789176757
-4.711822886960134   -0.05114853192881719   -0.07044803789176757
-4.711822886960134   -0.05114853192881719   -0.07044803789176757
-5.4744567949191545   -0.010009821849912726   0.0590951175758081
-5.4744567949191545   -0.010009821849912726   0.0590951175758081
-5.4744567949191545   -0.010009821849912726   0.0590951175758081
-5.4744567949191545   -0.010009821849912726   0.0590951175758081
2.9935270104054235   0.16834953096765848   -0.20533317549954766
2.9935270104054235   0.16834953096765848   -0.20533317549954766
2.9935270104054235   0.16834953096765848   -0.20533317549954766
2.9935270104054235   0.16834953096765848   -0.20533317549954766
1.2788165847814368   0.08441928617992672   0.08866253859589103
1.2788165847814368   0.08441928617992672   0.08866253859589103
1.2788165847814368   0.08441928617992672   0.08866253859589103
1.2788165847814368   0.08441928617992672   0.08866253859589103
1.0667662701067298   -0.29814643135952024   -0.19123660306825782
1.0667662701067298   -0.29814643135952024   -0.19123660306825782
1.0667662701067298   -0.29814643135952024   -0.19123660306825782
1.0667662701067298   -0.29814643135952024   -0.19123660306825782
2.921765313475   0.34196472643333503   0.10765933607231291
2.921765313475   0.34196472643333503   0.10765933607231291
2.921765313475   0.34196472643333503   0.10765933607231291
2.921765313475   0.34196472643333503   0.10765933607231291
1.9557834264933145   0.04352044478625705   -0.05348769717849705
1.9557834264933145   0.04352044478625705   -0.05348769717849705
1.9557834264933145   0.04352044478625705   -0.05348769717849705
1.9557834264933145   0.04352044478625705   -0.05348769717849705
2.803413055919954   0.049169001135712986   -0.19130622640531628
2.803413055919954   0.049169001135712986   -0.19130622640531628
2.803413055919954   0.049169001135712986   -0.19130622640531628
2.803413055919954   0.049169001135712986   -0.19130622640531628
1.1828994850113517   -0.007569748712322799   0.09885278880767222
1.1828994850113517   -0.007569748712322799   0.09885278880767222
1.1828994850113517   -0.007569748712322799   0.09885278880767222
1.1828994850113517   -0.007569748712322799   0.09885278880767222
0.9762929113275504   -0.33305464338720175   -0.16258287935876659
0.9762929113275504   -0.33305464338720175   -0.16258287935876659
0.9762929113275504   -0.33305464338720175   -0.16258287935876659
0.9762929113275504   -0.33305464338720175   -0.16258287935876659
2.7730099930329226   0.292464467273246   0.1384378932703182
2.7730099930329226   0.292464467273246   0.1384378932703182
2.7730099930329226   0.292464467273246   0.1384378932703182
2.7730099930329226   0.292464467273246   0.1384378932703182
1.8615645831901175   -0.013883245662790422   -0.08780648069971186
1.8615645831901175   -0.013883245662790422   -0.08780648069971186
1.8615645831901175   -0.013883245662790422   -0.08780648069971186
1.8615645831901175   -0.013883245662790422   -0.08780648069971186
2.6566758730199336   0.004487397432289764   -0.15525563695369216
2.6566758730199336   0.004487397432289764   -0.15525563695369216
2.6566758730199336   0.004487397432289764   -0.15525563695369216
2.6566758730199336   0.004487397432289764   -0.15525563695369216
1.0893857702590548   -0.04831883462773218   0.11814560653929491
1.0893857702590548   -0.04831883462773218   0.11814560653929491
1.0893857702590548   -0.04831883462773218   0.11814560653929491
1.0893857702590548   -0.04831883462773218   0.11814560653929491
0.8953251565619734   -0.365416728040504   -0.13544527642556123
0.8953251565619734   -0.365416728040504   -0.13544527642556123
0.8953251565619734   -0.365416728040504   -0.13544527642556123
0.8953251565619734   -0.365416728040504   -0.13544527642556123
2.599525351783489   0.22693695137732833   0.1577565417188866
2.599525351783489   0.22693695137732833   0.1577565417188866
2.599525351783489   0.22693695137732833   0.1577565417188866
2.599525351783489   0.22693695137732833   0.1577565417188866
1.7041719728272038   -0.06123809310021339   -0.13459024220645605
1.7041719728272038   -0.06123809310021339   -0.13459024220645605
1.7041719728272038   -0.06123809310021339   -0.13459024220645605
1.7041719728272038   -0.06123809310021339   -0.13459024220645605
1.2863708118520005   0.24878280714659134   -0.03792984701797987
1.2863708118520005   0.24878280714659134   -0.03792984701797987
1.2863708118520005   0.24878280714659134   -0.03792984701797987
1.2863708118520005   0.24878280714659134   -0.03792984701797987
-0.39835548758926714   0.023200198596285054   0.012588547008825553
-0.39835548758926714   0.023200198596285054   0.012588547008825553
-0.39835548758926714   0.023200198596285054   0.012588547008825553
-0.39835548758926714   0.023200198596285054   0.012588547008825553
-0.5433112655338641   -0.2062953711821469   -0.11747266317285757
-0.5433112655338641   -0.2062953711821469   -0.11747266317285757
-0.5433112655338641   -0.2062953711821469   -0.11747266317285757
-0.5433112655338641   -0.2062953711821469   -0.11747266317285757
1.249701017368247   0.29944594500213173   0.1258447568776941
1.249701017368247   0.29944594500213173   0.1258447568776941
1.249701017368247   0.29944594500213173   0.1258447568776941
1.249701017368247   0.29944594500213173   0.1258447568776941
0.38982682496836446   0.08687960145027533   0.014863918677711039
0.38982682496836446   0.08687960145027533   0.014863918677711039
0.38982682496836446   0.08687960145027533   0.014863918677711039
0.38982682496836446   0.08687960145027533   0.014863918677711039
1.1925562193281878   0.16023833396726112   -0.020671622287746504
1.1925562193281878   0.16023833396726112   -0.020671622287746504
1.1925562193281878   0.16023833396726112   -0.020671622287746504
1.1925562193281878   0.16023833396726112   -0.020671622287746504
-0.48698356348438504   -0.06790485613785771   0.025775332030256344
-0.48698356348438504   -0.06790485613785771   0.025775332030256344
-0.48698356348438504   -0.06790485613785771   0.025775332030256344
-0.48698356348438504   -0.06790485613785771   0.025775332030256344
-0.627493752732936   -0.27653289621530525   -0.09488368071744274
-0.627493752732936   -0.27653289621530525   -0.09488368071744274
-0.627493752732936   -0.27653289621530525   -0.09488368071744274
-0.627493752732936   -0.27653289621530525   -0.09488368071744274
1.1465051391193484   0.21861312236774513   0.13681049384528512
1.1465051391193484   0.21861312236774513   0.13681049384528512
1.1465051391193484   0.21861312236774513   0.13681049384528512
1.1465051391193484   0.21861312236774513   0.13681049384528512
0.2862194329875387   0.007741980910261778   -0.023155856609504005
0.2862194329875387   0.007741980910261778   -0.023155856609504005
0.2862194329875387   0.007741980910261778   -0.023155856609504005
0.2862194329875387   0.007741980910261778   -0.023155856609504005
1.0911659144033052   0.08493439323499244   -0.006206900602195524
1.0911659144033052   0.08493439323499244   -0.006206900602195524
1.0911659144033052   0.08493439323499244   -0.006206900602195524
1.0911659144033052   0.08493439323499244   -0.006206900602195524
-0.5742543827796298   -0.1449540218452925   0.03973429467907514
-0.5742543827796298   -0.1449540218452925   0.03973429467907514
-0.5742543827796298   -0.1449540218452925   0.03973429467907514
-0.5742543827796298   -0.1449540218452925   0.03973429467907514
-0.7105854633145896   -0.34285554791742756   -0.07400515154021106
-0.7105854633145896   -0.34285554791742756   -0.07400515154021106
-0.7105854633145896   -0.34285554791742756   -0.07400515154021106
-0.7105854633145896   -0.34285554791742756   -0.07400515154021106
1.0533774220764316   0.1406596827316089   0.14873964037463847
1.0533774220764316   0.1406596827316089   0.14873964037463847
1.0533774220764316   0.1406596827316089   0.14873964037463847
1.0533774220764316   0.1406596827316089   0.14873964037463847
0.20271893703633873   -0.05828034639828328   -0.05684015983438674
0.20271893703633873   -0.05828034639828328   -0.05684015983438674
0.20271893703633873   -0.05828034639828328   -0.05684015983438674
0.20271893703633873   -0.05828034639828328   -0.05684015983438674
-0.33621124290943283   0.3177529611798471   0.0287570078244275
-0.33621124290943283   0.3177529611798471   0.0287570078244275
-0.33621124290943283   0.3177529611798471   0.0287570078244275
-0.33621124290943283   0.3177529611798471   0.0287570078244275
-2.0509599538422187   -0.05004777837388841   -0.06217420255413206
-2.0509599538422187   -0.05004777837388841   -0.06217420255413206
-2.0509599538422187   -0.05004777837388841   -0.06217420255413206
-2.0509599538422187   -0.05004777837388841   -0.06217420255413206
-2.133895285694747   -0.12123400103327925   -0.04566899865362485
-2.133895285694747   -0.12123400103327925   -0.04566899865362485
-2.133895285694747   -0.12123400103327925   -0.04566899865362485
-2.133895285694747   -0.12123400103327925   -0.04566899865362485
-0.4231427597243074   0.22840286819184874   0.04867162650093025
-0.4231427597243074   0.22840286819184874   0.04867162650093025
-0.4231427597243074   0.22840286819184874   0.04867162650093025
-0.4231427597243074   0.22840286819184874   0.04867162650093025
-1.2330669443154145   0.09233795972789788   0.024234724945037783
-1.2330669443154145   0.09233795972789788   0.024234724945037783
-1.2330669443154145   0.09233795972789788   0.024234724945037783
-1.2330669443154145   0.09233795972789788   0.024234724945037783
-0.42045281381745897   0.24057761493192295   0.049946609295098296
-0.42045281381745897   0.24057761493192295   0.049946609295098296
-0.42045281381745897   0.24057761493192295   0.049946609295098296
-0.42045281381745897   0.24057761493192295   0.049946609295098296
-2.1367894337814   -0.13361294995317863   -0.047760790166991196
-2.1367894337814   -0.13361294995317863   -0.047760790166991196
-2.1367894337814   -0.13361294995317863   -0.047760790166991196
-2.1367894337814   -0.13361294995317863   -0.047760790166991196
-2.2189263055264927   -0.19775915352703066   -0.02551211657603525
-2.2189263055264927   -0.19775915352703066   -0.02551211657603525
-2.2189263055264927   -0.19775915352703066   -0.02551211657603525
-2.2189263055264927   -0.19775915352703066   -0.02551211657603525
-0.5114681606717937   0.14520999962717443   0.06350138374578104
-0.5114681606717937   0.14520999962717443   0.06350138374578104
-0.5114681606717937   0.14520999962717443   0.06350138374578104
-0.5114681606717937   0.14520999962717443   0.06350138374578104
-1.3205002581136647   0.01793042748510154   -0.008501008186808462
-1.3205002581136647   0.01793042748510154   -0.008501008186808462
-1.3205002581136647   0.01793042748510154   -0.008501008186808462
-1.3205002581136647   0.01793042748510154   -0.008501008186808462
-0.5069528243849645   0.163329649148252   0.06795841565884986
-0.5069528243849645   0.163329649148252   0.06795841565884986
-0.5069528243849645   0.163329649148252   0.06795841565884986
-0.5069528243849645   0.163329649148252   0.06795841565884986
-2.2247536640790577   -0.21719082531384382   -0.03521723755204653
-2.2247536640790577   -0.21719082531384382   -0.03521723755204653
-2.2247536640790577   -0.21719082531384382   -0.03521723755204653
-2.2247536640790577   -0.21719082531384382   -0.03521723755204653
-2.302565123842338   -0.2708941091541479   -0.005944823604841422
-2.302565123842338   -0.2708941091541479   -0.005944823604841422
-2.302565123842338   -0.2708941091541479   -0.005944823604841422
-2.302565123842338   -0.2708941091541479   -0.005944823604841422
-0.5990124303262181   0.06435914662116321   0.07664531886304783
-0.5990124303262181   0.06435914662116321   0.07664531886304783
-0.5990124303262181   0.06435914662116321   0.07664531886304783
-0.5990124303262181   0.06435914662116321   0.07664531886304783
-1.4114998561848147   -0.05657452006402558   -0.043963557389186406
-1.4114998561848147   -0.05657452006402558   -0.043963557389186406
-1.4114998561848147   -0.05657452006402558   -0.043963557389186406
-1.4114998561848147   -0.05657452006402558   -0.043963557389186406
-1.9344278059424735   0.3766395508893522   0.09379920768135458
-1.9344278059424735   0.3766395508893522   0.09379920768135458
-1.9344278059424735   0.3766395508893522   0.09379920768135458
-1.9344278059424735   0.3766395508893522   0.09379920768135458
-3.6728095170127673   -0.12271956609085377   -0.12704584804504881
-3.6728095170127673   -0.12271956609085377   -0.12704584804504881
-3.6728095170127673   -0.12271956609085377   -0.12704584804504881
-3.6728095170127673   -0.12271956609085377   -0.12704584804504881
-3.704086071028469   -0.0517915087800489   0.03141112295735471
-3.704086071028469   -0.0517915087800489   0.03141112295735471
-3.704086071028469   -0.0517915087800489   0.03141112295735471
-3.704086071028469   -0.0517915087800489   0.03141112295735471
-2.076279572056916   0.14867011585375067   -0.027494547351545107
-2.076279572056916   0.14867011585375067   -0.027494547351545107
-2.076279572056916   0.14867011585375067   -0.027494547351545107
-2.076279572056916   0.14867011585375067   -0.027494547351545107
-2.830151941865263   0.08859902199724523   0.03529428000351739
-2.830151941865263   0.08859902199724523   0.03529428000351739
-2.830151941865263   0.08859902199724523   0.03529428000351739
-2.830151941865263   0.08859902199724523   0.03529428000351739
-2.0170806352668325   0.30230117022613834   0.11486908222653064
-2.0170806352668325   0.30230117022613834   0.11486908222653064
-2.0170806352668325   0.30230117022613834   0.11486908222653064
-2.0170806352668325   0.30230117022613834   0.11486908222653064
-3.765820771703044   -0.20795832703688422   -0.12109556215871417
-3.765820771703044   -0.20795832703688422   -0.12109556215871417
-3.765820771703044   -0.20795832703688422   -0.12109556215871417
-3.765820771703044   -0.20795832703688422   -0.12109556215871417
-3.804265102550765   -0.12756164597126973   0.04080228671340455
-3.804265102550765   -0.12756164597126973   0.04080228671340455
-3.804265102550765   -0.12756164597126973   0.04080228671340455
-3.804265102550765   -0.12756164597126973   0.04080228671340455
-2.1622077104525284   0.07203630064774214   -0.011714595381032727
-2.1622077104525284   0.07203630064774214   -0.011714595381032727
-2.1622077104525284   0.07203630064774214   -0.011714595381032727
-2.1622077104525284   0.07203630064774214   -0.011714595381032727
-2.9040138687033146   0.020984123450736192   0.002434539934502461
-2.9040138687033146   0.020984123450736192   0.002434539934502461
-2.9040138687033146   0.020984123450736192   0.002434539934502461
-2.9040138687033146   0.020984123450736192   0.002434539934502461
-2.100891740509124   0.23194406674260803   0.13495748824115258
-2.100891740509124   0.23194406674260803   0.13495748824115258
-2.100891740509124   0.23194406674260803   0.13495748824115258
-2.100891740509124   0.23194406674260803   0.13495748824115258
-3.86577533371834   -0.28766367329028564   -0.10664684180548331
-3.86577533371834   -0.28766367329028564   -0.10664684180548331
-3.86577533371834   -0.28766367329028564   -0.10664684180548331
-3.86577533371834   -0.28766367329028564   -0.10664684180548331
-3.8935628055429277   -0.20814907377845948   0.061803870021745255
-3.8935628055429277   -0.20814907377845948   0.061803870021745255
-3.8935628055429277   -0.20814907377845948   0.061803870021745255
-3.8935628055429277   -0.20814907377845948   0.061803870021745255
-2.249618574566627   -0.012795109828059037   0.0006889234475950939
-2.249618574566627   -0.012795109828059037   0.0006889234475950939
-2.249618574566627   -0.012795109828059037   0.0006889234475950939
-2.249618574566627   -0.012795109828059037   0.0006889234475950939
-3.014166669123553   -0.05717544068794134   -0.03557760318079922
-3.014166669123553   -0.05717544068794134   -0.03557760318079922
-3.014166669123553   -0.05717544068794134   -0.03557760318079922
-3.014166669123553   -0.05717544068794134   -0.03557760318079922
-3.5235437321688843   0.34890468133186114   0.14765882875165065
-3.5235437321688843   0.34890468133186114   0.14765882875165065
-3.5235437321688843   0.34890468133186114   0.14765882875165065
-3.5235437321688843   0.34890468133186114   0.14765882875165065
-5.194557421425718   -0.23852710701074697   -0.16609343676215063
-5.194557421425718   -0.23852710701074697   -0.16609343676215063
-5.194557421425718   -0.23852710701074697   -0.16609343676215063
-5.194557421425718   -0.23852710701074697   -0.16609343676215063
-5.245669189569365   -0.0015649604362841796   0.1464646629678505
-5.245669189569365   -0.0015649604362841796   0.1464646629678505
-5.245669189569365   -0.0015649604362841796   0.1464646629678505
-5.245669189569365   -0.0015649604362841796   0.1464646629678505
-3.7101490295332864   0.0493955491534499   -0.10009072750029335
-3.7101490295332864   0.0493955491534499   -0.10009072750029335
-3.7101490295332864   0.0493955491534499   -0.10009072750029335
-3.7101490295332864   0.0493955491534499   -0.10009072750029335
-4.224316647106818   0.08175490097831517   0.10641294309906951
-4.224316647106818   0.08175490097831517   0.10641294309906951
-4.224316647106818   0.08175490097831517   0.10641294309906951
-4.224316647106818   0.08175490097831517   0.10641294309906951
-3.598498998376074   0.3334059505805451   0.17414902685870576
-3.598498998376074   0.3334059505805451   0.17414902685870576
-3.598498998376074   0.3334059505805451   0.17414902685870576
-3.598498998376074   0.3334059505805451   0.17414902685870576
-5.359467796092097   -0.2877239372289089   -0.13636939285315436
-5.359467796092097   -0.2877239372289089   -0.13636939285315436
-5.359467796092097   -0.2877239372289089   -0.13636939285315436
-5.359467796092097   -0.2877239372289089   -0.13636939285315436
-5.387038555677805   -0.043179388200359936   0.18465355863324
-5.387038555677805   -0.043179388200359936   0.18465355863324
-5.387038555677805   -0.043179388200359936   0.18465355863324
-5.387038555677805   -0.043179388200359936   0.18465355863324
-3.8025151083629174   0.007361146470520996   -0.08537053478920786
-3.8025151083629174   0.007361146470520996   -0.08537053478920786
-3.8025151083629174   0.007361146470520996   -0.08537053478920786
-3.8025151083629174   0.007361146470520996   -0.08537053478920786
-4.414013792308782   0.03383065823998721   0.0550212298531107
-4.414013792308782   0.03383065823998721   0.0550212298531107
-4.414013792308782   0.03383065823998721   0.0550212298531107
-4.414013792308782   0.03383065823998721   0.0550212298531107
-3.6856136293617134   0.3012287388947614   0.20526926779263233
-3.6856136293617134   0.3012287388947614   0.20526926779263233
-3.6856136293617134   0.3012287388947614   0.20526926779263233
-3.6856136293617134   0.3012287388947614   0.20526926779263233
-5.505499479790603   -0.33860642573616473   -0.11222402439494994
-5.505499479790603   -0.33860642573616473   -0.11222402439494994
-5.505499479790603   -0.33860642573616473   -0.11222402439494994
-5.505499479790603   -0.33860642573616473   -0.11222402439494994
-5.5761670365096645   -0.1728273422358131   0.18550206012278259
-5.5761670365096645   -0.1728273422358131   0.18550206012278259
-5.5761670365096645   -0.1728273422358131   0.18550206012278259
-5.5761670365096645   -0.1728273422358131   0.18550206012278259
-3.8990799602722306   -0.09846328745423516   -0.07546768994905137
-3.8990799602722306   -0.09846328745423516   -0.07546768994905137
-3.8990799602722306   -0.09846328745423516   -0.07546768994905137
-3.8990799602722306   -0.09846328745423516   -0.07546768994905137
-4.469016320701557   -0.02060431538864116   0.03032672824797039
-4.469016320701557   -0.02060431538864116   0.03032672824797039
-4.469016320701557   -0.02060431538864116   0.03032672824797039
-4.469016320701557   -0.02060431538864116   0.03032672824797039
1.6284420659991914   0.0965960655858294   -0.2000790455923499
1.6284420659991914   0.0965960655858294   -0.2000790455923499
1.6284420659991914   0.0965960655858294   -0.2000790455923499
1.6284420659991914   0.0965960655858294   -0.2000790455923499
0.46791263520506576   0.12111609443984583   0.09616151687845449
0.46791263520506576   0.12111609443984583   0.09616151687845449
0.46791263520506576   0.12111609443984583   0.09616151687845449
0.46791263520506576   0.12111609443984583   0.09616151687845449
0.28139191333788555   -0.2428990327024077   -0.1762860594692861
0.28139191333788555   -0.2428990327024077   -0.1762860594692861
0.28139191333788555   -0.2428990327024077   -0.1762860594692861
0.28139191333788555   -0.2428990327024077   -0.1762860594692861
1.5822836831581215   0.2810053379166799   0.11572192076718521
1.5822836831581215   0.2810053379166799   0.11572192076718521
1.5822836831581215   0.2810053379166799   0.11572192076718521
1.5822836831581215   0.2810053379166799   0.11572192076718521
0.9319420704920707   0.046744555388235215   -0.021735770218123493
0.9319420704920707   0.046744555388235215   -0.021735770218123493
0.9319420704920707   0.046744555388235215   -0.021735770218123493
0.9319420704920707   0.046744555388235215   -0.021735770218123493
1.4647710342828781   -0.007610994798354198   -0.1832249908940115
1.4647710342828781   -0.007610994798354198   -0.1832249908940115
1.4647710342828781   -0.007610994798354198   -0.1832249908940115
1.4647710342828781   -0.007610994798354198   -0.1832249908940115
0.39523405260673933   0.042046790406235254   0.10797881376634395
0.39523405260673933   0.042046790406235254   0.10797881376634395
0.39523405260673933   0.042046790406235254   0.10797881376634395
0.39523405260673933   0.042046790406235254   0.10797881376634395
0.2109136541454849   -0.2775504840447005   -0.14954052443197668
0.2109136541454849   -0.2775504840447005   -0.14954052443197668
0.2109136541454849   -0.2775504840447005   -0.14954052443197668
0.2109136541454849   -0.2775504840447005   -0.14954052443197668
1.4556141832623162   0.23316437636761606   0.14840449020712973
1.4556141832623162   0.23316437636761606   0.14840449020712973
1.4556141832623162   0.23316437636761606   0.14840449020712973
1.4556141832623162   0.23316437636761606   0.14840449020712973
0.8429576817933438   -0.007274983652946376   -0.056943473057608544
0.8429576817933438   -0.007274983652946376   -0.056943473057608544
0.8429576817933438   -0.007274983652946376   -0.056943473057608544
0.8429576817933438   -0.007274983652946376   -0.056943473057608544
1.3388446141357795   -0.052093319143198535   -0.15018565991476146
1.3388446141357795   -0.052093319143198535   -0.15018565991476146
1.3388446141357795   -0.052093319143198535   -0.15018565991476146
1.3388446141357795   -0.052093319143198535   -0.15018565991476146
0.3227888646685852   0.002812852862674589   0.1294721912761533
0.3227888646685852   0.002812852862674589   0.1294721912761533
0.3227888646685852   0.002812852862674589   0.1294721912761533
0.3227888646685852   0.002812852862674589   0.1294721912761533
0.14784295855637797   -0.319844451444802   -0.12446807916465444
0.14784295855637797   -0.319844451444802   -0.12446807916465444
0.14784295855637797   -0.319844451444802   -0.12446807916465444
0.14784295855637797   -0.319844451444802   -0.12446807916465444
1.298903736718285   0.15629514773974162   0.16455538235038314
1.298903736718285   0.15629514773974162   0.16455538235038314
1.298903736718285   0.15629514773974162   0.16455538235038314
1.298903736718285   0.15629514773974162   0.16455538235038314
0.7212668118291342   -0.05559554871048547   -0.09975560554814877
0.7212668118291342   -0.05559554871048547   -0.09975560554814877
0.7212668118291342   -0.05559554871048547   -0.09975560554814877
0.7212668118291342   -0.05559554871048547   -0.09975560554814877
0.448388167467116   0.17830189560958842   -0.0586466229810408
0.448388167467116   0.17830189560958842   -0.0586466229810408
0.448388167467116   0.17830189560958842   -0.0586466229810408
0.448388167467116   0.17830189560958842   -0.0586466229810408
-0.675900825882726   0.05888046798306479   0.023723599679132103
-0.675900825882726   0.05888046798306479   0.023723599679132103
-0.675900825882726   0.05888046798306479   0.023723599679132103
-0.675900825882726   0.05888046798306479   0.023723599679132103
-0.7959914176611782   -0.15539294700443185   -0.10265726812569849
-0.7959914176611782   -0.15539294700443185   -0.10265726812569849
-0.7959914176611782   -0.15539294700443185   -0.10265726812569849
-0.7959914176611782   -0.15539294700443185   -0.10265726812569849
0.4313130100153983   0.2215016818860993   0.10891870932977477
0.4313130100153983   0.2215016818860993   0.10891870932977477
0.4313130100153983   0.2215016818860993   0.10891870932977477
0.4313130100153983   0.2215016818860993   0.10891870932977477
-0.15190296958502475   0.07265207830641215   0.01807722399398111
-0.15190296958502475   0.07265207830641215   0.01807722399398111
-0.15190296958502475   0.07265207830641215   0.01807722399398111
-0.15190296958502475   0.07265207830641215   0.01807722399398111
0.3747331552193627   0.09065637053662896   -0.04313525330093526
0.3747331552193627   0.09065637053662896   -0.04313525330093526
0.3747331552193627   0.09065637053662896   -0.04313525330093526
0.3747331552193627   0.09065637053662896   -0.04313525330093526
-0.7425190898516993   -0.027655162641498338   0.03696658655876165
-0.7425190898516993   -0.027655162641498338   0.03696658655876165
-0.7425190898516993   -0.027655162641498338   0.03696658655876165
-0.7425190898516993   -0.027655162641498338   0.03696658655876165
-0.8590587911089771   -0.22590990718791154   -0.08024072370467283
-0.8590587911089771   -0.22590990718791154   -0.08024072370467283
-0.8590587911089771   -0.22590990718791154   -0.08024072370467283
-0.8590587911089771   -0.22590990718791154   -0.08024072370467283
0.3485601821615818   0.14242245833978504   0.11871917326402626
0.3485601821615818   0.14242245833978504   0.11871917326402626
0.3485601821615818   0.14242245833978504   0.11871917326402626
0.3485601821615818   0.14242245833978504   0.11871917326402626
-0.22972166245255757   -0.003210540127340296   -0.01825258684209151
-0.22972166245255757   -0.003210540127340296   -0.01825258684209151
-0.22972166245255757   -0.003210540127340296   -0.01825258684209151
-0.22972166245255757   -0.003210540127340296   -0.01825258684209151
0.29366934404197387   0.015017793986951765   -0.02833035298118451
0.29366934404197387   0.015017793986951765   -0.02833035298118451
0.29366934404197387   0.015017793986951765   -0.02833035298118451
0.29366934404197387   0.015017793986951765   -0.02833035298118451
-0.8081869867760414   -0.10252427662174607   0.050732667393871125
-0.8081869867760414   -0.10252427662174607   0.050732667393871125
-0.8081869867760414   -0.10252427662174607   0.050732667393871125
-0.8081869867760414   -0.10252427662174607   0.050732667393871125
-0.921657273936623   -0.29608987539854925   -0.05997345426297486
-0.921657273936623   -0.29608987539854925   -0.05997345426297486
-0.921657273936623   -0.29608987539854925   -0.05997345426297486
-0.921657273936623   -0.29608987539854925   -0.05997345426297486
0.2761102031398538   0.06454150325837599   0.1324821890495504
0.2761102031398538   0.06454150325837599   0.1324821890495504
0.2761102031398538   0.06454150325837599   0.1324821890495504
0.2761102031398538   0.06454150325837599   0.1324821890495504
-0.2972666348332055   -0.07141245899240359   -0.052636225907233145
-0.2972666348332055   -0.07141245899240359   -0.052636225907233145
-0.2972666348332055   -0.07141245899240359   -0.052636225907233145
-0.2972666348332055   -0.07141245899240359   -0.052636225907233145
-0.6415244166521827   0.2459761602816066   0.00850995353330676
-0.6415244166521827   0.2459761602816066   0.00850995353330676
-0.6415244166521827   0.2459761602816066   0.00850995353330676
-0.6415244166521827   0.2459761602816066   0.00850995353330676
-1.8050663728138507   -0.020281472162035796   -0.04930472937510039
-1.8050663728138507   -0.020281472162035796   -0.04930472937510039
-1.8050663728138507   -0.020281472162035796   -0.04930472937510039
-1.8050663728138507   -0.020281472162035796   -0.04930472937510039
-1.8617883028311446   -0.07492357194284649   -0.02931503106570882
-1.8617883028311446   -0.07492357194284649   -0.02931503106570882
-1.8617883028311446   -0.07492357194284649   -0.02931503106570882
-1.8617883028311446   -0.07492357194284649   -0.02931503106570882
-0.7083179117676416   0.1457110211933274   0.034606293144202285
-0.7083179117676416   0.1457110211933274   0.034606293144202285
-0.7083179117676416   0.1457110211933274   0.034606293144202285
-0.7083179117676416   0.1457110211933274   0.034606293144202285
-1.251234230413536   0.07262665172025995   0.018832115774871913
-1.251234230413536   0.07262665172025995   0.018832115774871913
-1.251234230413536   0.07262665172025995   0.018832115774871913
-1.251234230413536   0.07262665172025995   0.018832115774871913
-0.7048542743748344   0.168211116851542   0.029424384450046415
-0.7048542743748344   0.168211116851542   0.029424384450046415
-0.7048542743748344   0.168211116851542   0.029424384450046415
-0.7048542743748344   0.168211116851542   0.029424384450046415
-1.8679651918483058   -0.10013691922543166   -0.034986128868929114
-1.8679651918483058   -0.10013691922543166   -0.034986128868929114
-1.8679651918483058   -0.10013691922543166   -0.034986128868929114
-1.8679651918483058   -0.10013691922543166   -0.034986128868929114
-1.9245647885429462   -0.1519044342936926   -0.008974157987401754
-1.9245647885429462   -0.1519044342936926   -0.008974157987401754
-1.9245647885429462   -0.1519044342936926   -0.008974157987401754
-1.9245647885429462   -0.1519044342936926   -0.008974157987401754
-0.7749016881845916   0.06551148692405118   0.04912339680529156
-0.7749016881845916   0.06551148692405118   0.04912339680529156
-0.7749016881845916   0.06551148692405118   0.04912339680529156
-0.7749016881845916   0.06551148692405118   0.04912339680529156
-1.31675046380165   -0.0004399924380741327   -0.013768312658232973
-1.31675046380165   -0.0004399924380741327   -0.013768312658232973
-1.31675046380165   -0.0004399924380741327   -0.013768312658232973
-1.31675046380165   -0.0004399924380741327   -0.013768312658232973
-0.7702598136403972   0.09026686964530564   0.047577386805040506
-0.7702598136403972   0.09026686964530564   0.047577386805040506
-0.7702598136403972   0.09026686964530564   0.047577386805040506
-0.7702598136403972   0.09026686964530564   0.047577386805040506
-1.9330671431407906   -0.18052029706861494   -0.022870068201717247
-1.9330671431407906   -0.18052029706861494   -0.022870068201717247
-1.9330671431407906   -0.18052029706861494   -0.022870068201717247
-1.9330671431407906   -0.18052029706861494   -0.022870068201717247
-1.986166304748243   -0.22626355433382733   0.010685688510119709
-1.986166304748243   -0.22626355433382733   0.010685688510119709
-1.986166304748243   -0.22626355433382733   0.010685688510119709
-1.986166304748243   -0.22626355433382733   0.010685688510119709
-0.8403087379831307   -0.011778185309054279   0.06245753541499162
-0.8403087379831307   -0.011778185309054279   0.06245753541499162
-0.8403087379831307   -0.011778185309054279   0.06245753541499162
-0.8403087379831307   -0.011778185309054279   0.06245753541499162
-1.3856588060937296   -0.07369743859137554   -0.049150334443860764
-1.3856588060937296   -0.07369743859137554   -0.049150334443860764
-1.3856588060937296   -0.07369743859137554   -0.049150334443860764
-1.3856588060937296   -0.07369743859137554   -0.049150334443860764
-1.7136993553377486   0.30996784418486223   0.07728104165851213
-1.7136993553377486   0.30996784418486223   0.07728104165851213
-1.7136993553377486   0.30996784418486223   0.07728104165851213
-1.7136993553377486   0.30996784418486223   0.07728104165851213
-2.90836670823337   -0.08489012246733396   -0.11299087556630188
-2.90836670823337   -0.08489012246733396   -0.11299087556630188
-2.90836670823337   -0.08489012246733396   -0.11299087556630188
-2.90836670823337   -0.08489012246733396   -0.11299087556630188
-2.914022747645075   -0.0036755479002497093   0.04852030946661201
-2.914022747645075   -0.0036755479002497093   0.04852030946661201
-2.914022747645075   -0.0036755479002497093   0.04852030946661201
-2.914022747645075   -0.0036755479002497093   0.04852030946661201
-1.833178888620179   0.07473283845851292   -0.03592437041225631
-1.833178888620179   0.07473283845851292   -0.03592437041225631
-1.833178888620179   0.07473283845851292   -0.03592437041225631
-1.833178888620179   0.07473283845851292   -0.03592437041225631
-2.330533793083814   0.07394963209202543   0.024958695120523094
-2.330533793083814   0.07394963209202543   0.024958695120523094
-2.330533793083814   0.07394963209202543   0.024958695120523094
-2.330533793083814   0.07394963209202543   0.024958695120523094
-1.7744493618339838   0.23418857313676678   0.0982675288404811
-1.7744493618339838   0.23418857313676678   0.0982675288404811
-1.7744493618339838   0.23418857313676678   0.0982675288404811
-1.7744493618339838   0.23418857313676678   0.0982675288404811
-2.9779768684348524   -0.1683558765820889   -0.10656996580046889
-2.9779768684348524   -0.1683558765820889   -0.10656996580046889
-2.9779768684348524   -0.1683558765820889   -0.10656996580046889
-2.9779768684348524   -0.1683558765820889   -0.10656996580046889
-2.9912727958722   -0.07953401841353591   0.0594988947321258
-2.9912727958722   -0.07953401841353591   0.0594988947321258
-2.9912727958722   -0.07953401841353591   0.0594988947321258
-2.9912727958722   -0.07953401841353591   0.0594988947321258
-1.896285387385083   0.0009509980328253897   -0.020432584524633937
-1.896285387385083   0.0009509980328253897   -0.020432584524633937
-1.896285387385083   0.0009509980328253897   -0.020432584524633937
-1.896285387385083   0.0009509980328253897   -0.020432584524633937
-2.386353495676752   0.0057756162748718864   -0.009244317767949317
-2.386353495676752   0.0057756162748718864   -0.009244317767949317
-2.386353495676752   0.0057756162748718864   -0.009244317767949317
-2.386353495676752   0.0057756162748718864   -0.009244317767949317
-1.835989960612749   0.1633515659715895   0.11864398139830182
-1.835989960612749   0.1633515659715895   0.11864398139830182
-1.835989960612749   0.1633515659715895   0.11864398139830182
-1.835989960612749   0.1633515659715895   0.11864398139830182
-3.054820772365824   -0.24518713607359527   -0.09258787007599624
-3.054820772365824   -0.24518713607359527   -0.09258787007599624
-3.054820772365824   -0.24518713607359527   -0.09258787007599624
-3.054820772365824   -0.24518713607359527   -0.09258787007599624
-3.058077432274657   -0.15847872024051796   0.08072972909320815
-3.058077432274657   -0.15847872024051796   0.08072972909320815
-3.058077432274657   -0.15847872024051796   0.08072972909320815
-3.058077432274657   -0.15847872024051796   0.08072972909320815
-1.9601635106033226   -0.07781551068221032   -0.007748384416942741
-1.9601635106033226   -0.07781551068221032   -0.007748384416942741
-1.9601635106033226   -0.07781551068221032   -0.007748384416942741
-1.9601635106033226   -0.07781551068221032   -0.007748384416942741
-2.4689587493172427   -0.06826918602696169   -0.04642891845475004
-2.4689587493172427   -0.06826918602696169   -0.04642891845475004
-2.4689587493172427   -0.06826918602696169   -0.04642891845475004
-2.4689587493172427   -0.06826918602696169   -0.04642891845475004
-2.780416389251144   0.30491158846009137   0.13695900841746642
-2.780416389251144   0.30491158846009137   0.13695900841746642
-2.780416389251144   0.30491158846009137   0.13695900841746642
-2.780416389251144   0.30491158846009137   0.13695900841746642
-3.906632733132195   -0.1790632953247545   -0.17253941713813106
-3.906632733132195   -0.1790632953247545   -0.17253941713813106
-3.906632733132195   -0.1790632953247545   -0.17253941713813106
-3.906632733132195   -0.1790632953247545   -0.17253941713813106
-3.9356454500079527   0.05311800660756383   0.1440179802450648
-3.9356454500079527   0.05311800660756383   0.1440179802450648
-3.9356454500079527   0.05311800660756383   0.1440179802450648
-3.9356454500079527   0.05311800660756383   0.1440179802450648
-2.9461302495594013   -0.010105990556076083   -0.10558675744925655
-2.9461302495594013   -0.010105990556076083   -0.10558675744925655
-2.9461302495594013   -0.010105990556076083   -0.10558675744925655
-2.9461302495594013   -0.010105990556076083   -0.10558675744925655
-3.2466747294304765   0.07386015645639155   0.07806689967785715
-3.2466747294304765   0.07386015645639155   0.07806689967785715
-3.2466747294304765   0.07386015645639155   0.07806689967785715
-3.2466747294304765   0.07386015645639155   0.07806689967785715
-2.8352397338010906   0.2767895999643064   0.16197023082191614
-2.8352397338010906   0.2767895999643064   0.16197023082191614
-2.8352397338010906   0.2767895999643064   0.16197023082191614
-2.8352397338010906   0.2767895999643064   0.16197023082191614
-4.05208404775114   -0.23932566589769488   -0.14573133596561255
-4.05208404775114   -0.23932566589769488   -0.14573133596561255
-4.05208404775114   -0.23932566589769488   -0.14573133596561255
-4.05208404775114   -0.23932566589769488   -0.14573133596561255
-4.055814961130539   0.010579661658151718   0.18402189391656765
-4.055814961130539   0.010579661658151718   0.18402189391656765
-4.055814961130539   0.010579661658151718   0.18402189391656765
-4.055814961130539   0.010579661658151718   0.18402189391656765
-3.015659766836007   -0.05127884028018492   -0.09069113822031974
-3.015659766836007   -0.05127884028018492   -0.09069113822031974
-3.015659766836007   -0.05127884028018492   -0.09069113822031974
-3.015659766836007   -0.05127884028018492   -0.09069113822031974
-3.399693656193874   0.023466301482417462   0.02739779575760501
-3.399693656193874   0.023466301482417462   0.02739779575760501
-3.399693656193874   0.023466301482417462   0.02739779575760501
-3.399693656193874   0.023466301482417462   0.02739779575760501
-2.9000232916240227   0.24348008024000478   0.19273231731943957
-2.9000232916240227   0.24348008024000478   0.19273231731943957
-2.9000232916240227   0.24348008024000478   0.19273231731943957
-2.9000232916240227   0.24348008024000478   0.19273231731943957
-4.176726098388039   -0.28945392090757016   -0.12050020980521295
-4.176726098388039   -0.28945392090757016   -0.12050020980521295
-4.176726098388039   -0.28945392090757016   -0.12050020980521295
-4.176726098388039   -0.28945392090757016   -0.12050020980521295
-4.22211604668704   -0.10993976799251248   0.1901859937744934
-4.22211604668704   -0.10993976799251248   0.1901859937744934
-4.22211604668704   -0.10993976799251248   0.1901859937744934
-4.22211604668704   -0.10993976799251248   0.1901859937744934
-3.0873661067251716   -0.145110711388997   -0.07908165201094608
-3.0873661067251716   -0.145110711388997   -0.07908165201094608
-3.0873661067251716   -0.145110711388997   -0.07908165201094608
-3.0873661067251716   -0.145110711388997   -0.07908165201094608
-3.450438321130753   -0.029949190850031226   -0.00292862737816707
-3.450438321130753   -0.029949190850031226   -0.00292862737816707
-3.450438321130753   -0.029949190850031226   -0.00292862737816707
-3.450438321130753   -0.029949190850031226   -0.00292862737816707
0.26800978230854655   0.022121286549622782   -0.19890966967614154
0.26800978230854655   0.022121286549622782   -0.19890966967614154
0.26800978230854655   0.022121286549622782   -0.19890966967614154
0.26800978230854655   0.022121286549622782   -0.19890966967614154
-0.3389344158337128   0.14975790577530187   0.1020948265748283
-0.3389344158337128   0.14975790577530187   0.1020948265748283
-0.3389344158337128   0.14975790577530187   0.1020948265748283
-0.3389344158337128   0.14975790577530187   0.1020948265748283
-0.5009968268685937   -0.19079569492390502   -0.1600027334090245
-0.5009968268685937   -0.19079569492390502   -0.1600027334090245
-0.5009968268685937   -0.19079569492390502   -0.1600027334090245
-0.5009968268685937   -0.19079569492390502   -0.1600027334090245
0.24345046230888207   0.20855010939991916   0.12556165032309102
0.24345046230888207   0.20855010939991916   0.12556165032309102
0.24345046230888207   0.20855010939991916   0.12556165032309102
0.24345046230888207   0.20855010939991916   0.12556165032309102
-0.08786074754322981   0.04573020826342759   0.01742705330747028
-0.08786074754322981   0.04573020826342759   0.01742705330747028
-0.08786074754322981   0.04573020826342759   0.01742705330747028
-0.08786074754322981   0.04573020826342759   0.01742705330747028
0.1273792880194117   -0.06864062300780618   -0.17760348871653558
0.1273792880194117   -0.06864062300780618   -0.17760348871653558
0.1273792880194117   -0.06864062300780618   -0.17760348871653558
0.1273792880194117   -0.06864062300780618   -0.17760348871653558
-0.3918357281806456   0.07948496188229799   0.11552210322451281
-0.3918357281806456   0.07948496188229799   0.11552210322451281
-0.3918357281806456   0.07948496188229799   0.11552210322451281
-0.3918357281806456   0.07948496188229799   0.11552210322451281
-0.5542802253151922   -0.22558550350952514   -0.1354505006011906
-0.5542802253151922   -0.22558550350952514   -0.1354505006011906
-0.5542802253151922   -0.22558550350952514   -0.1354505006011906
-0.5542802253151922   -0.22558550350952514   -0.1354505006011906
0.13347406561966718   0.1612178980639374   0.17198873986480553
0.13347406561966718   0.1612178980639374   0.17198873986480553
0.13347406561966718   0.1612178980639374   0.17198873986480553
0.13347406561966718   0.1612178980639374   0.17198873986480553
-0.17503119604496276   -0.006363326794063075   -0.022863879487114665
-0.17503119604496276   -0.006363326794063075   -0.022863879487114665
-0.17503119604496276   -0.006363326794063075   -0.022863879487114665
-0.17503119604496276   -0.006363326794063075   -0.022863879487114665
0.014779777574502592   -0.11394696939230466   -0.146317832904783
0.014779777574502592   -0.11394696939230466   -0.146317832904783
0.014779777574502592   -0.11394696939230466   -0.146317832904783
0.014779777574502592   -0.11394696939230466   -0.146317832904783
-0.44515227805627067   0.040013023160471936   0.14459070902341606
-0.44515227805627067   0.040013023160471936   0.14459070902341606
-0.44515227805627067   0.040013023160471936   0.14459070902341606
-0.44515227805627067   0.040013023160471936   0.14459070902341606
-0.6030970424087049   -0.27944749656052115   -0.11215706002394078
-0.6030970424087049   -0.27944749656052115   -0.11215706002394078
-0.6030970424087049   -0.27944749656052115   -0.11215706002394078
-0.6030970424087049   -0.27944749656052115   -0.11215706002394078
-0.019245046207070255   0.06174295697548753   0.19587776428367054
-0.019245046207070255   0.06174295697548753   0.19587776428367054
-0.019245046207070255   0.06174295697548753   0.19587776428367054
-0.019245046207070255   0.06174295697548753   0.19587776428367054
-0.26779468649709914   -0.05897760104866016   -0.06915884584370312
-0.26779468649709914   -0.05897760104866016   -0.06915884584370312
-0.26779468649709914   -0.05897760104866016   -0.06915884584370312
-0.26779468649709914   -0.05897760104866016   -0.06915884584370312
-0.3859856014004781   0.09619846153910344   -0.07960165702279969
-0.3859856014004781   0.09619846153910344   -0.07960165702279969
-0.3859856014004781   0.09619846153910344   -0.07960165702279969
-0.3859856014004781   0.09619846153910344   -0.07960165702279969
-0.956249861179733   0.04014337205035043   0.02683521942425217
-0.956249861179733   0.04014337205035043   0.02683521942425217
-0.956249861179733   0.04014337205035043   0.02683521942425217
-0.956249861179733   0.04014337205035043   0.02683521942425217
-1.0396391804157294   -0.11107555315718495   -0.08301527545551857
-1.0396391804157294   -0.11107555315718495   -0.08301527545551857
-1.0396391804157294   -0.11107555315718495   -0.08301527545551857
-1.0396391804157294   -0.11107555315718495   -0.08301527545551857
-0.39644626766802127   0.09276124384752185   0.0791931238224106
-0.39644626766802127   0.09276124384752185   0.0791931238224106
-0.39644626766802127   0.09276124384752185   0.0791931238224106
-0.39644626766802127   0.09276124384752185   0.0791931238224106
-0.6930797922435613   0.027612944734379474   0.014565417658297088
-0.6930797922435613   0.027612944734379474   0.014565417658297088
-0.6930797922435613   0.027612944734379474   0.014565417658297088
-0.6930797922435613   0.027612944734379474   0.014565417658297088
-0.44149182822978195   0.012085237786112077   -0.0653586729249811
-0.44149182822978195   0.012085237786112077   -0.0653586729249811
-0.44149182822978195   0.012085237786112077   -0.0653586729249811
-0.44149182822978195   0.012085237786112077   -0.0653586729249811
-1.0002328781071472   -0.03603880534895337   0.03897948827916066
-1.0002328781071472   -0.03603880534895337   0.03897948827916066
-1.0002328781071472   -0.03603880534895337   0.03897948827916066
-1.0002328781071472   -0.03603880534895337   0.03897948827916066
-1.0810708068386374   -0.17946887393242655   -0.06110649909681238
-1.0810708068386374   -0.17946887393242655   -0.06110649909681238
-1.0810708068386374   -0.17946887393242655   -0.06110649909681238
-1.0810708068386374   -0.17946887393242655   -0.06110649909681238
-0.4607754894515727   0.017208763844591662   0.08927891136278612
-0.4607754894515727   0.017208763844591662   0.08927891136278612
-0.4607754894515727   0.017208763844591662   0.08927891136278612
-0.4607754894515727   0.017208763844591662   0.08927891136278612
-0.7454309728979863   -0.040894350266862875   -0.019756942328556956
-0.7454309728979863   -0.040894350266862875   -0.019756942328556956
-0.7454309728979863   -0.040894350266862875   -0.019756942328556956
-0.7454309728979863   -0.040894350266862875   -0.019756942328556956
-0.5041593508187856   -0.06162634102902527   -0.04880529059965775
-0.5041593508187856   -0.06162634102902527   -0.04880529059965775
-0.5041593508187856   -0.06162634102902527   -0.04880529059965775
-0.5041593508187856   -0.06162634102902527   -0.04880529059965775
-1.0437330615744138   -0.10667988516179806   0.05279323845367842
-1.0437330615744138   -0.10667988516179806   0.05279323845367842
-1.0437330615744138   -0.10667988516179806   0.05279323845367842
-1.0437330615744138   -0.10667988516179806   0.05279323845367842
-1.122775873998329   -0.2500710426296021   -0.04169446325215756
-1.122775873998329   -0.2500710426296021   -0.04169446325215756
-1.122775873998329   -0.2500710426296021   -0.04169446325215756
-1.122775873998329   -0.2500710426296021   -0.04169446325215756
-0.5145420856394785   -0.05961659634417795   0.11078682360584453
-0.5145420856394785   -0.05961659634417795   0.11078682360584453
-0.5145420856394785   -0.05961659634417795   0.11078682360584453
-0.5145420856394785   -0.05961659634417795   0.11078682360584453
-0.7978745487744854   -0.10892247126091291   -0.05473429068804553
-0.7978745487744854   -0.10892247126091291   -0.05473429068804553
-0.7978745487744854   -0.10892247126091291   -0.05473429068804553
-0.7978745487744854   -0.10892247126091291   -0.05473429068804553
-0.9391283051010573   0.1610703013576184   -0.008483929489622677
-0.9391283051010573   0.1610703013576184   -0.008483929489622677
-0.9391283051010573   0.1610703013576184   -0.008483929489622677
-0.9391283051010573   0.1610703013576184   -0.008483929489622677
-1.5688966929154484   -0.053244352491646774   -0.0440296645644772
-1.5688966929154484   -0.053244352491646774   -0.0440296645644772
-1.5688966929154484   -0.053244352491646774   -0.0440296645644772
-1.5688966929154484   -0.053244352491646774   -0.0440296645644772
-1.5851955374099316   -0.0383756418087009   -0.008949396223649556
-1.5851955374099316   -0.0383756418087009   -0.008949396223649556
-1.5851955374099316   -0.0383756418087009   -0.008949396223649556
-1.5851955374099316   -0.0383756418087009   -0.008949396223649556
-0.9968856828140248   0.007497732257080669   0.012178927138739852
-0.9968856828140248   0.007497732257080669   0.012178927138739852
-0.9968856828140248   0.007497732257080669   0.012178927138739852
-0.9968856828140248   0.007497732257080669   0.012178927138739852
-1.2699004732670591   0.01804927778041332   0.004692280788450853
-1.2699004732670591   0.01804927778041332   0.004692280788450853
-1.2699004732670591   0.01804927778041332   0.004692280788450853
-1.2699004732670591   0.01804927778041332   0.004692280788450853
-0.9810636879992608   0.08666494501007593   0.012121688459564225
-0.9810636879992608   0.08666494501007593   0.012121688459564225
-0.9810636879992608   0.08666494501007593   0.012121688459564225
-0.9810636879992608   0.08666494501007593   0.012121688459564225
-1.6064301764414957   -0.12295549877849674   -0.030542734411676133
-1.6064301764414957   -0.12295549877849674   -0.030542734411676133
-1.6064301764414957   -0.12295549877849674   -0.030542734411676133
-1.6064301764414957   -0.12295549877849674   -0.030542734411676133
-1.624014039499822   -0.11184308917800237   0.011462867610254245
-1.624014039499822   -0.11184308917800237   0.011462867610254245
-1.624014039499822   -0.11184308917800237   0.011462867610254245
-1.624014039499822   -0.11184308917800237   0.011462867610254245
-1.0408706168005037   -0.06469510370737527   0.025120680868805013
-1.0408706168005037   -0.06469510370737527   0.025120680868805013
-1.0408706168005037   -0.06469510370737527   0.025120680868805013
-1.0408706168005037   -0.06469510370737527   0.025120680868805013
-1.3120241275644116   -0.04876429324487641   -0.026837923866319086
-1.3120241275644116   -0.04876429324487641   -0.026837923866319086
-1.3120241275644116   -0.04876429324487641   -0.026837923866319086
-1.3120241275644116   -0.04876429324487641   -0.026837923866319086
-1.024522462127172   0.01182993573341215   0.030336414794676657
-1.024522462127172   0.01182993573341215   0.030336414794676657
-1.024522462127172   0.01182993573341215   0.030336414794676657
-1.024522462127172   0.01182993573341215   0.030336414794676657
-1.6468831136343018   -0.19488904807994042   -0.019836544160222812
-1.6468831136343018   -0.19488904807994042   -0.019836544160222812
-1.6468831136343018   -0.19488904807994042   -0.019836544160222812
-1.6468831136343018   -0.19488904807994042   -0.019836544160222812
-1.6618342772374481   -0.18237363267125592   0.031005837858423778
-1.6618342772374481   -0.18237363267125592   0.031005837858423778
-1.6618342772374481   -0.18237363267125592   0.031005837858423778
-1.6618342772374481   -0.18237363267125592   0.031005837858423778
-1.0830598957674957   -0.13287455281252514   0.03968893808491662
-1.0830598957674957   -0.13287455281252514   0.03968893808491662
-1.0830598957674957   -0.13287455281252514   0.03968893808491662
-1.0830598957674957   -0.13287455281252514   0.03968893808491662
-1.3573536969617774   -0.11602221850585787   -0.061093077828061074
-1.3573536969617774   -0.11602221850585787   -0.061093077828061074
-1.3573536969617774   -0.11602221850585787   -0.061093077828061074
-1.3573536969617774   -0.11602221850585787   -0.061093077828061074
-1.4896170344734039   0.23440236869062403   0.06472190646352172
-1.4896170344734039   0.23440236869062403   0.06472190646352172
-1.4896170344734039   0.23440236869062403   0.06472190646352172
-1.4896170344734039   0.23440236869062403   0.06472190646352172
-2.1564190708013005   -0.08806500183922855   -0.09897800743392265
-2.1564190708013005   -0.08806500183922855   -0.09897800743392265
-2.1564190708013005   -0.08806500183922855   -0.09897800743392265
-2.1564190708013005   -0.08806500183922855   -0.09897800743392265
-2.127010382656068   0.03666989223157474   0.06759239248894179
-2.127010382656068   0.03666989223157474   0.06759239248894179
-2.127010382656068   0.03666989223157474   0.06759239248894179
-2.127010382656068   0.03666989223157474   0.06759239248894179
-1.5910600864051738   -0.03236192520372516   -0.04428585780483796
-1.5910600864051738   -0.03236192520372516   -0.04428585780483796
-1.5910600864051738   -0.03236192520372516   -0.04428585780483796
-1.5910600864051738   -0.03236192520372516   -0.04428585780483796
-1.8348052557570316   0.03797840335201502   0.008506706115244442
-1.8348052557570316   0.03797840335201502   0.008506706115244442
-1.8348052557570316   0.03797840335201502   0.008506706115244442
-1.8348052557570316   0.03797840335201502   0.008506706115244442
-1.5265928710008405   0.1603104790562105   0.08537781495689307
-1.5265928710008405   0.1603104790562105   0.08537781495689307
-1.5265928710008405   0.1603104790562105   0.08537781495689307
-1.5265928710008405   0.1603104790562105   0.08537781495689307
-2.1993772968673113   -0.163902210835276   -0.09367007550045486
-2.1993772968673113   -0.163902210835276   -0.09367007550045486
-2.1993772968673113   -0.163902210835276   -0.09367007550045486
-2.1993772968673113   -0.163902210835276   -0.09367007550045486
-2.179093996759663   -0.03557151059058977   0.07976348173287028
-2.179093996759663   -0.03557151059058977   0.07976348173287028
-2.179093996759663   -0.03557151059058977   0.07976348173287028
-2.179093996759663   -0.03557151059058977   0.07976348173287028
-1.6295482973928332   -0.09789687682213316   -0.03015463421067087
-1.6295482973928332   -0.09789687682213316   -0.03015463421067087
-1.6295482973928332   -0.09789687682213316   -0.03015463421067087
-1.6295482973928332   -0.09789687682213316   -0.03015463421067087
-1.8702214171207647   -0.02642605597209069   -0.025676875874772492
-1.8702214171207647   -0.02642605597209069   -0.025676875874772492
-1.8702214171207647   -0.02642605597209069   -0.025676875874772492
-1.8702214171207647   -0.02642605597209069   -0.025676875874772492
-1.5643361023583664   0.09252438730918555   0.10548507683032768
-1.5643361023583664   0.09252438730918555   0.10548507683032768
-1.5643361023583664   0.09252438730918555   0.10548507683032768
-1.5643361023583664   0.09252438730918555   0.10548507683032768
-2.2505440997605124   -0.23223068268827807   -0.0808278611737163
-2.2505440997605124   -0.23223068268827807   -0.0808278611737163
-2.2505440997605124   -0.23223068268827807   -0.0808278611737163
-2.2505440997605124   -0.23223068268827807   -0.0808278611737163
-2.2214507509097277   -0.10822767663967658   0.10147802610200823
-2.2214507509097277   -0.10822767663967658   0.10147802610200823
-2.2214507509097277   -0.10822767663967658   0.10147802610200823
-2.2214507509097277   -0.10822767663967658   0.10147802610200823
-1.6681576582776956   -0.16489254711764217   -0.01809215289644152
-1.6681576582776956   -0.16489254711764217   -0.01809215289644152
-1.6681576582776956   -0.16489254711764217   -0.01809215289644152
-1.6681576582776956   -0.16489254711764217   -0.01809215289644152
-1.9233964124836367   -0.09193811587382739   -0.0606425212672123
-1.9233964124836367   -0.09193811587382739   -0.0606425212672123
-1.9233964124836367   -0.09193811587382739   -0.0606425212672123
-1.9233964124836367   -0.09193811587382739   -0.0606425212672123
-2.04266951402321   0.2538151557067537   0.12788961891054854
-2.04266951402321   0.2538151557067537   0.12788961891054854
-2.04266951402321   0.2538151557067537   0.12788961891054854
-2.04266951402321   0.2538151557067537   0.12788961891054854
-2.6203629426996167   -0.13038897748914463   -0.16641765500040773
-2.6203629426996167   -0.13038897748914463   -0.16641765500040773
-2.6203629426996167   -0.13038897748914463   -0.16641765500040773
-2.6203629426996167   -0.13038897748914463   -0.16641765500040773
-2.6221505189779797   0.1040012958349914   0.1409699439246595
-2.6221505189779797   0.1040012958349914   0.1409699439246595
-2.6221505189779797   0.1040012958349914   0.1409699439246595
-2.6221505189779797   0.1040012958349914   0.1409699439246595
-2.1833466436291378   -0.07555708209432349   -0.10186193805050994
-2.1833466436291378   -0.07555708209432349   -0.10186193805050994
-2.1833466436291378   -0.07555708209432349   -0.10186193805050994
-2.1833466436291378   -0.07555708209432349   -0.10186193805050994
-2.2716477825354096   0.06090876665298395   0.04328138715315438
-2.2716477825354096   0.06090876665298395   0.04328138715315438
-2.2716477825354096   0.06090876665298395   0.04328138715315438
-2.2716477825354096   0.06090876665298395   0.04328138715315438
-2.074588156764475   0.21549538527371392   0.15087802890476715
-2.074588156764475   0.21549538527371392   0.15087802890476715
-2.074588156764475   0.21549538527371392   0.15087802890476715
-2.074588156764475   0.21549538527371392   0.15087802890476715
-2.739088922425349   -0.19523108811576756   -0.14448968936139628
-2.739088922425349   -0.19523108811576756   -0.14448968936139628
-2.739088922425349   -0.19523108811576756   -0.14448968936139628
-2.739088922425349   -0.19523108811576756   -0.14448968936139628
-2.7169119079310153   0.06296104602132035   0.1817604343822153
-2.7169119079310153   0.06296104602132035   0.1817604343822153
-2.7169119079310153   0.06296104602132035   0.1817604343822153
-2.7169119079310153   0.06296104602132035   0.1817604343822153
-2.2284430944517664   -0.11320893705664575   -0.0893445802616198
-2.2284430944517664   -0.11320893705664575   -0.0893445802616198
-2.2284430944517664   -0.11320893705664575   -0.0893445802616198
-2.2284430944517664   -0.11320893705664575   -0.0893445802616198
-2.3841600370320473   0.01092535226542124   -0.003941596472532949
-2.3841600370320473   0.01092535226542124   -0.003941596472532949
-2.3841600370320473   0.01092535226542124   -0.003941596472532949
-2.3841600370320473   0.01092535226542124   -0.003941596472532949
-2.1150901421137527   0.18317963431888817   0.1810316100529147
-2.1150901421137527   0.18317963431888817   0.1810316100529147
-2.1150901421137527   0.18317963431888817   0.1810316100529147
-2.1150901421137527   0.18317963431888817   0.1810316100529147
-2.8386345141707783   -0.24179717925597805   -0.12209437153926957
-2.8386345141707783   -0.24179717925597805   -0.12209437153926957
-2.8386345141707783   -0.24179717925597805   -0.12209437153926957
-2.8386345141707783   -0.24179717925597805   -0.12209437153926957
-2.8572842708369772   -0.044814818574860804   0.19231597617154061
-2.8572842708369772   -0.044814818574860804   0.19231597617154061
-2.8572842708369772   -0.044814818574860804   0.19231597617154061
-2.8572842708369772   -0.044814818574860804   0.19231597617154061
-2.2737032037249123   -0.19083197432056814   -0.07717994029305435
-2.2737032037249123   -0.19083197432056814   -0.07717994029305435
-2.2737032037249123   -0.19083197432056814   -0.07717994029305435
-2.2737032037249123   -0.19083197432056814   -0.07717994029305435
-2.4278018502825462   -0.03845007479492124   -0.03761042155782507
-2.4278018502825462   -0.03845007479492124   -0.03761042155782507
-2.4278018502825462   -0.03845007479492124   -0.03761042155782507
-2.4278018502825462   -0.03845007479492124   -0.03761042155782507
-1.1531826224876438   -0.07563093601425996   -0.21060117571904996
-1.1531826224876438   -0.07563093601425996   -0.21060117571904996
-1.1531826224876438   -0.07563093601425996   -0.21060117571904996
-1.1531826224876438   -0.07563093601425996   -0.21060117571904996
-1.126310124978703   0.16228722976037147   0.09498728227435041
-1.126310124978703   0.16228722976037147   0.09498728227435041
-1.126310124978703   0.16228722976037147   0.09498728227435041
-1.126310124978703   0.16228722976037147   0.09498728227435041
-1.264825095647826   -0.14669198996317875   -0.14237328853569048
-1.264825095647826   -0.14669198996317875   -0.14237328853569048
-1.264825095647826   -0.14669198996317875   -0.14237328853569048
-1.264825095647826   -0.14669198996317875   -0.14237328853569048
-1.1759569070045148   0.08217786031417582   0.14339503572732015
-1.1759569070045148   0.08217786031417582   0.14339503572732015
-1.1759569070045148   0.08217786031417582   0.14339503572732015
-1.1759569070045148   0.08217786031417582   0.14339503572732015
-1.120906386328417   0.026716352887850486   0.09689118513105005
-1.120906386328417   0.026716352887850486   0.09689118513105005
-1.120906386328417   0.026716352887850486   0.09689118513105005
-1.120906386328417   0.026716352887850486   0.09689118513105005
-1.2879133085693482   -0.15806399766406462   -0.1761451141185977
-1.2879133085693482   -0.15806399766406462   -0.1761451141185977
-1.2879133085693482   -0.15806399766406462   -0.1761451141185977
-1.2879133085693482   -0.15806399766406462   -0.1761451141185977
-1.1669388599290789   0.07947970216897676   0.12088619792588907
-1.1669388599290789   0.07947970216897676   0.12088619792588907
-1.1669388599290789   0.07947970216897676   0.12088619792588907
-1.1669388599290789   0.07947970216897676   0.12088619792588907
-1.3060916002601466   -0.18514395395682906   -0.12025485435921282
-1.3060916002601466   -0.18514395395682906   -0.12025485435921282
-1.3060916002601466   -0.18514395395682906   -0.12025485435921282
-1.3060916002601466   -0.18514395395682906   -0.12025485435921282
-1.2834361340339218   0.02966502511018551   0.265835905390955
-1.2834361340339218   0.02966502511018551   0.265835905390955
-1.2834361340339218   0.02966502511018551   0.265835905390955
-1.2834361340339218   0.02966502511018551   0.265835905390955
-1.2204203905899533   -0.03941224173348257   0.03843636683152467
-1.2204203905899533   -0.03941224173348257   0.03843636683152467
-1.2204203905899533   -0.03941224173348257   0.03843636683152467
-1.2204203905899533   -0.03941224173348257   0.03843636683152467
-1.4118449337332106   -0.20962688614886005   -0.1369161818464267
-1.4118449337332106   -0.20962688614886005   -0.1369161818464267
-1.4118449337332106   -0.20962688614886005   -0.1369161818464267
-1.4118449337332106   -0.20962688614886005   -0.1369161818464267
-1.210749271075366   0.021081486787731585   0.15023135082012956
-1.210749271075366   0.021081486787731585   0.15023135082012956
-1.210749271075366   0.021081486787731585   0.15023135082012956
-1.210749271075366   0.021081486787731585   0.15023135082012956
-1.3397891677623994   -0.2604263280232221   -0.09442453915454846
-1.3397891677623994   -0.2604263280232221   -0.09442453915454846
-1.3397891677623994   -0.2604263280232221   -0.09442453915454846
-1.3397891677623994   -0.2604263280232221   -0.09442453915454846
-1.4507012793561742   -0.14385840991498594   0.24890554472445092
-1.4507012793561742   -0.14385840991498594   0.24890554472445092
-1.4507012793561742   -0.14385840991498594   0.24890554472445092
-1.4507012793561742   -0.14385840991498594   0.24890554472445092
-1.3057183272862294   -0.11767623581520434   -0.053795666250196196
-1.3057183272862294   -0.11767623581520434   -0.053795666250196196
-1.3057183272862294   -0.11767623581520434   -0.053795666250196196
-1.3057183272862294   -0.11767623581520434   -0.053795666250196196
-1.2069732445985069   -0.037147138109263456   -0.10889394795504338
-1.2069732445985069   -0.037147138109263456   -0.10889394795504338
-1.2069732445985069   -0.037147138109263456   -0.10889394795504338
-1.2069732445985069   -0.037147138109263456   -0.10889394795504338
-1.2120835904852996   -0.14846547407363025   -0.0062627204623104706
-1.2120835904852996   -0.14846547407363025   -0.0062627204623104706
-1.2120835904852996   -0.14846547407363025   -0.0062627204623104706
-1.2120835904852996   -0.14846547407363025   -0.0062627204623104706
-1.2200567843743675   -0.09853172102414415   -0.053661183829573286
-1.2200567843743675   -0.09853172102414415   -0.053661183829573286
-1.2200567843743675   -0.09853172102414415   -0.053661183829573286
-1.2200567843743675   -0.09853172102414415   -0.053661183829573286
-1.2483493613178744   -0.20400716325296142   -0.0026794435961504538
-1.2483493613178744   -0.20400716325296142   -0.0026794435961504538
-1.2483493613178744   -0.20400716325296142   -0.0026794435961504538
-1.2483493613178744   -0.20400716325296142   -0.0026794435961504538
-1.2114372770729673   -0.1273140942529784   -0.005043692219853055
-1.2114372770729673   -0.1273140942529784   -0.005043692219853055
-1.2114372770729673   -0.1273140942529784   -0.005043692219853055
-1.2114372770729673   -0.1273140942529784   -0.005043692219853055
-1.2482900085253825   -0.11227008138813682   -0.09411976149852135
-1.2482900085253825   -0.11227008138813682   -0.09411976149852135
-1.2482900085253825   -0.11227008138813682   -0.09411976149852135
-1.2482900085253825   -0.11227008138813682   -0.09411976149852135
-1.2278946949082754   -0.1980473606303909   0.006664903107103005
-1.2278946949082754   -0.1980473606303909   0.006664903107103005
-1.2278946949082754   -0.1980473606303909   0.006664903107103005
-1.2278946949082754   -0.1980473606303909   0.006664903107103005
-1.2397771050646162   -0.16332464662407004   -0.03438652536735605
-1.2397771050646162   -0.16332464662407004   -0.03438652536735605
-1.2397771050646162   -0.16332464662407004   -0.03438652536735605
-1.2397771050646162   -0.16332464662407004   -0.03438652536735605
-1.2924432912397554   -0.2642055287033705   0.02704826548928431
-1.2924432912397554   -0.2642055287033705   0.02704826548928431
-1.2924432912397554   -0.2642055287033705   0.02704826548928431
-1.2924432912397554   -0.2642055287033705   0.02704826548928431
-1.2383566584665424   -0.1795261569044222   -0.03487138496342079
-1.2383566584665424   -0.1795261569044222   -0.03487138496342079
-1.2383566584665424   -0.1795261569044222   -0.03487138496342079
-1.2383566584665424   -0.1795261569044222   -0.03487138496342079
-1.295255754145237   -0.18148915576251795   -0.06973042197897501
-1.295255754145237   -0.18148915576251795   -0.06973042197897501
-1.295255754145237   -0.18148915576251795   -0.06973042197897501
-1.295255754145237   -0.18148915576251795   -0.06973042197897501
-1.2469235033654495   -0.2559998807712422   0.022556717275619656
-1.2469235033654495   -0.2559998807712422   0.022556717275619656
-1.2469235033654495   -0.2559998807712422   0.022556717275619656
-1.2469235033654495   -0.2559998807712422   0.022556717275619656
-1.257375001814996   -0.23339622793009432   -0.01527841814809689
-1.257375001814996   -0.23339622793009432   -0.01527841814809689
-1.257375001814996   -0.23339622793009432   -0.01527841814809689
-1.257375001814996   -0.23339622793009432   -0.01527841814809689
-1.3260764799369522   -0.34103086645067116   0.05474343840013179
-1.3260764799369522   -0.34103086645067116   0.05474343840013179
-1.3260764799369522   -0.34103086645067116   0.05474343840013179
-1.3260764799369522   -0.34103086645067116   0.05474343840013179
-1.2757877560807418   -0.24295362960353017   -0.07296904919745989
-1.2757877560807418   -0.24295362960353017   -0.07296904919745989
-1.2757877560807418   -0.24295362960353017   -0.07296904919745989
-1.2757877560807418   -0.24295362960353017   -0.07296904919745989
-1.179209547238334   0.029522844913712598   -0.019880823214794854
-1.179209547238334   0.029522844913712598   -0.019880823214794854
-1.179209547238334   0.029522844913712598   -0.019880823214794854
-1.179209547238334   0.029522844913712598   -0.019880823214794854
-1.3246719666899238   -0.25136810787898656   -0.06323954489094018
-1.3246719666899238   -0.25136810787898656   -0.06323954489094018
-1.3246719666899238   -0.25136810787898656   -0.06323954489094018
-1.3246719666899238   -0.25136810787898656   -0.06323954489094018
-1.2698086416519558   -0.046078418438482566   0.017221132498854895
-1.2698086416519558   -0.046078418438482566   0.017221132498854895
-1.2698086416519558   -0.046078418438482566   0.017221132498854895
-1.2698086416519558   -0.046078418438482566   0.017221132498854895
-1.2522544877531814   -0.273814680538881   -0.03936674120893679
-1.2522544877531814   -0.273814680538881   -0.03936674120893679
-1.2522544877531814   -0.273814680538881   -0.03936674120893679
-1.2522544877531814   -0.273814680538881   -0.03936674120893679
-1.2556146302472462   -0.13969428668769662   -0.028854360032559173
-1.2556146302472462   -0.13969428668769662   -0.028854360032559173
-1.2556146302472462   -0.13969428668769662   -0.028854360032559173
-1.2556146302472462   -0.13969428668769662   -0.028854360032559173
-1.1966110847922091   -0.03489667912905378   -6.772781387098109e-05
-1.1966110847922091   -0.03489667912905378   -6.772781387098109e-05
-1.1966110847922091   -0.03489667912905378   -6.772781387098109e-05
-1.1966110847922091   -0.03489667912905378   -6.772781387098109e-05
-1.332497944751674   -0.29204231998703994   -0.05026148145117766
-1.332497944751674   -0.29204231998703994   -0.05026148145117766
-1.332497944751674   -0.29204231998703994   -0.05026148145117766
-1.332497944751674   -0.29204231998703994   -0.05026148145117766
-1.2837727390222733   -0.11102468099991294   0.03637491662788598
-1.2837727390222733   -0.11102468099991294   0.03637491662788598
-1.2837727390222733   -0.11102468099991294   0.03637491662788598
-1.2837727390222733   -0.11102468099991294   0.03637491662788598
-1.2707055508259968   -0.32505467070665006   -0.027298730091693514
-1.2707055508259968   -0.32505467070665006   -0.027298730091693514
-1.2707055508259968   -0.32505467070665006   -0.027298730091693514
-1.2707055508259968   -0.32505467070665006   -0.027298730091693514
-1.2705224002429139   -0.18923090397644365   -0.05442585773917799
-1.2705224002429139   -0.18923090397644365   -0.05442585773917799
-1.2705224002429139   -0.18923090397644365   -0.05442585773917799
-1.2705224002429139   -0.18923090397644365   -0.05442585773917799
-1.2165579920515108   -0.10098319693043098   0.019367590004533232
-1.2165579920515108   -0.10098319693043098   0.019367590004533232
-1.2165579920515108   -0.10098319693043098   0.019367590004533232
-1.2165579920515108   -0.10098319693043098   0.019367590004533232
-1.3457900967743124   -0.3429659537536929   -0.041770599378530615
-1.3457900967743124   -0.3429659537536929   -0.041770599378530615
-1.3457900967743124   -0.3429659537536929   -0.041770599378530615
-1.3457900967743124   -0.3429659537536929   -0.041770599378530615
-1.2950157929835235   -0.17218809787034345   0.055077110011853045
-1.2950157929835235   -0.17218809787034345   0.055077110011853045
-1.2950157929835235   -0.17218809787034345   0.055077110011853045
-1.2950157929835235   -0.17218809787034345   0.055077110011853045
-1.2842327622073453   -0.3743819080845222   -0.008581539955415274
-1.2842327622073453   -0.3743819080845222   -0.008581539955415274
-1.2842327622073453   -0.3743819080845222   -0.008581539955415274
-1.2842327622073453   -0.3743819080845222   -0.008581539955415274
-1.2883853052399141   -0.24107183037246654   -0.08253226217736614
-1.2883853052399141   -0.24107183037246654   -0.08253226217736614
-1.2883853052399141   -0.24107183037246654   -0.08253226217736614
-1.2883853052399141   -0.24107183037246654   -0.08253226217736614
-1.2232191072830545   0.13075160100340766   0.06190504326101248
-1.2232191072830545   0.13075160100340766   0.06190504326101248
-1.2232191072830545   0.13075160100340766   0.06190504326101248
-1.2232191072830545   0.13075160100340766   0.06190504326101248
-1.4375410001547808   -0.18638477626671152   -0.08775857885444086
-1.4375410001547808   -0.18638477626671152   -0.08775857885444086
-1.4375410001547808   -0.18638477626671152   -0.08775857885444086
-1.4375410001547808   -0.18638477626671152   -0.08775857885444086
-1.3588709257245128   0.040168753003365365   0.08617837254995364
-1.3588709257245128   0.040168753003365365   0.08617837254995364
-1.3588709257245128   0.040168753003365365   0.08617837254995364
-1.3588709257245128   0.040168753003365365   0.08617837254995364
-1.3167622772455987   -0.2102012320679696   -0.05342423183987252
-1.3167622772455987   -0.2102012320679696   -0.05342423183987252
-1.3167622772455987   -0.2102012320679696   -0.05342423183987252
-1.3167622772455987   -0.2102012320679696   -0.05342423183987252
-1.3341207701294249   -0.054974698468559124   -0.017243293373704685
-1.3341207701294249   -0.054974698468559124   -0.017243293373704685
-1.3341207701294249   -0.054974698468559124   -0.017243293373704685
-1.3341207701294249   -0.054974698468559124   -0.017243293373704685
-1.235029742662645   0.06392396408927803   0.08111324491764899
-1.235029742662645   0.06392396408927803   0.08111324491764899
-1.235029742662645   0.06392396408927803   0.08111324491764899
-1.235029742662645   0.06392396408927803   0.08111324491764899
-1.4499382049136595   -0.24329118776007502   -0.08569808263233905
-1.4499382049136595   -0.24329118776007502   -0.08569808263233905
-1.4499382049136595   -0.24329118776007502   -0.08569808263233905
-1.4499382049136595   -0.24329118776007502   -0.08569808263233905
-1.3835644433097478   -0.023140199674749118   0.09764489744316403
-1.3835644433097478   -0.023140199674749118   0.09764489744316403
-1.3835644433097478   -0.023140199674749118   0.09764489744316403
-1.3835644433097478   -0.023140199674749118   0.09764489744316403
-1.3288294982363325   -0.25734519357635177   -0.04258836686597172
-1.3288294982363325   -0.25734519357635177   -0.04258836686597172
-1.3288294982363325   -0.25734519357635177   -0.04258836686597172
-1.3288294982363325   -0.25734519357635177   -0.04258836686597172
-1.3463150508994257   -0.10860584938540899   -0.04721092000222161
-1.3463150508994257   -0.10860584938540899   -0.04721092000222161
-1.3463150508994257   -0.10860584938540899   -0.04721092000222161
-1.3463150508994257   -0.10860584938540899   -0.04721092000222161
-1.2480026519195215   0.004402761119174703   0.09979791002255668
-1.2480026519195215   0.004402761119174703   0.09979791002255668
-1.2480026519195215   0.004402761119174703   0.09979791002255668
-1.2480026519195215   0.004402761119174703   0.09979791002255668
-1.4724847787175102   -0.2929816434612169   -0.07711533580918076
-1.4724847787175102   -0.2929816434612169   -0.07711533580918076
-1.4724847787175102   -0.2929816434612169   -0.07711533580918076
-1.4724847787175102   -0.2929816434612169   -0.07711533580918076
-1.399726387465048   -0.08378281126168524   0.11902525557069586
-1.399726387465048   -0.08378281126168524   0.11902525557069586
-1.399726387465048   -0.08378281126168524   0.11902525557069586
-1.399726387465048   -0.08378281126168524   0.11902525557069586
-1.339081105005496   -0.3046682814119376   -0.03276926655641589
-1.339081105005496   -0.3046682814119376   -0.03276926655641589
-1.339081105005496   -0.3046682814119376   -0.03276926655641589
-1.339081105005496   -0.3046682814119376   -0.03276926655641589
-1.367987151317794   -0.15902541475833606   -0.07619753352419883
-1.367987151317794   -0.15902541475833606   -0.07619753352419883
-1.367987151317794   -0.15902541475833606   -0.07619753352419883
-1.367987151317794   -0.15902541475833606   -0.07619753352419883
-1.3205453798269884   0.18752084615752052   0.12331390036028957
-1.3205453798269884   0.18752084615752052   0.12331390036028957
-1.3205453798269884   0.18752084615752052   0.12331390036028957
-1.3205453798269884   0.18752084615752052   0.12331390036028957
-1.4015484575418822   -0.11161390688016137   -0.12749274365423752
-1.4015484575418822   -0.11161390688016137   -0.12749274365423752
-1.4015484575418822   -0.11161390688016137   -0.12749274365423752
-1.4015484575418822   -0.11161390688016137   -0.12749274365423752
-1.3688617147848925   0.13510871718820433   0.1369821295180062
-1.3688617147848925   0.13510871718820433   0.1369821295180062
-1.3688617147848925   0.13510871718820433   0.1369821295180062
-1.3688617147848925   0.13510871718820433   0.1369821295180062
-1.4288811736359543   -0.14579537975548704   -0.0779087342484314
-1.4288811736359543   -0.14579537975548704   -0.0779087342484314
-1.4288811736359543   -0.14579537975548704   -0.0779087342484314
-1.4288811736359543   -0.14579537975548704   -0.0779087342484314
-1.3333531905202303   0.03408137331772271   0.004401134201347898
-1.3333531905202303   0.03408137331772271   0.004401134201347898
-1.3333531905202303   0.03408137331772271   0.004401134201347898
-1.3333531905202303   0.03408137331772271   0.004401134201347898
-1.326691928627504   0.14466222560311787   0.14257988543518546
-1.326691928627504   0.14466222560311787   0.14257988543518546
-1.326691928627504   0.14466222560311787   0.14257988543518546
-1.326691928627504   0.14466222560311787   0.14257988543518546
-1.478607286644484   -0.1629052150215313   -0.11373179757018459
-1.478607286644484   -0.1629052150215313   -0.11373179757018459
-1.478607286644484   -0.1629052150215313   -0.11373179757018459
-1.478607286644484   -0.1629052150215313   -0.11373179757018459
-1.4291810542356   0.09981250772797173   0.17650060344530139
-1.4291810542356   0.09981250772797173   0.17650060344530139
-1.4291810542356   0.09981250772797173   0.17650060344530139
-1.4291810542356   0.09981250772797173   0.17650060344530139
-1.4474045089876508   -0.17346877060498123   -0.07122686001611889
-1.4474045089876508   -0.17346877060498123   -0.07122686001611889
-1.4474045089876508   -0.17346877060498123   -0.07122686001611889
-1.4474045089876508   -0.17346877060498123   -0.07122686001611889
-1.3982100717604928   -0.008759449448759449   -0.030739794932061235
-1.3982100717604928   -0.008759449448759449   -0.030739794932061235
-1.3982100717604928   -0.008759449448759449   -0.030739794932061235
-1.3982100717604928   -0.008759449448759449   -0.030739794932061235
-1.3410516217365627   0.11629336222131748   0.17077544341299272
-1.3410516217365627   0.11629336222131748   0.17077544341299272
-1.3410516217365627   0.11629336222131748   0.17077544341299272
-1.3410516217365627   0.11629336222131748   0.17077544341299272
-1.5454391407684058   -0.19985482438004443   -0.10512249711067984
-1.5454391407684058   -0.19985482438004443   -0.10512249711067984
-1.5454391407684058   -0.19985482438004443   -0.10512249711067984
-1.5454391407684058   -0.19985482438004443   -0.10512249711067984
-1.5364075014828902   0.009797132871221026   0.18866989342374701
-1.5364075014828902   0.009797132871221026   0.18866989342374701
-1.5364075014828902   0.009797132871221026   0.18866989342374701
-1.5364075014828902   0.009797132871221026   0.18866989342374701
-1.4642336281126083   -0.22535415161069355   -0.06193960731809567
-1.4642336281126083   -0.22535415161069355   -0.06193960731809567
-1.4642336281126083   -0.22535415161069355   -0.06193960731809567
-1.4642336281126083   -0.22535415161069355   -0.06193960731809567
-1.4290207253938716   -0.048043596212347384   -0.06258811371854643
-1.4290207253938716   -0.048043596212347384   -0.06258811371854643
-1.4290207253938716   -0.048043596212347384   -0.06258811371854643
-1.4290207253938716   -0.048043596212347384   -0.06258811371854643
-2.8916910879558317   -0.26356655603655454   -0.26890068373308956
-2.8916910879558317   -0.26356655603655454   -0.26890068373308956
-2.8916910879558317   -0.26356655603655454   -0.26890068373308956
-2.8916910879558317   -0.26356655603655454   -0.26890068373308956
-1.825775857730181   0.15913183647672524   0.06366225088333541
-1.825775857730181   0.15913183647672524   0.06366225088333541
-1.825775857730181   0.15913183647672524   0.06366225088333541
-1.825775857730181   0.15913183647672524   0.06366225088333541
-1.916246117613408   -0.11838589728541649   -0.11913454166174813
-1.916246117613408   -0.11838589728541649   -0.11913454166174813
-1.916246117613408   -0.11838589728541649   -0.11913454166174813
-1.916246117613408   -0.11838589728541649   -0.11913454166174813
-3.0698357454611918   -0.3410323664033851   0.30332813474623094
-3.0698357454611918   -0.3410323664033851   0.30332813474623094
-3.0698357454611918   -0.3410323664033851   0.30332813474623094
-3.0698357454611918   -0.3410323664033851   0.30332813474623094
-2.2312102854677733   -0.08330384957473858   0.2931497824654161
-2.2312102854677733   -0.08330384957473858   0.2931497824654161
-2.2312102854677733   -0.08330384957473858   0.2931497824654161
-2.2312102854677733   -0.08330384957473858   0.2931497824654161
-3.1788608985482685   -0.3863732871321264   -0.1964567099603759
-3.1788608985482685   -0.3863732871321264   -0.1964567099603759
-3.1788608985482685   -0.3863732871321264   -0.1964567099603759
-3.1788608985482685   -0.3863732871321264   -0.1964567099603759
-1.883769633590066   -0.149593645620414   0.07445562678996015
-1.883769633590066   -0.149593645620414   0.07445562678996015
-1.883769633590066   -0.149593645620414   0.07445562678996015
-1.883769633590066   -0.149593645620414   0.07445562678996015
-1.943966351449205   -0.1725950495973419   -0.08493425073139926
-1.943966351449205   -0.1725950495973419   -0.08493425073139926
-1.943966351449205   -0.1725950495973419   -0.08493425073139926
-1.943966351449205   -0.1725950495973419   -0.08493425073139926
-3.1651395360680605   -0.47716311900333314   0.008787077154715425
-3.1651395360680605   -0.47716311900333314   0.008787077154715425
-3.1651395360680605   -0.47716311900333314   0.008787077154715425
-3.1651395360680605   -0.47716311900333314   0.008787077154715425
-2.4669673742949194   -0.2879706230412329   0.06727740569198487
-2.4669673742949194   -0.2879706230412329   0.06727740569198487
-2.4669673742949194   -0.2879706230412329   0.06727740569198487
-2.4669673742949194   -0.2879706230412329   0.06727740569198487
-3.1902374326044174   -0.4363629338234839   -0.15750259070689687
-3.1902374326044174   -0.4363629338234839   -0.15750259070689687
-3.1902374326044174   -0.4363629338234839   -0.15750259070689687
-3.1902374326044174   -0.4363629338234839   -0.15750259070689687
-1.9422242796662434   -0.23675105953058562   -0.012067881883364509
-1.9422242796662434   -0.23675105953058562   -0.012067881883364509
-1.9422242796662434   -0.23675105953058562   -0.012067881883364509
-1.9422242796662434   -0.23675105953058562   -0.012067881883364509
-1.943716848140536   -0.3045399218821235   -0.06148644632687482
-1.943716848140536   -0.3045399218821235   -0.06148644632687482
-1.943716848140536   -0.3045399218821235   -0.06148644632687482
-1.943716848140536   -0.3045399218821235   -0.06148644632687482
-3.2379370536951853   -0.729807668690327   0.04978169756171797
-3.2379370536951853   -0.729807668690327   0.04978169756171797
-3.2379370536951853   -0.729807668690327   0.04978169756171797
-3.2379370536951853   -0.729807668690327   0.04978169756171797
-2.462402738853567   -0.39625378294108393   0.004493216244174987
-2.462402738853567   -0.39625378294108393   0.004493216244174987
-2.462402738853567   -0.39625378294108393   0.004493216244174987
-2.462402738853567   -0.39625378294108393   0.004493216244174987
-1.9717619587152437   -0.33381323928350337   -0.17332317828173205
-1.9717619587152437   -0.33381323928350337   -0.17332317828173205
-1.9717619587152437   -0.33381323928350337   -0.17332317828173205
-1.9717619587152437   -0.33381323928350337   -0.17332317828173205
-1.3479696791376754   -0.8635104622198811   -0.16226067135269895
-1.3479696791376754   -0.8635104622198811   -0.16226067135269895
-1.3479696791376754   -0.8635104622198811   -0.16226067135269895
-1.3479696791376754   -0.8635104622198811   -0.16226067135269895
-1.184435110691033   -0.19260042744385095   -0.009560015177501067
-1.184435110691033   -0.19260042744385095   -0.009560015177501067
-1.184435110691033   -0.19260042744385095   -0.009560015177501067
-1.184435110691033   -0.19260042744385095   -0.009560015177501067
-2.0933976625098283   -0.917991405051106   -0.2052867583781603
-2.0933976625098283   -0.917991405051106   -0.2052867583781603
-2.0933976625098283   -0.917991405051106   -0.2052867583781603
-2.0933976625098283   -0.917991405051106   -0.2052867583781603
-1.6300862681927597   -0.6128195505770364   -0.04731392688778767
-1.6300862681927597   -0.6128195505770364   -0.04731392688778767
-1.6300862681927597   -0.6128195505770364   -0.04731392688778767
-1.6300862681927597   -0.6128195505770364   -0.04731392688778767
-1.969553192246706   -0.37376933595184536   -0.1302864761618002
-1.969553192246706   -0.37376933595184536   -0.1302864761618002
-1.969553192246706   -0.37376933595184536   -0.1302864761618002
-1.969553192246706   -0.37376933595184536   -0.1302864761618002
-1.3163012354860097   -0.7448441510749672   -0.11664691552128481
-1.3163012354860097   -0.7448441510749672   -0.11664691552128481
-1.3163012354860097   -0.7448441510749672   -0.11664691552128481
-1.3163012354860097   -0.7448441510749672   -0.11664691552128481
-1.1963455037722337   -0.24987373084963038   0.0026094672904630333
-1.1963455037722337   -0.24987373084963038   0.0026094672904630333
-1.1963455037722337   -0.24987373084963038   0.0026094672904630333
-1.1963455037722337   -0.24987373084963038   0.0026094672904630333
-2.099405231467445   -0.9133091139654385   -0.12141458645452058
-2.099405231467445   -0.9133091139654385   -0.12141458645452058
-2.099405231467445   -0.9133091139654385   -0.12141458645452058
-2.099405231467445   -0.9133091139654385   -0.12141458645452058
-1.6109229551017086   -0.5744675796021707   -0.05024984823194514
-1.6109229551017086   -0.5744675796021707   -0.05024984823194514
-1.6109229551017086   -0.5744675796021707   -0.05024984823194514
-1.6109229551017086   -0.5744675796021707   -0.05024984823194514
-1.998000994835957   -0.43022268831080673   -0.09747982895169564
-1.998000994835957   -0.43022268831080673   -0.09747982895169564
-1.998000994835957   -0.43022268831080673   -0.09747982895169564
-1.998000994835957   -0.43022268831080673   -0.09747982895169564
-1.3142225057971806   -0.749432921897718   -0.08721635178618325
-1.3142225057971806   -0.749432921897718   -0.08721635178618325
-1.3142225057971806   -0.749432921897718   -0.08721635178618325
-1.3142225057971806   -0.749432921897718   -0.08721635178618325
-1.1940877618434207   -0.32158025225535036   0.020007791283204006
-1.1940877618434207   -0.32158025225535036   0.020007791283204006
-1.1940877618434207   -0.32158025225535036   0.020007791283204006
-1.1940877618434207   -0.32158025225535036   0.020007791283204006
-2.092532569475917   -0.9294380391222845   -0.18066693576363899
-2.092532569475917   -0.9294380391222845   -0.18066693576363899
-2.092532569475917   -0.9294380391222845   -0.18066693576363899
-2.092532569475917   -0.9294380391222845   -0.18066693576363899
-1.633481571246794   -0.6182691510702787   -0.09317286346280344
-1.633481571246794   -0.6182691510702787   -0.09317286346280344
-1.633481571246794   -0.6182691510702787   -0.09317286346280344
-1.633481571246794   -0.6182691510702787   -0.09317286346280344
-1.1886668118905521   -0.21447543950694095   -0.01478135783002255
-1.1886668118905521   -0.21447543950694095   -0.01478135783002255
-1.1886668118905521   -0.21447543950694095   -0.01478135783002255
-1.1886668118905521   -0.21447543950694095   -0.01478135783002255
-0.9899743094073397   -0.6592081887891479   -0.11381596912750351
-0.9899743094073397   -0.6592081887891479   -0.11381596912750351
-0.9899743094073397   -0.6592081887891479   -0.11381596912750351
-0.9899743094073397   -0.6592081887891479   -0.11381596912750351
-0.8528098033258107   -0.1768448891042538   0.04603753153682861
-0.8528098033258107   -0.1768448891042538   0.04603753153682861
-0.8528098033258107   -0.1768448891042538   0.04603753153682861
-0.8528098033258107   -0.1768448891042538   0.04603753153682861
-1.3129386211301446   -0.7184380229247571   -0.12623997189216865
-1.3129386211301446   -0.7184380229247571   -0.12623997189216865
-1.3129386211301446   -0.7184380229247571   -0.12623997189216865
-1.3129386211301446   -0.7184380229247571   -0.12623997189216865
-1.0812154000905385   -0.44867223013666274   -0.05264240406023091
-1.0812154000905385   -0.44867223013666274   -0.05264240406023091
-1.0812154000905385   -0.44867223013666274   -0.05264240406023091
-1.0812154000905385   -0.44867223013666274   -0.05264240406023091
-1.194347002555183   -0.25391984637159803   0.0021999444294796373
-1.194347002555183   -0.25391984637159803   0.0021999444294796373
-1.194347002555183   -0.25391984637159803   0.0021999444294796373
-1.194347002555183   -0.25391984637159803   0.0021999444294796373
-0.9784564460958985   -0.6484180898525391   -0.11062248156532498
-0.9784564460958985   -0.6484180898525391   -0.11062248156532498
-0.9784564460958985   -0.6484180898525391   -0.11062248156532498
-0.9784564460958985   -0.6484180898525391   -0.11062248156532498
-0.8516062282205392   -0.22386457812159202   0.05955241022813928
-0.8516062282205392   -0.22386457812159202   0.05955241022813928
-0.8516062282205392   -0.22386457812159202   0.05955241022813928
-0.8516062282205392   -0.22386457812159202   0.05955241022813928
-1.3155628501833425   -0.7298504894741267   -0.11350050614058357
-1.3155628501833425   -0.7298504894741267   -0.11350050614058357
-1.3155628501833425   -0.7298504894741267   -0.11350050614058357
-1.3155628501833425   -0.7298504894741267   -0.11350050614058357
-1.077995627700455   -0.46656078975132204   -0.06827520505637373
-1.077995627700455   -0.46656078975132204   -0.06827520505637373
-1.077995627700455   -0.46656078975132204   -0.06827520505637373
-1.077995627700455   -0.46656078975132204   -0.06827520505637373
-1.2027452846282687   -0.30154625418053865   0.022283086341196856
-1.2027452846282687   -0.30154625418053865   0.022283086341196856
-1.2027452846282687   -0.30154625418053865   0.022283086341196856
-1.2027452846282687   -0.30154625418053865   0.022283086341196856
-0.9682811298452477   -0.6560261494848252   -0.09166052653213998
-0.9682811298452477   -0.6560261494848252   -0.09166052653213998
-0.9682811298452477   -0.6560261494848252   -0.09166052653213998
-0.9682811298452477   -0.6560261494848252   -0.09166052653213998
-0.8398718302174457   -0.26895017162367785   0.07421621035884574
-0.8398718302174457   -0.26895017162367785   0.07421621035884574
-0.8398718302174457   -0.26895017162367785   0.07421621035884574
-0.8398718302174457   -0.26895017162367785   0.07421621035884574
-1.2980886984558546   -0.7395617817466176   -0.08201536228769826
-1.2980886984558546   -0.7395617817466176   -0.08201536228769826
-1.2980886984558546   -0.7395617817466176   -0.08201536228769826
-1.2980886984558546   -0.7395617817466176   -0.08201536228769826
-1.0730876905258724   -0.489878565574145   -0.07890037771134348
-1.0730876905258724   -0.489878565574145   -0.07890037771134348
-1.0730876905258724   -0.489878565574145   -0.07890037771134348
-1.0730876905258724   -0.489878565574145   -0.07890037771134348
-0.825231750482785   -0.030194569350161377   0.08088320605625265
-0.825231750482785   -0.030194569350161377   0.08088320605625265
-0.825231750482785   -0.030194569350161377   0.08088320605625265
-0.825231750482785   -0.030194569350161377   0.08088320605625265
-0.7731339938688184   -0.34748852610809594   -0.06747585694658015
-0.7731339938688184   -0.34748852610809594   -0.06747585694658015
-0.7731339938688184   -0.34748852610809594   -0.06747585694658015
-0.7731339938688184   -0.34748852610809594   -0.06747585694658015
-0.665171789740026   -0.05041650469011463   0.09390891754382913
-0.665171789740026   -0.05041650469011463   0.09390891754382913
-0.665171789740026   -0.05041650469011463   0.09390891754382913
-0.665171789740026   -0.05041650469011463   0.09390891754382913
-0.9169577787879775   -0.40348017469371406   -0.04806706018454486
-0.9169577787879775   -0.40348017469371406   -0.04806706018454486
-0.9169577787879775   -0.40348017469371406   -0.04806706018454486
-0.9169577787879775   -0.40348017469371406   -0.04806706018454486
-0.7978354911746343   -0.20609226537726114   -0.02847374034057279
-0.7978354911746343   -0.20609226537726114   -0.02847374034057279
-0.7978354911746343   -0.20609226537726114   -0.02847374034057279
-0.7978354911746343   -0.20609226537726114   -0.02847374034057279
-0.8244751905565592   -0.08240485592201711   0.09327056220084987
-0.8244751905565592   -0.08240485592201711   0.09327056220084987
-0.8244751905565592   -0.08240485592201711   0.09327056220084987
-0.8244751905565592   -0.08240485592201711   0.09327056220084987
-0.7650826324879706   -0.3789200779783378   -0.07714172290767078
-0.7650826324879706   -0.3789200779783378   -0.07714172290767078
-0.7650826324879706   -0.3789200779783378   -0.07714172290767078
-0.7650826324879706   -0.3789200779783378   -0.07714172290767078
-0.6647006507992749   -0.09583355996585748   0.10084095374938104
-0.6647006507992749   -0.09583355996585748   0.10084095374938104
-0.6647006507992749   -0.09583355996585748   0.10084095374938104
-0.6647006507992749   -0.09583355996585748   0.10084095374938104
-0.9151112652286469   -0.4279729379271867   -0.053864415006804736
-0.9151112652286469   -0.4279729379271867   -0.053864415006804736
-0.9151112652286469   -0.4279729379271867   -0.053864415006804736
-0.9151112652286469   -0.4279729379271867   -0.053864415006804736
-0.793013864961613   -0.24269225715261267   -0.048200271582786856
-0.793013864961613   -0.24269225715261267   -0.048200271582786856
-0.793013864961613   -0.24269225715261267   -0.048200271582786856
-0.793013864961613   -0.24269225715261267   -0.048200271582786856
-0.8227933856656052   -0.12639157392730194   0.10614361880848902
-0.8227933856656052   -0.12639157392730194   0.10614361880848902
-0.8227933856656052   -0.12639157392730194   0.10614361880848902
-0.8227933856656052   -0.12639157392730194   0.10614361880848902
-0.7615102240129765   -0.4019066176164071   -0.07713385466857724
-0.7615102240129765   -0.4019066176164071   -0.07713385466857724
-0.7615102240129765   -0.4019066176164071   -0.07713385466857724
-0.7615102240129765   -0.4019066176164071   -0.07713385466857724
-0.6574540207537913   -0.1384287316199502   0.11680139815181638
-0.6574540207537913   -0.1384287316199502   0.11680139815181638
-0.6574540207537913   -0.1384287316199502   0.11680139815181638
-0.6574540207537913   -0.1384287316199502   0.11680139815181638
-0.898858660868949   -0.4525810930686943   -0.03708702145365482
-0.898858660868949   -0.4525810930686943   -0.03708702145365482
-0.898858660868949   -0.4525810930686943   -0.03708702145365482
-0.898858660868949   -0.4525810930686943   -0.03708702145365482
-0.7889778863349655   -0.27391960358613776   -0.06172359371536254
-0.7889778863349655   -0.27391960358613776   -0.06172359371536254
-0.7889778863349655   -0.27391960358613776   -0.06172359371536254
-0.7889778863349655   -0.27391960358613776   -0.06172359371536254
-0.6470398775673927   0.08990633128006231   0.1255998671723912
-0.6470398775673927   0.08990633128006231   0.1255998671723912
-0.6470398775673927   0.08990633128006231   0.1255998671723912
-0.6470398775673927   0.08990633128006231   0.1255998671723912
-0.4201595773444505   -0.11319330286980814   -0.04102045131160916
-0.4201595773444505   -0.11319330286980814   -0.04102045131160916
-0.4201595773444505   -0.11319330286980814   -0.04102045131160916
-0.4201595773444505   -0.11319330286980814   -0.04102045131160916
-0.3640196790138493   0.10752690073345086   0.1238411735740915
-0.3640196790138493   0.10752690073345086   0.1238411735740915
-0.3640196790138493   0.10752690073345086   0.1238411735740915
-0.3640196790138493   0.10752690073345086   0.1238411735740915
-0.7132447783451891   -0.1757268512932213   -0.021145678878879724
-0.7132447783451891   -0.1757268512932213   -0.021145678878879724
-0.7132447783451891   -0.1757268512932213   -0.021145678878879724
-0.7132447783451891   -0.1757268512932213   -0.021145678878879724
-0.5291575920988544   -0.01087361773665603   -0.023248550479708897
-0.5291575920988544   -0.01087361773665603   -0.023248550479708897
-0.5291575920988544   -0.01087361773665603   -0.023248550479708897
-0.5291575920988544   -0.01087361773665603   -0.023248550479708897
-0.6352696365331326   0.05592442524366645   0.13707875364451427
-0.6352696365331326   0.05592442524366645   0.13707875364451427
-0.6352696365331326   0.05592442524366645   0.13707875364451427
-0.6352696365331326   0.05592442524366645   0.13707875364451427
-0.44264934057062   -0.12477889554816657   -0.03700133792814446
-0.44264934057062   -0.12477889554816657   -0.03700133792814446
-0.44264934057062   -0.12477889554816657   -0.03700133792814446
-0.44264934057062   -0.12477889554816657   -0.03700133792814446
-0.37901823859273415   0.08563256925637518   0.15589356889574665
-0.37901823859273415   0.08563256925637518   0.15589356889574665
-0.37901823859273415   0.08563256925637518   0.15589356889574665
-0.37901823859273415   0.08563256925637518   0.15589356889574665
-0.7085568427054254   -0.18685084699311202   -0.027422718754116955
-0.7085568427054254   -0.18685084699311202   -0.027422718754116955
-0.7085568427054254   -0.18685084699311202   -0.027422718754116955
-0.7085568427054254   -0.18685084699311202   -0.027422718754116955
-0.543412628120897   -0.03482323137054916   -0.03206761595137244
-0.543412628120897   -0.03482323137054916   -0.03206761595137244
-0.543412628120897   -0.03482323137054916   -0.03206761595137244
-0.543412628120897   -0.03482323137054916   -0.03206761595137244
-0.6268258517782169   0.03647384218157661   0.1579075467072366
-0.6268258517782169   0.03647384218157661   0.1579075467072366
-0.6268258517782169   0.03647384218157661   0.1579075467072366
-0.6268258517782169   0.03647384218157661   0.1579075467072366
-0.4663431436108072   -0.14328603400917805   -0.05181235292906534
-0.4663431436108072   -0.14328603400917805   -0.05181235292906534
-0.4663431436108072   -0.14328603400917805   -0.05181235292906534
-0.4663431436108072   -0.14328603400917805   -0.05181235292906534
-0.43417484642080295   0.02548519949818387   0.16219836653448638
-0.43417484642080295   0.02548519949818387   0.16219836653448638
-0.43417484642080295   0.02548519949818387   0.16219836653448638
-0.43417484642080295   0.02548519949818387   0.16219836653448638
-0.6970318836115124   -0.19638315390977934   -0.023133493846959646
-0.6970318836115124   -0.19638315390977934   -0.023133493846959646
-0.6970318836115124   -0.19638315390977934   -0.023133493846959646
-0.6970318836115124   -0.19638315390977934   -0.023133493846959646
-0.5497346906992328   -0.051897723279735755   -0.04681597221243358
-0.5497346906992328   -0.051897723279735755   -0.04681597221243358
-0.5497346906992328   -0.051897723279735755   -0.04681597221243358
-0.5497346906992328   -0.051897723279735755   -0.04681597221243358
-6.771108831575301   -0.9545950107376604   -0.5596390113434424
-6.771108831575301   -0.9545950107376604   -0.5596390113434424
-6.771108831575301   -0.9545950107376604   -0.5596390113434424
-6.771108831575301   -0.9545950107376604   -0.5596390113434424
-2.3432033235885594   -3.6354972339904963   -0.439051134182927
-2.3432033235885594   -3.6354972339904963   -0.439051134182927
-2.3432033235885594   -3.6354972339904963   -0.439051134182927
-2.3432033235885594   -3.6354972339904963   -0.439051134182927
-1.8180676980667367   -0.15069675080166473   0.003238165360346587
-1.8180676980667367   -0.15069675080166473   0.003238165360346587
-1.8180676980667367   -0.15069675080166473   0.003238165360346587
-1.8180676980667367   -0.15069675080166473   0.003238165360346587
-7.216000369957442   -4.284050341322152   -2.3000101422559185
-7.216000369957442   -4.284050341322152   -2.3000101422559185
-7.216000369957442   -4.284050341322152   -2.3000101422559185
-7.216000369957442   -4.284050341322152   -2.3000101422559185
-4.42395147122319   -2.13275869390999   -0.3105802174624669
-4.42395147122319   -2.13275869390999   -0.3105802174624669
-4.42395147122319   -2.13275869390999   -0.3105802174624669
-4.42395147122319   -2.13275869390999   -0.3105802174624669
-6.290898980294072   -1.1980177894762134   -0.7605357457850619
-6.290898980294072   -1.1980177894762134   -0.7605357457850619
-6.290898980294072   -1.1980177894762134   -0.7605357457850619
-6.290898980294072   -1.1980177894762134   -0.7605357457850619
-2.528326657976321   -3.0218868728938233   -0.6768665120954
-2.528326657976321   -3.0218868728938233   -0.6768665120954
-2.528326657976321   -3.0218868728938233   -0.6768665120954
-2.528326657976321   -3.0218868728938233   -0.6768665120954
-1.852873165027898   -0.20245471906348772   0.07006270581377953
-1.852873165027898   -0.20245471906348772   0.07006270581377953
-1.852873165027898   -0.20245471906348772   0.07006270581377953
-1.852873165027898   -0.20245471906348772   0.07006270581377953
-6.751290983603294   -3.815710078528368   -2.1134002124263325
-6.751290983603294   -3.815710078528368   -2.1134002124263325
-6.751290983603294   -3.815710078528368   -2.1134002124263325
-6.751290983603294   -3.815710078528368   -2.1134002124263325
-4.165765375641673   -1.9213055356933428   0.17006400685396433
-4.165765375641673   -1.9213055356933428   0.17006400685396433
-4.165765375641673   -1.9213055356933428   0.17006400685396433
-4.165765375641673   -1.9213055356933428   0.17006400685396433
-5.906788246342006   -1.1404746645156054   -0.566121940132701
-5.906788246342006   -1.1404746645156054   -0.566121940132701
-5.906788246342006   -1.1404746645156054   -0.566121940132701
-5.906788246342006   -1.1404746645156054   -0.566121940132701
-2.4588421094758974   -2.6391563402629665   -0.523080395226722
-2.4588421094758974   -2.6391563402629665   -0.523080395226722
-2.4588421094758974   -2.6391563402629665   -0.523080395226722
-2.4588421094758974   -2.6391563402629665   -0.523080395226722
-2.124854655396828   -0.5389544557996582   -0.10903463628329557
-2.124854655396828   -0.5389544557996582   -0.10903463628329557
-2.124854655396828   -0.5389544557996582   -0.10903463628329557
-2.124854655396828   -0.5389544557996582   -0.10903463628329557
-6.152543151200918   -3.1994526372486902   -1.8703991576899217
-6.152543151200918   -3.1994526372486902   -1.8703991576899217
-6.152543151200918   -3.1994526372486902   -1.8703991576899217
-6.152543151200918   -3.1994526372486902   -1.8703991576899217
-3.857585415590864   -1.664301962167464   0.7124615406332094
-3.857585415590864   -1.664301962167464   0.7124615406332094
-3.857585415590864   -1.664301962167464   0.7124615406332094
-3.857585415590864   -1.664301962167464   0.7124615406332094
-1.743791093556463   -0.9381000453630749   -0.13938717264988065
-1.743791093556463   -0.9381000453630749   -0.13938717264988065
-1.743791093556463   -0.9381000453630749   -0.13938717264988065
-1.743791093556463   -0.9381000453630749   -0.13938717264988065
-0.800413667685188   -1.1315131866977923   -0.1974907630256367
-0.800413667685188   -1.1315131866977923   -0.1974907630256367
-0.800413667685188   -1.1315131866977923   -0.1974907630256367
-0.800413667685188   -1.1315131866977923   -0.1974907630256367
-0.7096504952866273   -0.596420383706815   0.018821181120123515
-0.7096504952866273   -0.596420383706815   0.018821181120123515
-0.7096504952866273   -0.596420383706815   0.018821181120123515
-0.7096504952866273   -0.596420383706815   0.018821181120123515
-2.122951992806867   -1.6699821982612204   -0.0018978608807335706
-2.122951992806867   -1.6699821982612204   -0.0018978608807335706
-2.122951992806867   -1.6699821982612204   -0.0018978608807335706
-2.122951992806867   -1.6699821982612204   -0.0018978608807335706
-1.1429587265863725   -0.8114663005109685   0.3641375872681372
-1.1429587265863725   -0.8114663005109685   0.3641375872681372
-1.1429587265863725   -0.8114663005109685   0.3641375872681372
-1.1429587265863725   -0.8114663005109685   0.3641375872681372
-1.9809528228209299   -0.8723516060667981   -0.08953260314548891
-1.9809528228209299   -0.8723516060667981   -0.08953260314548891
-1.9809528228209299   -0.8723516060667981   -0.08953260314548891
-1.9809528228209299   -0.8723516060667981   -0.08953260314548891
-0.910923399723953   -1.453324710352629   -0.13063901442069098
-0.910923399723953   -1.453324710352629   -0.13063901442069098
-0.910923399723953   -1.453324710352629   -0.13063901442069098
-0.910923399723953   -1.453324710352629   -0.13063901442069098
-0.7647514222641727   -0.6183011035065257   0.018971656636770806
-0.7647514222641727   -0.6183011035065257   0.018971656636770806
-0.7647514222641727   -0.6183011035065257   0.018971656636770806
-0.7647514222641727   -0.6183011035065257   0.018971656636770806
-2.223841476765362   -1.6463678922188076   -0.3408656797182044
-2.223841476765362   -1.6463678922188076   -0.3408656797182044
-2.223841476765362   -1.6463678922188076   -0.3408656797182044
-2.223841476765362   -1.6463678922188076   -0.3408656797182044
-1.3595053688569247   -1.042969410598102   0.16783491478409376
-1.3595053688569247   -1.042969410598102   0.16783491478409376
-1.3595053688569247   -1.042969410598102   0.16783491478409376
-1.3595053688569247   -1.042969410598102   0.16783491478409376
-2.0419436149824635   -0.9109022716517043   -0.1668419913708319
-2.0419436149824635   -0.9109022716517043   -0.1668419913708319
-2.0419436149824635   -0.9109022716517043   -0.1668419913708319
-2.0419436149824635   -0.9109022716517043   -0.1668419913708319
-0.9410301487541994   -1.3481475887807575   -0.132575490539116
-0.9410301487541994   -1.3481475887807575   -0.132575490539116
-0.9410301487541994   -1.3481475887807575   -0.132575490539116
-0.9410301487541994   -1.3481475887807575   -0.132575490539116
-0.8491683480189439   -0.6390579113003692   0.027869481888934428
-0.8491683480189439   -0.6390579113003692   0.027869481888934428
-0.8491683480189439   -0.6390579113003692   0.027869481888934428
-0.8491683480189439   -0.6390579113003692   0.027869481888934428
-2.374474594614745   -1.5980943033088604   -0.29799448486366936
-2.374474594614745   -1.5980943033088604   -0.29799448486366936
-2.374474594614745   -1.5980943033088604   -0.29799448486366936
-2.374474594614745   -1.5980943033088604   -0.29799448486366936
-1.420096262430388   -0.9826146123154671   0.17790213925309722
-1.420096262430388   -0.9826146123154671   0.17790213925309722
-1.420096262430388   -0.9826146123154671   0.17790213925309722
-1.420096262430388   -0.9826146123154671   0.17790213925309722
-0.638018413090382   -0.5578827925417797   0.040855115792380034
-0.638018413090382   -0.5578827925417797   0.040855115792380034
-0.638018413090382   -0.5578827925417797   0.040855115792380034
-0.638018413090382   -0.5578827925417797   0.040855115792380034
-0.38482684132842215   -0.3437593228149355   -0.09595021485099497
-0.38482684132842215   -0.3437593228149355   -0.09595021485099497
-0.38482684132842215   -0.3437593228149355   -0.09595021485099497
-0.38482684132842215   -0.3437593228149355   -0.09595021485099497
-0.37490309906101893   -0.4972655645756044   0.04158679778446936
-0.37490309906101893   -0.4972655645756044   0.04158679778446936
-0.37490309906101893   -0.4972655645756044   0.04158679778446936
-0.37490309906101893   -0.4972655645756044   0.04158679778446936
-0.6988672667519296   -0.4773368453448139   -0.046346214568389
-0.6988672667519296   -0.4773368453448139   -0.046346214568389
-0.6988672667519296   -0.4773368453448139   -0.046346214568389
-0.6988672667519296   -0.4773368453448139   -0.046346214568389
-0.44325486440045314   -0.3961919210977826   0.18219927398263566
-0.44325486440045314   -0.3961919210977826   0.18219927398263566
-0.44325486440045314   -0.3961919210977826   0.18219927398263566
-0.44325486440045314   -0.3961919210977826   0.18219927398263566
-0.697650767112928   -0.5613771417387659   0.043776580020571304
-0.697650767112928   -0.5613771417387659   0.043776580020571304
-0.697650767112928   -0.5613771417387659   0.043776580020571304
-0.697650767112928   -0.5613771417387659   0.043776580020571304
-0.38182172456143043   -0.41892739404306234   -0.0713445002501302
-0.38182172456143043   -0.41892739404306234   -0.0713445002501302
-0.38182172456143043   -0.41892739404306234   -0.0713445002501302
-0.38182172456143043   -0.41892739404306234   -0.0713445002501302
-0.3777487268904265   -0.5122364870189284   0.036755382842491774
-0.3777487268904265   -0.5122364870189284   0.036755382842491774
-0.3777487268904265   -0.5122364870189284   0.036755382842491774
-0.3777487268904265   -0.5122364870189284   0.036755382842491774
-0.7400012193340885   -0.5581573299559391   0.08257889773662049
-0.7400012193340885   -0.5581573299559391   0.08257889773662049
-0.7400012193340885   -0.5581573299559391   0.08257889773662049
-0.7400012193340885   -0.5581573299559391   0.08257889773662049
-0.4797131894824601   -0.44100043789476706   0.1556820790563005
-0.4797131894824601   -0.44100043789476706   0.1556820790563005
-0.4797131894824601   -0.44100043789476706   0.1556820790563005
-0.4797131894824601   -0.44100043789476706   0.1556820790563005
-0.7494625600048439   -0.5820894644374488   0.05920432886433784
-0.7494625600048439   -0.5820894644374488   0.05920432886433784
-0.7494625600048439   -0.5820894644374488   0.05920432886433784
-0.7494625600048439   -0.5820894644374488   0.05920432886433784
-0.39994424566364917   -0.5199612119814044   -0.06649748606114558
-0.39994424566364917   -0.5199612119814044   -0.06649748606114558
-0.39994424566364917   -0.5199612119814044   -0.06649748606114558
-0.39994424566364917   -0.5199612119814044   -0.06649748606114558
-0.37962048635981016   -0.5291767713098884   0.05144147779993455
-0.37962048635981016   -0.5291767713098884   0.05144147779993455
-0.37962048635981016   -0.5291767713098884   0.05144147779993455
-0.37962048635981016   -0.5291767713098884   0.05144147779993455
-0.8619088057242913   -0.68980751146767   0.01491679352948369
-0.8619088057242913   -0.68980751146767   0.01491679352948369
-0.8619088057242913   -0.68980751146767   0.01491679352948369
-0.8619088057242913   -0.68980751146767   0.01491679352948369
-0.5332377484049241   -0.5038494999077855   0.07542500787004103
-0.5332377484049241   -0.5038494999077855   0.07542500787004103
-0.5332377484049241   -0.5038494999077855   0.07542500787004103
-0.5332377484049241   -0.5038494999077855   0.07542500787004103
-0.31969048905949254   -0.22175850751764775   0.10773073119636557
-0.31969048905949254   -0.22175850751764775   0.10773073119636557
-0.31969048905949254   -0.22175850751764775   0.10773073119636557
-0.31969048905949254   -0.22175850751764775   0.10773073119636557
-0.2198933225344269   0.008945299661605538   -0.021268834847755373
-0.2198933225344269   0.008945299661605538   -0.021268834847755373
-0.2198933225344269   0.008945299661605538   -0.021268834847755373
-0.2198933225344269   0.008945299661605538   -0.021268834847755373
-0.20898684043794752   -0.23885658249432962   0.0670799624623473
-0.20898684043794752   -0.23885658249432962   0.0670799624623473
-0.20898684043794752   -0.23885658249432962   0.0670799624623473
-0.20898684043794752   -0.23885658249432962   0.0670799624623473
-0.29330996341037807   -0.03234842819460971   -0.015364660343320987
-0.29330996341037807   -0.03234842819460971   -0.015364660343320987
-0.29330996341037807   -0.03234842819460971   -0.015364660343320987
-0.29330996341037807   -0.03234842819460971   -0.015364660343320987
-0.2410716925044042   -0.11738997096243046   0.053460461487192336
-0.2410716925044042   -0.11738997096243046   0.053460461487192336
-0.2410716925044042   -0.11738997096243046   0.053460461487192336
-0.2410716925044042   -0.11738997096243046   0.053460461487192336
-0.31410893446833743   -0.2530321521320188   0.10132420830429133
-0.31410893446833743   -0.2530321521320188   0.10132420830429133
-0.31410893446833743   -0.2530321521320188   0.10132420830429133
-0.31410893446833743   -0.2530321521320188   0.10132420830429133
-0.18242875840458264   -0.012413747581514978   -0.026572462283642753
-0.18242875840458264   -0.012413747581514978   -0.026572462283642753
-0.18242875840458264   -0.012413747581514978   -0.026572462283642753
-0.18242875840458264   -0.012413747581514978   -0.026572462283642753
-0.1902459403060463   -0.25990110803794725   0.061629409516791814
-0.1902459403060463   -0.25990110803794725   0.061629409516791814
-0.1902459403060463   -0.25990110803794725   0.061629409516791814
-0.1902459403060463   -0.25990110803794725   0.061629409516791814
-0.2938241722360412   -0.07158234994005896   0.015724019035548514
-0.2938241722360412   -0.07158234994005896   0.015724019035548514
-0.2938241722360412   -0.07158234994005896   0.015724019035548514
-0.2938241722360412   -0.07158234994005896   0.015724019035548514
-0.2195997213583041   -0.1342157183362582   0.06475610599737691
-0.2195997213583041   -0.1342157183362582   0.06475610599737691
-0.2195997213583041   -0.1342157183362582   0.06475610599737691
-0.2195997213583041   -0.1342157183362582   0.06475610599737691
-0.3143296935463274   -0.2739341067337917   0.11554816927785043
-0.3143296935463274   -0.2739341067337917   0.11554816927785043
-0.3143296935463274   -0.2739341067337917   0.11554816927785043
-0.3143296935463274   -0.2739341067337917   0.11554816927785043
-0.17108052345483096   -0.05888945570328531   -0.04355515856179346
-0.17108052345483096   -0.05888945570328531   -0.04355515856179346
-0.17108052345483096   -0.05888945570328531   -0.04355515856179346
-0.17108052345483096   -0.05888945570328531   -0.04355515856179346
-0.1567751571045482   -0.2832375953935472   0.06754696315767998
-0.1567751571045482   -0.2832375953935472   0.06754696315767998
-0.1567751571045482   -0.2832375953935472   0.06754696315767998
-0.1567751571045482   -0.2832375953935472   0.06754696315767998
-0.3137587754926462   -0.16929882461955822   0.020872085445424255
-0.3137587754926462   -0.16929882461955822   0.020872085445424255
-0.3137587754926462   -0.16929882461955822   0.020872085445424255
-0.3137587754926462   -0.16929882461955822   0.020872085445424255
-0.2092345551115401   -0.17002559424324148   0.05725497603900574
-0.2092345551115401   -0.17002559424324148   0.05725497603900574
-0.2092345551115401   -0.17002559424324148   0.05725497603900574
-0.2092345551115401   -0.17002559424324148   0.05725497603900574
-0.20389530891071697   -0.040169210278549715   0.10783574321094941
-0.20389530891071697   -0.040169210278549715   0.10783574321094941
-0.20389530891071697   -0.040169210278549715   0.10783574321094941
-0.20389530891071697   -0.040169210278549715   0.10783574321094941
-0.032572997080228254   0.025474812904487314   -0.002174608365390941
-0.032572997080228254   0.025474812904487314   -0.002174608365390941
-0.032572997080228254   0.025474812904487314   -0.002174608365390941
-0.032572997080228254   0.025474812904487314   -0.002174608365390941
0.01567920570938243   -0.012453880762409782   0.0662951897206371
0.01567920570938243   -0.012453880762409782   0.0662951897206371
0.01567920570938243   -0.012453880762409782   0.0662951897206371
0.01567920570938243   -0.012453880762409782   0.0662951897206371
-0.17249996407385546   0.020197487397033642   -0.009539725608555465
-0.17249996407385546   0.020197487397033642   -0.009539725608555465
-0.17249996407385546   0.020197487397033642   -0.009539725608555465
-0.17249996407385546   0.020197487397033642   -0.009539725608555465
-0.1001750121198311   -0.007172077074081979   -0.008710759345856401
-0.1001750121198311   -0.007172077074081979   -0.008710759345856401
-0.1001750121198311   -0.007172077074081979   -0.008710759345856401
-0.1001750121198311   -0.007172077074081979   -0.008710759345856401
-0.15992111288583927   -0.03843548239988632   0.11198750012844541
-0.15992111288583927   -0.03843548239988632   0.11198750012844541
-0.15992111288583927   -0.03843548239988632   0.11198750012844541
-0.15992111288583927   -0.03843548239988632   0.11198750012844541
0.009269597199169043   0.05234833171231809   -0.03055506530515772
0.009269597199169043   0.05234833171231809   -0.03055506530515772
0.009269597199169043   0.05234833171231809   -0.03055506530515772
0.009269597199169043   0.05234833171231809   -0.03055506530515772
0.04086196659948577   -0.015157500893962998   0.08162520243671702
0.04086196659948577   -0.015157500893962998   0.08162520243671702
0.04086196659948577   -0.015157500893962998   0.08162520243671702
0.04086196659948577   -0.015157500893962998   0.08162520243671702
-0.15003207853365763   0.01700665594495219   -0.014209045604164321
-0.15003207853365763   0.01700665594495219   -0.014209045604164321
-0.15003207853365763   0.01700665594495219   -0.014209045604164321
-0.15003207853365763   0.01700665594495219   -0.014209045604164321
-0.06354393190879488   -0.000860590349532021   0.010982390861302788
-0.06354393190879488   -0.000860590349532021   0.010982390861302788
-0.06354393190879488   -0.000860590349532021   0.010982390861302788
-0.06354393190879488   -0.000860590349532021   0.010982390861302788
-0.13513106206976802   -0.04268384048592499   0.11998653314616085
-0.13513106206976802   -0.04268384048592499   0.11998653314616085
-0.13513106206976802   -0.04268384048592499   0.11998653314616085
-0.13513106206976802   -0.04268384048592499   0.11998653314616085
0.03165880467655022   0.050230850077878454   -0.02977895814974084
0.03165880467655022   0.050230850077878454   -0.02977895814974084
0.03165880467655022   0.050230850077878454   -0.02977895814974084
0.03165880467655022   0.050230850077878454   -0.02977895814974084
0.06731897840282154   -0.023094611544189077   0.07895835596665782
0.06731897840282154   -0.023094611544189077   0.07895835596665782
0.06731897840282154   -0.023094611544189077   0.07895835596665782
0.06731897840282154   -0.023094611544189077   0.07895835596665782
-0.11297234102837048   0.019565899234054846   -0.016242451089033334
-0.11297234102837048   0.019565899234054846   -0.016242451089033334
-0.11297234102837048   0.019565899234054846   -0.016242451089033334
-0.11297234102837048   0.019565899234054846   -0.016242451089033334
-0.030530737087587988   0.0035634695810605084   0.028725979985404305
-0.030530737087587988   0.0035634695810605084   0.028725979985404305
-0.030530737087587988   0.0035634695810605084   0.028725979985404305
-0.030530737087587988   0.0035634695810605084   0.028725979985404305
              </DataArray>   
             <DataArray type="Float64" NumberOfComponents="3" Name="Displacements" format="ascii">   
0.0   0.0   0.0
-0.018800503689520045   -0.012299806406084976   -0.00629579535960859
0.0   0.0   0.0
0.0   0.0   0.0
-0.018800503689520045   -0.012299806406084976   -0.00629579535960859
-0.011966982359265707   -0.01104706049963924   -0.004625147676587982
0.0   0.0   0.0
-0.011733017295590183   -0.011603454647988964   -0.003874061914905031
0.0   0.0   0.0
0.0   0.0   0.0
-0.011733017295590183   -0.011603454647988964   -0.003874061914905031
0.0   0.0   0.0
0.0   0.0   0.0
-0.011733017295590183   -0.011603454647988964   -0.003874061914905031
-0.019678959562122945   -0.013105332222374512   -0.005053406743311113
-0.018800503689520045   -0.012299806406084976   -0.00629579535960859
0.0   0.0   0.0
-0.011733017295590183   -0.011603454647988964   -0.003874061914905031
-0.018800503689520045   -0.012299806406084976   -0.00629579535960859
0.0   0.0   0.0
0.0   0.0   0.0
-0.019678959562122945   -0.013105332222374512   -0.005053406743311113
0.0   0.0   0.0
0.0   0.0   0.0
-0.019678959562122945   -0.013105332222374512   -0.005053406743311113
-0.011733017295590183   -0.011603454647988964   -0.003874061914905031
0.0   0.0   0.0
-0.01176902944083845   -0.011888253195775807   -0.003123724834247116
0.0   0.0   0.0
0.0   0.0   0.0
-0.01176902944083845   -0.011888253195775807   -0.003123724834247116
0.0   0.0   0.0
0.0   0.0   0.0
-0.01176902944083845   -0.011888253195775807   -0.003123724834247116
-0.02029723238707535   -0.013496885111733636   -0.0038623727965156934
-0.019678959562122945   -0.013105332222374512   -0.005053406743311113
0.0   0.0   0.0
-0.01176902944083845   -0.011888253195775807   -0.003123724834247116
-0.019678959562122945   -0.013105332222374512   -0.005053406743311113
0.0   0.0   0.0
0.0   0.0   0.0
-0.02029723238707535   -0.013496885111733636   -0.0038623727965156934
0.0   0.0   0.0
0.0   0.0   0.0
-0.02029723238707535   -0.013496885111733636   -0.0038623727965156934
-0.01176902944083845   -0.011888253195775807   -0.003123724834247116
0.0   0.0   0.0
-0.011766138371609931   -0.011960974143842   -0.0023474508260579144
0.0   0.0   0.0
0.0   0.0   0.0
-0.011766138371609931   -0.011960974143842   -0.0023474508260579144
0.0   0.0   0.0
0.0   0.0   0.0
-0.011766138371609931   -0.011960974143842   -0.0023474508260579144
-0.0216262616629412   -0.013792275437675349   -0.002480192471356992
-0.02029723238707535   -0.013496885111733636   -0.0038623727965156934
0.0   0.0   0.0
-0.011766138371609931   -0.011960974143842   -0.0023474508260579144
-0.02029723238707535   -0.013496885111733636   -0.0038623727965156934
0.0   0.0   0.0
0.0   0.0   0.0
-0.011966982359265707   -0.01104706049963924   -0.004625147676587982
0.0   0.0   0.0
0.0   0.0   0.0
-0.011966982359265707   -0.01104706049963924   -0.004625147676587982
-0.005446448288432246   -0.010587003523147924   -0.00351672890957386
0.0   0.0   0.0
-0.005241165740689875   -0.01094949880610902   -0.003162500675090432
0.0   0.0   0.0
0.0   0.0   0.0
-0.005241165740689875   -0.01094949880610902   -0.003162500675090432
0.0   0.0   0.0
0.0   0.0   0.0
-0.005241165740689875   -0.01094949880610902   -0.003162500675090432
-0.011733017295590183   -0.011603454647988964   -0.003874061914905031
-0.011966982359265707   -0.01104706049963924   -0.004625147676587982
0.0   0.0   0.0
-0.005241165740689875   -0.01094949880610902   -0.003162500675090432
-0.011966982359265707   -0.01104706049963924   -0.004625147676587982
0.0   0.0   0.0
0.0   0.0   0.0
-0.011733017295590183   -0.011603454647988964   -0.003874061914905031
0.0   0.0   0.0
0.0   0.0   0.0
-0.011733017295590183   -0.011603454647988964   -0.003874061914905031
-0.005241165740689875   -0.01094949880610902   -0.003162500675090432
0.0   0.0   0.0
-0.005127067573941264   -0.01108754902899295   -0.0028171946478932485
0.0   0.0   0.0
0.0   0.0   0.0
-0.005127067573941264   -0.01108754902899295   -0.0028171946478932485
0.0   0.0   0.0
0.0   0.0   0.0
-0.005127067573941264   -0.01108754902899295   -0.0028171946478932485
-0.01176902944083845   -0.011888253195775807   -0.003123724834247116
-0.011733017295590183   -0.011603454647988964   -0.003874061914905031
0.0   0.0   0.0
-0.005127067573941264   -0.01108754902899295   -0.0028171946478932485
-0.011733017295590183   -0.011603454647988964   -0.003874061914905031
0.0   0.0   0.0
0.0   0.0   0.0
-0.01176902944083845   -0.011888253195775807   -0.003123724834247116
0.0   0.0   0.0
0.0   0.0   0.0
-0.01176902944083845   -0.011888253195775807   -0.003123724834247116
-0.005127067573941264   -0.01108754902899295   -0.0028171946478932485
0.0   0.0   0.0
-0.005023655112609731   -0.011029677388843938   -0.002459868490594943
0.0   0.0   0.0
0.0   0.0   0.0
-0.005023655112609731   -0.011029677388843938   -0.002459868490594943
0.0   0.0   0.0
0.0   0.0   0.0
-0.005023655112609731   -0.011029677388843938   -0.002459868490594943
-0.011766138371609931   -0.011960974143842   -0.0023474508260579144
-0.01176902944083845   -0.011888253195775807   -0.003123724834247116
0.0   0.0   0.0
-0.005023655112609731   -0.011029677388843938   -0.002459868490594943
-0.01176902944083845   -0.011888253195775807   -0.003123724834247116
0.0   0.0   0.0
0.0   0.0   0.0
-0.005446448288432246   -0.010587003523147924   -0.00351672890957386
0.0   0.0   0.0
0.0   0.0   0.0
-0.005446448288432246   -0.010587003523147924   -0.00351672890957386
0.000716729548161612   -0.010645492715896926   -0.0028096103520070365
0.0   0.0   0.0
0.0008464061043074188   -0.0108337596653369   -0.0028594678243487907
0.0   0.0   0.0
0.0   0.0   0.0
0.0008464061043074188   -0.0108337596653369   -0.0028594678243487907
0.0   0.0   0.0
0.0   0.0   0.0
0.0008464061043074188   -0.0108337596653369   -0.0028594678243487907
-0.005241165740689875   -0.01094949880610902   -0.003162500675090432
-0.005446448288432246   -0.010587003523147924   -0.00351672890957386
0.0   0.0   0.0
0.0008464061043074188   -0.0108337596653369   -0.0028594678243487907
-0.005446448288432246   -0.010587003523147924   -0.00351672890957386
0.0   0.0   0.0
0.0   0.0   0.0
-0.005241165740689875   -0.01094949880610902   -0.003162500675090432
0.0   0.0   0.0
0.0   0.0   0.0
-0.005241165740689875   -0.01094949880610902   -0.003162500675090432
0.0008464061043074188   -0.0108337596653369   -0.0028594678243487907
0.0   0.0   0.0
0.0009483687219608845   -0.010818484801863286   -0.002904220663601997
0.0   0.0   0.0
0.0   0.0   0.0
0.0009483687219608845   -0.010818484801863286   -0.002904220663601997
0.0   0.0   0.0
0.0   0.0   0.0
0.0009483687219608845   -0.010818484801863286   -0.002904220663601997
-0.005127067573941264   -0.01108754902899295   -0.0028171946478932485
-0.005241165740689875   -0.01094949880610902   -0.003162500675090432
0.0   0.0   0.0
0.0009483687219608845   -0.010818484801863286   -0.002904220663601997
-0.005241165740689875   -0.01094949880610902   -0.003162500675090432
0.0   0.0   0.0
0.0   0.0   0.0
-0.005127067573941264   -0.01108754902899295   -0.0028171946478932485
0.0   0.0   0.0
0.0   0.0   0.0
-0.005127067573941264   -0.01108754902899295   -0.0028171946478932485
0.0009483687219608845   -0.010818484801863286   -0.002904220663601997
0.0   0.0   0.0
0.0010865302056694147   -0.010582919361897019   -0.002949874249215265
0.0   0.0   0.0
0.0   0.0   0.0
0.0010865302056694147   -0.010582919361897019   -0.002949874249215265
0.0   0.0   0.0
0.0   0.0   0.0
0.0010865302056694147   -0.010582919361897019   -0.002949874249215265
-0.005023655112609731   -0.011029677388843938   -0.002459868490594943
-0.005127067573941264   -0.01108754902899295   -0.0028171946478932485
0.0   0.0   0.0
0.0010865302056694147   -0.010582919361897019   -0.002949874249215265
-0.005127067573941264   -0.01108754902899295   -0.0028171946478932485
0.0   0.0   0.0
0.0   0.0   0.0
0.000716729548161612   -0.010645492715896926   -0.0028096103520070365
0.0   0.0   0.0
0.0   0.0   0.0
0.000716729548161612   -0.010645492715896926   -0.0028096103520070365
0.007404279053894945   -0.011166551258328127   -0.002458872802674196
0.0   0.0   0.0
0.007413660156184796   -0.011227063192097568   -0.002933892319377272
0.0   0.0   0.0
0.0   0.0   0.0
0.007413660156184796   -0.011227063192097568   -0.002933892319377272
0.0   0.0   0.0
0.0   0.0   0.0
0.007413660156184796   -0.011227063192097568   -0.002933892319377272
0.0008464061043074188   -0.0108337596653369   -0.0028594678243487907
0.000716729548161612   -0.010645492715896926   -0.0028096103520070365
0.0   0.0   0.0
0.007413660156184796   -0.011227063192097568   -0.002933892319377272
0.000716729548161612   -0.010645492715896926   -0.0028096103520070365
0.0   0.0   0.0
0.0   0.0   0.0
0.0008464061043074188   -0.0108337596653369   -0.0028594678243487907
0.0   0.0   0.0
0.0   0.0   0.0
0.0008464061043074188   -0.0108337596653369   -0.0028594678243487907
0.007413660156184796   -0.011227063192097568   -0.002933892319377272
0.0   0.0   0.0
0.007378646725543285   -0.011066717852764857   -0.0033892007109831263
0.0   0.0   0.0
0.0   0.0   0.0
0.007378646725543285   -0.011066717852764857   -0.0033892007109831263
0.0   0.0   0.0
0.0   0.0   0.0
0.007378646725543285   -0.011066717852764857   -0.0033892007109831263
0.0009483687219608845   -0.010818484801863286   -0.002904220663601997
0.0008464061043074188   -0.0108337596653369   -0.0028594678243487907
0.0   0.0   0.0
0.007378646725543285   -0.011066717852764857   -0.0033892007109831263
0.0008464061043074188   -0.0108337596653369   -0.0028594678243487907
0.0   0.0   0.0
0.0   0.0   0.0
0.0009483687219608845   -0.010818484801863286   -0.002904220663601997
0.0   0.0   0.0
0.0   0.0   0.0
0.0009483687219608845   -0.010818484801863286   -0.002904220663601997
0.007378646725543285   -0.011066717852764857   -0.0033892007109831263
0.0   0.0   0.0
0.007518414753896786   -0.010636090823420898   -0.0038355326244120928
0.0   0.0   0.0
0.0   0.0   0.0
0.007518414753896786   -0.010636090823420898   -0.0038355326244120928
0.0   0.0   0.0
0.0   0.0   0.0
0.007518414753896786   -0.010636090823420898   -0.0038355326244120928
0.0010865302056694147   -0.010582919361897019   -0.002949874249215265
0.0009483687219608845   -0.010818484801863286   -0.002904220663601997
0.0   0.0   0.0
0.007518414753896786   -0.010636090823420898   -0.0038355326244120928
0.0009483687219608845   -0.010818484801863286   -0.002904220663601997
0.0   0.0   0.0
0.0   0.0   0.0
0.007404279053894945   -0.011166551258328127   -0.002458872802674196
0.0   0.0   0.0
0.0   0.0   0.0
0.007404279053894945   -0.011166551258328127   -0.002458872802674196
0.016696204769147568   -0.0124859044889361   -0.0023174952062463595
0.0   0.0   0.0
0.01567551431043488   -0.012350822314501181   -0.003393352826969012
0.0   0.0   0.0
0.0   0.0   0.0
0.01567551431043488   -0.012350822314501181   -0.003393352826969012
0.0   0.0   0.0
0.0   0.0   0.0
0.01567551431043488   -0.012350822314501181   -0.003393352826969012
0.007413660156184796   -0.011227063192097568   -0.002933892319377272
0.007404279053894945   -0.011166551258328127   -0.002458872802674196
0.0   0.0   0.0
0.01567551431043488   -0.012350822314501181   -0.003393352826969012
0.007404279053894945   -0.011166551258328127   -0.002458872802674196
0.0   0.0   0.0
0.0   0.0   0.0
0.007413660156184796   -0.011227063192097568   -0.002933892319377272
0.0   0.0   0.0
0.0   0.0   0.0
0.007413660156184796   -0.011227063192097568   -0.002933892319377272
0.01567551431043488   -0.012350822314501181   -0.003393352826969012
0.0   0.0   0.0
0.015203359806279664   -0.01209400620360882   -0.004302822534865659
0.0   0.0   0.0
0.0   0.0   0.0
0.015203359806279664   -0.01209400620360882   -0.004302822534865659
0.0   0.0   0.0
0.0   0.0   0.0
0.015203359806279664   -0.01209400620360882   -0.004302822534865659
0.007378646725543285   -0.011066717852764857   -0.0033892007109831263
0.007413660156184796   -0.011227063192097568   -0.002933892319377272
0.0   0.0   0.0
0.015203359806279664   -0.01209400620360882   -0.004302822534865659
0.007413660156184796   -0.011227063192097568   -0.002933892319377272
0.0   0.0   0.0
0.0   0.0   0.0
0.007378646725543285   -0.011066717852764857   -0.0033892007109831263
0.0   0.0   0.0
0.0   0.0   0.0
0.007378646725543285   -0.011066717852764857   -0.0033892007109831263
0.015203359806279664   -0.01209400620360882   -0.004302822534865659
0.0   0.0   0.0
0.014502734370920506   -0.011435933940034924   -0.0052645640049032785
0.0   0.0   0.0
0.0   0.0   0.0
0.014502734370920506   -0.011435933940034924   -0.0052645640049032785
0.0   0.0   0.0
0.0   0.0   0.0
0.014502734370920506   -0.011435933940034924   -0.0052645640049032785
0.007518414753896786   -0.010636090823420898   -0.0038355326244120928
0.007378646725543285   -0.011066717852764857   -0.0033892007109831263
0.0   0.0   0.0
0.014502734370920506   -0.011435933940034924   -0.0052645640049032785
0.007378646725543285   -0.011066717852764857   -0.0033892007109831263
0.0   0.0   0.0
-0.018800503689520045   -0.012299806406084976   -0.00629579535960859
-0.03514148261617318   -0.03438486675883281   -0.008480817898785142
-0.011966982359265707   -0.01104706049963924   -0.004625147676587982
-0.019678959562122945   -0.013105332222374512   -0.005053406743311113
-0.03514148261617318   -0.03438486675883281   -0.008480817898785142
-0.022430650055130716   -0.033257245101074195   -0.006978023799483566
-0.011966982359265707   -0.01104706049963924   -0.004625147676587982
-0.02246157305659281   -0.03382703321038116   -0.0062826536088698886
-0.019678959562122945   -0.013105332222374512   -0.005053406743311113
-0.011733017295590183   -0.011603454647988964   -0.003874061914905031
-0.02246157305659281   -0.03382703321038116   -0.0062826536088698886
-0.011966982359265707   -0.01104706049963924   -0.004625147676587982
-0.019678959562122945   -0.013105332222374512   -0.005053406743311113
-0.02246157305659281   -0.03382703321038116   -0.0062826536088698886
-0.03620021935975262   -0.035179481228326585   -0.00735098337695148
-0.03514148261617318   -0.03438486675883281   -0.008480817898785142
-0.019678959562122945   -0.013105332222374512   -0.005053406743311113
-0.02246157305659281   -0.03382703321038116   -0.0062826536088698886
-0.03514148261617318   -0.03438486675883281   -0.008480817898785142
-0.011966982359265707   -0.01104706049963924   -0.004625147676587982
-0.019678959562122945   -0.013105332222374512   -0.005053406743311113
-0.03620021935975262   -0.035179481228326585   -0.00735098337695148
-0.011733017295590183   -0.011603454647988964   -0.003874061914905031
-0.02029723238707535   -0.013496885111733636   -0.0038623727965156934
-0.03620021935975262   -0.035179481228326585   -0.00735098337695148
-0.02246157305659281   -0.03382703321038116   -0.0062826536088698886
-0.011733017295590183   -0.011603454647988964   -0.003874061914905031
-0.022554788928957646   -0.03417397652230922   -0.005614143909135739
-0.02029723238707535   -0.013496885111733636   -0.0038623727965156934
-0.01176902944083845   -0.011888253195775807   -0.003123724834247116
-0.022554788928957646   -0.03417397652230922   -0.005614143909135739
-0.011733017295590183   -0.011603454647988964   -0.003874061914905031
-0.02029723238707535   -0.013496885111733636   -0.0038623727965156934
-0.022554788928957646   -0.03417397652230922   -0.005614143909135739
-0.03693768772635204   -0.03562785792899685   -0.006244285392221728
-0.03620021935975262   -0.035179481228326585   -0.00735098337695148
-0.02029723238707535   -0.013496885111733636   -0.0038623727965156934
-0.022554788928957646   -0.03417397652230922   -0.005614143909135739
-0.03620021935975262   -0.035179481228326585   -0.00735098337695148
-0.011733017295590183   -0.011603454647988964   -0.003874061914905031
-0.02029723238707535   -0.013496885111733636   -0.0038623727965156934
-0.03693768772635204   -0.03562785792899685   -0.006244285392221728
-0.01176902944083845   -0.011888253195775807   -0.003123724834247116
-0.0216262616629412   -0.013792275437675349   -0.002480192471356992
-0.03693768772635204   -0.03562785792899685   -0.006244285392221728
-0.022554788928957646   -0.03417397652230922   -0.005614143909135739
-0.01176902944083845   -0.011888253195775807   -0.003123724834247116
-0.022492522661054382   -0.03435334571849601   -0.0049881090052698316
-0.0216262616629412   -0.013792275437675349   -0.002480192471356992
-0.011766138371609931   -0.011960974143842   -0.0023474508260579144
-0.022492522661054382   -0.03435334571849601   -0.0049881090052698316
-0.01176902944083845   -0.011888253195775807   -0.003123724834247116
-0.0216262616629412   -0.013792275437675349   -0.002480192471356992
-0.022492522661054382   -0.03435334571849601   -0.0049881090052698316
-0.0378095486249748   -0.03588737189861485   -0.005236758636650107
-0.03693768772635204   -0.03562785792899685   -0.006244285392221728
-0.0216262616629412   -0.013792275437675349   -0.002480192471356992
-0.022492522661054382   -0.03435334571849601   -0.0049881090052698316
-0.03693768772635204   -0.03562785792899685   -0.006244285392221728
-0.01176902944083845   -0.011888253195775807   -0.003123724834247116
-0.011966982359265707   -0.01104706049963924   -0.004625147676587982
-0.022430650055130716   -0.033257245101074195   -0.006978023799483566
-0.005446448288432246   -0.010587003523147924   -0.00351672890957386
-0.011733017295590183   -0.011603454647988964   -0.003874061914905031
-0.022430650055130716   -0.033257245101074195   -0.006978023799483566
-0.010400094581319371   -0.03273257828759938   -0.005951755965225043
-0.005446448288432246   -0.010587003523147924   -0.00351672890957386
-0.010314887354805454   -0.03309560150825362   -0.005595830774620738
-0.011733017295590183   -0.011603454647988964   -0.003874061914905031
-0.005241165740689875   -0.01094949880610902   -0.003162500675090432
-0.010314887354805454   -0.03309560150825362   -0.005595830774620738
-0.005446448288432246   -0.010587003523147924   -0.00351672890957386
-0.011733017295590183   -0.011603454647988964   -0.003874061914905031
-0.010314887354805454   -0.03309560150825362   -0.005595830774620738
-0.02246157305659281   -0.03382703321038116   -0.0062826536088698886
-0.022430650055130716   -0.033257245101074195   -0.006978023799483566
-0.011733017295590183   -0.011603454647988964   -0.003874061914905031
-0.010314887354805454   -0.03309560150825362   -0.005595830774620738
-0.022430650055130716   -0.033257245101074195   -0.006978023799483566
-0.005446448288432246   -0.010587003523147924   -0.00351672890957386
-0.011733017295590183   -0.011603454647988964   -0.003874061914905031
-0.02246157305659281   -0.03382703321038116   -0.0062826536088698886
-0.005241165740689875   -0.01094949880610902   -0.003162500675090432
-0.01176902944083845   -0.011888253195775807   -0.003123724834247116
-0.02246157305659281   -0.03382703321038116   -0.0062826536088698886
-0.010314887354805454   -0.03309560150825362   -0.005595830774620738
-0.005241165740689875   -0.01094949880610902   -0.003162500675090432
-0.010239888888433246   -0.03327151661745518   -0.005272985953388826
-0.01176902944083845   -0.011888253195775807   -0.003123724834247116
-0.005127067573941264   -0.01108754902899295   -0.0028171946478932485
-0.010239888888433246   -0.03327151661745518   -0.005272985953388826
-0.005241165740689875   -0.01094949880610902   -0.003162500675090432
-0.01176902944083845   -0.011888253195775807   -0.003123724834247116
-0.010239888888433246   -0.03327151661745518   -0.005272985953388826
-0.022554788928957646   -0.03417397652230922   -0.005614143909135739
-0.02246157305659281   -0.03382703321038116   -0.0062826536088698886
-0.01176902944083845   -0.011888253195775807   -0.003123724834247116
-0.010239888888433246   -0.03327151661745518   -0.005272985953388826
-0.02246157305659281   -0.03382703321038116   -0.0062826536088698886
-0.005241165740689875   -0.01094949880610902   -0.003162500675090432
-0.01176902944083845   -0.011888253195775807   -0.003123724834247116
-0.022554788928957646   -0.03417397652230922   -0.005614143909135739
-0.005127067573941264   -0.01108754902899295   -0.0028171946478932485
-0.011766138371609931   -0.011960974143842   -0.0023474508260579144
-0.022554788928957646   -0.03417397652230922   -0.005614143909135739
-0.010239888888433246   -0.03327151661745518   -0.005272985953388826
-0.005127067573941264   -0.01108754902899295   -0.0028171946478932485
-0.01012586108581836   -0.03326696608824387   -0.004991684362473393
-0.011766138371609931   -0.011960974143842   -0.0023474508260579144
-0.005023655112609731   -0.011029677388843938   -0.002459868490594943
-0.01012586108581836   -0.03326696608824387   -0.004991684362473393
-0.005127067573941264   -0.01108754902899295   -0.0028171946478932485
-0.011766138371609931   -0.011960974143842   -0.0023474508260579144
-0.01012586108581836   -0.03326696608824387   -0.004991684362473393
-0.022492522661054382   -0.03435334571849601   -0.0049881090052698316
-0.022554788928957646   -0.03417397652230922   -0.005614143909135739
-0.011766138371609931   -0.011960974143842   -0.0023474508260579144
-0.01012586108581836   -0.03326696608824387   -0.004991684362473393
-0.022554788928957646   -0.03417397652230922   -0.005614143909135739
-0.005127067573941264   -0.01108754902899295   -0.0028171946478932485
-0.005446448288432246   -0.010587003523147924   -0.00351672890957386
-0.010400094581319371   -0.03273257828759938   -0.005951755965225043
0.000716729548161612   -0.010645492715896926   -0.0028096103520070365
-0.005241165740689875   -0.01094949880610902   -0.003162500675090432
-0.010400094581319371   -0.03273257828759938   -0.005951755965225043
0.0012038948413413257   -0.03274792859436558   -0.005301988645172992
0.000716729548161612   -0.010645492715896926   -0.0028096103520070365
0.0013094121980699095   -0.03292050146887606   -0.00527925689364363
-0.005241165740689875   -0.01094949880610902   -0.003162500675090432
0.0008464061043074188   -0.0108337596653369   -0.0028594678243487907
0.0013094121980699095   -0.03292050146887606   -0.00527925689364363
0.000716729548161612   -0.010645492715896926   -0.0028096103520070365
-0.005241165740689875   -0.01094949880610902   -0.003162500675090432
0.0013094121980699095   -0.03292050146887606   -0.00527925689364363
-0.010314887354805454   -0.03309560150825362   -0.005595830774620738
-0.010400094581319371   -0.03273257828759938   -0.005951755965225043
-0.005241165740689875   -0.01094949880610902   -0.003162500675090432
0.0013094121980699095   -0.03292050146887606   -0.00527925689364363
-0.010400094581319371   -0.03273257828759938   -0.005951755965225043
0.000716729548161612   -0.010645492715896926   -0.0028096103520070365
-0.005241165740689875   -0.01094949880610902   -0.003162500675090432
-0.010314887354805454   -0.03309560150825362   -0.005595830774620738
0.0008464061043074188   -0.0108337596653369   -0.0028594678243487907
-0.005127067573941264   -0.01108754902899295   -0.0028171946478932485
-0.010314887354805454   -0.03309560150825362   -0.005595830774620738
0.0013094121980699095   -0.03292050146887606   -0.00527925689364363
0.0008464061043074188   -0.0108337596653369   -0.0028594678243487907
0.0013789753977047727   -0.03291036805740652   -0.005294088035313335
-0.005127067573941264   -0.01108754902899295   -0.0028171946478932485
0.0009483687219608845   -0.010818484801863286   -0.002904220663601997
0.0013789753977047727   -0.03291036805740652   -0.005294088035313335
0.0008464061043074188   -0.0108337596653369   -0.0028594678243487907
-0.005127067573941264   -0.01108754902899295   -0.0028171946478932485
0.0013789753977047727   -0.03291036805740652   -0.005294088035313335
-0.010239888888433246   -0.03327151661745518   -0.005272985953388826
-0.010314887354805454   -0.03309560150825362   -0.005595830774620738
-0.005127067573941264   -0.01108754902899295   -0.0028171946478932485
0.0013789753977047727   -0.03291036805740652   -0.005294088035313335
-0.010314887354805454   -0.03309560150825362   -0.005595830774620738
0.0008464061043074188   -0.0108337596653369   -0.0028594678243487907
-0.005127067573941264   -0.01108754902899295   -0.0028171946478932485
-0.010239888888433246   -0.03327151661745518   -0.005272985953388826
0.0009483687219608845   -0.010818484801863286   -0.002904220663601997
-0.005023655112609731   -0.011029677388843938   -0.002459868490594943
-0.010239888888433246   -0.03327151661745518   -0.005272985953388826
0.0013789753977047727   -0.03291036805740652   -0.005294088035313335
0.0009483687219608845   -0.010818484801863286   -0.002904220663601997
0.001453943025204932   -0.03271193097575974   -0.005347081715485834
-0.005023655112609731   -0.011029677388843938   -0.002459868490594943
0.0010865302056694147   -0.010582919361897019   -0.002949874249215265
0.001453943025204932   -0.03271193097575974   -0.005347081715485834
0.0009483687219608845   -0.010818484801863286   -0.002904220663601997
-0.005023655112609731   -0.011029677388843938   -0.002459868490594943
0.001453943025204932   -0.03271193097575974   -0.005347081715485834
-0.01012586108581836   -0.03326696608824387   -0.004991684362473393
-0.010239888888433246   -0.03327151661745518   -0.005272985953388826
-0.005023655112609731   -0.011029677388843938   -0.002459868490594943
0.001453943025204932   -0.03271193097575974   -0.005347081715485834
-0.010239888888433246   -0.03327151661745518   -0.005272985953388826
0.0009483687219608845   -0.010818484801863286   -0.002904220663601997
0.000716729548161612   -0.010645492715896926   -0.0028096103520070365
0.0012038948413413257   -0.03274792859436558   -0.005301988645172992
0.007404279053894945   -0.011166551258328127   -0.002458872802674196
0.0008464061043074188   -0.0108337596653369   -0.0028594678243487907
0.0012038948413413257   -0.03274792859436558   -0.005301988645172992
0.013498366419049668   -0.03328371545098148   -0.004997423714334716
0.007404279053894945   -0.011166551258328127   -0.002458872802674196
0.013555557846239527   -0.033283434812310254   -0.0053187217412326475
0.0008464061043074188   -0.0108337596653369   -0.0028594678243487907
0.007413660156184796   -0.011227063192097568   -0.002933892319377272
0.013555557846239527   -0.033283434812310254   -0.0053187217412326475
0.007404279053894945   -0.011166551258328127   -0.002458872802674196
0.0008464061043074188   -0.0108337596653369   -0.0028594678243487907
0.013555557846239527   -0.033283434812310254   -0.0053187217412326475
0.0013094121980699095   -0.03292050146887606   -0.00527925689364363
0.0012038948413413257   -0.03274792859436558   -0.005301988645172992
0.0008464061043074188   -0.0108337596653369   -0.0028594678243487907
0.013555557846239527   -0.033283434812310254   -0.0053187217412326475
0.0012038948413413257   -0.03274792859436558   -0.005301988645172992
0.007404279053894945   -0.011166551258328127   -0.002458872802674196
0.0008464061043074188   -0.0108337596653369   -0.0028594678243487907
0.0013094121980699095   -0.03292050146887606   -0.00527925689364363
0.007413660156184796   -0.011227063192097568   -0.002933892319377272
0.0009483687219608845   -0.010818484801863286   -0.002904220663601997
0.0013094121980699095   -0.03292050146887606   -0.00527925689364363
0.013555557846239527   -0.033283434812310254   -0.0053187217412326475
0.007413660156184796   -0.011227063192097568   -0.002933892319377272
0.013487933012541335   -0.03310386439714654   -0.005682521839088576
0.0009483687219608845   -0.010818484801863286   -0.002904220663601997
0.007378646725543285   -0.011066717852764857   -0.0033892007109831263
0.013487933012541335   -0.03310386439714654   -0.005682521839088576
0.007413660156184796   -0.011227063192097568   -0.002933892319377272
0.0009483687219608845   -0.010818484801863286   -0.002904220663601997
0.013487933012541335   -0.03310386439714654   -0.005682521839088576
0.0013789753977047727   -0.03291036805740652   -0.005294088035313335
0.0013094121980699095   -0.03292050146887606   -0.00527925689364363
0.0009483687219608845   -0.010818484801863286   -0.002904220663601997
0.013487933012541335   -0.03310386439714654   -0.005682521839088576
0.0013094121980699095   -0.03292050146887606   -0.00527925689364363
0.007413660156184796   -0.011227063192097568   -0.002933892319377272
0.0009483687219608845   -0.010818484801863286   -0.002904220663601997
0.0013789753977047727   -0.03291036805740652   -0.005294088035313335
0.007378646725543285   -0.011066717852764857   -0.0033892007109831263
0.0010865302056694147   -0.010582919361897019   -0.002949874249215265
0.0013789753977047727   -0.03291036805740652   -0.005294088035313335
0.013487933012541335   -0.03310386439714654   -0.005682521839088576
0.007378646725543285   -0.011066717852764857   -0.0033892007109831263
0.013447371714562433   -0.03269570669858745   -0.0060753810552382674
0.0010865302056694147   -0.010582919361897019   -0.002949874249215265
0.007518414753896786   -0.010636090823420898   -0.0038355326244120928
0.013447371714562433   -0.03269570669858745   -0.0060753810552382674
0.007378646725543285   -0.011066717852764857   -0.0033892007109831263
0.0010865302056694147   -0.010582919361897019   -0.002949874249215265
0.013447371714562433   -0.03269570669858745   -0.0060753810552382674
0.001453943025204932   -0.03271193097575974   -0.005347081715485834
0.0013789753977047727   -0.03291036805740652   -0.005294088035313335
0.0010865302056694147   -0.010582919361897019   -0.002949874249215265
0.013447371714562433   -0.03269570669858745   -0.0060753810552382674
0.0013789753977047727   -0.03291036805740652   -0.005294088035313335
0.007378646725543285   -0.011066717852764857   -0.0033892007109831263
0.007404279053894945   -0.011166551258328127   -0.002458872802674196
0.013498366419049668   -0.03328371545098148   -0.004997423714334716
0.016696204769147568   -0.0124859044889361   -0.0023174952062463595
0.007413660156184796   -0.011227063192097568   -0.002933892319377272
0.013498366419049668   -0.03328371545098148   -0.004997423714334716
0.02832782352735463   -0.03428049137004167   -0.00491264750194848
0.016696204769147568   -0.0124859044889361   -0.0023174952062463595
0.027744204881387256   -0.0341886341740989   -0.005634818537388748
0.007413660156184796   -0.011227063192097568   -0.002933892319377272
0.01567551431043488   -0.012350822314501181   -0.003393352826969012
0.027744204881387256   -0.0341886341740989   -0.005634818537388748
0.016696204769147568   -0.0124859044889361   -0.0023174952062463595
0.007413660156184796   -0.011227063192097568   -0.002933892319377272
0.027744204881387256   -0.0341886341740989   -0.005634818537388748
0.013555557846239527   -0.033283434812310254   -0.0053187217412326475
0.013498366419049668   -0.03328371545098148   -0.004997423714334716
0.007413660156184796   -0.011227063192097568   -0.002933892319377272
0.027744204881387256   -0.0341886341740989   -0.005634818537388748
0.013498366419049668   -0.03328371545098148   -0.004997423714334716
0.016696204769147568   -0.0124859044889361   -0.0023174952062463595
0.007413660156184796   -0.011227063192097568   -0.002933892319377272
0.013555557846239527   -0.033283434812310254   -0.0053187217412326475
0.01567551431043488   -0.012350822314501181   -0.003393352826969012
0.007378646725543285   -0.011066717852764857   -0.0033892007109831263
0.013555557846239527   -0.033283434812310254   -0.0053187217412326475
0.027744204881387256   -0.0341886341740989   -0.005634818537388748
0.01567551431043488   -0.012350822314501181   -0.003393352826969012
0.027223257976844297   -0.033911531712540584   -0.0064464753670332295
0.007378646725543285   -0.011066717852764857   -0.0033892007109831263
0.015203359806279664   -0.01209400620360882   -0.004302822534865659
0.027223257976844297   -0.033911531712540584   -0.0064464753670332295
0.01567551431043488   -0.012350822314501181   -0.003393352826969012
0.007378646725543285   -0.011066717852764857   -0.0033892007109831263
0.027223257976844297   -0.033911531712540584   -0.0064464753670332295
0.013487933012541335   -0.03310386439714654   -0.005682521839088576
0.013555557846239527   -0.033283434812310254   -0.0053187217412326475
0.007378646725543285   -0.011066717852764857   -0.0033892007109831263
0.027223257976844297   -0.033911531712540584   -0.0064464753670332295
0.013555557846239527   -0.033283434812310254   -0.0053187217412326475
0.01567551431043488   -0.012350822314501181   -0.003393352826969012
0.007378646725543285   -0.011066717852764857   -0.0033892007109831263
0.013487933012541335   -0.03310386439714654   -0.005682521839088576
0.015203359806279664   -0.01209400620360882   -0.004302822534865659
0.007518414753896786   -0.010636090823420898   -0.0038355326244120928
0.013487933012541335   -0.03310386439714654   -0.005682521839088576
0.027223257976844297   -0.033911531712540584   -0.0064464753670332295
0.015203359806279664   -0.01209400620360882   -0.004302822534865659
0.026445742815911857   -0.03329340450592197   -0.0072909116738510615
0.007518414753896786   -0.010636090823420898   -0.0038355326244120928
0.014502734370920506   -0.011435933940034924   -0.0052645640049032785
0.026445742815911857   -0.03329340450592197   -0.0072909116738510615
0.015203359806279664   -0.01209400620360882   -0.004302822534865659
0.007518414753896786   -0.010636090823420898   -0.0038355326244120928
0.026445742815911857   -0.03329340450592197   -0.0072909116738510615
0.013447371714562433   -0.03269570669858745   -0.0060753810552382674
0.013487933012541335   -0.03310386439714654   -0.005682521839088576
0.007518414753896786   -0.010636090823420898   -0.0038355326244120928
0.026445742815911857   -0.03329340450592197   -0.0072909116738510615
0.013487933012541335   -0.03310386439714654   -0.005682521839088576
0.015203359806279664   -0.01209400620360882   -0.004302822534865659
-0.03514148261617318   -0.03438486675883281   -0.008480817898785142
-0.048182300545505645   -0.06455305479913304   -0.009655840720908226
-0.022430650055130716   -0.033257245101074195   -0.006978023799483566
-0.03620021935975262   -0.035179481228326585   -0.00735098337695148
-0.048182300545505645   -0.06455305479913304   -0.009655840720908226
-0.030974362644175923   -0.0636902035713785   -0.008435003235085736
-0.022430650055130716   -0.033257245101074195   -0.006978023799483566
-0.031047599211830864   -0.06418270826152435   -0.007894834683050769
-0.03620021935975262   -0.035179481228326585   -0.00735098337695148
-0.02246157305659281   -0.03382703321038116   -0.0062826536088698886
-0.031047599211830864   -0.06418270826152435   -0.007894834683050769
-0.022430650055130716   -0.033257245101074195   -0.006978023799483566
-0.03620021935975262   -0.035179481228326585   -0.00735098337695148
-0.031047599211830864   -0.06418270826152435   -0.007894834683050769
-0.04904639065916185   -0.06522584239139957   -0.008811724427986417
-0.048182300545505645   -0.06455305479913304   -0.009655840720908226
-0.03620021935975262   -0.035179481228326585   -0.00735098337695148
-0.031047599211830864   -0.06418270826152435   -0.007894834683050769
-0.048182300545505645   -0.06455305479913304   -0.009655840720908226
-0.022430650055130716   -0.033257245101074195   -0.006978023799483566
-0.03620021935975262   -0.035179481228326585   -0.00735098337695148
-0.04904639065916185   -0.06522584239139957   -0.008811724427986417
-0.02246157305659281   -0.03382703321038116   -0.0062826536088698886
-0.03693768772635204   -0.03562785792899685   -0.006244285392221728
-0.04904639065916185   -0.06522584239139957   -0.008811724427986417
-0.031047599211830864   -0.06418270826152435   -0.007894834683050769
-0.02246157305659281   -0.03382703321038116   -0.0062826536088698886
-0.031133191819726867   -0.06452504121029114   -0.007393566254434295
-0.03693768772635204   -0.03562785792899685   -0.006244285392221728
-0.022554788928957646   -0.03417397652230922   -0.005614143909135739
-0.031133191819726867   -0.06452504121029114   -0.007393566254434295
-0.02246157305659281   -0.03382703321038116   -0.0062826536088698886
-0.03693768772635204   -0.03562785792899685   -0.006244285392221728
-0.031133191819726867   -0.06452504121029114   -0.007393566254434295
-0.04959356596007296   -0.06564726814873446   -0.008024648856830867
-0.04904639065916185   -0.06522584239139957   -0.008811724427986417
-0.03693768772635204   -0.03562785792899685   -0.006244285392221728
-0.031133191819726867   -0.06452504121029114   -0.007393566254434295
-0.04904639065916185   -0.06522584239139957   -0.008811724427986417
-0.02246157305659281   -0.03382703321038116   -0.0062826536088698886
-0.03693768772635204   -0.03562785792899685   -0.006244285392221728
-0.04959356596007296   -0.06564726814873446   -0.008024648856830867
-0.022554788928957646   -0.03417397652230922   -0.005614143909135739
-0.0378095486249748   -0.03588737189861485   -0.005236758636650107
-0.04959356596007296   -0.06564726814873446   -0.008024648856830867
-0.031133191819726867   -0.06452504121029114   -0.007393566254434295
-0.022554788928957646   -0.03417397652230922   -0.005614143909135739
-0.031080461555143293   -0.0647496409790277   -0.006922923464743546
-0.0378095486249748   -0.03588737189861485   -0.005236758636650107
-0.022492522661054382   -0.03435334571849601   -0.0049881090052698316
-0.031080461555143293   -0.0647496409790277   -0.006922923464743546
-0.022554788928957646   -0.03417397652230922   -0.005614143909135739
-0.0378095486249748   -0.03588737189861485   -0.005236758636650107
-0.031080461555143293   -0.0647496409790277   -0.006922923464743546
-0.05021614477778913   -0.06594933842618181   -0.007299943570612736
-0.04959356596007296   -0.06564726814873446   -0.008024648856830867
-0.0378095486249748   -0.03588737189861485   -0.005236758636650107
-0.031080461555143293   -0.0647496409790277   -0.006922923464743546
-0.04959356596007296   -0.06564726814873446   -0.008024648856830867
-0.022554788928957646   -0.03417397652230922   -0.005614143909135739
-0.022430650055130716   -0.033257245101074195   -0.006978023799483566
-0.030974362644175923   -0.0636902035713785   -0.008435003235085736
-0.010400094581319371   -0.03273257828759938   -0.005951755965225043
-0.02246157305659281   -0.03382703321038116   -0.0062826536088698886
-0.030974362644175923   -0.0636902035713785   -0.008435003235085736
-0.014742304474189479   -0.06326042574168303   -0.007586596672580362
-0.010400094581319371   -0.03273257828759938   -0.005951755965225043
-0.01471068110325745   -0.06357572298121353   -0.007281821583061182
-0.02246157305659281   -0.03382703321038116   -0.0062826536088698886
-0.010314887354805454   -0.03309560150825362   -0.005595830774620738
-0.01471068110325745   -0.06357572298121353   -0.007281821583061182
-0.010400094581319371   -0.03273257828759938   -0.005951755965225043
-0.02246157305659281   -0.03382703321038116   -0.0062826536088698886
-0.01471068110325745   -0.06357572298121353   -0.007281821583061182
-0.031047599211830864   -0.06418270826152435   -0.007894834683050769
-0.030974362644175923   -0.0636902035713785   -0.008435003235085736
-0.02246157305659281   -0.03382703321038116   -0.0062826536088698886
-0.01471068110325745   -0.06357572298121353   -0.007281821583061182
-0.030974362644175923   -0.0636902035713785   -0.008435003235085736
-0.010400094581319371   -0.03273257828759938   -0.005951755965225043
-0.02246157305659281   -0.03382703321038116   -0.0062826536088698886
-0.031047599211830864   -0.06418270826152435   -0.007894834683050769
-0.010314887354805454   -0.03309560150825362   -0.005595830774620738
-0.022554788928957646   -0.03417397652230922   -0.005614143909135739
-0.031047599211830864   -0.06418270826152435   -0.007894834683050769
-0.01471068110325745   -0.06357572298121353   -0.007281821583061182
-0.010314887354805454   -0.03309560150825362   -0.005595830774620738
-0.014670721945664666   -0.06376076837545161   -0.007014120742784068
-0.022554788928957646   -0.03417397652230922   -0.005614143909135739
-0.010239888888433246   -0.03327151661745518   -0.005272985953388826
-0.014670721945664666   -0.06376076837545161   -0.007014120742784068
-0.010314887354805454   -0.03309560150825362   -0.005595830774620738
-0.022554788928957646   -0.03417397652230922   -0.005614143909135739
-0.014670721945664666   -0.06376076837545161   -0.007014120742784068
-0.031133191819726867   -0.06452504121029114   -0.007393566254434295
-0.031047599211830864   -0.06418270826152435   -0.007894834683050769
-0.022554788928957646   -0.03417397652230922   -0.005614143909135739
-0.014670721945664666   -0.06376076837545161   -0.007014120742784068
-0.031047599211830864   -0.06418270826152435   -0.007894834683050769
-0.010314887354805454   -0.03309560150825362   -0.005595830774620738
-0.022554788928957646   -0.03417397652230922   -0.005614143909135739
-0.031133191819726867   -0.06452504121029114   -0.007393566254434295
-0.010239888888433246   -0.03327151661745518   -0.005272985953388826
-0.022492522661054382   -0.03435334571849601   -0.0049881090052698316
-0.031133191819726867   -0.06452504121029114   -0.007393566254434295
-0.014670721945664666   -0.06376076837545161   -0.007014120742784068
-0.010239888888433246   -0.03327151661745518   -0.005272985953388826
-0.01460172130072328   -0.06381820844212795   -0.006783368650515991
-0.022492522661054382   -0.03435334571849601   -0.0049881090052698316
-0.01012586108581836   -0.03326696608824387   -0.004991684362473393
-0.01460172130072328   -0.06381820844212795   -0.006783368650515991
-0.010239888888433246   -0.03327151661745518   -0.005272985953388826
-0.022492522661054382   -0.03435334571849601   -0.0049881090052698316
-0.01460172130072328   -0.06381820844212795   -0.006783368650515991
-0.031080461555143293   -0.0647496409790277   -0.006922923464743546
-0.031133191819726867   -0.06452504121029114   -0.007393566254434295
-0.022492522661054382   -0.03435334571849601   -0.0049881090052698316
-0.01460172130072328   -0.06381820844212795   -0.006783368650515991
-0.031133191819726867   -0.06452504121029114   -0.007393566254434295
-0.010239888888433246   -0.03327151661745518   -0.005272985953388826
-0.010400094581319371   -0.03273257828759938   -0.005951755965225043
-0.014742304474189479   -0.06326042574168303   -0.007586596672580362
0.0012038948413413257   -0.03274792859436558   -0.005301988645172992
-0.010314887354805454   -0.03309560150825362   -0.005595830774620738
-0.014742304474189479   -0.06326042574168303   -0.007586596672580362
0.0010152812082515378   -0.06323763579541106   -0.007059597582442808
0.0012038948413413257   -0.03274792859436558   -0.005301988645172992
0.0010776979294708998   -0.0633786320872616   -0.0069889212254739515
-0.010314887354805454   -0.03309560150825362   -0.005595830774620738
0.0013094121980699095   -0.03292050146887606   -0.00527925689364363
0.0010776979294708998   -0.0633786320872616   -0.0069889212254739515
0.0012038948413413257   -0.03274792859436558   -0.005301988645172992
-0.010314887354805454   -0.03309560150825362   -0.005595830774620738
0.0010776979294708998   -0.0633786320872616   -0.0069889212254739515
-0.01471068110325745   -0.06357572298121353   -0.007281821583061182
-0.014742304474189479   -0.06326042574168303   -0.007586596672580362
-0.010314887354805454   -0.03309560150825362   -0.005595830774620738
0.0010776979294708998   -0.0633786320872616   -0.0069889212254739515
-0.014742304474189479   -0.06326042574168303   -0.007586596672580362
0.0012038948413413257   -0.03274792859436558   -0.005301988645172992
-0.010314887354805454   -0.03309560150825362   -0.005595830774620738
-0.01471068110325745   -0.06357572298121353   -0.007281821583061182
0.0013094121980699095   -0.03292050146887606   -0.00527925689364363
-0.010239888888433246   -0.03327151661745518   -0.005272985953388826
-0.01471068110325745   -0.06357572298121353   -0.007281821583061182
0.0010776979294708998   -0.0633786320872616   -0.0069889212254739515
0.0013094121980699095   -0.03292050146887606   -0.00527925689364363
0.0011158233909535494   -0.0633899097246984   -0.006954332975942844
-0.010239888888433246   -0.03327151661745518   -0.005272985953388826
0.0013789753977047727   -0.03291036805740652   -0.005294088035313335
0.0011158233909535494   -0.0633899097246984   -0.006954332975942844
0.0013094121980699095   -0.03292050146887606   -0.00527925689364363
-0.010239888888433246   -0.03327151661745518   -0.005272985953388826
0.0011158233909535494   -0.0633899097246984   -0.006954332975942844
-0.014670721945664666   -0.06376076837545161   -0.007014120742784068
-0.01471068110325745   -0.06357572298121353   -0.007281821583061182
-0.010239888888433246   -0.03327151661745518   -0.005272985953388826
0.0011158233909535494   -0.0633899097246984   -0.006954332975942844
-0.01471068110325745   -0.06357572298121353   -0.007281821583061182
0.0013094121980699095   -0.03292050146887606   -0.00527925689364363
-0.010239888888433246   -0.03327151661745518   -0.005272985953388826
-0.014670721945664666   -0.06376076837545161   -0.007014120742784068
0.0013789753977047727   -0.03291036805740652   -0.005294088035313335
-0.01012586108581836   -0.03326696608824387   -0.004991684362473393
-0.014670721945664666   -0.06376076837545161   -0.007014120742784068
0.0011158233909535494   -0.0633899097246984   -0.006954332975942844
0.0013789753977047727   -0.03291036805740652   -0.005294088035313335
0.0011418773112845816   -0.06326952767387967   -0.0069580457879399454
-0.01012586108581836   -0.03326696608824387   -0.004991684362473393
0.001453943025204932   -0.03271193097575974   -0.005347081715485834
0.0011418773112845816   -0.06326952767387967   -0.0069580457879399454
0.0013789753977047727   -0.03291036805740652   -0.005294088035313335
-0.01012586108581836   -0.03326696608824387   -0.004991684362473393
0.0011418773112845816   -0.06326952767387967   -0.0069580457879399454
-0.01460172130072328   -0.06381820844212795   -0.006783368650515991
-0.014670721945664666   -0.06376076837545161   -0.007014120742784068
-0.01012586108581836   -0.03326696608824387   -0.004991684362473393
0.0011418773112845816   -0.06326952767387967   -0.0069580457879399454
-0.014670721945664666   -0.06376076837545161   -0.007014120742784068
0.0013789753977047727   -0.03291036805740652   -0.005294088035313335
0.0012038948413413257   -0.03274792859436558   -0.005301988645172992
0.0010152812082515378   -0.06323763579541106   -0.007059597582442808
0.013498366419049668   -0.03328371545098148   -0.004997423714334716
0.0013094121980699095   -0.03292050146887606   -0.00527925689364363
0.0010152812082515378   -0.06323763579541106   -0.007059597582442808
0.017443925047586923   -0.06359768858065941   -0.006844849642501079
0.013498366419049668   -0.03328371545098148   -0.004997423714334716
0.017497249140371145   -0.06357910470364739   -0.007013175792314762
0.0013094121980699095   -0.03292050146887606   -0.00527925689364363
0.013555557846239527   -0.033283434812310254   -0.0053187217412326475
0.017497249140371145   -0.06357910470364739   -0.007013175792314762
0.013498366419049668   -0.03328371545098148   -0.004997423714334716
0.0013094121980699095   -0.03292050146887606   -0.00527925689364363
0.017497249140371145   -0.06357910470364739   -0.007013175792314762
0.0010776979294708998   -0.0633786320872616   -0.0069889212254739515
0.0010152812082515378   -0.06323763579541106   -0.007059597582442808
0.0013094121980699095   -0.03292050146887606   -0.00527925689364363
0.017497249140371145   -0.06357910470364739   -0.007013175792314762
0.0010152812082515378   -0.06323763579541106   -0.007059597582442808
0.013498366419049668   -0.03328371545098148   -0.004997423714334716
0.0013094121980699095   -0.03292050146887606   -0.00527925689364363
0.0010776979294708998   -0.0633786320872616   -0.0069889212254739515
0.013555557846239527   -0.033283434812310254   -0.0053187217412326475
0.0013789753977047727   -0.03291036805740652   -0.005294088035313335
0.0010776979294708998   -0.0633786320872616   -0.0069889212254739515
0.017497249140371145   -0.06357910470364739   -0.007013175792314762
0.013555557846239527   -0.033283434812310254   -0.0053187217412326475
0.01744702401940457   -0.0634334132853031   -0.007214938238428517
0.0013789753977047727   -0.03291036805740652   -0.005294088035313335
0.013487933012541335   -0.03310386439714654   -0.005682521839088576
0.01744702401940457   -0.0634334132853031   -0.007214938238428517
0.013555557846239527   -0.033283434812310254   -0.0053187217412326475
0.0013789753977047727   -0.03291036805740652   -0.005294088035313335
0.01744702401940457   -0.0634334132853031   -0.007214938238428517
0.0011158233909535494   -0.0633899097246984   -0.006954332975942844
0.0010776979294708998   -0.0633786320872616   -0.0069889212254739515
0.0013789753977047727   -0.03291036805740652   -0.005294088035313335
0.01744702401940457   -0.0634334132853031   -0.007214938238428517
0.0010776979294708998   -0.0633786320872616   -0.0069889212254739515
0.013555557846239527   -0.033283434812310254   -0.0053187217412326475
0.0013789753977047727   -0.03291036805740652   -0.005294088035313335
0.0011158233909535494   -0.0633899097246984   -0.006954332975942844
0.013487933012541335   -0.03310386439714654   -0.005682521839088576
0.001453943025204932   -0.03271193097575974   -0.005347081715485834
0.0011158233909535494   -0.0633899097246984   -0.006954332975942844
0.01744702401940457   -0.0634334132853031   -0.007214938238428517
0.013487933012541335   -0.03310386439714654   -0.005682521839088576
0.017375107276079563   -0.06312933001785087   -0.007454082535092802
0.001453943025204932   -0.03271193097575974   -0.005347081715485834
0.013447371714562433   -0.03269570669858745   -0.0060753810552382674
0.017375107276079563   -0.06312933001785087   -0.007454082535092802
0.013487933012541335   -0.03310386439714654   -0.005682521839088576
0.001453943025204932   -0.03271193097575974   -0.005347081715485834
0.017375107276079563   -0.06312933001785087   -0.007454082535092802
0.0011418773112845816   -0.06326952767387967   -0.0069580457879399454
0.0011158233909535494   -0.0633899097246984   -0.006954332975942844
0.001453943025204932   -0.03271193097575974   -0.005347081715485834
0.017375107276079563   -0.06312933001785087   -0.007454082535092802
0.0011158233909535494   -0.0633899097246984   -0.006954332975942844
0.013487933012541335   -0.03310386439714654   -0.005682521839088576
0.013498366419049668   -0.03328371545098148   -0.004997423714334716
0.017443925047586923   -0.06359768858065941   -0.006844849642501079
0.02832782352735463   -0.03428049137004167   -0.00491264750194848
0.013555557846239527   -0.033283434812310254   -0.0053187217412326475
0.017443925047586923   -0.06359768858065941   -0.006844849642501079
0.03615062566670998   -0.06425190231881829   -0.006845142991472008
0.02832782352735463   -0.03428049137004167   -0.00491264750194848
0.03582764410483693   -0.06414165466213056   -0.007283789657949364
0.013555557846239527   -0.033283434812310254   -0.0053187217412326475
0.027744204881387256   -0.0341886341740989   -0.005634818537388748
0.03582764410483693   -0.06414165466213056   -0.007283789657949364
0.02832782352735463   -0.03428049137004167   -0.00491264750194848
0.013555557846239527   -0.033283434812310254   -0.0053187217412326475
0.03582764410483693   -0.06414165466213056   -0.007283789657949364
0.017497249140371145   -0.06357910470364739   -0.007013175792314762
0.017443925047586923   -0.06359768858065941   -0.006844849642501079
0.013555557846239527   -0.033283434812310254   -0.0053187217412326475
0.03582764410483693   -0.06414165466213056   -0.007283789657949364
0.017443925047586923   -0.06359768858065941   -0.006844849642501079
0.02832782352735463   -0.03428049137004167   -0.00491264750194848
0.013555557846239527   -0.033283434812310254   -0.0053187217412326475
0.017497249140371145   -0.06357910470364739   -0.007013175792314762
0.027744204881387256   -0.0341886341740989   -0.005634818537388748
0.013487933012541335   -0.03310386439714654   -0.005682521839088576
0.017497249140371145   -0.06357910470364739   -0.007013175792314762
0.03582764410483693   -0.06414165466213056   -0.007283789657949364
0.027744204881387256   -0.0341886341740989   -0.005634818537388748
0.035506435540520666   -0.0639170104995596   -0.0077827259194689176
0.013487933012541335   -0.03310386439714654   -0.005682521839088576
0.027223257976844297   -0.033911531712540584   -0.0064464753670332295
0.035506435540520666   -0.0639170104995596   -0.0077827259194689176
0.027744204881387256   -0.0341886341740989   -0.005634818537388748
0.013487933012541335   -0.03310386439714654   -0.005682521839088576
0.035506435540520666   -0.0639170104995596   -0.0077827259194689176
0.01744702401940457   -0.0634334132853031   -0.007214938238428517
0.017497249140371145   -0.06357910470364739   -0.007013175792314762
0.013487933012541335   -0.03310386439714654   -0.005682521839088576
0.035506435540520666   -0.0639170104995596   -0.0077827259194689176
0.017497249140371145   -0.06357910470364739   -0.007013175792314762
0.027744204881387256   -0.0341886341740989   -0.005634818537388748
0.013487933012541335   -0.03310386439714654   -0.005682521839088576
0.01744702401940457   -0.0634334132853031   -0.007214938238428517
0.027223257976844297   -0.033911531712540584   -0.0064464753670332295
0.013447371714562433   -0.03269570669858745   -0.0060753810552382674
0.01744702401940457   -0.0634334132853031   -0.007214938238428517
0.035506435540520666   -0.0639170104995596   -0.0077827259194689176
0.027223257976844297   -0.033911531712540584   -0.0064464753670332295
0.034941265729570486   -0.06344399994641298   -0.008342013867820451
0.013447371714562433   -0.03269570669858745   -0.0060753810552382674
0.026445742815911857   -0.03329340450592197   -0.0072909116738510615
0.034941265729570486   -0.06344399994641298   -0.008342013867820451
0.027223257976844297   -0.033911531712540584   -0.0064464753670332295
0.013447371714562433   -0.03269570669858745   -0.0060753810552382674
0.034941265729570486   -0.06344399994641298   -0.008342013867820451
0.017375107276079563   -0.06312933001785087   -0.007454082535092802
0.01744702401940457   -0.0634334132853031   -0.007214938238428517
0.013447371714562433   -0.03269570669858745   -0.0060753810552382674
0.034941265729570486   -0.06344399994641298   -0.008342013867820451
0.01744702401940457   -0.0634334132853031   -0.007214938238428517
0.027223257976844297   -0.033911531712540584   -0.0064464753670332295
-0.048182300545505645   -0.06455305479913304   -0.009655840720908226
-0.0575735531380061   -0.10036484523244835   -0.010292542818183849
-0.030974362644175923   -0.0636902035713785   -0.008435003235085736
-0.04904639065916185   -0.06522584239139957   -0.008811724427986417
-0.0575735531380061   -0.10036484523244835   -0.010292542818183849
-0.03736114578620319   -0.09981481182471323   -0.009295404962565396
-0.030974362644175923   -0.0636902035713785   -0.008435003235085736
-0.037411285583759384   -0.10023915964360408   -0.008908244618781109
-0.04904639065916185   -0.06522584239139957   -0.008811724427986417
-0.031047599211830864   -0.06418270826152435   -0.007894834683050769
-0.037411285583759384   -0.10023915964360408   -0.008908244618781109
-0.030974362644175923   -0.0636902035713785   -0.008435003235085736
-0.04904639065916185   -0.06522584239139957   -0.008811724427986417
-0.037411285583759384   -0.10023915964360408   -0.008908244618781109
-0.05815858907074468   -0.10093867824612399   -0.009730769121940496
-0.0575735531380061   -0.10036484523244835   -0.010292542818183849
-0.04904639065916185   -0.06522584239139957   -0.008811724427986417
-0.037411285583759384   -0.10023915964360408   -0.008908244618781109
-0.0575735531380061   -0.10036484523244835   -0.010292542818183849
-0.030974362644175923   -0.0636902035713785   -0.008435003235085736
-0.04904639065916185   -0.06522584239139957   -0.008811724427986417
-0.05815858907074468   -0.10093867824612399   -0.009730769121940496
-0.031047599211830864   -0.06418270826152435   -0.007894834683050769
-0.04959356596007296   -0.06564726814873446   -0.008024648856830867
-0.05815858907074468   -0.10093867824612399   -0.009730769121940496
-0.037411285583759384   -0.10023915964360408   -0.008908244618781109
-0.031047599211830864   -0.06418270826152435   -0.007894834683050769
-0.037448719775300336   -0.100575152771222   -0.008559574089017127
-0.04959356596007296   -0.06564726814873446   -0.008024648856830867
-0.031133191819726867   -0.06452504121029114   -0.007393566254434295
-0.037448719775300336   -0.100575152771222   -0.008559574089017127
-0.031047599211830864   -0.06418270826152435   -0.007894834683050769
-0.04959356596007296   -0.06564726814873446   -0.008024648856830867
-0.037448719775300336   -0.100575152771222   -0.008559574089017127
-0.05849684217817017   -0.10134416497907062   -0.0092226811693293
-0.05815858907074468   -0.10093867824612399   -0.009730769121940496
-0.04959356596007296   -0.06564726814873446   -0.008024648856830867
-0.037448719775300336   -0.100575152771222   -0.008559574089017127
-0.05815858907074468   -0.10093867824612399   -0.009730769121940496
-0.031047599211830864   -0.06418270826152435   -0.007894834683050769
-0.04959356596007296   -0.06564726814873446   -0.008024648856830867
-0.05849684217817017   -0.10134416497907062   -0.0092226811693293
-0.031133191819726867   -0.06452504121029114   -0.007393566254434295
-0.05021614477778913   -0.06594933842618181   -0.007299943570612736
-0.05849684217817017   -0.10134416497907062   -0.0092226811693293
-0.037448719775300336   -0.100575152771222   -0.008559574089017127
-0.031133191819726867   -0.06452504121029114   -0.007393566254434295
-0.037376501473486895   -0.10085060844041842   -0.008244309474743364
-0.05021614477778913   -0.06594933842618181   -0.007299943570612736
-0.031080461555143293   -0.0647496409790277   -0.006922923464743546
-0.037376501473486895   -0.10085060844041842   -0.008244309474743364
-0.031133191819726867   -0.06452504121029114   -0.007393566254434295
-0.05021614477778913   -0.06594933842618181   -0.007299943570612736
-0.037376501473486895   -0.10085060844041842   -0.008244309474743364
-0.058845689729240154   -0.10170676884848047   -0.00877463044551502
-0.05849684217817017   -0.10134416497907062   -0.0092226811693293
-0.05021614477778913   -0.06594933842618181   -0.007299943570612736
-0.037376501473486895   -0.10085060844041842   -0.008244309474743364
-0.05849684217817017   -0.10134416497907062   -0.0092226811693293
-0.031133191819726867   -0.06452504121029114   -0.007393566254434295
-0.030974362644175923   -0.0636902035713785   -0.008435003235085736
-0.03736114578620319   -0.09981481182471323   -0.009295404962565396
-0.014742304474189479   -0.06326042574168303   -0.007586596672580362
-0.031047599211830864   -0.06418270826152435   -0.007894834683050769
-0.03736114578620319   -0.09981481182471323   -0.009295404962565396
-0.01840820564306261   -0.09953119710599777   -0.008604784984462363
-0.014742304474189479   -0.06326042574168303   -0.007586596672580362
-0.018378288804042027   -0.09979783588661488   -0.008349757044385056
-0.031047599211830864   -0.06418270826152435   -0.007894834683050769
-0.01471068110325745   -0.06357572298121353   -0.007281821583061182
-0.018378288804042027   -0.09979783588661488   -0.008349757044385056
-0.014742304474189479   -0.06326042574168303   -0.007586596672580362
-0.031047599211830864   -0.06418270826152435   -0.007894834683050769
-0.018378288804042027   -0.09979783588661488   -0.008349757044385056
-0.037411285583759384   -0.10023915964360408   -0.008908244618781109
-0.03736114578620319   -0.09981481182471323   -0.009295404962565396
-0.031047599211830864   -0.06418270826152435   -0.007894834683050769
-0.018378288804042027   -0.09979783588661488   -0.008349757044385056
-0.03736114578620319   -0.09981481182471323   -0.009295404962565396
-0.014742304474189479   -0.06326042574168303   -0.007586596672580362
-0.031047599211830864   -0.06418270826152435   -0.007894834683050769
-0.037411285583759384   -0.10023915964360408   -0.008908244618781109
-0.01471068110325745   -0.06357572298121353   -0.007281821583061182
-0.031133191819726867   -0.06452504121029114   -0.007393566254434295
-0.037411285583759384   -0.10023915964360408   -0.008908244618781109
-0.018378288804042027   -0.09979783588661488   -0.008349757044385056
-0.01471068110325745   -0.06357572298121353   -0.007281821583061182
-0.018335504020560417   -0.09999047966790157   -0.008132666288978178
-0.031133191819726867   -0.06452504121029114   -0.007393566254434295
-0.014670721945664666   -0.06376076837545161   -0.007014120742784068
-0.018335504020560417   -0.09999047966790157   -0.008132666288978178
-0.01471068110325745   -0.06357572298121353   -0.007281821583061182
-0.031133191819726867   -0.06452504121029114   -0.007393566254434295
-0.018335504020560417   -0.09999047966790157   -0.008132666288978178
-0.037448719775300336   -0.100575152771222   -0.008559574089017127
-0.037411285583759384   -0.10023915964360408   -0.008908244618781109
-0.031133191819726867   -0.06452504121029114   -0.007393566254434295
-0.018335504020560417   -0.09999047966790157   -0.008132666288978178
-0.037411285583759384   -0.10023915964360408   -0.008908244618781109
-0.01471068110325745   -0.06357572298121353   -0.007281821583061182
-0.031133191819726867   -0.06452504121029114   -0.007393566254434295
-0.037448719775300336   -0.100575152771222   -0.008559574089017127
-0.014670721945664666   -0.06376076837545161   -0.007014120742784068
-0.031080461555143293   -0.0647496409790277   -0.006922923464743546
-0.037448719775300336   -0.100575152771222   -0.008559574089017127
-0.018335504020560417   -0.09999047966790157   -0.008132666288978178
-0.014670721945664666   -0.06376076837545161   -0.007014120742784068
-0.0182692665313478   -0.10011038581028472   -0.007954122605114267
-0.031080461555143293   -0.0647496409790277   -0.006922923464743546
-0.01460172130072328   -0.06381820844212795   -0.006783368650515991
-0.0182692665313478   -0.10011038581028472   -0.007954122605114267
-0.014670721945664666   -0.06376076837545161   -0.007014120742784068
-0.031080461555143293   -0.0647496409790277   -0.006922923464743546
-0.0182692665313478   -0.10011038581028472   -0.007954122605114267
-0.037376501473486895   -0.10085060844041842   -0.008244309474743364
-0.037448719775300336   -0.100575152771222   -0.008559574089017127
-0.031080461555143293   -0.0647496409790277   -0.006922923464743546
-0.0182692665313478   -0.10011038581028472   -0.007954122605114267
-0.037448719775300336   -0.100575152771222   -0.008559574089017127
-0.014670721945664666   -0.06376076837545161   -0.007014120742784068
-0.014742304474189479   -0.06326042574168303   -0.007586596672580362
-0.01840820564306261   -0.09953119710599777   -0.008604784984462363
0.0010152812082515378   -0.06323763579541106   -0.007059597582442808
-0.01471068110325745   -0.06357572298121353   -0.007281821583061182
-0.01840820564306261   -0.09953119710599777   -0.008604784984462363
3.129922667681109e-05   -0.09948283865084386   -0.008201536635405775
0.0010152812082515378   -0.06323763579541106   -0.007059597582442808
9.197309144850629e-05   -0.09959107503374919   -0.00807960672275063
-0.01471068110325745   -0.06357572298121353   -0.007281821583061182
0.0010776979294708998   -0.0633786320872616   -0.0069889212254739515
9.197309144850629e-05   -0.09959107503374919   -0.00807960672275063
0.0010152812082515378   -0.06323763579541106   -0.007059597582442808
-0.01471068110325745   -0.06357572298121353   -0.007281821583061182
9.197309144850629e-05   -0.09959107503374919   -0.00807960672275063
-0.018378288804042027   -0.09979783588661488   -0.008349757044385056
-0.01840820564306261   -0.09953119710599777   -0.008604784984462363
-0.01471068110325745   -0.06357572298121353   -0.007281821583061182
9.197309144850629e-05   -0.09959107503374919   -0.00807960672275063
-0.01840820564306261   -0.09953119710599777   -0.008604784984462363
0.0010152812082515378   -0.06323763579541106   -0.007059597582442808
-0.01471068110325745   -0.06357572298121353   -0.007281821583061182
-0.018378288804042027   -0.09979783588661488   -0.008349757044385056
0.0010776979294708998   -0.0633786320872616   -0.0069889212254739515
-0.014670721945664666   -0.06376076837545161   -0.007014120742784068
-0.018378288804042027   -0.09979783588661488   -0.008349757044385056
9.197309144850629e-05   -0.09959107503374919   -0.00807960672275063
0.0010776979294708998   -0.0633786320872616   -0.0069889212254739515
0.00013371274169779058   -0.09962481258335766   -0.007995115118125918
-0.014670721945664666   -0.06376076837545161   -0.007014120742784068
0.0011158233909535494   -0.0633899097246984   -0.006954332975942844
0.00013371274169779058   -0.09962481258335766   -0.007995115118125918
0.0010776979294708998   -0.0633786320872616   -0.0069889212254739515
-0.014670721945664666   -0.06376076837545161   -0.007014120742784068
0.00013371274169779058   -0.09962481258335766   -0.007995115118125918
-0.018335504020560417   -0.09999047966790157   -0.008132666288978178
-0.018378288804042027   -0.09979783588661488   -0.008349757044385056
-0.014670721945664666   -0.06376076837545161   -0.007014120742784068
0.00013371274169779058   -0.09962481258335766   -0.007995115118125918
-0.018378288804042027   -0.09979783588661488   -0.008349757044385056
0.0010776979294708998   -0.0633786320872616   -0.0069889212254739515
-0.014670721945664666   -0.06376076837545161   -0.007014120742784068
-0.018335504020560417   -0.09999047966790157   -0.008132666288978178
0.0011158233909535494   -0.0633899097246984   -0.006954332975942844
-0.01460172130072328   -0.06381820844212795   -0.006783368650515991
-0.018335504020560417   -0.09999047966790157   -0.008132666288978178
0.00013371274169779058   -0.09962481258335766   -0.007995115118125918
0.0011158233909535494   -0.0633899097246984   -0.006954332975942844
0.00015826955047981017   -0.09958303408424615   -0.007949733798419572
-0.01460172130072328   -0.06381820844212795   -0.006783368650515991
0.0011418773112845816   -0.06326952767387967   -0.0069580457879399454
0.00015826955047981017   -0.09958303408424615   -0.007949733798419572
0.0011158233909535494   -0.0633899097246984   -0.006954332975942844
-0.01460172130072328   -0.06381820844212795   -0.006783368650515991
0.00015826955047981017   -0.09958303408424615   -0.007949733798419572
-0.0182692665313478   -0.10011038581028472   -0.007954122605114267
-0.018335504020560417   -0.09999047966790157   -0.008132666288978178
-0.01460172130072328   -0.06381820844212795   -0.006783368650515991
0.00015826955047981017   -0.09958303408424615   -0.007949733798419572
-0.018335504020560417   -0.09999047966790157   -0.008132666288978178
0.0011158233909535494   -0.0633899097246984   -0.006954332975942844
0.0010152812082515378   -0.06323763579541106   -0.007059597582442808
3.129922667681109e-05   -0.09948283865084386   -0.008201536635405775
0.017443925047586923   -0.06359768858065941   -0.006844849642501079
0.0010776979294708998   -0.0633786320872616   -0.0069889212254739515
3.129922667681109e-05   -0.09948283865084386   -0.008201536635405775
0.019104607630929894   -0.09964976450182515   -0.008083844526781944
0.017443925047586923   -0.06359768858065941   -0.006844849642501079
0.019179589013548368   -0.09960896604574225   -0.008097858037028186
0.0010776979294708998   -0.0633786320872616   -0.0069889212254739515
0.017497249140371145   -0.06357910470364739   -0.007013175792314762
0.019179589013548368   -0.09960896604574225   -0.008097858037028186
0.017443925047586923   -0.06359768858065941   -0.006844849642501079
0.0010776979294708998   -0.0633786320872616   -0.0069889212254739515
0.019179589013548368   -0.09960896604574225   -0.008097858037028186
9.197309144850629e-05   -0.09959107503374919   -0.00807960672275063
3.129922667681109e-05   -0.09948283865084386   -0.008201536635405775
0.0010776979294708998   -0.0633786320872616   -0.0069889212254739515
0.019179589013548368   -0.09960896604574225   -0.008097858037028186
3.129922667681109e-05   -0.09948283865084386   -0.008201536635405775
0.017443925047586923   -0.06359768858065941   -0.006844849642501079
0.0010776979294708998   -0.0633786320872616   -0.0069889212254739515
9.197309144850629e-05   -0.09959107503374919   -0.00807960672275063
0.017497249140371145   -0.06357910470364739   -0.007013175792314762
0.0011158233909535494   -0.0633899097246984   -0.006954332975942844
9.197309144850629e-05   -0.09959107503374919   -0.00807960672275063
0.019179589013548368   -0.09960896604574225   -0.008097858037028186
0.017497249140371145   -0.06357910470364739   -0.007013175792314762
0.019179961810245852   -0.09949917469900511   -0.0081473079604654
0.0011158233909535494   -0.0633899097246984   -0.006954332975942844
0.01744702401940457   -0.0634334132853031   -0.007214938238428517
0.019179961810245852   -0.09949917469900511   -0.0081473079604654
0.017497249140371145   -0.06357910470364739   -0.007013175792314762
0.0011158233909535494   -0.0633899097246984   -0.006954332975942844
0.019179961810245852   -0.09949917469900511   -0.0081473079604654
0.00013371274169779058   -0.09962481258335766   -0.007995115118125918
9.197309144850629e-05   -0.09959107503374919   -0.00807960672275063
0.0011158233909535494   -0.0633899097246984   -0.006954332975942844
0.019179961810245852   -0.09949917469900511   -0.0081473079604654
9.197309144850629e-05   -0.09959107503374919   -0.00807960672275063
0.017497249140371145   -0.06357910470364739   -0.007013175792314762
0.0011158233909535494   -0.0633899097246984   -0.006954332975942844
0.00013371274169779058   -0.09962481258335766   -0.007995115118125918
0.01744702401940457   -0.0634334132853031   -0.007214938238428517
0.0011418773112845816   -0.06326952767387967   -0.0069580457879399454
0.00013371274169779058   -0.09962481258335766   -0.007995115118125918
0.019179961810245852   -0.09949917469900511   -0.0081473079604654
0.01744702401940457   -0.0634334132853031   -0.007214938238428517
0.01913269544545521   -0.09929272174289129   -0.008233525980075197
0.0011418773112845816   -0.06326952767387967   -0.0069580457879399454
0.017375107276079563   -0.06312933001785087   -0.007454082535092802
0.01913269544545521   -0.09929272174289129   -0.008233525980075197
0.01744702401940457   -0.0634334132853031   -0.007214938238428517
0.0011418773112845816   -0.06326952767387967   -0.0069580457879399454
0.01913269544545521   -0.09929272174289129   -0.008233525980075197
0.00015826955047981017   -0.09958303408424615   -0.007949733798419572
0.00013371274169779058   -0.09962481258335766   -0.007995115118125918
0.0011418773112845816   -0.06326952767387967   -0.0069580457879399454
0.01913269544545521   -0.09929272174289129   -0.008233525980075197
0.00013371274169779058   -0.09962481258335766   -0.007995115118125918
0.01744702401940457   -0.0634334132853031   -0.007214938238428517
0.017443925047586923   -0.06359768858065941   -0.006844849642501079
0.019104607630929894   -0.09964976450182515   -0.008083844526781944
0.03615062566670998   -0.06425190231881829   -0.006845142991472008
0.017497249140371145   -0.06357910470364739   -0.007013175792314762
0.019104607630929894   -0.09964976450182515   -0.008083844526781944
0.04016676939036509   -0.09995744263103815   -0.00818842900419848
0.03615062566670998   -0.06425190231881829   -0.006845142991472008
0.04012119936679355   -0.09981591239070833   -0.008349717352682346
0.017497249140371145   -0.06357910470364739   -0.007013175792314762
0.03582764410483693   -0.06414165466213056   -0.007283789657949364
0.04012119936679355   -0.09981591239070833   -0.008349717352682346
0.03615062566670998   -0.06425190231881829   -0.006845142991472008
0.017497249140371145   -0.06357910470364739   -0.007013175792314762
0.04012119936679355   -0.09981591239070833   -0.008349717352682346
0.019179589013548368   -0.09960896604574225   -0.008097858037028186
0.019104607630929894   -0.09964976450182515   -0.008083844526781944
0.017497249140371145   -0.06357910470364739   -0.007013175792314762
0.04012119936679355   -0.09981591239070833   -0.008349717352682346
0.019104607630929894   -0.09964976450182515   -0.008083844526781944
0.03615062566670998   -0.06425190231881829   -0.006845142991472008
0.017497249140371145   -0.06357910470364739   -0.007013175792314762
0.019179589013548368   -0.09960896604574225   -0.008097858037028186
0.03582764410483693   -0.06414165466213056   -0.007283789657949364
0.01744702401940457   -0.0634334132853031   -0.007214938238428517
0.019179589013548368   -0.09960896604574225   -0.008097858037028186
0.04012119936679355   -0.09981591239070833   -0.008349717352682346
0.03582764410483693   -0.06414165466213056   -0.007283789657949364
0.04001323695491451   -0.0996363894334694   -0.008568462280147645
0.01744702401940457   -0.0634334132853031   -0.007214938238428517
0.035506435540520666   -0.0639170104995596   -0.0077827259194689176
0.04001323695491451   -0.0996363894334694   -0.008568462280147645
0.03582764410483693   -0.06414165466213056   -0.007283789657949364
0.01744702401940457   -0.0634334132853031   -0.007214938238428517
0.04001323695491451   -0.0996363894334694   -0.008568462280147645
0.019179961810245852   -0.09949917469900511   -0.0081473079604654
0.019179589013548368   -0.09960896604574225   -0.008097858037028186
0.01744702401940457   -0.0634334132853031   -0.007214938238428517
0.04001323695491451   -0.0996363894334694   -0.008568462280147645
0.019179589013548368   -0.09960896604574225   -0.008097858037028186
0.03582764410483693   -0.06414165466213056   -0.007283789657949364
0.01744702401940457   -0.0634334132853031   -0.007214938238428517
0.019179961810245852   -0.09949917469900511   -0.0081473079604654
0.035506435540520666   -0.0639170104995596   -0.0077827259194689176
0.017375107276079563   -0.06312933001785087   -0.007454082535092802
0.019179961810245852   -0.09949917469900511   -0.0081473079604654
0.04001323695491451   -0.0996363894334694   -0.008568462280147645
0.035506435540520666   -0.0639170104995596   -0.0077827259194689176
0.03973106041438069   -0.09929249525989059   -0.008844247942261378
0.017375107276079563   -0.06312933001785087   -0.007454082535092802
0.034941265729570486   -0.06344399994641298   -0.008342013867820451
0.03973106041438069   -0.09929249525989059   -0.008844247942261378
0.035506435540520666   -0.0639170104995596   -0.0077827259194689176
0.017375107276079563   -0.06312933001785087   -0.007454082535092802
0.03973106041438069   -0.09929249525989059   -0.008844247942261378
0.01913269544545521   -0.09929272174289129   -0.008233525980075197
0.019179961810245852   -0.09949917469900511   -0.0081473079604654
0.017375107276079563   -0.06312933001785087   -0.007454082535092802
0.03973106041438069   -0.09929249525989059   -0.008844247942261378
0.019179961810245852   -0.09949917469900511   -0.0081473079604654
0.035506435540520666   -0.0639170104995596   -0.0077827259194689176
-0.0575735531380061   -0.10036484523244835   -0.010292542818183849
-0.06327558875822725   -0.13938445114805958   -0.01047536121397951
-0.03736114578620319   -0.09981481182471323   -0.009295404962565396
-0.05815858907074468   -0.10093867824612399   -0.009730769121940496
-0.06327558875822725   -0.13938445114805958   -0.01047536121397951
-0.041561592556421945   -0.1391593652125617   -0.009679560447701786
-0.03736114578620319   -0.09981481182471323   -0.009295404962565396
-0.041549407780269505   -0.13952195281977686   -0.009441735863411873
-0.05815858907074468   -0.10093867824612399   -0.009730769121940496
-0.037411285583759384   -0.10023915964360408   -0.008908244618781109
-0.041549407780269505   -0.13952195281977686   -0.009441735863411873
-0.03736114578620319   -0.09981481182471323   -0.009295404962565396
-0.05815858907074468   -0.10093867824612399   -0.009730769121940496
-0.041549407780269505   -0.13952195281977686   -0.009441735863411873
-0.06355200357909359   -0.13987163660028343   -0.010184536211650172
-0.06327558875822725   -0.13938445114805958   -0.01047536121397951
-0.05815858907074468   -0.10093867824612399   -0.009730769121940496
-0.041549407780269505   -0.13952195281977686   -0.009441735863411873
-0.06327558875822725   -0.13938445114805958   -0.01047536121397951
-0.03736114578620319   -0.09981481182471323   -0.009295404962565396
-0.05815858907074468   -0.10093867824612399   -0.009730769121940496
-0.06355200357909359   -0.13987163660028343   -0.010184536211650172
-0.037411285583759384   -0.10023915964360408   -0.008908244618781109
-0.05849684217817017   -0.10134416497907062   -0.0092226811693293
-0.06355200357909359   -0.13987163660028343   -0.010184536211650172
-0.041549407780269505   -0.13952195281977686   -0.009441735863411873
-0.037411285583759384   -0.10023915964360408   -0.008908244618781109
-0.04149805745506953   -0.1398559623692444   -0.009243385955056256
-0.05849684217817017   -0.10134416497907062   -0.0092226811693293
-0.037448719775300336   -0.100575152771222   -0.008559574089017127
-0.04149805745506953   -0.1398559623692444   -0.009243385955056256
-0.037411285583759384   -0.10023915964360408   -0.008908244618781109
-0.05849684217817017   -0.10134416497907062   -0.0092226811693293
-0.04149805745506953   -0.1398559623692444   -0.009243385955056256
-0.06364359302260654   -0.14026841678432797   -0.009950542723872805
-0.06355200357909359   -0.13987163660028343   -0.010184536211650172
-0.05849684217817017   -0.10134416497907062   -0.0092226811693293
-0.04149805745506953   -0.1398559623692444   -0.009243385955056256
-0.06355200357909359   -0.13987163660028343   -0.010184536211650172
-0.037411285583759384   -0.10023915964360408   -0.008908244618781109
-0.05849684217817017   -0.10134416497907062   -0.0092226811693293
-0.06364359302260654   -0.14026841678432797   -0.009950542723872805
-0.037448719775300336   -0.100575152771222   -0.008559574089017127
-0.058845689729240154   -0.10170676884848047   -0.00877463044551502
-0.06364359302260654   -0.14026841678432797   -0.009950542723872805
-0.04149805745506953   -0.1398559623692444   -0.009243385955056256
-0.037448719775300336   -0.100575152771222   -0.008559574089017127
-0.041364913341443814   -0.14018680915139092   -0.009081785463868465
-0.058845689729240154   -0.10170676884848047   -0.00877463044551502
-0.037376501473486895   -0.10085060844041842   -0.008244309474743364
-0.041364913341443814   -0.14018680915139092   -0.009081785463868465
-0.037448719775300336   -0.100575152771222   -0.008559574089017127
-0.058845689729240154   -0.10170676884848047   -0.00877463044551502
-0.041364913341443814   -0.14018680915139092   -0.009081785463868465
-0.06367823079772753   -0.1406986053717773   -0.009778216209737347
-0.06364359302260654   -0.14026841678432797   -0.009950542723872805
-0.058845689729240154   -0.10170676884848047   -0.00877463044551502
-0.041364913341443814   -0.14018680915139092   -0.009081785463868465
-0.06364359302260654   -0.14026841678432797   -0.009950542723872805
-0.037448719775300336   -0.100575152771222   -0.008559574089017127
-0.03736114578620319   -0.09981481182471323   -0.009295404962565396
-0.041561592556421945   -0.1391593652125617   -0.009679560447701786
-0.01840820564306261   -0.09953119710599777   -0.008604784984462363
-0.037411285583759384   -0.10023915964360408   -0.008908244618781109
-0.041561592556421945   -0.1391593652125617   -0.009679560447701786
-0.021389789125649383   -0.13903112399762382   -0.009137638154987868
-0.01840820564306261   -0.09953119710599777   -0.008604784984462363
-0.021318690370423863   -0.13925094048974937   -0.008930973901718651
-0.037411285583759384   -0.10023915964360408   -0.008908244618781109
-0.018378288804042027   -0.09979783588661488   -0.008349757044385056
-0.021318690370423863   -0.13925094048974937   -0.008930973901718651
-0.01840820564306261   -0.09953119710599777   -0.008604784984462363
-0.037411285583759384   -0.10023915964360408   -0.008908244618781109
-0.021318690370423863   -0.13925094048974937   -0.008930973901718651
-0.041549407780269505   -0.13952195281977686   -0.009441735863411873
-0.041561592556421945   -0.1391593652125617   -0.009679560447701786
-0.037411285583759384   -0.10023915964360408   -0.008908244618781109
-0.021318690370423863   -0.13925094048974937   -0.008930973901718651
-0.041561592556421945   -0.1391593652125617   -0.009679560447701786
-0.01840820564306261   -0.09953119710599777   -0.008604784984462363
-0.037411285583759384   -0.10023915964360408   -0.008908244618781109
-0.041549407780269505   -0.13952195281977686   -0.009441735863411873
-0.018378288804042027   -0.09979783588661488   -0.008349757044385056
-0.037448719775300336   -0.100575152771222   -0.008559574089017127
-0.041549407780269505   -0.13952195281977686   -0.009441735863411873
-0.021318690370423863   -0.13925094048974937   -0.008930973901718651
-0.018378288804042027   -0.09979783588661488   -0.008349757044385056
-0.021230475058455475   -0.13945234858162814   -0.008763838936767347
-0.037448719775300336   -0.100575152771222   -0.008559574089017127
-0.018335504020560417   -0.09999047966790157   -0.008132666288978178
-0.021230475058455475   -0.13945234858162814   -0.008763838936767347
-0.018378288804042027   -0.09979783588661488   -0.008349757044385056
-0.037448719775300336   -0.100575152771222   -0.008559574089017127
-0.021230475058455475   -0.13945234858162814   -0.008763838936767347
-0.04149805745506953   -0.1398559623692444   -0.009243385955056256
-0.041549407780269505   -0.13952195281977686   -0.009441735863411873
-0.037448719775300336   -0.100575152771222   -0.008559574089017127
-0.021230475058455475   -0.13945234858162814   -0.008763838936767347
-0.041549407780269505   -0.13952195281977686   -0.009441735863411873
-0.018378288804042027   -0.09979783588661488   -0.008349757044385056
-0.037448719775300336   -0.100575152771222   -0.008559574089017127
-0.04149805745506953   -0.1398559623692444   -0.009243385955056256
-0.018335504020560417   -0.09999047966790157   -0.008132666288978178
-0.037376501473486895   -0.10085060844041842   -0.008244309474743364
-0.04149805745506953   -0.1398559623692444   -0.009243385955056256
-0.021230475058455475   -0.13945234858162814   -0.008763838936767347
-0.018335504020560417   -0.09999047966790157   -0.008132666288978178
-0.021123689685668155   -0.13963600236138632   -0.008637162375343769
-0.037376501473486895   -0.10085060844041842   -0.008244309474743364
-0.0182692665313478   -0.10011038581028472   -0.007954122605114267
-0.021123689685668155   -0.13963600236138632   -0.008637162375343769
-0.018335504020560417   -0.09999047966790157   -0.008132666288978178
-0.037376501473486895   -0.10085060844041842   -0.008244309474743364
-0.021123689685668155   -0.13963600236138632   -0.008637162375343769
-0.041364913341443814   -0.14018680915139092   -0.009081785463868465
-0.04149805745506953   -0.1398559623692444   -0.009243385955056256
-0.037376501473486895   -0.10085060844041842   -0.008244309474743364
-0.021123689685668155   -0.13963600236138632   -0.008637162375343769
-0.04149805745506953   -0.1398559623692444   -0.009243385955056256
-0.018335504020560417   -0.09999047966790157   -0.008132666288978178
-0.01840820564306261   -0.09953119710599777   -0.008604784984462363
-0.021389789125649383   -0.13903112399762382   -0.009137638154987868
3.129922667681109e-05   -0.09948283865084386   -0.008201536635405775
-0.018378288804042027   -0.09979783588661488   -0.008349757044385056
-0.021389789125649383   -0.13903112399762382   -0.009137638154987868
-0.0017635777597591615   -0.13895827900726165   -0.008856219333055193
3.129922667681109e-05   -0.09948283865084386   -0.008201536635405775
-0.0016626797854750212   -0.13903285253447698   -0.00868273077655781
-0.018378288804042027   -0.09979783588661488   -0.008349757044385056
9.197309144850629e-05   -0.09959107503374919   -0.00807960672275063
-0.0016626797854750212   -0.13903285253447698   -0.00868273077655781
3.129922667681109e-05   -0.09948283865084386   -0.008201536635405775
-0.018378288804042027   -0.09979783588661488   -0.008349757044385056
-0.0016626797854750212   -0.13903285253447698   -0.00868273077655781
-0.021318690370423863   -0.13925094048974937   -0.008930973901718651
-0.021389789125649383   -0.13903112399762382   -0.009137638154987868
-0.018378288804042027   -0.09979783588661488   -0.008349757044385056
-0.0016626797854750212   -0.13903285253447698   -0.00868273077655781
-0.021389789125649383   -0.13903112399762382   -0.009137638154987868
3.129922667681109e-05   -0.09948283865084386   -0.008201536635405775
-0.018378288804042027   -0.09979783588661488   -0.008349757044385056
-0.021318690370423863   -0.13925094048974937   -0.008930973901718651
9.197309144850629e-05   -0.09959107503374919   -0.00807960672275063
-0.018335504020560417   -0.09999047966790157   -0.008132666288978178
-0.021318690370423863   -0.13925094048974937   -0.008930973901718651
-0.0016626797854750212   -0.13903285253447698   -0.00868273077655781
9.197309144850629e-05   -0.09959107503374919   -0.00807960672275063
-0.0015758458161476093   -0.13908773739199345   -0.00854841237027514
-0.018335504020560417   -0.09999047966790157   -0.008132666288978178
0.00013371274169779058   -0.09962481258335766   -0.007995115118125918
-0.0015758458161476093   -0.13908773739199345   -0.00854841237027514
9.197309144850629e-05   -0.09959107503374919   -0.00807960672275063
-0.018335504020560417   -0.09999047966790157   -0.008132666288978178
-0.0015758458161476093   -0.13908773739199345   -0.00854841237027514
-0.021230475058455475   -0.13945234858162814   -0.008763838936767347
-0.021318690370423863   -0.13925094048974937   -0.008930973901718651
-0.018335504020560417   -0.09999047966790157   -0.008132666288978178
-0.0015758458161476093   -0.13908773739199345   -0.00854841237027514
-0.021318690370423863   -0.13925094048974937   -0.008930973901718651
9.197309144850629e-05   -0.09959107503374919   -0.00807960672275063
-0.018335504020560417   -0.09999047966790157   -0.008132666288978178
-0.021230475058455475   -0.13945234858162814   -0.008763838936767347
0.00013371274169779058   -0.09962481258335766   -0.007995115118125918
-0.0182692665313478   -0.10011038581028472   -0.007954122605114267
-0.021230475058455475   -0.13945234858162814   -0.008763838936767347
-0.0015758458161476093   -0.13908773739199345   -0.00854841237027514
0.00013371274169779058   -0.09962481258335766   -0.007995115118125918
-0.0015107288457268265   -0.1391226658006444   -0.008454703736189124
-0.0182692665313478   -0.10011038581028472   -0.007954122605114267
0.00015826955047981017   -0.09958303408424615   -0.007949733798419572
-0.0015107288457268265   -0.1391226658006444   -0.008454703736189124
0.00013371274169779058   -0.09962481258335766   -0.007995115118125918
-0.0182692665313478   -0.10011038581028472   -0.007954122605114267
-0.0015107288457268265   -0.1391226658006444   -0.008454703736189124
-0.021123689685668155   -0.13963600236138632   -0.008637162375343769
-0.021230475058455475   -0.13945234858162814   -0.008763838936767347
-0.0182692665313478   -0.10011038581028472   -0.007954122605114267
-0.0015107288457268265   -0.1391226658006444   -0.008454703736189124
-0.021230475058455475   -0.13945234858162814   -0.008763838936767347
0.00013371274169779058   -0.09962481258335766   -0.007995115118125918
3.129922667681109e-05   -0.09948283865084386   -0.008201536635405775
-0.0017635777597591615   -0.13895827900726165   -0.008856219333055193
0.019104607630929894   -0.09964976450182515   -0.008083844526781944
9.197309144850629e-05   -0.09959107503374919   -0.00807960672275063
-0.0017635777597591615   -0.13895827900726165   -0.008856219333055193
0.018462579011203444   -0.13892831427582022   -0.008837591477710509
0.019104607630929894   -0.09964976450182515   -0.008083844526781944
0.018597275488005917   -0.13886232927216907   -0.008698963980097733
9.197309144850629e-05   -0.09959107503374919   -0.00807960672275063
0.019179589013548368   -0.09960896604574225   -0.008097858037028186
0.018597275488005917   -0.13886232927216907   -0.008698963980097733
0.019104607630929894   -0.09964976450182515   -0.008083844526781944
9.197309144850629e-05   -0.09959107503374919   -0.00807960672275063
0.018597275488005917   -0.13886232927216907   -0.008698963980097733
-0.0016626797854750212   -0.13903285253447698   -0.00868273077655781
-0.0017635777597591615   -0.13895827900726165   -0.008856219333055193
9.197309144850629e-05   -0.09959107503374919   -0.00807960672275063
0.018597275488005917   -0.13886232927216907   -0.008698963980097733
-0.0017635777597591615   -0.13895827900726165   -0.008856219333055193
0.019104607630929894   -0.09964976450182515   -0.008083844526781944
9.197309144850629e-05   -0.09959107503374919   -0.00807960672275063
-0.0016626797854750212   -0.13903285253447698   -0.00868273077655781
0.019179589013548368   -0.09960896604574225   -0.008097858037028186
0.00013371274169779058   -0.09962481258335766   -0.007995115118125918
-0.0016626797854750212   -0.13903285253447698   -0.00868273077655781
0.018597275488005917   -0.13886232927216907   -0.008698963980097733
0.019179589013548368   -0.09960896604574225   -0.008097858037028186
0.01868568271086201   -0.13878462677732362   -0.008598398295030582
0.00013371274169779058   -0.09962481258335766   -0.007995115118125918
0.019179961810245852   -0.09949917469900511   -0.0081473079604654
0.01868568271086201   -0.13878462677732362   -0.008598398295030582
0.019179589013548368   -0.09960896604574225   -0.008097858037028186
0.00013371274169779058   -0.09962481258335766   -0.007995115118125918
0.01868568271086201   -0.13878462677732362   -0.008598398295030582
-0.0015758458161476093   -0.13908773739199345   -0.00854841237027514
-0.0016626797854750212   -0.13903285253447698   -0.00868273077655781
0.00013371274169779058   -0.09962481258335766   -0.007995115118125918
0.01868568271086201   -0.13878462677732362   -0.008598398295030582
-0.0016626797854750212   -0.13903285253447698   -0.00868273077655781
0.019179589013548368   -0.09960896604574225   -0.008097858037028186
0.00013371274169779058   -0.09962481258335766   -0.007995115118125918
-0.0015758458161476093   -0.13908773739199345   -0.00854841237027514
0.019179961810245852   -0.09949917469900511   -0.0081473079604654
0.00015826955047981017   -0.09958303408424615   -0.007949733798419572
-0.0015758458161476093   -0.13908773739199345   -0.00854841237027514
0.01868568271086201   -0.13878462677732362   -0.008598398295030582
0.019179961810245852   -0.09949917469900511   -0.0081473079604654
0.018699988008278764   -0.1386694659070336   -0.00853510324004765
0.00015826955047981017   -0.09958303408424615   -0.007949733798419572
0.01913269544545521   -0.09929272174289129   -0.008233525980075197
0.018699988008278764   -0.1386694659070336   -0.00853510324004765
0.019179961810245852   -0.09949917469900511   -0.0081473079604654
0.00015826955047981017   -0.09958303408424615   -0.007949733798419572
0.018699988008278764   -0.1386694659070336   -0.00853510324004765
-0.0015107288457268265   -0.1391226658006444   -0.008454703736189124
-0.0015758458161476093   -0.13908773739199345   -0.00854841237027514
0.00015826955047981017   -0.09958303408424615   -0.007949733798419572
0.018699988008278764   -0.1386694659070336   -0.00853510324004765
-0.0015758458161476093   -0.13908773739199345   -0.00854841237027514
0.019179961810245852   -0.09949917469900511   -0.0081473079604654
0.019104607630929894   -0.09964976450182515   -0.008083844526781944
0.018462579011203444   -0.13892831427582022   -0.008837591477710509
0.04016676939036509   -0.09995744263103815   -0.00818842900419848
0.019179589013548368   -0.09960896604574225   -0.008097858037028186
0.018462579011203444   -0.13892831427582022   -0.008837591477710509
0.040385477157861005   -0.13888807256972416   -0.009054673182129968
0.04016676939036509   -0.09995744263103815   -0.00818842900419848
0.04065093785326933   -0.13871115795582825   -0.008942729262483752
0.019179589013548368   -0.09960896604574225   -0.008097858037028186
0.04012119936679355   -0.09981591239070833   -0.008349717352682346
0.04065093785326933   -0.13871115795582825   -0.008942729262483752
0.04016676939036509   -0.09995744263103815   -0.00818842900419848
0.019179589013548368   -0.09960896604574225   -0.008097858037028186
0.04065093785326933   -0.13871115795582825   -0.008942729262483752
0.018597275488005917   -0.13886232927216907   -0.008698963980097733
0.018462579011203444   -0.13892831427582022   -0.008837591477710509
0.019179589013548368   -0.09960896604574225   -0.008097858037028186
0.04065093785326933   -0.13871115795582825   -0.008942729262483752
0.018462579011203444   -0.13892831427582022   -0.008837591477710509
0.04016676939036509   -0.09995744263103815   -0.00818842900419848
0.019179589013548368   -0.09960896604574225   -0.008097858037028186
0.018597275488005917   -0.13886232927216907   -0.008698963980097733
0.04012119936679355   -0.09981591239070833   -0.008349717352682346
0.019179961810245852   -0.09949917469900511   -0.0081473079604654
0.018597275488005917   -0.13886232927216907   -0.008698963980097733
0.04065093785326933   -0.13871115795582825   -0.008942729262483752
0.04012119936679355   -0.09981591239070833   -0.008349717352682346
0.04078847039243653   -0.13857098201185036   -0.008888566895228035
0.019179961810245852   -0.09949917469900511   -0.0081473079604654
0.04001323695491451   -0.0996363894334694   -0.008568462280147645
0.04078847039243653   -0.13857098201185036   -0.008888566895228035
0.04012119936679355   -0.09981591239070833   -0.008349717352682346
0.019179961810245852   -0.09949917469900511   -0.0081473079604654
0.04078847039243653   -0.13857098201185036   -0.008888566895228035
0.01868568271086201   -0.13878462677732362   -0.008598398295030582
0.018597275488005917   -0.13886232927216907   -0.008698963980097733
0.019179961810245852   -0.09949917469900511   -0.0081473079604654
0.04078847039243653   -0.13857098201185036   -0.008888566895228035
0.018597275488005917   -0.13886232927216907   -0.008698963980097733
0.04012119936679355   -0.09981591239070833   -0.008349717352682346
0.019179961810245852   -0.09949917469900511   -0.0081473079604654
0.01868568271086201   -0.13878462677732362   -0.008598398295030582
0.04001323695491451   -0.0996363894334694   -0.008568462280147645
0.01913269544545521   -0.09929272174289129   -0.008233525980075197
0.01868568271086201   -0.13878462677732362   -0.008598398295030582
0.04078847039243653   -0.13857098201185036   -0.008888566895228035
0.04001323695491451   -0.0996363894334694   -0.008568462280147645
0.040815484722532915   -0.13834462688112192   -0.008893168397049345
0.01913269544545521   -0.09929272174289129   -0.008233525980075197
0.03973106041438069   -0.09929249525989059   -0.008844247942261378
0.040815484722532915   -0.13834462688112192   -0.008893168397049345
0.04001323695491451   -0.0996363894334694   -0.008568462280147645
0.01913269544545521   -0.09929272174289129   -0.008233525980075197
0.040815484722532915   -0.13834462688112192   -0.008893168397049345
0.018699988008278764   -0.1386694659070336   -0.00853510324004765
0.01868568271086201   -0.13878462677732362   -0.008598398295030582
0.01913269544545521   -0.09929272174289129   -0.008233525980075197
0.040815484722532915   -0.13834462688112192   -0.008893168397049345
0.01868568271086201   -0.13878462677732362   -0.008598398295030582
0.04001323695491451   -0.0996363894334694   -0.008568462280147645
-0.06327558875822725   -0.13938445114805958   -0.01047536121397951
-0.06528005222659188   -0.17914245544299295   -0.010293048022138308
-0.041561592556421945   -0.1391593652125617   -0.009679560447701786
-0.06355200357909359   -0.13987163660028343   -0.010184536211650172
-0.06528005222659188   -0.17914245544299295   -0.010293048022138308
-0.0435756718875614   -0.17924555928865019   -0.009703308954704065
-0.041561592556421945   -0.1391593652125617   -0.009679560447701786
-0.0434615966180289   -0.1795449257603757   -0.00961288477064671
-0.06355200357909359   -0.13987163660028343   -0.010184536211650172
-0.041549407780269505   -0.13952195281977686   -0.009441735863411873
-0.0434615966180289   -0.1795449257603757   -0.00961288477064671
-0.041561592556421945   -0.1391593652125617   -0.009679560447701786
-0.06355200357909359   -0.13987163660028343   -0.010184536211650172
-0.0434615966180289   -0.1795449257603757   -0.00961288477064671
-0.06520934415272873   -0.17954282109091244   -0.0102726937060516
-0.06528005222659188   -0.17914245544299295   -0.010293048022138308
-0.06355200357909359   -0.13987163660028343   -0.010184536211650172
-0.0434615966180289   -0.1795449257603757   -0.00961288477064671
-0.06528005222659188   -0.17914245544299295   -0.010293048022138308
-0.041561592556421945   -0.1391593652125617   -0.009679560447701786
-0.06355200357909359   -0.13987163660028343   -0.010184536211650172
-0.06520934415272873   -0.17954282109091244   -0.0102726937060516
-0.041549407780269505   -0.13952195281977686   -0.009441735863411873
-0.06364359302260654   -0.14026841678432797   -0.009950542723872805
-0.06520934415272873   -0.17954282109091244   -0.0102726937060516
-0.0434615966180289   -0.1795449257603757   -0.00961288477064671
-0.041549407780269505   -0.13952195281977686   -0.009441735863411873
-0.04328192653587848   -0.17987600907840123   -0.009563274409044052
-0.06364359302260654   -0.14026841678432797   -0.009950542723872805
-0.04149805745506953   -0.1398559623692444   -0.009243385955056256
-0.04328192653587848   -0.17987600907840123   -0.009563274409044052
-0.041549407780269505   -0.13952195281977686   -0.009441735863411873
-0.06364359302260654   -0.14026841678432797   -0.009950542723872805
-0.04328192653587848   -0.17987600907840123   -0.009563274409044052
-0.06501329485945907   -0.1799308279290595   -0.010313345729620522
-0.06520934415272873   -0.17954282109091244   -0.0102726937060516
-0.06364359302260654   -0.14026841678432797   -0.009950542723872805
-0.04328192653587848   -0.17987600907840123   -0.009563274409044052
-0.06520934415272873   -0.17954282109091244   -0.0102726937060516
-0.041549407780269505   -0.13952195281977686   -0.009441735863411873
-0.06364359302260654   -0.14026841678432797   -0.009950542723872805
-0.06501329485945907   -0.1799308279290595   -0.010313345729620522
-0.04149805745506953   -0.1398559623692444   -0.009243385955056256
-0.06367823079772753   -0.1406986053717773   -0.009778216209737347
-0.06501329485945907   -0.1799308279290595   -0.010313345729620522
-0.04328192653587848   -0.17987600907840123   -0.009563274409044052
-0.04149805745506953   -0.1398559623692444   -0.009243385955056256
-0.0430482120766624   -0.18026156368478388   -0.009553859767199236
-0.06367823079772753   -0.1406986053717773   -0.009778216209737347
-0.041364913341443814   -0.14018680915139092   -0.009081785463868465
-0.0430482120766624   -0.18026156368478388   -0.009553859767199236
-0.04149805745506953   -0.1398559623692444   -0.009243385955056256
-0.06367823079772753   -0.1406986053717773   -0.009778216209737347
-0.0430482120766624   -0.18026156368478388   -0.009553859767199236
-0.06469279196486745   -0.18042998571306565   -0.010418032971956932
-0.06501329485945907   -0.1799308279290595   -0.010313345729620522
-0.06367823079772753   -0.1406986053717773   -0.009778216209737347
-0.0430482120766624   -0.18026156368478388   -0.009553859767199236
-0.06501329485945907   -0.1799308279290595   -0.010313345729620522
-0.04149805745506953   -0.1398559623692444   -0.009243385955056256
-0.041561592556421945   -0.1391593652125617   -0.009679560447701786
-0.0435756718875614   -0.17924555928865019   -0.009703308954704065
-0.021389789125649383   -0.13903112399762382   -0.009137638154987868
-0.041549407780269505   -0.13952195281977686   -0.009441735863411873
-0.0435756718875614   -0.17924555928865019   -0.009703308954704065
-0.023696998722996184   -0.17926858116576466   -0.009311161509323679
-0.021389789125649383   -0.13903112399762382   -0.009137638154987868
-0.023543190526140113   -0.1794406492587686   -0.009151548807885474
-0.041549407780269505   -0.13952195281977686   -0.009441735863411873
-0.021318690370423863   -0.13925094048974937   -0.008930973901718651
-0.023543190526140113   -0.1794406492587686   -0.009151548807885474
-0.021389789125649383   -0.13903112399762382   -0.009137638154987868
-0.041549407780269505   -0.13952195281977686   -0.009441735863411873
-0.023543190526140113   -0.1794406492587686   -0.009151548807885474
-0.0434615966180289   -0.1795449257603757   -0.00961288477064671
-0.0435756718875614   -0.17924555928865019   -0.009703308954704065
-0.041549407780269505   -0.13952195281977686   -0.009441735863411873
-0.023543190526140113   -0.1794406492587686   -0.009151548807885474
-0.0435756718875614   -0.17924555928865019   -0.009703308954704065
-0.021389789125649383   -0.13903112399762382   -0.009137638154987868
-0.041549407780269505   -0.13952195281977686   -0.009441735863411873
-0.0434615966180289   -0.1795449257603757   -0.00961288477064671
-0.021318690370423863   -0.13925094048974937   -0.008930973901718651
-0.04149805745506953   -0.1398559623692444   -0.009243385955056256
-0.0434615966180289   -0.1795449257603757   -0.00961288477064671
-0.023543190526140113   -0.1794406492587686   -0.009151548807885474
-0.021318690370423863   -0.13925094048974937   -0.008930973901718651
-0.023368987533247832   -0.1796493114113318   -0.009032920962692653
-0.04149805745506953   -0.1398559623692444   -0.009243385955056256
-0.021230475058455475   -0.13945234858162814   -0.008763838936767347
-0.023368987533247832   -0.1796493114113318   -0.009032920962692653
-0.021318690370423863   -0.13925094048974937   -0.008930973901718651
-0.04149805745506953   -0.1398559623692444   -0.009243385955056256
-0.023368987533247832   -0.1796493114113318   -0.009032920962692653
-0.04328192653587848   -0.17987600907840123   -0.009563274409044052
-0.0434615966180289   -0.1795449257603757   -0.00961288477064671
-0.04149805745506953   -0.1398559623692444   -0.009243385955056256
-0.023368987533247832   -0.1796493114113318   -0.009032920962692653
-0.0434615966180289   -0.1795449257603757   -0.00961288477064671
-0.021318690370423863   -0.13925094048974937   -0.008930973901718651
-0.04149805745506953   -0.1398559623692444   -0.009243385955056256
-0.04328192653587848   -0.17987600907840123   -0.009563274409044052
-0.021230475058455475   -0.13945234858162814   -0.008763838936767347
-0.041364913341443814   -0.14018680915139092   -0.009081785463868465
-0.04328192653587848   -0.17987600907840123   -0.009563274409044052
-0.023368987533247832   -0.1796493114113318   -0.009032920962692653
-0.021230475058455475   -0.13945234858162814   -0.008763838936767347
-0.02318108315174711   -0.1798952168634711   -0.008956584270621163
-0.041364913341443814   -0.14018680915139092   -0.009081785463868465
-0.021123689685668155   -0.13963600236138632   -0.008637162375343769
-0.02318108315174711   -0.1798952168634711   -0.008956584270621163
-0.021230475058455475   -0.13945234858162814   -0.008763838936767347
-0.041364913341443814   -0.14018680915139092   -0.009081785463868465
-0.02318108315174711   -0.1798952168634711   -0.008956584270621163
-0.0430482120766624   -0.18026156368478388   -0.009553859767199236
-0.04328192653587848   -0.17987600907840123   -0.009563274409044052
-0.041364913341443814   -0.14018680915139092   -0.009081785463868465
-0.02318108315174711   -0.1798952168634711   -0.008956584270621163
-0.04328192653587848   -0.17987600907840123   -0.009563274409044052
-0.021230475058455475   -0.13945234858162814   -0.008763838936767347
-0.021389789125649383   -0.13903112399762382   -0.009137638154987868
-0.023696998722996184   -0.17926858116576466   -0.009311161509323679
-0.0017635777597591615   -0.13895827900726165   -0.008856219333055193
-0.021318690370423863   -0.13925094048974937   -0.008930973901718651
-0.023696998722996184   -0.17926858116576466   -0.009311161509323679
-0.004381283502098351   -0.17916396916490113   -0.009149565356271809
-0.0017635777597591615   -0.13895827900726165   -0.008856219333055193
-0.0041990112652454436   -0.17920464293301322   -0.008924199737353125
-0.021318690370423863   -0.13925094048974937   -0.008930973901718651
-0.0016626797854750212   -0.13903285253447698   -0.00868273077655781
-0.0041990112652454436   -0.17920464293301322   -0.008924199737353125
-0.0017635777597591615   -0.13895827900726165   -0.008856219333055193
-0.021318690370423863   -0.13925094048974937   -0.008930973901718651
-0.0041990112652454436   -0.17920464293301322   -0.008924199737353125
-0.023543190526140113   -0.1794406492587686   -0.009151548807885474
-0.023696998722996184   -0.17926858116576466   -0.009311161509323679
-0.021318690370423863   -0.13925094048974937   -0.008930973901718651
-0.0041990112652454436   -0.17920464293301322   -0.008924199737353125
-0.023696998722996184   -0.17926858116576466   -0.009311161509323679
-0.0017635777597591615   -0.13895827900726165   -0.008856219333055193
-0.021318690370423863   -0.13925094048974937   -0.008930973901718651
-0.023543190526140113   -0.1794406492587686   -0.009151548807885474
-0.0016626797854750212   -0.13903285253447698   -0.00868273077655781
-0.021230475058455475   -0.13945234858162814   -0.008763838936767347
-0.023543190526140113   -0.1794406492587686   -0.009151548807885474
-0.0041990112652454436   -0.17920464293301322   -0.008924199737353125
-0.0016626797854750212   -0.13903285253447698   -0.00868273077655781
-0.004026726291281836   -0.17927899390426355   -0.008739510492317543
-0.021230475058455475   -0.13945234858162814   -0.008763838936767347
-0.0015758458161476093   -0.13908773739199345   -0.00854841237027514
-0.004026726291281836   -0.17927899390426355   -0.008739510492317543
-0.0016626797854750212   -0.13903285253447698   -0.00868273077655781
-0.021230475058455475   -0.13945234858162814   -0.008763838936767347
-0.004026726291281836   -0.17927899390426355   -0.008739510492317543
-0.023368987533247832   -0.1796493114113318   -0.009032920962692653
-0.023543190526140113   -0.1794406492587686   -0.009151548807885474
-0.021230475058455475   -0.13945234858162814   -0.008763838936767347
-0.004026726291281836   -0.17927899390426355   -0.008739510492317543
-0.023543190526140113   -0.1794406492587686   -0.009151548807885474
-0.0016626797854750212   -0.13903285253447698   -0.00868273077655781
-0.021230475058455475   -0.13945234858162814   -0.008763838936767347
-0.023368987533247832   -0.1796493114113318   -0.009032920962692653
-0.0015758458161476093   -0.13908773739199345   -0.00854841237027514
-0.021123689685668155   -0.13963600236138632   -0.008637162375343769
-0.023368987533247832   -0.1796493114113318   -0.009032920962692653
-0.004026726291281836   -0.17927899390426355   -0.008739510492317543
-0.0015758458161476093   -0.13908773739199345   -0.00854841237027514
-0.003880981847556537   -0.17938874314551925   -0.008596928385549438
-0.021123689685668155   -0.13963600236138632   -0.008637162375343769
-0.0015107288457268265   -0.1391226658006444   -0.008454703736189124
-0.003880981847556537   -0.17938874314551925   -0.008596928385549438
-0.0015758458161476093   -0.13908773739199345   -0.00854841237027514
-0.021123689685668155   -0.13963600236138632   -0.008637162375343769
-0.003880981847556537   -0.17938874314551925   -0.008596928385549438
-0.02318108315174711   -0.1798952168634711   -0.008956584270621163
-0.023368987533247832   -0.1796493114113318   -0.009032920962692653
-0.021123689685668155   -0.13963600236138632   -0.008637162375343769
-0.003880981847556537   -0.17938874314551925   -0.008596928385549438
-0.023368987533247832   -0.1796493114113318   -0.009032920962692653
-0.0015758458161476093   -0.13908773739199345   -0.00854841237027514
-0.0017635777597591615   -0.13895827900726165   -0.008856219333055193
-0.004381283502098351   -0.17916396916490113   -0.009149565356271809
0.018462579011203444   -0.13892831427582022   -0.008837591477710509
-0.0016626797854750212   -0.13903285253447698   -0.00868273077655781
-0.004381283502098351   -0.17916396916490113   -0.009149565356271809
0.0155182931619235   -0.17893107338149752   -0.0092260395937752
0.018462579011203444   -0.13892831427582022   -0.008837591477710509
0.01575118418690934   -0.17884000396095429   -0.008936160889352653
-0.0016626797854750212   -0.13903285253447698   -0.00868273077655781
0.018597275488005917   -0.13886232927216907   -0.008698963980097733
0.01575118418690934   -0.17884000396095429   -0.008936160889352653
0.018462579011203444   -0.13892831427582022   -0.008837591477710509
-0.0016626797854750212   -0.13903285253447698   -0.00868273077655781
0.01575118418690934   -0.17884000396095429   -0.008936160889352653
-0.0041990112652454436   -0.17920464293301322   -0.008924199737353125
-0.004381283502098351   -0.17916396916490113   -0.009149565356271809
-0.0016626797854750212   -0.13903285253447698   -0.00868273077655781
0.01575118418690934   -0.17884000396095429   -0.008936160889352653
-0.004381283502098351   -0.17916396916490113   -0.009149565356271809
0.018462579011203444   -0.13892831427582022   -0.008837591477710509
-0.0016626797854750212   -0.13903285253447698   -0.00868273077655781
-0.0041990112652454436   -0.17920464293301322   -0.008924199737353125
0.018597275488005917   -0.13886232927216907   -0.008698963980097733
-0.0015758458161476093   -0.13908773739199345   -0.00854841237027514
-0.0041990112652454436   -0.17920464293301322   -0.008924199737353125
0.01575118418690934   -0.17884000396095429   -0.008936160889352653
0.018597275488005917   -0.13886232927216907   -0.008698963980097733
0.015965877326621154   -0.17879270479850634   -0.0086868486253799
-0.0015758458161476093   -0.13908773739199345   -0.00854841237027514
0.01868568271086201   -0.13878462677732362   -0.008598398295030582
0.015965877326621154   -0.17879270479850634   -0.0086868486253799
0.018597275488005917   -0.13886232927216907   -0.008698963980097733
-0.0015758458161476093   -0.13908773739199345   -0.00854841237027514
0.015965877326621154   -0.17879270479850634   -0.0086868486253799
-0.004026726291281836   -0.17927899390426355   -0.008739510492317543
-0.0041990112652454436   -0.17920464293301322   -0.008924199737353125
-0.0015758458161476093   -0.13908773739199345   -0.00854841237027514
0.015965877326621154   -0.17879270479850634   -0.0086868486253799
-0.0041990112652454436   -0.17920464293301322   -0.008924199737353125
0.018597275488005917   -0.13886232927216907   -0.008698963980097733
-0.0015758458161476093   -0.13908773739199345   -0.00854841237027514
-0.004026726291281836   -0.17927899390426355   -0.008739510492317543
0.01868568271086201   -0.13878462677732362   -0.008598398295030582
-0.0015107288457268265   -0.1391226658006444   -0.008454703736189124
-0.004026726291281836   -0.17927899390426355   -0.008739510492317543
0.015965877326621154   -0.17879270479850634   -0.0086868486253799
0.01868568271086201   -0.13878462677732362   -0.008598398295030582
0.016079546984414526   -0.17876594076491012   -0.008475454681856006
-0.0015107288457268265   -0.1391226658006444   -0.008454703736189124
0.018699988008278764   -0.1386694659070336   -0.00853510324004765
0.016079546984414526   -0.17876594076491012   -0.008475454681856006
0.01868568271086201   -0.13878462677732362   -0.008598398295030582
-0.0015107288457268265   -0.1391226658006444   -0.008454703736189124
0.016079546984414526   -0.17876594076491012   -0.008475454681856006
-0.003880981847556537   -0.17938874314551925   -0.008596928385549438
-0.004026726291281836   -0.17927899390426355   -0.008739510492317543
-0.0015107288457268265   -0.1391226658006444   -0.008454703736189124
0.016079546984414526   -0.17876594076491012   -0.008475454681856006
-0.004026726291281836   -0.17927899390426355   -0.008739510492317543
0.01868568271086201   -0.13878462677732362   -0.008598398295030582
0.018462579011203444   -0.13892831427582022   -0.008837591477710509
0.0155182931619235   -0.17893107338149752   -0.0092260395937752
0.040385477157861005   -0.13888807256972416   -0.009054673182129968
0.018597275488005917   -0.13886232927216907   -0.008698963980097733
0.0155182931619235   -0.17893107338149752   -0.0092260395937752
0.03683104438754356   -0.17854041662595957   -0.009552532545813673
0.040385477157861005   -0.13888807256972416   -0.009054673182129968
0.03744133807267412   -0.17833006859023637   -0.009172789747729117
0.018597275488005917   -0.13886232927216907   -0.008698963980097733
0.04065093785326933   -0.13871115795582825   -0.008942729262483752
0.03744133807267412   -0.17833006859023637   -0.009172789747729117
0.040385477157861005   -0.13888807256972416   -0.009054673182129968
0.018597275488005917   -0.13886232927216907   -0.008698963980097733
0.03744133807267412   -0.17833006859023637   -0.009172789747729117
0.01575118418690934   -0.17884000396095429   -0.008936160889352653
0.0155182931619235   -0.17893107338149752   -0.0092260395937752
0.018597275488005917   -0.13886232927216907   -0.008698963980097733
0.03744133807267412   -0.17833006859023637   -0.009172789747729117
0.0155182931619235   -0.17893107338149752   -0.0092260395937752
0.040385477157861005   -0.13888807256972416   -0.009054673182129968
0.018597275488005917   -0.13886232927216907   -0.008698963980097733
0.01575118418690934   -0.17884000396095429   -0.008936160889352653
0.04065093785326933   -0.13871115795582825   -0.008942729262483752
0.01868568271086201   -0.13878462677732362   -0.008598398295030582
0.01575118418690934   -0.17884000396095429   -0.008936160889352653
0.03744133807267412   -0.17833006859023637   -0.009172789747729117
0.04065093785326933   -0.13871115795582825   -0.008942729262483752
0.037859344434482134   -0.17822814069536858   -0.008850763566632086
0.01868568271086201   -0.13878462677732362   -0.008598398295030582
0.04078847039243653   -0.13857098201185036   -0.008888566895228035
0.037859344434482134   -0.17822814069536858   -0.008850763566632086
0.04065093785326933   -0.13871115795582825   -0.008942729262483752
0.01868568271086201   -0.13878462677732362   -0.008598398295030582
0.037859344434482134   -0.17822814069536858   -0.008850763566632086
0.015965877326621154   -0.17879270479850634   -0.0086868486253799
0.01575118418690934   -0.17884000396095429   -0.008936160889352653
0.01868568271086201   -0.13878462677732362   -0.008598398295030582
0.037859344434482134   -0.17822814069536858   -0.008850763566632086
0.01575118418690934   -0.17884000396095429   -0.008936160889352653
0.04065093785326933   -0.13871115795582825   -0.008942729262483752
0.01868568271086201   -0.13878462677732362   -0.008598398295030582
0.015965877326621154   -0.17879270479850634   -0.0086868486253799
0.04078847039243653   -0.13857098201185036   -0.008888566895228035
0.018699988008278764   -0.1386694659070336   -0.00853510324004765
0.015965877326621154   -0.17879270479850634   -0.0086868486253799
0.037859344434482134   -0.17822814069536858   -0.008850763566632086
0.04078847039243653   -0.13857098201185036   -0.008888566895228035
0.03822873166588542   -0.17811628666418353   -0.008588836320338532
0.018699988008278764   -0.1386694659070336   -0.00853510324004765
0.040815484722532915   -0.13834462688112192   -0.008893168397049345
0.03822873166588542   -0.17811628666418353   -0.008588836320338532
0.04078847039243653   -0.13857098201185036   -0.008888566895228035
0.018699988008278764   -0.1386694659070336   -0.00853510324004765
0.03822873166588542   -0.17811628666418353   -0.008588836320338532
0.016079546984414526   -0.17876594076491012   -0.008475454681856006
0.015965877326621154   -0.17879270479850634   -0.0086868486253799
0.018699988008278764   -0.1386694659070336   -0.00853510324004765
0.03822873166588542   -0.17811628666418353   -0.008588836320338532
0.015965877326621154   -0.17879270479850634   -0.0086868486253799
0.04078847039243653   -0.13857098201185036   -0.008888566895228035
-0.06528005222659188   -0.17914245544299295   -0.010293048022138308
-0.06354669211284655   -0.21713911521911589   -0.009836677864749621
-0.0435756718875614   -0.17924555928865019   -0.009703308954704065
-0.06520934415272873   -0.17954282109091244   -0.0102726937060516
-0.06354669211284655   -0.21713911521911589   -0.009836677864749621
-0.04340101617181676   -0.21757721776205388   -0.009480460361862331
-0.0435756718875614   -0.17924555928865019   -0.009703308954704065
-0.04314701166516675   -0.21780106681079842   -0.009533845003942422
-0.06520934415272873   -0.17954282109091244   -0.0102726937060516
-0.0434615966180289   -0.1795449257603757   -0.00961288477064671
-0.04314701166516675   -0.21780106681079842   -0.009533845003942422
-0.0435756718875614   -0.17924555928865019   -0.009703308954704065
-0.06520934415272873   -0.17954282109091244   -0.0102726937060516
-0.04314701166516675   -0.21780106681079842   -0.009533845003942422
-0.06308837610115006   -0.217441297020909   -0.01008805899591211
-0.06354669211284655   -0.21713911521911589   -0.009836677864749621
-0.06520934415272873   -0.17954282109091244   -0.0102726937060516
-0.04314701166516675   -0.21780106681079842   -0.009533845003942422
-0.06354669211284655   -0.21713911521911589   -0.009836677864749621
-0.0435756718875614   -0.17924555928865019   -0.009703308954704065
-0.06520934415272873   -0.17954282109091244   -0.0102726937060516
-0.06308837610115006   -0.217441297020909   -0.01008805899591211
-0.0434615966180289   -0.1795449257603757   -0.00961288477064671
-0.06501329485945907   -0.1799308279290595   -0.010313345729620522
-0.06308837610115006   -0.217441297020909   -0.01008805899591211
-0.04314701166516675   -0.21780106681079842   -0.009533845003942422
-0.0434615966180289   -0.1795449257603757   -0.00961288477064671
-0.042802572789280416   -0.21811898828160234   -0.00962919534631519
-0.06501329485945907   -0.1799308279290595   -0.010313345729620522
-0.04328192653587848   -0.17987600907840123   -0.009563274409044052
-0.042802572789280416   -0.21811898828160234   -0.00962919534631519
-0.0434615966180289   -0.1795449257603757   -0.00961288477064671
-0.06501329485945907   -0.1799308279290595   -0.010313345729620522
-0.042802572789280416   -0.21811898828160234   -0.00962919534631519
-0.06256408263932255   -0.21781119613139147   -0.010405461286498118
-0.06308837610115006   -0.217441297020909   -0.01008805899591211
-0.06501329485945907   -0.1799308279290595   -0.010313345729620522
-0.042802572789280416   -0.21811898828160234   -0.00962919534631519
-0.06308837610115006   -0.217441297020909   -0.01008805899591211
-0.0434615966180289   -0.1795449257603757   -0.00961288477064671
-0.06501329485945907   -0.1799308279290595   -0.010313345729620522
-0.06256408263932255   -0.21781119613139147   -0.010405461286498118
-0.04328192653587848   -0.17987600907840123   -0.009563274409044052
-0.06469279196486745   -0.18042998571306565   -0.010418032971956932
-0.06256408263932255   -0.21781119613139147   -0.010405461286498118
-0.042802572789280416   -0.21811898828160234   -0.00962919534631519
-0.04328192653587848   -0.17987600907840123   -0.009563274409044052
-0.042432748029185174   -0.21855033844415936   -0.009767787109593399
-0.06469279196486745   -0.18042998571306565   -0.010418032971956932
-0.0430482120766624   -0.18026156368478388   -0.009553859767199236
-0.042432748029185174   -0.21855033844415936   -0.009767787109593399
-0.04328192653587848   -0.17987600907840123   -0.009563274409044052
-0.06469279196486745   -0.18042998571306565   -0.010418032971956932
-0.042432748029185174   -0.21855033844415936   -0.009767787109593399
-0.061849329133381876   -0.21837375652082802   -0.010790044536662059
-0.06256408263932255   -0.21781119613139147   -0.010405461286498118
-0.06469279196486745   -0.18042998571306565   -0.010418032971956932
-0.042432748029185174   -0.21855033844415936   -0.009767787109593399
-0.06256408263932255   -0.21781119613139147   -0.010405461286498118
-0.04328192653587848   -0.17987600907840123   -0.009563274409044052
-0.0435756718875614   -0.17924555928865019   -0.009703308954704065
-0.04340101617181676   -0.21757721776205388   -0.009480460361862331
-0.023696998722996184   -0.17926858116576466   -0.009311161509323679
-0.0434615966180289   -0.1795449257603757   -0.00961288477064671
-0.04340101617181676   -0.21757721776205388   -0.009480460361862331
-0.02534893171061937   -0.21775151836580237   -0.00925223048415224
-0.023696998722996184   -0.17926858116576466   -0.009311161509323679
-0.025072026596925073   -0.21786823905141248   -0.009136056162420778
-0.0434615966180289   -0.1795449257603757   -0.00961288477064671
-0.023543190526140113   -0.1794406492587686   -0.009151548807885474
-0.025072026596925073   -0.21786823905141248   -0.009136056162420778
-0.023696998722996184   -0.17926858116576466   -0.009311161509323679
-0.0434615966180289   -0.1795449257603757   -0.00961288477064671
-0.025072026596925073   -0.21786823905141248   -0.009136056162420778
-0.04314701166516675   -0.21780106681079842   -0.009533845003942422
-0.04340101617181676   -0.21757721776205388   -0.009480460361862331
-0.0434615966180289   -0.1795449257603757   -0.00961288477064671
-0.025072026596925073   -0.21786823905141248   -0.009136056162420778
-0.04340101617181676   -0.21757721776205388   -0.009480460361862331
-0.023696998722996184   -0.17926858116576466   -0.009311161509323679
-0.0434615966180289   -0.1795449257603757   -0.00961288477064671
-0.04314701166516675   -0.21780106681079842   -0.009533845003942422
-0.023543190526140113   -0.1794406492587686   -0.009151548807885474
-0.04328192653587848   -0.17987600907840123   -0.009563274409044052
-0.04314701166516675   -0.21780106681079842   -0.009533845003942422
-0.025072026596925073   -0.21786823905141248   -0.009136056162420778
-0.023543190526140113   -0.1794406492587686   -0.009151548807885474
-0.02477403950584632   -0.21807547366726115   -0.009061343419804442
-0.04328192653587848   -0.17987600907840123   -0.009563274409044052
-0.023368987533247832   -0.1796493114113318   -0.009032920962692653
-0.02477403950584632   -0.21807547366726115   -0.009061343419804442
-0.023543190526140113   -0.1794406492587686   -0.009151548807885474
-0.04328192653587848   -0.17987600907840123   -0.009563274409044052
-0.02477403950584632   -0.21807547366726115   -0.009061343419804442
-0.042802572789280416   -0.21811898828160234   -0.00962919534631519
-0.04314701166516675   -0.21780106681079842   -0.009533845003942422
-0.04328192653587848   -0.17987600907840123   -0.009563274409044052
-0.02477403950584632   -0.21807547366726115   -0.009061343419804442
-0.04314701166516675   -0.21780106681079842   -0.009533845003942422
-0.023543190526140113   -0.1794406492587686   -0.009151548807885474
-0.04328192653587848   -0.17987600907840123   -0.009563274409044052
-0.042802572789280416   -0.21811898828160234   -0.00962919534631519
-0.023368987533247832   -0.1796493114113318   -0.009032920962692653
-0.0430482120766624   -0.18026156368478388   -0.009553859767199236
-0.042802572789280416   -0.21811898828160234   -0.00962919534631519
-0.02477403950584632   -0.21807547366726115   -0.009061343419804442
-0.023368987533247832   -0.1796493114113318   -0.009032920962692653
-0.024467737939655673   -0.21837587504561143   -0.009030096001914194
-0.0430482120766624   -0.18026156368478388   -0.009553859767199236
-0.02318108315174711   -0.1798952168634711   -0.008956584270621163
-0.024467737939655673   -0.21837587504561143   -0.009030096001914194
-0.023368987533247832   -0.1796493114113318   -0.009032920962692653
-0.0430482120766624   -0.18026156368478388   -0.009553859767199236
-0.024467737939655673   -0.21837587504561143   -0.009030096001914194
-0.042432748029185174   -0.21855033844415936   -0.009767787109593399
-0.042802572789280416   -0.21811898828160234   -0.00962919534631519
-0.0430482120766624   -0.18026156368478388   -0.009553859767199236
-0.024467737939655673   -0.21837587504561143   -0.009030096001914194
-0.042802572789280416   -0.21811898828160234   -0.00962919534631519
-0.023368987533247832   -0.1796493114113318   -0.009032920962692653
-0.023696998722996184   -0.17926858116576466   -0.009311161509323679
-0.02534893171061937   -0.21775151836580237   -0.00925223048415224
-0.004381283502098351   -0.17916396916490113   -0.009149565356271809
-0.023543190526140113   -0.1794406492587686   -0.009151548807885474
-0.02534893171061937   -0.21775151836580237   -0.00925223048415224
-0.007844597419737972   -0.2176195852003736   -0.009212804603938711
-0.004381283502098351   -0.17916396916490113   -0.009149565356271809
-0.007538274348319309   -0.21762313423927276   -0.008932887495784393
-0.023543190526140113   -0.1794406492587686   -0.009151548807885474
-0.0041990112652454436   -0.17920464293301322   -0.008924199737353125
-0.007538274348319309   -0.21762313423927276   -0.008932887495784393
-0.004381283502098351   -0.17916396916490113   -0.009149565356271809
-0.023543190526140113   -0.1794406492587686   -0.009151548807885474
-0.007538274348319309   -0.21762313423927276   -0.008932887495784393
-0.025072026596925073   -0.21786823905141248   -0.009136056162420778
-0.02534893171061937   -0.21775151836580237   -0.00925223048415224
-0.023543190526140113   -0.1794406492587686   -0.009151548807885474
-0.007538274348319309   -0.21762313423927276   -0.008932887495784393
-0.02534893171061937   -0.21775151836580237   -0.00925223048415224
-0.004381283502098351   -0.17916396916490113   -0.009149565356271809
-0.023543190526140113   -0.1794406492587686   -0.009151548807885474
-0.025072026596925073   -0.21786823905141248   -0.009136056162420778
-0.0041990112652454436   -0.17920464293301322   -0.008924199737353125
-0.023368987533247832   -0.1796493114113318   -0.009032920962692653
-0.025072026596925073   -0.21786823905141248   -0.009136056162420778
-0.007538274348319309   -0.21762313423927276   -0.008932887495784393
-0.0041990112652454436   -0.17920464293301322   -0.008924199737353125
-0.00724005785862146   -0.21771047274595423   -0.00869451837046699
-0.023368987533247832   -0.1796493114113318   -0.009032920962692653
-0.004026726291281836   -0.17927899390426355   -0.008739510492317543
-0.00724005785862146   -0.21771047274595423   -0.00869451837046699
-0.0041990112652454436   -0.17920464293301322   -0.008924199737353125
-0.023368987533247832   -0.1796493114113318   -0.009032920962692653
-0.00724005785862146   -0.21771047274595423   -0.00869451837046699
-0.02477403950584632   -0.21807547366726115   -0.009061343419804442
-0.025072026596925073   -0.21786823905141248   -0.009136056162420778
-0.023368987533247832   -0.1796493114113318   -0.009032920962692653
-0.00724005785862146   -0.21771047274595423   -0.00869451837046699
-0.025072026596925073   -0.21786823905141248   -0.009136056162420778
-0.0041990112652454436   -0.17920464293301322   -0.008924199737353125
-0.023368987533247832   -0.1796493114113318   -0.009032920962692653
-0.02477403950584632   -0.21807547366726115   -0.009061343419804442
-0.004026726291281836   -0.17927899390426355   -0.008739510492317543
-0.02318108315174711   -0.1798952168634711   -0.008956584270621163
-0.02477403950584632   -0.21807547366726115   -0.009061343419804442
-0.00724005785862146   -0.21771047274595423   -0.00869451837046699
-0.004026726291281836   -0.17927899390426355   -0.008739510492317543
-0.006974208783918038   -0.2178889144723435   -0.008499148949081286
-0.02318108315174711   -0.1798952168634711   -0.008956584270621163
-0.003880981847556537   -0.17938874314551925   -0.008596928385549438
-0.006974208783918038   -0.2178889144723435   -0.008499148949081286
-0.004026726291281836   -0.17927899390426355   -0.008739510492317543
-0.02318108315174711   -0.1798952168634711   -0.008956584270621163
-0.006974208783918038   -0.2178889144723435   -0.008499148949081286
-0.024467737939655673   -0.21837587504561143   -0.009030096001914194
-0.02477403950584632   -0.21807547366726115   -0.009061343419804442
-0.02318108315174711   -0.1798952168634711   -0.008956584270621163
-0.006974208783918038   -0.2178889144723435   -0.008499148949081286
-0.02477403950584632   -0.21807547366726115   -0.009061343419804442
-0.004026726291281836   -0.17927899390426355   -0.008739510492317543
-0.004381283502098351   -0.17916396916490113   -0.009149565356271809
-0.007844597419737972   -0.2176195852003736   -0.009212804603938711
0.0155182931619235   -0.17893107338149752   -0.0092260395937752
-0.0041990112652454436   -0.17920464293301322   -0.008924199737353125
-0.007844597419737972   -0.2176195852003736   -0.009212804603938711
0.010267672475788976   -0.21719086218796899   -0.009377034872468824
0.0155182931619235   -0.17893107338149752   -0.0092260395937752
0.010642106517907436   -0.21707362524394297   -0.00893500332116068
-0.0041990112652454436   -0.17920464293301322   -0.008924199737353125
0.01575118418690934   -0.17884000396095429   -0.008936160889352653
0.010642106517907436   -0.21707362524394297   -0.00893500332116068
0.0155182931619235   -0.17893107338149752   -0.0092260395937752
-0.0041990112652454436   -0.17920464293301322   -0.008924199737353125
0.010642106517907436   -0.21707362524394297   -0.00893500332116068
-0.007538274348319309   -0.21762313423927276   -0.008932887495784393
-0.007844597419737972   -0.2176195852003736   -0.009212804603938711
-0.0041990112652454436   -0.17920464293301322   -0.008924199737353125
0.010642106517907436   -0.21707362524394297   -0.00893500332116068
-0.007844597419737972   -0.2176195852003736   -0.009212804603938711
0.0155182931619235   -0.17893107338149752   -0.0092260395937752
-0.0041990112652454436   -0.17920464293301322   -0.008924199737353125
-0.007538274348319309   -0.21762313423927276   -0.008932887495784393
0.01575118418690934   -0.17884000396095429   -0.008936160889352653
-0.004026726291281836   -0.17927899390426355   -0.008739510492317543
-0.007538274348319309   -0.21762313423927276   -0.008932887495784393
0.010642106517907436   -0.21707362524394297   -0.00893500332116068
0.01575118418690934   -0.17884000396095429   -0.008936160889352653
0.011025717339887138   -0.21705207245716535   -0.008537203729926444
-0.004026726291281836   -0.17927899390426355   -0.008739510492317543
0.015965877326621154   -0.17879270479850634   -0.0086868486253799
0.011025717339887138   -0.21705207245716535   -0.008537203729926444
0.01575118418690934   -0.17884000396095429   -0.008936160889352653
-0.004026726291281836   -0.17927899390426355   -0.008739510492317543
0.011025717339887138   -0.21705207245716535   -0.008537203729926444
-0.00724005785862146   -0.21771047274595423   -0.00869451837046699
-0.007538274348319309   -0.21762313423927276   -0.008932887495784393
-0.004026726291281836   -0.17927899390426355   -0.008739510492317543
0.011025717339887138   -0.21705207245716535   -0.008537203729926444
-0.007538274348319309   -0.21762313423927276   -0.008932887495784393
0.01575118418690934   -0.17884000396095429   -0.008936160889352653
-0.004026726291281836   -0.17927899390426355   -0.008739510492317543
-0.00724005785862146   -0.21771047274595423   -0.00869451837046699
0.015965877326621154   -0.17879270479850634   -0.0086868486253799
-0.003880981847556537   -0.17938874314551925   -0.008596928385549438
-0.00724005785862146   -0.21771047274595423   -0.00869451837046699
0.011025717339887138   -0.21705207245716535   -0.008537203729926444
0.015965877326621154   -0.17879270479850634   -0.0086868486253799
0.01128025904823649   -0.21710847978068917   -0.008177810402381552
-0.003880981847556537   -0.17938874314551925   -0.008596928385549438
0.016079546984414526   -0.17876594076491012   -0.008475454681856006
0.01128025904823649   -0.21710847978068917   -0.008177810402381552
0.015965877326621154   -0.17879270479850634   -0.0086868486253799
-0.003880981847556537   -0.17938874314551925   -0.008596928385549438
0.01128025904823649   -0.21710847978068917   -0.008177810402381552
-0.006974208783918038   -0.2178889144723435   -0.008499148949081286
-0.00724005785862146   -0.21771047274595423   -0.00869451837046699
-0.003880981847556537   -0.17938874314551925   -0.008596928385549438
0.01128025904823649   -0.21710847978068917   -0.008177810402381552
-0.00724005785862146   -0.21771047274595423   -0.00869451837046699
0.015965877326621154   -0.17879270479850634   -0.0086868486253799
0.0155182931619235   -0.17893107338149752   -0.0092260395937752
0.010267672475788976   -0.21719086218796899   -0.009377034872468824
0.03683104438754356   -0.17854041662595957   -0.009552532545813673
0.01575118418690934   -0.17884000396095429   -0.008936160889352653
0.010267672475788976   -0.21719086218796899   -0.009377034872468824
0.029546178007228006   -0.2164540703112763   -0.009804005173296697
0.03683104438754356   -0.17854041662595957   -0.009552532545813673
0.030542002683044293   -0.21621159612227822   -0.009161309775002978
0.01575118418690934   -0.17884000396095429   -0.008936160889352653
0.03744133807267412   -0.17833006859023637   -0.009172789747729117
0.030542002683044293   -0.21621159612227822   -0.009161309775002978
0.03683104438754356   -0.17854041662595957   -0.009552532545813673
0.01575118418690934   -0.17884000396095429   -0.008936160889352653
0.030542002683044293   -0.21621159612227822   -0.009161309775002978
0.010642106517907436   -0.21707362524394297   -0.00893500332116068
0.010267672475788976   -0.21719086218796899   -0.009377034872468824
0.01575118418690934   -0.17884000396095429   -0.008936160889352653
0.030542002683044293   -0.21621159612227822   -0.009161309775002978
0.010267672475788976   -0.21719086218796899   -0.009377034872468824
0.03683104438754356   -0.17854041662595957   -0.009552532545813673
0.01575118418690934   -0.17884000396095429   -0.008936160889352653
0.010642106517907436   -0.21707362524394297   -0.00893500332116068
0.03744133807267412   -0.17833006859023637   -0.009172789747729117
0.015965877326621154   -0.17879270479850634   -0.0086868486253799
0.010642106517907436   -0.21707362524394297   -0.00893500332116068
0.030542002683044293   -0.21621159612227822   -0.009161309775002978
0.03744133807267412   -0.17833006859023637   -0.009172789747729117
0.03127867657098058   -0.2161452234047749   -0.008577387691972513
0.015965877326621154   -0.17879270479850634   -0.0086868486253799
0.037859344434482134   -0.17822814069536858   -0.008850763566632086
0.03127867657098058   -0.2161452234047749   -0.008577387691972513
0.03744133807267412   -0.17833006859023637   -0.009172789747729117
0.015965877326621154   -0.17879270479850634   -0.0086868486253799
0.03127867657098058   -0.2161452234047749   -0.008577387691972513
0.011025717339887138   -0.21705207245716535   -0.008537203729926444
0.010642106517907436   -0.21707362524394297   -0.00893500332116068
0.015965877326621154   -0.17879270479850634   -0.0086868486253799
0.03127867657098058   -0.2161452234047749   -0.008577387691972513
0.010642106517907436   -0.21707362524394297   -0.00893500332116068
0.03744133807267412   -0.17833006859023637   -0.009172789747729117
0.015965877326621154   -0.17879270479850634   -0.0086868486253799
0.011025717339887138   -0.21705207245716535   -0.008537203729926444
0.037859344434482134   -0.17822814069536858   -0.008850763566632086
0.016079546984414526   -0.17876594076491012   -0.008475454681856006
0.011025717339887138   -0.21705207245716535   -0.008537203729926444
0.03127867657098058   -0.2161452234047749   -0.008577387691972513
0.037859344434482134   -0.17822814069536858   -0.008850763566632086
0.032024202511599785   -0.2161443122629992   -0.008054880924330073
0.016079546984414526   -0.17876594076491012   -0.008475454681856006
0.03822873166588542   -0.17811628666418353   -0.008588836320338532
0.032024202511599785   -0.2161443122629992   -0.008054880924330073
0.037859344434482134   -0.17822814069536858   -0.008850763566632086
0.016079546984414526   -0.17876594076491012   -0.008475454681856006
0.032024202511599785   -0.2161443122629992   -0.008054880924330073
0.01128025904823649   -0.21710847978068917   -0.008177810402381552
0.011025717339887138   -0.21705207245716535   -0.008537203729926444
0.016079546984414526   -0.17876594076491012   -0.008475454681856006
0.032024202511599785   -0.2161443122629992   -0.008054880924330073
0.011025717339887138   -0.21705207245716535   -0.008537203729926444
0.037859344434482134   -0.17822814069536858   -0.008850763566632086
-0.06354669211284655   -0.21713911521911589   -0.009836677864749621
-0.05798911285700087   -0.25078527025582226   -0.009169690227259176
-0.04340101617181676   -0.21757721776205388   -0.009480460361862331
-0.06308837610115006   -0.217441297020909   -0.01008805899591211
-0.05798911285700087   -0.25078527025582226   -0.009169690227259176
-0.04102757749074528   -0.2515777868778864   -0.009111524894611301
-0.04340101617181676   -0.21757721776205388   -0.009480460361862331
-0.04060272452136215   -0.25169255885502523   -0.009298617213774125
-0.06308837610115006   -0.217441297020909   -0.01008805899591211
-0.04314701166516675   -0.21780106681079842   -0.009533845003942422
-0.04060272452136215   -0.25169255885502523   -0.009298617213774125
-0.04340101617181676   -0.21757721776205388   -0.009480460361862331
-0.06308837610115006   -0.217441297020909   -0.01008805899591211
-0.04060272452136215   -0.25169255885502523   -0.009298617213774125
-0.05710582965155169   -0.2509557721243576   -0.00969271138174618
-0.05798911285700087   -0.25078527025582226   -0.009169690227259176
-0.06308837610115006   -0.217441297020909   -0.01008805899591211
-0.04060272452136215   -0.25169255885502523   -0.009298617213774125
-0.05798911285700087   -0.25078527025582226   -0.009169690227259176
-0.04340101617181676   -0.21757721776205388   -0.009480460361862331
-0.06308837610115006   -0.217441297020909   -0.01008805899591211
-0.05710582965155169   -0.2509557721243576   -0.00969271138174618
-0.04314701166516675   -0.21780106681079842   -0.009533845003942422
-0.06256408263932255   -0.21781119613139147   -0.010405461286498118
-0.05710582965155169   -0.2509557721243576   -0.00969271138174618
-0.04060272452136215   -0.25169255885502523   -0.009298617213774125
-0.04314701166516675   -0.21780106681079842   -0.009533845003942422
-0.04006916674473759   -0.25196680550559186   -0.009528411677437149
-0.06256408263932255   -0.21781119613139147   -0.010405461286498118
-0.042802572789280416   -0.21811898828160234   -0.00962919534631519
-0.04006916674473759   -0.25196680550559186   -0.009528411677437149
-0.04314701166516675   -0.21780106681079842   -0.009533845003942422
-0.06256408263932255   -0.21781119613139147   -0.010405461286498118
-0.04006916674473759   -0.25196680550559186   -0.009528411677437149
-0.05622395545124602   -0.25127758786580656   -0.010285274913780233
-0.05710582965155169   -0.2509557721243576   -0.00969271138174618
-0.06256408263932255   -0.21781119613139147   -0.010405461286498118
-0.04006916674473759   -0.25196680550559186   -0.009528411677437149
-0.05710582965155169   -0.2509557721243576   -0.00969271138174618
-0.04314701166516675   -0.21780106681079842   -0.009533845003942422
-0.06256408263932255   -0.21781119613139147   -0.010405461286498118
-0.05622395545124602   -0.25127758786580656   -0.010285274913780233
-0.042802572789280416   -0.21811898828160234   -0.00962919534631519
-0.061849329133381876   -0.21837375652082802   -0.010790044536662059
-0.05622395545124602   -0.25127758786580656   -0.010285274913780233
-0.04006916674473759   -0.25196680550559186   -0.009528411677437149
-0.042802572789280416   -0.21811898828160234   -0.00962919534631519
-0.03954255616780822   -0.25241608920175695   -0.009800509859188431
-0.061849329133381876   -0.21837375652082802   -0.010790044536662059
-0.042432748029185174   -0.21855033844415936   -0.009767787109593399
-0.03954255616780822   -0.25241608920175695   -0.009800509859188431
-0.042802572789280416   -0.21811898828160234   -0.00962919534631519
-0.061849329133381876   -0.21837375652082802   -0.010790044536662059
-0.03954255616780822   -0.25241608920175695   -0.009800509859188431
-0.055094093803445   -0.25187767063693917   -0.010946033095280144
-0.05622395545124602   -0.25127758786580656   -0.010285274913780233
-0.061849329133381876   -0.21837375652082802   -0.010790044536662059
-0.03954255616780822   -0.25241608920175695   -0.009800509859188431
-0.05622395545124602   -0.25127758786580656   -0.010285274913780233
-0.042802572789280416   -0.21811898828160234   -0.00962919534631519
-0.04340101617181676   -0.21757721776205388   -0.009480460361862331
-0.04102757749074528   -0.2515777868778864   -0.009111524894611301
-0.02534893171061937   -0.21775151836580237   -0.00925223048415224
-0.04314701166516675   -0.21780106681079842   -0.009533845003942422
-0.04102757749074528   -0.2515777868778864   -0.009111524894611301
-0.026351308665017555   -0.2519506217721125   -0.009087955188705886
-0.02534893171061937   -0.21775151836580237   -0.00925223048415224
-0.025915115096204748   -0.25198850762733255   -0.009004627108878617
-0.04314701166516675   -0.21780106681079842   -0.009533845003942422
-0.025072026596925073   -0.21786823905141248   -0.009136056162420778
-0.025915115096204748   -0.25198850762733255   -0.009004627108878617
-0.02534893171061937   -0.21775151836580237   -0.00925223048415224
-0.04314701166516675   -0.21780106681079842   -0.009533845003942422
-0.025915115096204748   -0.25198850762733255   -0.009004627108878617
-0.04060272452136215   -0.25169255885502523   -0.009298617213774125
-0.04102757749074528   -0.2515777868778864   -0.009111524894611301
-0.04314701166516675   -0.21780106681079842   -0.009533845003942422
-0.025915115096204748   -0.25198850762733255   -0.009004627108878617
-0.04102757749074528   -0.2515777868778864   -0.009111524894611301
-0.02534893171061937   -0.21775151836580237   -0.00925223048415224
-0.04314701166516675   -0.21780106681079842   -0.009533845003942422
-0.04060272452136215   -0.25169255885502523   -0.009298617213774125
-0.025072026596925073   -0.21786823905141248   -0.009136056162420778
-0.042802572789280416   -0.21811898828160234   -0.00962919534631519
-0.04060272452136215   -0.25169255885502523   -0.009298617213774125
-0.025915115096204748   -0.25198850762733255   -0.009004627108878617
-0.025072026596925073   -0.21786823905141248   -0.009136056162420778
-0.02546502854438558   -0.25216872304704796   -0.008962738575829203
-0.042802572789280416   -0.21811898828160234   -0.00962919534631519
-0.02477403950584632   -0.21807547366726115   -0.009061343419804442
-0.02546502854438558   -0.25216872304704796   -0.008962738575829203
-0.025072026596925073   -0.21786823905141248   -0.009136056162420778
-0.042802572789280416   -0.21811898828160234   -0.00962919534631519
-0.02546502854438558   -0.25216872304704796   -0.008962738575829203
-0.04006916674473759   -0.25196680550559186   -0.009528411677437149
-0.04060272452136215   -0.25169255885502523   -0.009298617213774125
-0.042802572789280416   -0.21811898828160234   -0.00962919534631519
-0.02546502854438558   -0.25216872304704796   -0.008962738575829203
-0.04060272452136215   -0.25169255885502523   -0.009298617213774125
-0.025072026596925073   -0.21786823905141248   -0.009136056162420778
-0.042802572789280416   -0.21811898828160234   -0.00962919534631519
-0.04006916674473759   -0.25196680550559186   -0.009528411677437149
-0.02477403950584632   -0.21807547366726115   -0.009061343419804442
-0.042432748029185174   -0.21855033844415936   -0.009767787109593399
-0.04006916674473759   -0.25196680550559186   -0.009528411677437149
-0.02546502854438558   -0.25216872304704796   -0.008962738575829203
-0.02477403950584632   -0.21807547366726115   -0.009061343419804442
-0.025015740929412507   -0.2524998056058624   -0.008961709942872003
-0.042432748029185174   -0.21855033844415936   -0.009767787109593399
-0.024467737939655673   -0.21837587504561143   -0.009030096001914194
-0.025015740929412507   -0.2524998056058624   -0.008961709942872003
-0.02477403950584632   -0.21807547366726115   -0.009061343419804442
-0.042432748029185174   -0.21855033844415936   -0.009767787109593399
-0.025015740929412507   -0.2524998056058624   -0.008961709942872003
-0.03954255616780822   -0.25241608920175695   -0.009800509859188431
-0.04006916674473759   -0.25196680550559186   -0.009528411677437149
-0.042432748029185174   -0.21855033844415936   -0.009767787109593399
-0.025015740929412507   -0.2524998056058624   -0.008961709942872003
-0.04006916674473759   -0.25196680550559186   -0.009528411677437149
-0.02477403950584632   -0.21807547366726115   -0.009061343419804442
-0.02534893171061937   -0.21775151836580237   -0.00925223048415224
-0.026351308665017555   -0.2519506217721125   -0.009087955188705886
-0.007844597419737972   -0.2176195852003736   -0.009212804603938711
-0.025072026596925073   -0.21786823905141248   -0.009136056162420778
-0.026351308665017555   -0.2519506217721125   -0.009087955188705886
-0.01216335079521988   -0.2518861059456515   -0.009191972768116476
-0.007844597419737972   -0.2176195852003736   -0.009212804603938711
-0.011685535050184158   -0.25183776123885476   -0.00884774500266881
-0.025072026596925073   -0.21786823905141248   -0.009136056162420778
-0.007538274348319309   -0.21762313423927276   -0.008932887495784393
-0.011685535050184158   -0.25183776123885476   -0.00884774500266881
-0.007844597419737972   -0.2176195852003736   -0.009212804603938711
-0.025072026596925073   -0.21786823905141248   -0.009136056162420778
-0.011685535050184158   -0.25183776123885476   -0.00884774500266881
-0.025915115096204748   -0.25198850762733255   -0.009004627108878617
-0.026351308665017555   -0.2519506217721125   -0.009087955188705886
-0.025072026596925073   -0.21786823905141248   -0.009136056162420778
-0.011685535050184158   -0.25183776123885476   -0.00884774500266881
-0.026351308665017555   -0.2519506217721125   -0.009087955188705886
-0.007844597419737972   -0.2176195852003736   -0.009212804603938711
-0.025072026596925073   -0.21786823905141248   -0.009136056162420778
-0.025915115096204748   -0.25198850762733255   -0.009004627108878617
-0.007538274348319309   -0.21762313423927276   -0.008932887495784393
-0.02477403950584632   -0.21807547366726115   -0.009061343419804442
-0.025915115096204748   -0.25198850762733255   -0.009004627108878617
-0.011685535050184158   -0.25183776123885476   -0.00884774500266881
-0.007538274348319309   -0.21762313423927276   -0.008932887495784393
-0.011221984103973591   -0.25191793845327953   -0.008547682936089571
-0.02477403950584632   -0.21807547366726115   -0.009061343419804442
-0.00724005785862146   -0.21771047274595423   -0.00869451837046699
-0.011221984103973591   -0.25191793845327953   -0.008547682936089571
-0.007538274348319309   -0.21762313423927276   -0.008932887495784393
-0.02477403950584632   -0.21807547366726115   -0.009061343419804442
-0.011221984103973591   -0.25191793845327953   -0.008547682936089571
-0.02546502854438558   -0.25216872304704796   -0.008962738575829203
-0.025915115096204748   -0.25198850762733255   -0.009004627108878617
-0.02477403950584632   -0.21807547366726115   -0.009061343419804442
-0.011221984103973591   -0.25191793845327953   -0.008547682936089571
-0.025915115096204748   -0.25198850762733255   -0.009004627108878617
-0.007538274348319309   -0.21762313423927276   -0.008932887495784393
-0.02477403950584632   -0.21807547366726115   -0.009061343419804442
-0.02546502854438558   -0.25216872304704796   -0.008962738575829203
-0.00724005785862146   -0.21771047274595423   -0.00869451837046699
-0.024467737939655673   -0.21837587504561143   -0.009030096001914194
-0.02546502854438558   -0.25216872304704796   -0.008962738575829203
-0.011221984103973591   -0.25191793845327953   -0.008547682936089571
-0.00724005785862146   -0.21771047274595423   -0.00869451837046699
-0.010803344516052343   -0.2521456004774601   -0.008287936363203113
-0.024467737939655673   -0.21837587504561143   -0.009030096001914194
-0.006974208783918038   -0.2178889144723435   -0.008499148949081286
-0.010803344516052343   -0.2521456004774601   -0.008287936363203113
-0.00724005785862146   -0.21771047274595423   -0.00869451837046699
-0.024467737939655673   -0.21837587504561143   -0.009030096001914194
-0.010803344516052343   -0.2521456004774601   -0.008287936363203113
-0.025015740929412507   -0.2524998056058624   -0.008961709942872003
-0.02546502854438558   -0.25216872304704796   -0.008962738575829203
-0.024467737939655673   -0.21837587504561143   -0.009030096001914194
-0.010803344516052343   -0.2521456004774601   -0.008287936363203113
-0.02546502854438558   -0.25216872304704796   -0.008962738575829203
-0.00724005785862146   -0.21771047274595423   -0.00869451837046699
-0.007844597419737972   -0.2176195852003736   -0.009212804603938711
-0.01216335079521988   -0.2518861059456515   -0.009191972768116476
0.010267672475788976   -0.21719086218796899   -0.009377034872468824
-0.007538274348319309   -0.21762313423927276   -0.008932887495784393
-0.01216335079521988   -0.2518861059456515   -0.009191972768116476
0.0026971731077210202   -0.25136865725821883   -0.009446908350566859
0.010267672475788976   -0.21719086218796899   -0.009377034872468824
0.003278107681919908   -0.2512105819027368   -0.008842771080377725
-0.007538274348319309   -0.21762313423927276   -0.008932887495784393
0.010642106517907436   -0.21707362524394297   -0.00893500332116068
0.003278107681919908   -0.2512105819027368   -0.008842771080377725
0.010267672475788976   -0.21719086218796899   -0.009377034872468824
-0.007538274348319309   -0.21762313423927276   -0.008932887495784393
0.003278107681919908   -0.2512105819027368   -0.008842771080377725
-0.011685535050184158   -0.25183776123885476   -0.00884774500266881
-0.01216335079521988   -0.2518861059456515   -0.009191972768116476
-0.007538274348319309   -0.21762313423927276   -0.008932887495784393
0.003278107681919908   -0.2512105819027368   -0.008842771080377725
-0.01216335079521988   -0.2518861059456515   -0.009191972768116476
0.010267672475788976   -0.21719086218796899   -0.009377034872468824
-0.007538274348319309   -0.21762313423927276   -0.008932887495784393
-0.011685535050184158   -0.25183776123885476   -0.00884774500266881
0.010642106517907436   -0.21707362524394297   -0.00893500332116068
-0.00724005785862146   -0.21771047274595423   -0.00869451837046699
-0.011685535050184158   -0.25183776123885476   -0.00884774500266881
0.003278107681919908   -0.2512105819027368   -0.008842771080377725
0.010642106517907436   -0.21707362524394297   -0.00893500332116068
0.0038897759028492596   -0.25119622468683456   -0.008294664208266838
-0.00724005785862146   -0.21771047274595423   -0.00869451837046699
0.011025717339887138   -0.21705207245716535   -0.008537203729926444
0.0038897759028492596   -0.25119622468683456   -0.008294664208266838
0.010642106517907436   -0.21707362524394297   -0.00893500332116068
-0.00724005785862146   -0.21771047274595423   -0.00869451837046699
0.0038897759028492596   -0.25119622468683456   -0.008294664208266838
-0.011221984103973591   -0.25191793845327953   -0.008547682936089571
-0.011685535050184158   -0.25183776123885476   -0.00884774500266881
-0.00724005785862146   -0.21771047274595423   -0.00869451837046699
0.0038897759028492596   -0.25119622468683456   -0.008294664208266838
-0.011685535050184158   -0.25183776123885476   -0.00884774500266881
0.010642106517907436   -0.21707362524394297   -0.00893500332116068
-0.00724005785862146   -0.21771047274595423   -0.00869451837046699
-0.011221984103973591   -0.25191793845327953   -0.008547682936089571
0.011025717339887138   -0.21705207245716535   -0.008537203729926444
-0.006974208783918038   -0.2178889144723435   -0.008499148949081286
-0.011221984103973591   -0.25191793845327953   -0.008547682936089571
0.0038897759028492596   -0.25119622468683456   -0.008294664208266838
0.011025717339887138   -0.21705207245716535   -0.008537203729926444
0.004337142721032665   -0.2513191253447486   -0.007785158271419026
-0.006974208783918038   -0.2178889144723435   -0.008499148949081286
0.01128025904823649   -0.21710847978068917   -0.008177810402381552
0.004337142721032665   -0.2513191253447486   -0.007785158271419026
0.011025717339887138   -0.21705207245716535   -0.008537203729926444
-0.006974208783918038   -0.2178889144723435   -0.008499148949081286
0.004337142721032665   -0.2513191253447486   -0.007785158271419026
-0.010803344516052343   -0.2521456004774601   -0.008287936363203113
-0.011221984103973591   -0.25191793845327953   -0.008547682936089571
-0.006974208783918038   -0.2178889144723435   -0.008499148949081286
0.004337142721032665   -0.2513191253447486   -0.007785158271419026
-0.011221984103973591   -0.25191793845327953   -0.008547682936089571
0.011025717339887138   -0.21705207245716535   -0.008537203729926444
0.010267672475788976   -0.21719086218796899   -0.009377034872468824
0.0026971731077210202   -0.25136865725821883   -0.009446908350566859
0.029546178007228006   -0.2164540703112763   -0.009804005173296697
0.010642106517907436   -0.21707362524394297   -0.00893500332116068
0.0026971731077210202   -0.25136865725821883   -0.009446908350566859
0.01855493414943457   -0.2503489779201097   -0.009994619801835143
0.029546178007228006   -0.2164540703112763   -0.009804005173296697
0.02002195940485764   -0.25004513971302356   -0.009070254513433369
0.010642106517907436   -0.21707362524394297   -0.00893500332116068
0.030542002683044293   -0.21621159612227822   -0.009161309775002978
0.02002195940485764   -0.25004513971302356   -0.009070254513433369
0.029546178007228006   -0.2164540703112763   -0.009804005173296697
0.010642106517907436   -0.21707362524394297   -0.00893500332116068
0.02002195940485764   -0.25004513971302356   -0.009070254513433369
0.003278107681919908   -0.2512105819027368   -0.008842771080377725
0.0026971731077210202   -0.25136865725821883   -0.009446908350566859
0.010642106517907436   -0.21707362524394297   -0.00893500332116068
0.02002195940485764   -0.25004513971302356   -0.009070254513433369
0.0026971731077210202   -0.25136865725821883   -0.009446908350566859
0.029546178007228006   -0.2164540703112763   -0.009804005173296697
0.010642106517907436   -0.21707362524394297   -0.00893500332116068
0.003278107681919908   -0.2512105819027368   -0.008842771080377725
0.030542002683044293   -0.21621159612227822   -0.009161309775002978
0.011025717339887138   -0.21705207245716535   -0.008537203729926444
0.003278107681919908   -0.2512105819027368   -0.008842771080377725
0.02002195940485764   -0.25004513971302356   -0.009070254513433369
0.030542002683044293   -0.21621159612227822   -0.009161309775002978
0.02114644249738299   -0.24999254514188665   -0.008215354136418536
0.011025717339887138   -0.21705207245716535   -0.008537203729926444
0.03127867657098058   -0.2161452234047749   -0.008577387691972513
0.02114644249738299   -0.24999254514188665   -0.008215354136418536
0.030542002683044293   -0.21621159612227822   -0.009161309775002978
0.011025717339887138   -0.21705207245716535   -0.008537203729926444
0.02114644249738299   -0.24999254514188665   -0.008215354136418536
0.0038897759028492596   -0.25119622468683456   -0.008294664208266838
0.003278107681919908   -0.2512105819027368   -0.008842771080377725
0.011025717339887138   -0.21705207245716535   -0.008537203729926444
0.02114644249738299   -0.24999254514188665   -0.008215354136418536
0.003278107681919908   -0.2512105819027368   -0.008842771080377725
0.030542002683044293   -0.21621159612227822   -0.009161309775002978
0.011025717339887138   -0.21705207245716535   -0.008537203729926444
0.0038897759028492596   -0.25119622468683456   -0.008294664208266838
0.03127867657098058   -0.2161452234047749   -0.008577387691972513
0.01128025904823649   -0.21710847978068917   -0.008177810402381552
0.0038897759028492596   -0.25119622468683456   -0.008294664208266838
0.02114644249738299   -0.24999254514188665   -0.008215354136418536
0.03127867657098058   -0.2161452234047749   -0.008577387691972513
0.022309566364242656   -0.2500819562912834   -0.0074369373346252965
0.01128025904823649   -0.21710847978068917   -0.008177810402381552
0.032024202511599785   -0.2161443122629992   -0.008054880924330073
0.022309566364242656   -0.2500819562912834   -0.0074369373346252965
0.03127867657098058   -0.2161452234047749   -0.008577387691972513
0.01128025904823649   -0.21710847978068917   -0.008177810402381552
0.022309566364242656   -0.2500819562912834   -0.0074369373346252965
0.004337142721032665   -0.2513191253447486   -0.007785158271419026
0.0038897759028492596   -0.25119622468683456   -0.008294664208266838
0.01128025904823649   -0.21710847978068917   -0.008177810402381552
0.022309566364242656   -0.2500819562912834   -0.0074369373346252965
0.0038897759028492596   -0.25119622468683456   -0.008294664208266838
0.03127867657098058   -0.2161452234047749   -0.008577387691972513
-0.05798911285700087   -0.25078527025582226   -0.009169690227259176
-0.04852838467720754   -0.2772069909287015   -0.008316550414183308
-0.04102757749074528   -0.2515777868778864   -0.009111524894611301
-0.05710582965155169   -0.2509557721243576   -0.00969271138174618
-0.04852838467720754   -0.2772069909287015   -0.008316550414183308
-0.036462008780042444   -0.2783830322166751   -0.008669818581115433
-0.04102757749074528   -0.2515777868778864   -0.009111524894611301
-0.03584763748506678   -0.2783216073542856   -0.008957884022286793
-0.05710582965155169   -0.2509557721243576   -0.00969271138174618
-0.04060272452136215   -0.25169255885502523   -0.009298617213774125
-0.03584763748506678   -0.2783216073542856   -0.008957884022286793
-0.04102757749074528   -0.2515777868778864   -0.009111524894611301
-0.05710582965155169   -0.2509557721243576   -0.00969271138174618
-0.03584763748506678   -0.2783216073542856   -0.008957884022286793
-0.047207624530620385   -0.27717333223496243   -0.009093404600914446
-0.04852838467720754   -0.2772069909287015   -0.008316550414183308
-0.05710582965155169   -0.2509557721243576   -0.00969271138174618
-0.03584763748506678   -0.2783216073542856   -0.008957884022286793
-0.04852838467720754   -0.2772069909287015   -0.008316550414183308
-0.04102757749074528   -0.2515777868778864   -0.009111524894611301
-0.05710582965155169   -0.2509557721243576   -0.00969271138174618
-0.047207624530620385   -0.27717333223496243   -0.009093404600914446
-0.04060272452136215   -0.25169255885502523   -0.009298617213774125
-0.05622395545124602   -0.25127758786580656   -0.010285274913780233
-0.047207624530620385   -0.27717333223496243   -0.009093404600914446
-0.03584763748506678   -0.2783216073542856   -0.008957884022286793
-0.04060272452136215   -0.25169255885502523   -0.009298617213774125
-0.035125618068059486   -0.2784893877130135   -0.009289685591882858
-0.05622395545124602   -0.25127758786580656   -0.010285274913780233
-0.04006916674473759   -0.25196680550559186   -0.009528411677437149
-0.035125618068059486   -0.2784893877130135   -0.009289685591882858
-0.04060272452136215   -0.25169255885502523   -0.009298617213774125
-0.05622395545124602   -0.25127758786580656   -0.010285274913780233
-0.035125618068059486   -0.2784893877130135   -0.009289685591882858
-0.045989569562816   -0.27738087595539584   -0.009931812007039404
-0.047207624530620385   -0.27717333223496243   -0.009093404600914446
-0.05622395545124602   -0.25127758786580656   -0.010285274913780233
-0.035125618068059486   -0.2784893877130135   -0.009289685591882858
-0.047207624530620385   -0.27717333223496243   -0.009093404600914446
-0.04060272452136215   -0.25169255885502523   -0.009298617213774125
-0.05622395545124602   -0.25127758786580656   -0.010285274913780233
-0.045989569562816   -0.27738087595539584   -0.009931812007039404
-0.04006916674473759   -0.25196680550559186   -0.009528411677437149
-0.055094093803445   -0.25187767063693917   -0.010946033095280144
-0.045989569562816   -0.27738087595539584   -0.009931812007039404
-0.035125618068059486   -0.2784893877130135   -0.009289685591882858
-0.04006916674473759   -0.25196680550559186   -0.009528411677437149
-0.03447057295004371   -0.2788901084614118   -0.009662413902284539
-0.055094093803445   -0.25187767063693917   -0.010946033095280144
-0.03954255616780822   -0.25241608920175695   -0.009800509859188431
-0.03447057295004371   -0.2788901084614118   -0.009662413902284539
-0.04006916674473759   -0.25196680550559186   -0.009528411677437149
-0.055094093803445   -0.25187767063693917   -0.010946033095280144
-0.03447057295004371   -0.2788901084614118   -0.009662413902284539
-0.04450436053541368   -0.277937060767907   -0.01082808007761649
-0.045989569562816   -0.27738087595539584   -0.009931812007039404
-0.055094093803445   -0.25187767063693917   -0.010946033095280144
-0.03447057295004371   -0.2788901084614118   -0.009662413902284539
-0.045989569562816   -0.27738087595539584   -0.009931812007039404
-0.04006916674473759   -0.25196680550559186   -0.009528411677437149
-0.04102757749074528   -0.2515777868778864   -0.009111524894611301
-0.036462008780042444   -0.2783830322166751   -0.008669818581115433
-0.026351308665017555   -0.2519506217721125   -0.009087955188705886
-0.04060272452136215   -0.25169255885502523   -0.009298617213774125
-0.036462008780042444   -0.2783830322166751   -0.008669818581115433
-0.02661618040893761   -0.2791493170128338   -0.008946147247966099
-0.026351308665017555   -0.2519506217721125   -0.009087955188705886
-0.025985197457421505   -0.27905178677265796   -0.008857930348123395
-0.04060272452136215   -0.25169255885502523   -0.009298617213774125
-0.025915115096204748   -0.25198850762733255   -0.009004627108878617
-0.025985197457421505   -0.27905178677265796   -0.008857930348123395
-0.026351308665017555   -0.2519506217721125   -0.009087955188705886
-0.04060272452136215   -0.25169255885502523   -0.009298617213774125
-0.025985197457421505   -0.27905178677265796   -0.008857930348123395
-0.03584763748506678   -0.2783216073542856   -0.008957884022286793
-0.036462008780042444   -0.2783830322166751   -0.008669818581115433
-0.04060272452136215   -0.25169255885502523   -0.009298617213774125
-0.025985197457421505   -0.27905178677265796   -0.008857930348123395
-0.036462008780042444   -0.2783830322166751   -0.008669818581115433
-0.026351308665017555   -0.2519506217721125   -0.009087955188705886
-0.04060272452136215   -0.25169255885502523   -0.009298617213774125
-0.03584763748506678   -0.2783216073542856   -0.008957884022286793
-0.025915115096204748   -0.25198850762733255   -0.009004627108878617
-0.04006916674473759   -0.25196680550559186   -0.009528411677437149
-0.03584763748506678   -0.2783216073542856   -0.008957884022286793
-0.025985197457421505   -0.27905178677265796   -0.008857930348123395
-0.025915115096204748   -0.25198850762733255   -0.009004627108878617
-0.025363423739954174   -0.2791519212622297   -0.008812153397988095
-0.04006916674473759   -0.25196680550559186   -0.009528411677437149
-0.02546502854438558   -0.25216872304704796   -0.008962738575829203
-0.025363423739954174   -0.2791519212622297   -0.008812153397988095
-0.025915115096204748   -0.25198850762733255   -0.009004627108878617
-0.04006916674473759   -0.25196680550559186   -0.009528411677437149
-0.025363423739954174   -0.2791519212622297   -0.008812153397988095
-0.035125618068059486   -0.2784893877130135   -0.009289685591882858
-0.03584763748506678   -0.2783216073542856   -0.008957884022286793
-0.04006916674473759   -0.25196680550559186   -0.009528411677437149
-0.025363423739954174   -0.2791519212622297   -0.008812153397988095
-0.03584763748506678   -0.2783216073542856   -0.008957884022286793
-0.025915115096204748   -0.25198850762733255   -0.009004627108878617
-0.04006916674473759   -0.25196680550559186   -0.009528411677437149
-0.035125618068059486   -0.2784893877130135   -0.009289685591882858
-0.02546502854438558   -0.25216872304704796   -0.008962738575829203
-0.03954255616780822   -0.25241608920175695   -0.009800509859188431
-0.035125618068059486   -0.2784893877130135   -0.009289685591882858
-0.025363423739954174   -0.2791519212622297   -0.008812153397988095
-0.02546502854438558   -0.25216872304704796   -0.008962738575829203
-0.024791674958295866   -0.27945643031930584   -0.008817766053627659
-0.03954255616780822   -0.25241608920175695   -0.009800509859188431
-0.025015740929412507   -0.2524998056058624   -0.008961709942872003
-0.024791674958295866   -0.27945643031930584   -0.008817766053627659
-0.02546502854438558   -0.25216872304704796   -0.008962738575829203
-0.03954255616780822   -0.25241608920175695   -0.009800509859188431
-0.024791674958295866   -0.27945643031930584   -0.008817766053627659
-0.03447057295004371   -0.2788901084614118   -0.009662413902284539
-0.035125618068059486   -0.2784893877130135   -0.009289685591882858
-0.03954255616780822   -0.25241608920175695   -0.009800509859188431
-0.024791674958295866   -0.27945643031930584   -0.008817766053627659
-0.035125618068059486   -0.2784893877130135   -0.009289685591882858
-0.02546502854438558   -0.25216872304704796   -0.008962738575829203
-0.026351308665017555   -0.2519506217721125   -0.009087955188705886
-0.02661618040893761   -0.2791493170128338   -0.008946147247966099
-0.01216335079521988   -0.2518861059456515   -0.009191972768116476
-0.025915115096204748   -0.25198850762733255   -0.009004627108878617
-0.02661618040893761   -0.2791493170128338   -0.008946147247966099
-0.017187272691620903   -0.2795581638030152   -0.009271314393548237
-0.01216335079521988   -0.2518861059456515   -0.009191972768116476
-0.016475839571066703   -0.27941827415443554   -0.008828481672258033
-0.025915115096204748   -0.25198850762733255   -0.009004627108878617
-0.011685535050184158   -0.25183776123885476   -0.00884774500266881
-0.016475839571066703   -0.27941827415443554   -0.008828481672258033
-0.01216335079521988   -0.2518861059456515   -0.009191972768116476
-0.025915115096204748   -0.25198850762733255   -0.009004627108878617
-0.016475839571066703   -0.27941827415443554   -0.008828481672258033
-0.025985197457421505   -0.27905178677265796   -0.008857930348123395
-0.02661618040893761   -0.2791493170128338   -0.008946147247966099
-0.025915115096204748   -0.25198850762733255   -0.009004627108878617
-0.016475839571066703   -0.27941827415443554   -0.008828481672258033
-0.02661618040893761   -0.2791493170128338   -0.008946147247966099
-0.01216335079521988   -0.2518861059456515   -0.009191972768116476
-0.025915115096204748   -0.25198850762733255   -0.009004627108878617
-0.025985197457421505   -0.27905178677265796   -0.008857930348123395
-0.011685535050184158   -0.25183776123885476   -0.00884774500266881
-0.02546502854438558   -0.25216872304704796   -0.008962738575829203
-0.025985197457421505   -0.27905178677265796   -0.008857930348123395
-0.016475839571066703   -0.27941827415443554   -0.008828481672258033
-0.011685535050184158   -0.25183776123885476   -0.00884774500266881
-0.01579794531529425   -0.27945185225401276   -0.008423015543185343
-0.02546502854438558   -0.25216872304704796   -0.008962738575829203
-0.011221984103973591   -0.25191793845327953   -0.008547682936089571
-0.01579794531529425   -0.27945185225401276   -0.008423015543185343
-0.011685535050184158   -0.25183776123885476   -0.00884774500266881
-0.02546502854438558   -0.25216872304704796   -0.008962738575829203
-0.01579794531529425   -0.27945185225401276   -0.008423015543185343
-0.025363423739954174   -0.2791519212622297   -0.008812153397988095
-0.025985197457421505   -0.27905178677265796   -0.008857930348123395
-0.02546502854438558   -0.25216872304704796   -0.008962738575829203
-0.01579794531529425   -0.27945185225401276   -0.008423015543185343
-0.025985197457421505   -0.27905178677265796   -0.008857930348123395
-0.011685535050184158   -0.25183776123885476   -0.00884774500266881
-0.02546502854438558   -0.25216872304704796   -0.008962738575829203
-0.025363423739954174   -0.2791519212622297   -0.008812153397988095
-0.011221984103973591   -0.25191793845327953   -0.008547682936089571
-0.025015740929412507   -0.2524998056058624   -0.008961709942872003
-0.025363423739954174   -0.2791519212622297   -0.008812153397988095
-0.01579794531529425   -0.27945185225401276   -0.008423015543185343
-0.011221984103973591   -0.25191793845327953   -0.008547682936089571
-0.015234697252368534   -0.27969333302835997   -0.008078604007849209
-0.025015740929412507   -0.2524998056058624   -0.008961709942872003
-0.010803344516052343   -0.2521456004774601   -0.008287936363203113
-0.015234697252368534   -0.27969333302835997   -0.008078604007849209
-0.011221984103973591   -0.25191793845327953   -0.008547682936089571
-0.025015740929412507   -0.2524998056058624   -0.008961709942872003
-0.015234697252368534   -0.27969333302835997   -0.008078604007849209
-0.024791674958295866   -0.27945643031930584   -0.008817766053627659
-0.025363423739954174   -0.2791519212622297   -0.008812153397988095
-0.025015740929412507   -0.2524998056058624   -0.008961709942872003
-0.015234697252368534   -0.27969333302835997   -0.008078604007849209
-0.025363423739954174   -0.2791519212622297   -0.008812153397988095
-0.011221984103973591   -0.25191793845327953   -0.008547682936089571
-0.01216335079521988   -0.2518861059456515   -0.009191972768116476
-0.017187272691620903   -0.2795581638030152   -0.009271314393548237
0.0026971731077210202   -0.25136865725821883   -0.009446908350566859
-0.011685535050184158   -0.25183776123885476   -0.00884774500266881
-0.017187272691620903   -0.2795581638030152   -0.009271314393548237
-0.00715072719378788   -0.2794682754457684   -0.009653174667889746
0.0026971731077210202   -0.25136865725821883   -0.009446908350566859
-0.006237326496130413   -0.2792491950980276   -0.008871433748034178
-0.011685535050184158   -0.25183776123885476   -0.00884774500266881
0.003278107681919908   -0.2512105819027368   -0.008842771080377725
-0.006237326496130413   -0.2792491950980276   -0.008871433748034178
0.0026971731077210202   -0.25136865725821883   -0.009446908350566859
-0.011685535050184158   -0.25183776123885476   -0.00884774500266881
-0.006237326496130413   -0.2792491950980276   -0.008871433748034178
-0.016475839571066703   -0.27941827415443554   -0.008828481672258033
-0.017187272691620903   -0.2795581638030152   -0.009271314393548237
-0.011685535050184158   -0.25183776123885476   -0.00884774500266881
-0.006237326496130413   -0.2792491950980276   -0.008871433748034178
-0.017187272691620903   -0.2795581638030152   -0.009271314393548237
0.0026971731077210202   -0.25136865725821883   -0.009446908350566859
-0.011685535050184158   -0.25183776123885476   -0.00884774500266881
-0.016475839571066703   -0.27941827415443554   -0.008828481672258033
0.003278107681919908   -0.2512105819027368   -0.008842771080377725
-0.011221984103973591   -0.25191793845327953   -0.008547682936089571
-0.016475839571066703   -0.27941827415443554   -0.008828481672258033
-0.006237326496130413   -0.2792491950980276   -0.008871433748034178
0.003278107681919908   -0.2512105819027368   -0.008842771080377725
-0.005304747791492862   -0.27920978283167347   -0.008129754790938868
-0.011221984103973591   -0.25191793845327953   -0.008547682936089571
0.0038897759028492596   -0.25119622468683456   -0.008294664208266838
-0.005304747791492862   -0.27920978283167347   -0.008129754790938868
0.003278107681919908   -0.2512105819027368   -0.008842771080377725
-0.011221984103973591   -0.25191793845327953   -0.008547682936089571
-0.005304747791492862   -0.27920978283167347   -0.008129754790938868
-0.01579794531529425   -0.27945185225401276   -0.008423015543185343
-0.016475839571066703   -0.27941827415443554   -0.008828481672258033
-0.011221984103973591   -0.25191793845327953   -0.008547682936089571
-0.005304747791492862   -0.27920978283167347   -0.008129754790938868
-0.016475839571066703   -0.27941827415443554   -0.008828481672258033
0.003278107681919908   -0.2512105819027368   -0.008842771080377725
-0.011221984103973591   -0.25191793845327953   -0.008547682936089571
-0.01579794531529425   -0.27945185225401276   -0.008423015543185343
0.0038897759028492596   -0.25119622468683456   -0.008294664208266838
-0.010803344516052343   -0.2521456004774601   -0.008287936363203113
-0.01579794531529425   -0.27945185225401276   -0.008423015543185343
-0.005304747791492862   -0.27920978283167347   -0.008129754790938868
0.0038897759028492596   -0.25119622468683456   -0.008294664208266838
-0.004613246373240192   -0.279389327907557   -0.007456799532733654
-0.010803344516052343   -0.2521456004774601   -0.008287936363203113
0.004337142721032665   -0.2513191253447486   -0.007785158271419026
-0.004613246373240192   -0.279389327907557   -0.007456799532733654
0.0038897759028492596   -0.25119622468683456   -0.008294664208266838
-0.010803344516052343   -0.2521456004774601   -0.008287936363203113
-0.004613246373240192   -0.279389327907557   -0.007456799532733654
-0.015234697252368534   -0.27969333302835997   -0.008078604007849209
-0.01579794531529425   -0.27945185225401276   -0.008423015543185343
-0.010803344516052343   -0.2521456004774601   -0.008287936363203113
-0.004613246373240192   -0.279389327907557   -0.007456799532733654
-0.01579794531529425   -0.27945185225401276   -0.008423015543185343
0.0038897759028492596   -0.25119622468683456   -0.008294664208266838
0.0026971731077210202   -0.25136865725821883   -0.009446908350566859
-0.00715072719378788   -0.2794682754457684   -0.009653174667889746
0.01855493414943457   -0.2503489779201097   -0.009994619801835143
0.003278107681919908   -0.2512105819027368   -0.008842771080377725
-0.00715072719378788   -0.2794682754457684   -0.009653174667889746
0.0036711580656722965   -0.27850831070223664   -0.010439771022997542
0.01855493414943457   -0.2503489779201097   -0.009994619801835143
0.005790205784181192   -0.2780302796933761   -0.00916032209840904
0.003278107681919908   -0.2512105819027368   -0.008842771080377725
0.02002195940485764   -0.25004513971302356   -0.009070254513433369
0.005790205784181192   -0.2780302796933761   -0.00916032209840904
0.01855493414943457   -0.2503489779201097   -0.009994619801835143
0.003278107681919908   -0.2512105819027368   -0.008842771080377725
0.005790205784181192   -0.2780302796933761   -0.00916032209840904
-0.006237326496130413   -0.2792491950980276   -0.008871433748034178
-0.00715072719378788   -0.2794682754457684   -0.009653174667889746
0.003278107681919908   -0.2512105819027368   -0.008842771080377725
0.005790205784181192   -0.2780302796933761   -0.00916032209840904
-0.00715072719378788   -0.2794682754457684   -0.009653174667889746
0.01855493414943457   -0.2503489779201097   -0.009994619801835143
0.003278107681919908   -0.2512105819027368   -0.008842771080377725
-0.006237326496130413   -0.2792491950980276   -0.008871433748034178
0.02002195940485764   -0.25004513971302356   -0.009070254513433369
0.0038897759028492596   -0.25119622468683456   -0.008294664208266838
-0.006237326496130413   -0.2792491950980276   -0.008871433748034178
0.005790205784181192   -0.2780302796933761   -0.00916032209840904
0.02002195940485764   -0.25004513971302356   -0.009070254513433369
0.007456053665540946   -0.27793283718326967   -0.00795981820977641
0.0038897759028492596   -0.25119622468683456   -0.008294664208266838
0.02114644249738299   -0.24999254514188665   -0.008215354136418536
0.007456053665540946   -0.27793283718326967   -0.00795981820977641
0.02002195940485764   -0.25004513971302356   -0.009070254513433369
0.0038897759028492596   -0.25119622468683456   -0.008294664208266838
0.007456053665540946   -0.27793283718326967   -0.00795981820977641
-0.005304747791492862   -0.27920978283167347   -0.008129754790938868
-0.006237326496130413   -0.2792491950980276   -0.008871433748034178
0.0038897759028492596   -0.25119622468683456   -0.008294664208266838
0.007456053665540946   -0.27793283718326967   -0.00795981820977641
-0.006237326496130413   -0.2792491950980276   -0.008871433748034178
0.02002195940485764   -0.25004513971302356   -0.009070254513433369
0.0038897759028492596   -0.25119622468683456   -0.008294664208266838
-0.005304747791492862   -0.27920978283167347   -0.008129754790938868
0.02114644249738299   -0.24999254514188665   -0.008215354136418536
0.004337142721032665   -0.2513191253447486   -0.007785158271419026
-0.005304747791492862   -0.27920978283167347   -0.008129754790938868
0.007456053665540946   -0.27793283718326967   -0.00795981820977641
0.02114644249738299   -0.24999254514188665   -0.008215354136418536
0.009184750226607962   -0.2780116202999099   -0.006864413249935981
0.004337142721032665   -0.2513191253447486   -0.007785158271419026
0.022309566364242656   -0.2500819562912834   -0.0074369373346252965
0.009184750226607962   -0.2780116202999099   -0.006864413249935981
0.02114644249738299   -0.24999254514188665   -0.008215354136418536
0.004337142721032665   -0.2513191253447486   -0.007785158271419026
0.009184750226607962   -0.2780116202999099   -0.006864413249935981
-0.004613246373240192   -0.279389327907557   -0.007456799532733654
-0.005304747791492862   -0.27920978283167347   -0.008129754790938868
0.004337142721032665   -0.2513191253447486   -0.007785158271419026
0.009184750226607962   -0.2780116202999099   -0.006864413249935981
-0.005304747791492862   -0.27920978283167347   -0.008129754790938868
0.02114644249738299   -0.24999254514188665   -0.008215354136418536
-0.04852838467720754   -0.2772069909287015   -0.008316550414183308
-0.03549922636815755   -0.29289498422628785   -0.007315736040520506
-0.036462008780042444   -0.2783830322166751   -0.008669818581115433
-0.047207624530620385   -0.27717333223496243   -0.009093404600914446
-0.03549922636815755   -0.29289498422628785   -0.007315736040520506
-0.029905980786470086   -0.29438427858498867   -0.008213432351395236
-0.036462008780042444   -0.2783830322166751   -0.008669818581115433
-0.029129166538192496   -0.2940880166812969   -0.008519241164188805
-0.047207624530620385   -0.27717333223496243   -0.009093404600914446
-0.03584763748506678   -0.2783216073542856   -0.008957884022286793
-0.029129166538192496   -0.2940880166812969   -0.008519241164188805
-0.036462008780042444   -0.2783830322166751   -0.008669818581115433
-0.047207624530620385   -0.27717333223496243   -0.009093404600914446
-0.029129166538192496   -0.2940880166812969   -0.008519241164188805
-0.033850864847075675   -0.29256147987639025   -0.008248237540910917
-0.03549922636815755   -0.29289498422628785   -0.007315736040520506
-0.047207624530620385   -0.27717333223496243   -0.009093404600914446
-0.029129166538192496   -0.2940880166812969   -0.008519241164188805
-0.03549922636815755   -0.29289498422628785   -0.007315736040520506
-0.036462008780042444   -0.2783830322166751   -0.008669818581115433
-0.047207624530620385   -0.27717333223496243   -0.009093404600914446
-0.033850864847075675   -0.29256147987639025   -0.008248237540910917
-0.03584763748506678   -0.2783216073542856   -0.008957884022286793
-0.045989569562816   -0.27738087595539584   -0.009931812007039404
-0.033850864847075675   -0.29256147987639025   -0.008248237540910917
-0.029129166538192496   -0.2940880166812969   -0.008519241164188805
-0.03584763748506678   -0.2783216073542856   -0.008957884022286793
-0.028269789704605777   -0.294100023426464   -0.008828103506537394
-0.045989569562816   -0.27738087595539584   -0.009931812007039404
-0.035125618068059486   -0.2784893877130135   -0.009289685591882858
-0.028269789704605777   -0.294100023426464   -0.008828103506537394
-0.03584763748506678   -0.2783216073542856   -0.008957884022286793
-0.045989569562816   -0.27738087595539584   -0.009931812007039404
-0.028269789704605777   -0.294100023426464   -0.008828103506537394
-0.03242841537247596   -0.29258705157049897   -0.009176915465951035
-0.033850864847075675   -0.29256147987639025   -0.008248237540910917
-0.045989569562816   -0.27738087595539584   -0.009931812007039404
-0.028269789704605777   -0.294100023426464   -0.008828103506537394
-0.033850864847075675   -0.29256147987639025   -0.008248237540910917
-0.03584763748506678   -0.2783216073542856   -0.008957884022286793
-0.045989569562816   -0.27738087595539584   -0.009931812007039404
-0.03242841537247596   -0.29258705157049897   -0.009176915465951035
-0.035125618068059486   -0.2784893877130135   -0.009289685591882858
-0.04450436053541368   -0.277937060767907   -0.01082808007761649
-0.03242841537247596   -0.29258705157049897   -0.009176915465951035
-0.028269789704605777   -0.294100023426464   -0.008828103506537394
-0.035125618068059486   -0.2784893877130135   -0.009289685591882858
-0.027470905504961538   -0.2944216072096206   -0.009141318772598044
-0.04450436053541368   -0.277937060767907   -0.01082808007761649
-0.03447057295004371   -0.2788901084614118   -0.009662413902284539
-0.027470905504961538   -0.2944216072096206   -0.009141318772598044
-0.035125618068059486   -0.2784893877130135   -0.009289685591882858
-0.04450436053541368   -0.277937060767907   -0.01082808007761649
-0.027470905504961538   -0.2944216072096206   -0.009141318772598044
-0.03074197519478595   -0.29299203439609717   -0.010125670574022935
-0.03242841537247596   -0.29258705157049897   -0.009176915465951035
-0.04450436053541368   -0.277937060767907   -0.01082808007761649
-0.027470905504961538   -0.2944216072096206   -0.009141318772598044
-0.03242841537247596   -0.29258705157049897   -0.009176915465951035
-0.035125618068059486   -0.2784893877130135   -0.009289685591882858
-0.036462008780042444   -0.2783830322166751   -0.008669818581115433
-0.029905980786470086   -0.29438427858498867   -0.008213432351395236
-0.02661618040893761   -0.2791493170128338   -0.008946147247966099
-0.03584763748506678   -0.2783216073542856   -0.008957884022286793
-0.029905980786470086   -0.29438427858498867   -0.008213432351395236
-0.02582004856035325   -0.2958884573099742   -0.009007481555273816
-0.02661618040893761   -0.2791493170128338   -0.008946147247966099
-0.024999522702450924   -0.2955849870539907   -0.008790476131418597
-0.03584763748506678   -0.2783216073542856   -0.008957884022286793
-0.025985197457421505   -0.27905178677265796   -0.008857930348123395
-0.024999522702450924   -0.2955849870539907   -0.008790476131418597
-0.02661618040893761   -0.2791493170128338   -0.008946147247966099
-0.03584763748506678   -0.2783216073542856   -0.008957884022286793
-0.024999522702450924   -0.2955849870539907   -0.008790476131418597
-0.029129166538192496   -0.2940880166812969   -0.008519241164188805
-0.029905980786470086   -0.29438427858498867   -0.008213432351395236
-0.03584763748506678   -0.2783216073542856   -0.008957884022286793
-0.024999522702450924   -0.2955849870539907   -0.008790476131418597
-0.029905980786470086   -0.29438427858498867   -0.008213432351395236
-0.02661618040893761   -0.2791493170128338   -0.008946147247966099
-0.03584763748506678   -0.2783216073542856   -0.008957884022286793
-0.029129166538192496   -0.2940880166812969   -0.008519241164188805
-0.025985197457421505   -0.27905178677265796   -0.008857930348123395
-0.035125618068059486   -0.2784893877130135   -0.009289685591882858
-0.029129166538192496   -0.2940880166812969   -0.008519241164188805
-0.024999522702450924   -0.2955849870539907   -0.008790476131418597
-0.025985197457421505   -0.27905178677265796   -0.008857930348123395
-0.02420662806419202   -0.2955775843727708   -0.008570706381030377
-0.035125618068059486   -0.2784893877130135   -0.009289685591882858
-0.025363423739954174   -0.2791519212622297   -0.008812153397988095
-0.02420662806419202   -0.2955775843727708   -0.008570706381030377
-0.025985197457421505   -0.27905178677265796   -0.008857930348123395
-0.035125618068059486   -0.2784893877130135   -0.009289685591882858
-0.02420662806419202   -0.2955775843727708   -0.008570706381030377
-0.028269789704605777   -0.294100023426464   -0.008828103506537394
-0.029129166538192496   -0.2940880166812969   -0.008519241164188805
-0.035125618068059486   -0.2784893877130135   -0.009289685591882858
-0.02420662806419202   -0.2955775843727708   -0.008570706381030377
-0.029129166538192496   -0.2940880166812969   -0.008519241164188805
-0.025985197457421505   -0.27905178677265796   -0.008857930348123395
-0.035125618068059486   -0.2784893877130135   -0.009289685591882858
-0.028269789704605777   -0.294100023426464   -0.008828103506537394
-0.025363423739954174   -0.2791519212622297   -0.008812153397988095
-0.03447057295004371   -0.2788901084614118   -0.009662413902284539
-0.028269789704605777   -0.294100023426464   -0.008828103506537394
-0.02420662806419202   -0.2955775843727708   -0.008570706381030377
-0.025363423739954174   -0.2791519212622297   -0.008812153397988095
-0.0233796683411782   -0.2958599474284627   -0.008359455085974141
-0.03447057295004371   -0.2788901084614118   -0.009662413902284539
-0.024791674958295866   -0.27945643031930584   -0.008817766053627659
-0.0233796683411782   -0.2958599474284627   -0.008359455085974141
-0.025363423739954174   -0.2791519212622297   -0.008812153397988095
-0.03447057295004371   -0.2788901084614118   -0.009662413902284539
-0.0233796683411782   -0.2958599474284627   -0.008359455085974141
-0.027470905504961538   -0.2944216072096206   -0.009141318772598044
-0.028269789704605777   -0.294100023426464   -0.008828103506537394
-0.03447057295004371   -0.2788901084614118   -0.009662413902284539
-0.0233796683411782   -0.2958599474284627   -0.008359455085974141
-0.028269789704605777   -0.294100023426464   -0.008828103506537394
-0.025363423739954174   -0.2791519212622297   -0.008812153397988095
-0.02661618040893761   -0.2791493170128338   -0.008946147247966099
-0.02582004856035325   -0.2958884573099742   -0.009007481555273816
-0.017187272691620903   -0.2795581638030152   -0.009271314393548237
-0.025985197457421505   -0.27905178677265796   -0.008857930348123395
-0.02582004856035325   -0.2958884573099742   -0.009007481555273816
-0.022092241680914337   -0.29771372278990377   -0.0098805406846082
-0.017187272691620903   -0.2795581638030152   -0.009271314393548237
-0.021085757613982896   -0.2974514073381772   -0.009111190935148894
-0.025985197457421505   -0.27905178677265796   -0.008857930348123395
-0.016475839571066703   -0.27941827415443554   -0.008828481672258033
-0.021085757613982896   -0.2974514073381772   -0.009111190935148894
-0.017187272691620903   -0.2795581638030152   -0.009271314393548237
-0.025985197457421505   -0.27905178677265796   -0.008857930348123395
-0.021085757613982896   -0.2974514073381772   -0.009111190935148894
-0.024999522702450924   -0.2955849870539907   -0.008790476131418597
-0.02582004856035325   -0.2958884573099742   -0.009007481555273816
-0.025985197457421505   -0.27905178677265796   -0.008857930348123395
-0.021085757613982896   -0.2974514073381772   -0.009111190935148894
-0.02582004856035325   -0.2958884573099742   -0.009007481555273816
-0.017187272691620903   -0.2795581638030152   -0.009271314393548237
-0.025985197457421505   -0.27905178677265796   -0.008857930348123395
-0.024999522702450924   -0.2955849870539907   -0.008790476131418597
-0.016475839571066703   -0.27941827415443554   -0.008828481672258033
-0.025363423739954174   -0.2791519212622297   -0.008812153397988095
-0.024999522702450924   -0.2955849870539907   -0.008790476131418597
-0.021085757613982896   -0.2974514073381772   -0.009111190935148894
-0.016475839571066703   -0.27941827415443554   -0.008828481672258033
-0.020153838901519457   -0.2974362244647229   -0.00834484627190301
-0.025363423739954174   -0.2791519212622297   -0.008812153397988095
-0.01579794531529425   -0.27945185225401276   -0.008423015543185343
-0.020153838901519457   -0.2974362244647229   -0.00834484627190301
-0.016475839571066703   -0.27941827415443554   -0.008828481672258033
-0.025363423739954174   -0.2791519212622297   -0.008812153397988095
-0.020153838901519457   -0.2974362244647229   -0.00834484627190301
-0.02420662806419202   -0.2955775843727708   -0.008570706381030377
-0.024999522702450924   -0.2955849870539907   -0.008790476131418597
-0.025363423739954174   -0.2791519212622297   -0.008812153397988095
-0.020153838901519457   -0.2974362244647229   -0.00834484627190301
-0.024999522702450924   -0.2955849870539907   -0.008790476131418597
-0.016475839571066703   -0.27941827415443554   -0.008828481672258033
-0.025363423739954174   -0.2791519212622297   -0.008812153397988095
-0.02420662806419202   -0.2955775843727708   -0.008570706381030377
-0.01579794531529425   -0.27945185225401276   -0.008423015543185343
-0.024791674958295866   -0.27945643031930584   -0.008817766053627659
-0.02420662806419202   -0.2955775843727708   -0.008570706381030377
-0.020153838901519457   -0.2974362244647229   -0.00834484627190301
-0.01579794531529425   -0.27945185225401276   -0.008423015543185343
-0.01915244791214545   -0.29765452798750996   -0.007576105746908716
-0.024791674958295866   -0.27945643031930584   -0.008817766053627659
-0.015234697252368534   -0.27969333302835997   -0.008078604007849209
-0.01915244791214545   -0.29765452798750996   -0.007576105746908716
-0.01579794531529425   -0.27945185225401276   -0.008423015543185343
-0.024791674958295866   -0.27945643031930584   -0.008817766053627659
-0.01915244791214545   -0.29765452798750996   -0.007576105746908716
-0.0233796683411782   -0.2958599474284627   -0.008359455085974141
-0.02420662806419202   -0.2955775843727708   -0.008570706381030377
-0.024791674958295866   -0.27945643031930584   -0.008817766053627659
-0.01915244791214545   -0.29765452798750996   -0.007576105746908716
-0.02420662806419202   -0.2955775843727708   -0.008570706381030377
-0.01579794531529425   -0.27945185225401276   -0.008423015543185343
-0.017187272691620903   -0.2795581638030152   -0.009271314393548237
-0.022092241680914337   -0.29771372278990377   -0.0098805406846082
-0.00715072719378788   -0.2794682754457684   -0.009653174667889746
-0.016475839571066703   -0.27941827415443554   -0.008828481672258033
-0.022092241680914337   -0.29771372278990377   -0.0098805406846082
-0.018423449584664974   -0.30000000000000004   -0.01054596890988441
-0.00715072719378788   -0.2794682754457684   -0.009653174667889746
-0.01715905355035222   -0.30000000000000004   -0.009381637116310381
-0.016475839571066703   -0.27941827415443554   -0.008828481672258033
-0.006237326496130413   -0.2792491950980276   -0.008871433748034178
-0.01715905355035222   -0.30000000000000004   -0.009381637116310381
-0.00715072719378788   -0.2794682754457684   -0.009653174667889746
-0.016475839571066703   -0.27941827415443554   -0.008828481672258033
-0.01715905355035222   -0.30000000000000004   -0.009381637116310381
-0.021085757613982896   -0.2974514073381772   -0.009111190935148894
-0.022092241680914337   -0.29771372278990377   -0.0098805406846082
-0.016475839571066703   -0.27941827415443554   -0.008828481672258033
-0.01715905355035222   -0.30000000000000004   -0.009381637116310381
-0.022092241680914337   -0.29771372278990377   -0.0098805406846082
-0.00715072719378788   -0.2794682754457684   -0.009653174667889746
-0.016475839571066703   -0.27941827415443554   -0.008828481672258033
-0.021085757613982896   -0.2974514073381772   -0.009111190935148894
-0.006237326496130413   -0.2792491950980276   -0.008871433748034178
-0.01579794531529425   -0.27945185225401276   -0.008423015543185343
-0.021085757613982896   -0.2974514073381772   -0.009111190935148894
-0.01715905355035222   -0.30000000000000004   -0.009381637116310381
-0.006237326496130413   -0.2792491950980276   -0.008871433748034178
-0.01588986108651473   -0.30000000000000004   -0.008203456060332385
-0.01579794531529425   -0.27945185225401276   -0.008423015543185343
-0.005304747791492862   -0.27920978283167347   -0.008129754790938868
-0.01588986108651473   -0.30000000000000004   -0.008203456060332385
-0.006237326496130413   -0.2792491950980276   -0.008871433748034178
-0.01579794531529425   -0.27945185225401276   -0.008423015543185343
-0.01588986108651473   -0.30000000000000004   -0.008203456060332385
-0.020153838901519457   -0.2974362244647229   -0.00834484627190301
-0.021085757613982896   -0.2974514073381772   -0.009111190935148894
-0.01579794531529425   -0.27945185225401276   -0.008423015543185343
-0.01588986108651473   -0.30000000000000004   -0.008203456060332385
-0.021085757613982896   -0.2974514073381772   -0.009111190935148894
-0.006237326496130413   -0.2792491950980276   -0.008871433748034178
-0.01579794531529425   -0.27945185225401276   -0.008423015543185343
-0.020153838901519457   -0.2974362244647229   -0.00834484627190301
-0.005304747791492862   -0.27920978283167347   -0.008129754790938868
-0.015234697252368534   -0.27969333302835997   -0.008078604007849209
-0.020153838901519457   -0.2974362244647229   -0.00834484627190301
-0.01588986108651473   -0.30000000000000004   -0.008203456060332385
-0.005304747791492862   -0.27920978283167347   -0.008129754790938868
-0.01464767354030991   -0.30000000000000004   -0.00704074662739859
-0.015234697252368534   -0.27969333302835997   -0.008078604007849209
-0.004613246373240192   -0.279389327907557   -0.007456799532733654
-0.01464767354030991   -0.30000000000000004   -0.00704074662739859
-0.005304747791492862   -0.27920978283167347   -0.008129754790938868
-0.015234697252368534   -0.27969333302835997   -0.008078604007849209
-0.01464767354030991   -0.30000000000000004   -0.00704074662739859
-0.01915244791214545   -0.29765452798750996   -0.007576105746908716
-0.020153838901519457   -0.2974362244647229   -0.00834484627190301
-0.015234697252368534   -0.27969333302835997   -0.008078604007849209
-0.01464767354030991   -0.30000000000000004   -0.00704074662739859
-0.020153838901519457   -0.2974362244647229   -0.00834484627190301
-0.005304747791492862   -0.27920978283167347   -0.008129754790938868
-0.00715072719378788   -0.2794682754457684   -0.009653174667889746
-0.018423449584664974   -0.30000000000000004   -0.01054596890988441
0.0036711580656722965   -0.27850831070223664   -0.010439771022997542
-0.006237326496130413   -0.2792491950980276   -0.008871433748034178
-0.018423449584664974   -0.30000000000000004   -0.01054596890988441
-0.01577543214414053   -0.30000000000000004   -0.011351906930034752
0.0036711580656722965   -0.27850831070223664   -0.010439771022997542
-0.013141577265725353   -0.30000000000000004   -0.009669674210009506
-0.006237326496130413   -0.2792491950980276   -0.008871433748034178
0.005790205784181192   -0.2780302796933761   -0.00916032209840904
-0.013141577265725353   -0.30000000000000004   -0.009669674210009506
0.0036711580656722965   -0.27850831070223664   -0.010439771022997542
-0.006237326496130413   -0.2792491950980276   -0.008871433748034178
-0.013141577265725353   -0.30000000000000004   -0.009669674210009506
-0.01715905355035222   -0.30000000000000004   -0.009381637116310381
-0.018423449584664974   -0.30000000000000004   -0.01054596890988441
-0.006237326496130413   -0.2792491950980276   -0.008871433748034178
-0.013141577265725353   -0.30000000000000004   -0.009669674210009506
-0.018423449584664974   -0.30000000000000004   -0.01054596890988441
0.0036711580656722965   -0.27850831070223664   -0.010439771022997542
-0.006237326496130413   -0.2792491950980276   -0.008871433748034178
-0.01715905355035222   -0.30000000000000004   -0.009381637116310381
0.005790205784181192   -0.2780302796933761   -0.00916032209840904
-0.005304747791492862   -0.27920978283167347   -0.008129754790938868
-0.01715905355035222   -0.30000000000000004   -0.009381637116310381
-0.013141577265725353   -0.30000000000000004   -0.009669674210009506
0.005790205784181192   -0.2780302796933761   -0.00916032209840904
-0.011041017442597688   -0.30000000000000004   -0.008060283719263463
-0.005304747791492862   -0.27920978283167347   -0.008129754790938868
0.007456053665540946   -0.27793283718326967   -0.00795981820977641
-0.011041017442597688   -0.30000000000000004   -0.008060283719263463
0.005790205784181192   -0.2780302796933761   -0.00916032209840904
-0.005304747791492862   -0.27920978283167347   -0.008129754790938868
-0.011041017442597688   -0.30000000000000004   -0.008060283719263463
-0.01588986108651473   -0.30000000000000004   -0.008203456060332385
-0.01715905355035222   -0.30000000000000004   -0.009381637116310381
-0.005304747791492862   -0.27920978283167347   -0.008129754790938868
-0.011041017442597688   -0.30000000000000004   -0.008060283719263463
-0.01715905355035222   -0.30000000000000004   -0.009381637116310381
0.005790205784181192   -0.2780302796933761   -0.00916032209840904
-0.005304747791492862   -0.27920978283167347   -0.008129754790938868
-0.01588986108651473   -0.30000000000000004   -0.008203456060332385
0.007456053665540946   -0.27793283718326967   -0.00795981820977641
-0.004613246373240192   -0.279389327907557   -0.007456799532733654
-0.01588986108651473   -0.30000000000000004   -0.008203456060332385
-0.011041017442597688   -0.30000000000000004   -0.008060283719263463
0.007456053665540946   -0.27793283718326967   -0.00795981820977641
-0.008445787751724526   -0.30000000000000004   -0.006389664102423496
-0.004613246373240192   -0.279389327907557   -0.007456799532733654
0.009184750226607962   -0.2780116202999099   -0.006864413249935981
-0.008445787751724526   -0.30000000000000004   -0.006389664102423496
0.007456053665540946   -0.27793283718326967   -0.00795981820977641
-0.004613246373240192   -0.279389327907557   -0.007456799532733654
-0.008445787751724526   -0.30000000000000004   -0.006389664102423496
-0.01464767354030991   -0.30000000000000004   -0.00704074662739859
-0.01588986108651473   -0.30000000000000004   -0.008203456060332385
-0.004613246373240192   -0.279389327907557   -0.007456799532733654
-0.008445787751724526   -0.30000000000000004   -0.006389664102423496
-0.01588986108651473   -0.30000000000000004   -0.008203456060332385
0.007456053665540946   -0.27793283718326967   -0.00795981820977641
-0.03549922636815755   -0.29289498422628785   -0.007315736040520506
-0.021083990136049332   -0.2935997099377858   -0.006259755951337823
-0.029905980786470086   -0.29438427858498867   -0.008213432351395236
-0.033850864847075675   -0.29256147987639025   -0.008248237540910917
-0.021083990136049332   -0.2935997099377858   -0.006259755951337823
-0.022418606189254068   -0.29474351392628745   -0.007415344340666199
-0.029905980786470086   -0.29438427858498867   -0.008213432351395236
-0.021831840712471996   -0.29433937754722356   -0.007833928951602459
-0.033850864847075675   -0.29256147987639025   -0.008248237540910917
-0.029129166538192496   -0.2940880166812969   -0.008519241164188805
-0.021831840712471996   -0.29433937754722356   -0.007833928951602459
-0.029905980786470086   -0.29438427858498867   -0.008213432351395236
-0.033850864847075675   -0.29256147987639025   -0.008248237540910917
-0.021831840712471996   -0.29433937754722356   -0.007833928951602459
-0.01959213833637878   -0.2930810938035149   -0.007239226707478718
-0.021083990136049332   -0.2935997099377858   -0.006259755951337823
-0.033850864847075675   -0.29256147987639025   -0.008248237540910917
-0.021831840712471996   -0.29433937754722356   -0.007833928951602459
-0.021083990136049332   -0.2935997099377858   -0.006259755951337823
-0.029905980786470086   -0.29438427858498867   -0.008213432351395236
-0.033850864847075675   -0.29256147987639025   -0.008248237540910917
-0.01959213833637878   -0.2930810938035149   -0.007239226707478718
-0.029129166538192496   -0.2940880166812969   -0.008519241164188805
-0.03242841537247596   -0.29258705157049897   -0.009176915465951035
-0.01959213833637878   -0.2930810938035149   -0.007239226707478718
-0.021831840712471996   -0.29433937754722356   -0.007833928951602459
-0.029129166538192496   -0.2940880166812969   -0.008519241164188805
-0.021144229144014405   -0.2941875157323258   -0.008219682464318302
-0.03242841537247596   -0.29258705157049897   -0.009176915465951035
-0.028269789704605777   -0.294100023426464   -0.008828103506537394
-0.021144229144014405   -0.2941875157323258   -0.008219682464318302
-0.029129166538192496   -0.2940880166812969   -0.008519241164188805
-0.03242841537247596   -0.29258705157049897   -0.009176915465951035
-0.021144229144014405   -0.2941875157323258   -0.008219682464318302
-0.018350091738106873   -0.29291841173736965   -0.008177931903143714
-0.01959213833637878   -0.2930810938035149   -0.007239226707478718
-0.03242841537247596   -0.29258705157049897   -0.009176915465951035
-0.021144229144014405   -0.2941875157323258   -0.008219682464318302
-0.01959213833637878   -0.2930810938035149   -0.007239226707478718
-0.029129166538192496   -0.2940880166812969   -0.008519241164188805
-0.03242841537247596   -0.29258705157049897   -0.009176915465951035
-0.018350091738106873   -0.29291841173736965   -0.008177931903143714
-0.028269789704605777   -0.294100023426464   -0.008828103506537394
-0.03074197519478595   -0.29299203439609717   -0.010125670574022935
-0.018350091738106873   -0.29291841173736965   -0.008177931903143714
-0.021144229144014405   -0.2941875157323258   -0.008219682464318302
-0.028269789704605777   -0.294100023426464   -0.008828103506537394
-0.02055481815374533   -0.29429000207994643   -0.00857054120500547
-0.03074197519478595   -0.29299203439609717   -0.010125670574022935
-0.027470905504961538   -0.2944216072096206   -0.009141318772598044
-0.02055481815374533   -0.29429000207994643   -0.00857054120500547
-0.028269789704605777   -0.294100023426464   -0.008828103506537394
-0.03074197519478595   -0.29299203439609717   -0.010125670574022935
-0.02055481815374533   -0.29429000207994643   -0.00857054120500547
-0.0169462554255709   -0.2930464056875394   -0.009071605864714402
-0.018350091738106873   -0.29291841173736965   -0.008177931903143714
-0.03074197519478595   -0.29299203439609717   -0.010125670574022935
-0.02055481815374533   -0.29429000207994643   -0.00857054120500547
-0.018350091738106873   -0.29291841173736965   -0.008177931903143714
-0.028269789704605777   -0.294100023426464   -0.008828103506537394
-0.029905980786470086   -0.29438427858498867   -0.008213432351395236
-0.022418606189254068   -0.29474351392628745   -0.007415344340666199
-0.02582004856035325   -0.2958884573099742   -0.009007481555273816
-0.029129166538192496   -0.2940880166812969   -0.008519241164188805
-0.022418606189254068   -0.29474351392628745   -0.007415344340666199
-0.024201872584757048   -0.29545512614682273   -0.008339969842609294
-0.02582004856035325   -0.2958884573099742   -0.009007481555273816
-0.023682162198733325   -0.2950944468948546   -0.008351564028849434
-0.029129166538192496   -0.2940880166812969   -0.008519241164188805
-0.024999522702450924   -0.2955849870539907   -0.008790476131418597
-0.023682162198733325   -0.2950944468948546   -0.008351564028849434
-0.02582004856035325   -0.2958884573099742   -0.009007481555273816
-0.029129166538192496   -0.2940880166812969   -0.008519241164188805
-0.023682162198733325   -0.2950944468948546   -0.008351564028849434
-0.021831840712471996   -0.29433937754722356   -0.007833928951602459
-0.022418606189254068   -0.29474351392628745   -0.007415344340666199
-0.029129166538192496   -0.2940880166812969   -0.008519241164188805
-0.023682162198733325   -0.2950944468948546   -0.008351564028849434
-0.022418606189254068   -0.29474351392628745   -0.007415344340666199
-0.02582004856035325   -0.2958884573099742   -0.009007481555273816
-0.029129166538192496   -0.2940880166812969   -0.008519241164188805
-0.021831840712471996   -0.29433937754722356   -0.007833928951602459
-0.024999522702450924   -0.2955849870539907   -0.008790476131418597
-0.028269789704605777   -0.294100023426464   -0.008828103506537394
-0.021831840712471996   -0.29433937754722356   -0.007833928951602459
-0.023682162198733325   -0.2950944468948546   -0.008351564028849434
-0.024999522702450924   -0.2955849870539907   -0.008790476131418597
-0.023103525871572154   -0.2949622883952474   -0.008320587611134106
-0.028269789704605777   -0.294100023426464   -0.008828103506537394
-0.02420662806419202   -0.2955775843727708   -0.008570706381030377
-0.023103525871572154   -0.2949622883952474   -0.008320587611134106
-0.024999522702450924   -0.2955849870539907   -0.008790476131418597
-0.028269789704605777   -0.294100023426464   -0.008828103506537394
-0.023103525871572154   -0.2949622883952474   -0.008320587611134106
-0.021144229144014405   -0.2941875157323258   -0.008219682464318302
-0.021831840712471996   -0.29433937754722356   -0.007833928951602459
-0.028269789704605777   -0.294100023426464   -0.008828103506537394
-0.023103525871572154   -0.2949622883952474   -0.008320587611134106
-0.021831840712471996   -0.29433937754722356   -0.007833928951602459
-0.024999522702450924   -0.2955849870539907   -0.008790476131418597
-0.028269789704605777   -0.294100023426464   -0.008828103506537394
-0.021144229144014405   -0.2941875157323258   -0.008219682464318302
-0.02420662806419202   -0.2955775843727708   -0.008570706381030377
-0.027470905504961538   -0.2944216072096206   -0.009141318772598044
-0.021144229144014405   -0.2941875157323258   -0.008219682464318302
-0.023103525871572154   -0.2949622883952474   -0.008320587611134106
-0.02420662806419202   -0.2955775843727708   -0.008570706381030377
-0.02251501355988183   -0.29504798005496646   -0.008256216726158656
-0.027470905504961538   -0.2944216072096206   -0.009141318772598044
-0.0233796683411782   -0.2958599474284627   -0.008359455085974141
-0.02251501355988183   -0.29504798005496646   -0.008256216726158656
-0.02420662806419202   -0.2955775843727708   -0.008570706381030377
-0.027470905504961538   -0.2944216072096206   -0.009141318772598044
-0.02251501355988183   -0.29504798005496646   -0.008256216726158656
-0.02055481815374533   -0.29429000207994643   -0.00857054120500547
-0.021144229144014405   -0.2941875157323258   -0.008219682464318302
-0.027470905504961538   -0.2944216072096206   -0.009141318772598044
-0.02251501355988183   -0.29504798005496646   -0.008256216726158656
-0.021144229144014405   -0.2941875157323258   -0.008219682464318302
-0.02420662806419202   -0.2955775843727708   -0.008570706381030377
-0.02582004856035325   -0.2958884573099742   -0.009007481555273816
-0.024201872584757048   -0.29545512614682273   -0.008339969842609294
-0.022092241680914337   -0.29771372278990377   -0.0098805406846082
-0.024999522702450924   -0.2955849870539907   -0.008790476131418597
-0.024201872584757048   -0.29545512614682273   -0.008339969842609294
-0.02611050103603227   -0.29576110962120294   -0.0092492965683387
-0.022092241680914337   -0.29771372278990377   -0.0098805406846082
-0.025572163142506564   -0.29541776316811785   -0.008869604420842536
-0.024999522702450924   -0.2955849870539907   -0.008790476131418597
-0.021085757613982896   -0.2974514073381772   -0.009111190935148894
-0.025572163142506564   -0.29541776316811785   -0.008869604420842536
-0.022092241680914337   -0.29771372278990377   -0.0098805406846082
-0.024999522702450924   -0.2955849870539907   -0.008790476131418597
-0.025572163142506564   -0.29541776316811785   -0.008869604420842536
-0.023682162198733325   -0.2950944468948546   -0.008351564028849434
-0.024201872584757048   -0.29545512614682273   -0.008339969842609294
-0.024999522702450924   -0.2955849870539907   -0.008790476131418597
-0.025572163142506564   -0.29541776316811785   -0.008869604420842536
-0.024201872584757048   -0.29545512614682273   -0.008339969842609294
-0.022092241680914337   -0.29771372278990377   -0.0098805406846082
-0.024999522702450924   -0.2955849870539907   -0.008790476131418597
-0.023682162198733325   -0.2950944468948546   -0.008351564028849434
-0.021085757613982896   -0.2974514073381772   -0.009111190935148894
-0.02420662806419202   -0.2955775843727708   -0.008570706381030377
-0.023682162198733325   -0.2950944468948546   -0.008351564028849434
-0.025572163142506564   -0.29541776316811785   -0.008869604420842536
-0.021085757613982896   -0.2974514073381772   -0.009111190935148894
-0.024925953844246788   -0.29530673173195127   -0.008438081746255287
-0.02420662806419202   -0.2955775843727708   -0.008570706381030377
-0.020153838901519457   -0.2974362244647229   -0.00834484627190301
-0.024925953844246788   -0.29530673173195127   -0.008438081746255287
-0.021085757613982896   -0.2974514073381772   -0.009111190935148894
-0.02420662806419202   -0.2955775843727708   -0.008570706381030377
-0.024925953844246788   -0.29530673173195127   -0.008438081746255287
-0.023103525871572154   -0.2949622883952474   -0.008320587611134106
-0.023682162198733325   -0.2950944468948546   -0.008351564028849434
-0.02420662806419202   -0.2955775843727708   -0.008570706381030377
-0.024925953844246788   -0.29530673173195127   -0.008438081746255287
-0.023682162198733325   -0.2950944468948546   -0.008351564028849434
-0.021085757613982896   -0.2974514073381772   -0.009111190935148894
-0.02420662806419202   -0.2955775843727708   -0.008570706381030377
-0.023103525871572154   -0.2949622883952474   -0.008320587611134106
-0.020153838901519457   -0.2974362244647229   -0.00834484627190301
-0.0233796683411782   -0.2958599474284627   -0.008359455085974141
-0.023103525871572154   -0.2949622883952474   -0.008320587611134106
-0.024925953844246788   -0.29530673173195127   -0.008438081746255287
-0.020153838901519457   -0.2974362244647229   -0.00834484627190301
-0.024261101667572366   -0.29539093672577404   -0.007978164248127329
-0.0233796683411782   -0.2958599474284627   -0.008359455085974141
-0.01915244791214545   -0.29765452798750996   -0.007576105746908716
-0.024261101667572366   -0.29539093672577404   -0.007978164248127329
-0.020153838901519457   -0.2974362244647229   -0.00834484627190301
-0.0233796683411782   -0.2958599474284627   -0.008359455085974141
-0.024261101667572366   -0.29539093672577404   -0.007978164248127329
-0.02251501355988183   -0.29504798005496646   -0.008256216726158656
-0.023103525871572154   -0.2949622883952474   -0.008320587611134106
-0.0233796683411782   -0.2958599474284627   -0.008359455085974141
-0.024261101667572366   -0.29539093672577404   -0.007978164248127329
-0.023103525871572154   -0.2949622883952474   -0.008320587611134106
-0.020153838901519457   -0.2974362244647229   -0.00834484627190301
-0.022092241680914337   -0.29771372278990377   -0.0098805406846082
-0.02611050103603227   -0.29576110962120294   -0.0092492965683387
-0.018423449584664974   -0.30000000000000004   -0.01054596890988441
-0.021085757613982896   -0.2974514073381772   -0.009111190935148894
-0.02611050103603227   -0.29576110962120294   -0.0092492965683387
-0.028872706998797494   -0.295451348448123   -0.010111363990561548
-0.018423449584664974   -0.30000000000000004   -0.01054596890988441
-0.028169297092217285   -0.2951282484758368   -0.009359568609863157
-0.021085757613982896   -0.2974514073381772   -0.009111190935148894
-0.01715905355035222   -0.30000000000000004   -0.009381637116310381
-0.028169297092217285   -0.2951282484758368   -0.009359568609863157
-0.018423449584664974   -0.30000000000000004   -0.01054596890988441
-0.021085757613982896   -0.2974514073381772   -0.009111190935148894
-0.028169297092217285   -0.2951282484758368   -0.009359568609863157
-0.025572163142506564   -0.29541776316811785   -0.008869604420842536
-0.02611050103603227   -0.29576110962120294   -0.0092492965683387
-0.021085757613982896   -0.2974514073381772   -0.009111190935148894
-0.028169297092217285   -0.2951282484758368   -0.009359568609863157
-0.02611050103603227   -0.29576110962120294   -0.0092492965683387
-0.018423449584664974   -0.30000000000000004   -0.01054596890988441
-0.021085757613982896   -0.2974514073381772   -0.009111190935148894
-0.025572163142506564   -0.29541776316811785   -0.008869604420842536
-0.01715905355035222   -0.30000000000000004   -0.009381637116310381
-0.020153838901519457   -0.2974362244647229   -0.00834484627190301
-0.025572163142506564   -0.29541776316811785   -0.008869604420842536
-0.028169297092217285   -0.2951282484758368   -0.009359568609863157
-0.01715905355035222   -0.30000000000000004   -0.009381637116310381
-0.027242345922886976   -0.29505332250468186   -0.008550236367862332
-0.020153838901519457   -0.2974362244647229   -0.00834484627190301
-0.01588986108651473   -0.30000000000000004   -0.008203456060332385
-0.027242345922886976   -0.29505332250468186   -0.008550236367862332
-0.01715905355035222   -0.30000000000000004   -0.009381637116310381
-0.020153838901519457   -0.2974362244647229   -0.00834484627190301
-0.027242345922886976   -0.29505332250468186   -0.008550236367862332
-0.024925953844246788   -0.29530673173195127   -0.008438081746255287
-0.025572163142506564   -0.29541776316811785   -0.008869604420842536
-0.020153838901519457   -0.2974362244647229   -0.00834484627190301
-0.027242345922886976   -0.29505332250468186   -0.008550236367862332
-0.025572163142506564   -0.29541776316811785   -0.008869604420842536
-0.01715905355035222   -0.30000000000000004   -0.009381637116310381
-0.020153838901519457   -0.2974362244647229   -0.00834484627190301
-0.024925953844246788   -0.29530673173195127   -0.008438081746255287
-0.01588986108651473   -0.30000000000000004   -0.008203456060332385
-0.01915244791214545   -0.29765452798750996   -0.007576105746908716
-0.024925953844246788   -0.29530673173195127   -0.008438081746255287
-0.027242345922886976   -0.29505332250468186   -0.008550236367862332
-0.01588986108651473   -0.30000000000000004   -0.008203456060332385
-0.026368545426305283   -0.29517824896526007   -0.007709255798182168
-0.01915244791214545   -0.29765452798750996   -0.007576105746908716
-0.01464767354030991   -0.30000000000000004   -0.00704074662739859
-0.026368545426305283   -0.29517824896526007   -0.007709255798182168
-0.01588986108651473   -0.30000000000000004   -0.008203456060332385
-0.01915244791214545   -0.29765452798750996   -0.007576105746908716
-0.026368545426305283   -0.29517824896526007   -0.007709255798182168
-0.024261101667572366   -0.29539093672577404   -0.007978164248127329
-0.024925953844246788   -0.29530673173195127   -0.008438081746255287
-0.01915244791214545   -0.29765452798750996   -0.007576105746908716
-0.026368545426305283   -0.29517824896526007   -0.007709255798182168
-0.024925953844246788   -0.29530673173195127   -0.008438081746255287
-0.01588986108651473   -0.30000000000000004   -0.008203456060332385
-0.018423449584664974   -0.30000000000000004   -0.01054596890988441
-0.028872706998797494   -0.295451348448123   -0.010111363990561548
-0.01577543214414053   -0.30000000000000004   -0.011351906930034752
-0.01715905355035222   -0.30000000000000004   -0.009381637116310381
-0.028872706998797494   -0.295451348448123   -0.010111363990561548
-0.034216340747126005   -0.29400314987032095   -0.011021858400440055
-0.01577543214414053   -0.30000000000000004   -0.011351906930034752
-0.03235912507666532   -0.2937326348171518   -0.009788179342071547
-0.01715905355035222   -0.30000000000000004   -0.009381637116310381
-0.013141577265725353   -0.30000000000000004   -0.009669674210009506
-0.03235912507666532   -0.2937326348171518   -0.009788179342071547
-0.01577543214414053   -0.30000000000000004   -0.011351906930034752
-0.01715905355035222   -0.30000000000000004   -0.009381637116310381
-0.03235912507666532   -0.2937326348171518   -0.009788179342071547
-0.028169297092217285   -0.2951282484758368   -0.009359568609863157
-0.028872706998797494   -0.295451348448123   -0.010111363990561548
-0.01715905355035222   -0.30000000000000004   -0.009381637116310381
-0.03235912507666532   -0.2937326348171518   -0.009788179342071547
-0.028872706998797494   -0.295451348448123   -0.010111363990561548
-0.01577543214414053   -0.30000000000000004   -0.011351906930034752
-0.01715905355035222   -0.30000000000000004   -0.009381637116310381
-0.028169297092217285   -0.2951282484758368   -0.009359568609863157
-0.013141577265725353   -0.30000000000000004   -0.009669674210009506
-0.01588986108651473   -0.30000000000000004   -0.008203456060332385
-0.028169297092217285   -0.2951282484758368   -0.009359568609863157
-0.03235912507666532   -0.2937326348171518   -0.009788179342071547
-0.013141577265725353   -0.30000000000000004   -0.009669674210009506
-0.030650071972696532   -0.29369429003346237   -0.008470162668402264
-0.01588986108651473   -0.30000000000000004   -0.008203456060332385
-0.011041017442597688   -0.30000000000000004   -0.008060283719263463
-0.030650071972696532   -0.29369429003346237   -0.008470162668402264
-0.013141577265725353   -0.30000000000000004   -0.009669674210009506
-0.01588986108651473   -0.30000000000000004   -0.008203456060332385
-0.030650071972696532   -0.29369429003346237   -0.008470162668402264
-0.027242345922886976   -0.29505332250468186   -0.008550236367862332
-0.028169297092217285   -0.2951282484758368   -0.009359568609863157
-0.01588986108651473   -0.30000000000000004   -0.008203456060332385
-0.030650071972696532   -0.29369429003346237   -0.008470162668402264
-0.028169297092217285   -0.2951282484758368   -0.009359568609863157
-0.013141577265725353   -0.30000000000000004   -0.009669674210009506
-0.01588986108651473   -0.30000000000000004   -0.008203456060332385
-0.027242345922886976   -0.29505332250468186   -0.008550236367862332
-0.011041017442597688   -0.30000000000000004   -0.008060283719263463
-0.01464767354030991   -0.30000000000000004   -0.00704074662739859
-0.027242345922886976   -0.29505332250468186   -0.008550236367862332
-0.030650071972696532   -0.29369429003346237   -0.008470162668402264
-0.011041017442597688   -0.30000000000000004   -0.008060283719263463
-0.02849221235435861   -0.2940498038257058   -0.007090682620625934
-0.01464767354030991   -0.30000000000000004   -0.00704074662739859
-0.008445787751724526   -0.30000000000000004   -0.006389664102423496
-0.02849221235435861   -0.2940498038257058   -0.007090682620625934
-0.011041017442597688   -0.30000000000000004   -0.008060283719263463
-0.01464767354030991   -0.30000000000000004   -0.00704074662739859
-0.02849221235435861   -0.2940498038257058   -0.007090682620625934
-0.026368545426305283   -0.29517824896526007   -0.007709255798182168
-0.027242345922886976   -0.29505332250468186   -0.008550236367862332
-0.01464767354030991   -0.30000000000000004   -0.00704074662739859
-0.02849221235435861   -0.2940498038257058   -0.007090682620625934
-0.027242345922886976   -0.29505332250468186   -0.008550236367862332
-0.011041017442597688   -0.30000000000000004   -0.008060283719263463
-0.021083990136049332   -0.2935997099377858   -0.006259755951337823
-0.008432754456220616   -0.28236919739144495   -0.005413868418679846
-0.022418606189254068   -0.29474351392628745   -0.007415344340666199
-0.01959213833637878   -0.2930810938035149   -0.007239226707478718
-0.008432754456220616   -0.28236919739144495   -0.005413868418679846
-0.01601434701142927   -0.2832287248770804   -0.006640435767413172
-0.022418606189254068   -0.29474351392628745   -0.007415344340666199
-0.015598207663619345   -0.2827399271992941   -0.007012870042132653
-0.01959213833637878   -0.2930810938035149   -0.007239226707478718
-0.021831840712471996   -0.29433937754722356   -0.007833928951602459
-0.015598207663619345   -0.2827399271992941   -0.007012870042132653
-0.022418606189254068   -0.29474351392628745   -0.007415344340666199
-0.01959213833637878   -0.2930810938035149   -0.007239226707478718
-0.015598207663619345   -0.2827399271992941   -0.007012870042132653
-0.007246240469891445   -0.28176491373119844   -0.006258280939655132
-0.008432754456220616   -0.28236919739144495   -0.005413868418679846
-0.01959213833637878   -0.2930810938035149   -0.007239226707478718
-0.015598207663619345   -0.2827399271992941   -0.007012870042132653
-0.008432754456220616   -0.28236919739144495   -0.005413868418679846
-0.022418606189254068   -0.29474351392628745   -0.007415344340666199
-0.01959213833637878   -0.2930810938035149   -0.007239226707478718
-0.007246240469891445   -0.28176491373119844   -0.006258280939655132
-0.021831840712471996   -0.29433937754722356   -0.007833928951602459
-0.018350091738106873   -0.29291841173736965   -0.008177931903143714
-0.007246240469891445   -0.28176491373119844   -0.006258280939655132
-0.015598207663619345   -0.2827399271992941   -0.007012870042132653
-0.021831840712471996   -0.29433937754722356   -0.007833928951602459
-0.0151304898102275   -0.2824662712245687   -0.0073513104654045
-0.018350091738106873   -0.29291841173736965   -0.008177931903143714
-0.021144229144014405   -0.2941875157323258   -0.008219682464318302
-0.0151304898102275   -0.2824662712245687   -0.0073513104654045
-0.021831840712471996   -0.29433937754722356   -0.007833928951602459
-0.018350091738106873   -0.29291841173736965   -0.008177931903143714
-0.0151304898102275   -0.2824662712245687   -0.0073513104654045
-0.0063126710430427835   -0.28147388890521285   -0.007052280435951102
-0.007246240469891445   -0.28176491373119844   -0.006258280939655132
-0.018350091738106873   -0.29291841173736965   -0.008177931903143714
-0.0151304898102275   -0.2824662712245687   -0.0073513104654045
-0.007246240469891445   -0.28176491373119844   -0.006258280939655132
-0.021831840712471996   -0.29433937754722356   -0.007833928951602459
-0.018350091738106873   -0.29291841173736965   -0.008177931903143714
-0.0063126710430427835   -0.28147388890521285   -0.007052280435951102
-0.021144229144014405   -0.2941875157323258   -0.008219682464318302
-0.0169462554255709   -0.2930464056875394   -0.009071605864714402
-0.0063126710430427835   -0.28147388890521285   -0.007052280435951102
-0.0151304898102275   -0.2824662712245687   -0.0073513104654045
-0.021144229144014405   -0.2941875157323258   -0.008219682464318302
-0.014771663688034401   -0.28240014793591656   -0.00765681673000454
-0.0169462554255709   -0.2930464056875394   -0.009071605864714402
-0.02055481815374533   -0.29429000207994643   -0.00857054120500547
-0.014771663688034401   -0.28240014793591656   -0.00765681673000454
-0.021144229144014405   -0.2941875157323258   -0.008219682464318302
-0.0169462554255709   -0.2930464056875394   -0.009071605864714402
-0.014771663688034401   -0.28240014793591656   -0.00765681673000454
-0.0052948802479610875   -0.2814131406703821   -0.007793702403620126
-0.0063126710430427835   -0.28147388890521285   -0.007052280435951102
-0.0169462554255709   -0.2930464056875394   -0.009071605864714402
-0.014771663688034401   -0.28240014793591656   -0.00765681673000454
-0.0063126710430427835   -0.28147388890521285   -0.007052280435951102
-0.021144229144014405   -0.2941875157323258   -0.008219682464318302
-0.022418606189254068   -0.29474351392628745   -0.007415344340666199
-0.01601434701142927   -0.2832287248770804   -0.006640435767413172
-0.024201872584757048   -0.29545512614682273   -0.008339969842609294
-0.021831840712471996   -0.29433937754722356   -0.007833928951602459
-0.01601434701142927   -0.2832287248770804   -0.006640435767413172
-0.023485738640971993   -0.2835330950944704   -0.007642143427446701
-0.024201872584757048   -0.29545512614682273   -0.008339969842609294
-0.02313536147594597   -0.2831065526625063   -0.007663348579052359
-0.021831840712471996   -0.29433937754722356   -0.007833928951602459
-0.023682162198733325   -0.2950944468948546   -0.008351564028849434
-0.02313536147594597   -0.2831065526625063   -0.007663348579052359
-0.024201872584757048   -0.29545512614682273   -0.008339969842609294
-0.021831840712471996   -0.29433937754722356   -0.007833928951602459
-0.02313536147594597   -0.2831065526625063   -0.007663348579052359
-0.015598207663619345   -0.2827399271992941   -0.007012870042132653
-0.01601434701142927   -0.2832287248770804   -0.006640435767413172
-0.021831840712471996   -0.29433937754722356   -0.007833928951602459
-0.02313536147594597   -0.2831065526625063   -0.007663348579052359
-0.01601434701142927   -0.2832287248770804   -0.006640435767413172
-0.024201872584757048   -0.29545512614682273   -0.008339969842609294
-0.021831840712471996   -0.29433937754722356   -0.007833928951602459
-0.015598207663619345   -0.2827399271992941   -0.007012870042132653
-0.023682162198733325   -0.2950944468948546   -0.008351564028849434
-0.021144229144014405   -0.2941875157323258   -0.008219682464318302
-0.015598207663619345   -0.2827399271992941   -0.007012870042132653
-0.02313536147594597   -0.2831065526625063   -0.007663348579052359
-0.023682162198733325   -0.2950944468948546   -0.008351564028849434
-0.02277306108743746   -0.28287398968294925   -0.007653082877087745
-0.021144229144014405   -0.2941875157323258   -0.008219682464318302
-0.023103525871572154   -0.2949622883952474   -0.008320587611134106
-0.02277306108743746   -0.28287398968294925   -0.007653082877087745
-0.023682162198733325   -0.2950944468948546   -0.008351564028849434
-0.021144229144014405   -0.2941875157323258   -0.008219682464318302
-0.02277306108743746   -0.28287398968294925   -0.007653082877087745
-0.0151304898102275   -0.2824662712245687   -0.0073513104654045
-0.015598207663619345   -0.2827399271992941   -0.007012870042132653
-0.021144229144014405   -0.2941875157323258   -0.008219682464318302
-0.02277306108743746   -0.28287398968294925   -0.007653082877087745
-0.015598207663619345   -0.2827399271992941   -0.007012870042132653
-0.023682162198733325   -0.2950944468948546   -0.008351564028849434
-0.021144229144014405   -0.2941875157323258   -0.008219682464318302
-0.0151304898102275   -0.2824662712245687   -0.0073513104654045
-0.023103525871572154   -0.2949622883952474   -0.008320587611134106
-0.02055481815374533   -0.29429000207994643   -0.00857054120500547
-0.0151304898102275   -0.2824662712245687   -0.0073513104654045
-0.02277306108743746   -0.28287398968294925   -0.007653082877087745
-0.023103525871572154   -0.2949622883952474   -0.008320587611134106
-0.022423552323533446   -0.28282586392913245   -0.0076109990618470555
-0.02055481815374533   -0.29429000207994643   -0.00857054120500547
-0.02251501355988183   -0.29504798005496646   -0.008256216726158656
-0.022423552323533446   -0.28282586392913245   -0.0076109990618470555
-0.023103525871572154   -0.2949622883952474   -0.008320587611134106
-0.02055481815374533   -0.29429000207994643   -0.00857054120500547
-0.022423552323533446   -0.28282586392913245   -0.0076109990618470555
-0.014771663688034401   -0.28240014793591656   -0.00765681673000454
-0.0151304898102275   -0.2824662712245687   -0.0073513104654045
-0.02055481815374533   -0.29429000207994643   -0.00857054120500547
-0.022423552323533446   -0.28282586392913245   -0.0076109990618470555
-0.0151304898102275   -0.2824662712245687   -0.0073513104654045
-0.023103525871572154   -0.2949622883952474   -0.008320587611134106
-0.024201872584757048   -0.29545512614682273   -0.008339969842609294
-0.023485738640971993   -0.2835330950944704   -0.007642143427446701
-0.02611050103603227   -0.29576110962120294   -0.0092492965683387
-0.023682162198733325   -0.2950944468948546   -0.008351564028849434
-0.023485738640971993   -0.2835330950944704   -0.007642143427446701
-0.030903566033942377   -0.2832649510538685   -0.008579330704106899
-0.02611050103603227   -0.29576110962120294   -0.0092492965683387
-0.030555951980157956   -0.28288640663135817   -0.008263870026354345
-0.023682162198733325   -0.2950944468948546   -0.008351564028849434
-0.025572163142506564   -0.29541776316811785   -0.008869604420842536
-0.030555951980157956   -0.28288640663135817   -0.008263870026354345
-0.02611050103603227   -0.29576110962120294   -0.0092492965683387
-0.023682162198733325   -0.2950944468948546   -0.008351564028849434
-0.030555951980157956   -0.28288640663135817   -0.008263870026354345
-0.02313536147594597   -0.2831065526625063   -0.007663348579052359
-0.023485738640971993   -0.2835330950944704   -0.007642143427446701
-0.023682162198733325   -0.2950944468948546   -0.008351564028849434
-0.030555951980157956   -0.28288640663135817   -0.008263870026354345
-0.023485738640971993   -0.2835330950944704   -0.007642143427446701
-0.02611050103603227   -0.29576110962120294   -0.0092492965683387
-0.023682162198733325   -0.2950944468948546   -0.008351564028849434
-0.02313536147594597   -0.2831065526625063   -0.007663348579052359
-0.025572163142506564   -0.29541776316811785   -0.008869604420842536
-0.023103525871572154   -0.2949622883952474   -0.008320587611134106
-0.02313536147594597   -0.2831065526625063   -0.007663348579052359
-0.030555951980157956   -0.28288640663135817   -0.008263870026354345
-0.025572163142506564   -0.29541776316811785   -0.008869604420842536
-0.030165832915314494   -0.28269852714750804   -0.00791738081923263
-0.023103525871572154   -0.2949622883952474   -0.008320587611134106
-0.024925953844246788   -0.29530673173195127   -0.008438081746255287
-0.030165832915314494   -0.28269852714750804   -0.00791738081923263
-0.025572163142506564   -0.29541776316811785   -0.008869604420842536
-0.023103525871572154   -0.2949622883952474   -0.008320587611134106
-0.030165832915314494   -0.28269852714750804   -0.00791738081923263
-0.02277306108743746   -0.28287398968294925   -0.007653082877087745
-0.02313536147594597   -0.2831065526625063   -0.007663348579052359
-0.023103525871572154   -0.2949622883952474   -0.008320587611134106
-0.030165832915314494   -0.28269852714750804   -0.00791738081923263
-0.02313536147594597   -0.2831065526625063   -0.007663348579052359
-0.025572163142506564   -0.29541776316811785   -0.008869604420842536
-0.023103525871572154   -0.2949622883952474   -0.008320587611134106
-0.02277306108743746   -0.28287398968294925   -0.007653082877087745
-0.024925953844246788   -0.29530673173195127   -0.008438081746255287
-0.02251501355988183   -0.29504798005496646   -0.008256216726158656
-0.02277306108743746   -0.28287398968294925   -0.007653082877087745
-0.030165832915314494   -0.28269852714750804   -0.00791738081923263
-0.024925953844246788   -0.29530673173195127   -0.008438081746255287
-0.02977383645516902   -0.2826826732774941   -0.007536078372309593
-0.02251501355988183   -0.29504798005496646   -0.008256216726158656
-0.024261101667572366   -0.29539093672577404   -0.007978164248127329
-0.02977383645516902   -0.2826826732774941   -0.007536078372309593
-0.024925953844246788   -0.29530673173195127   -0.008438081746255287
-0.02251501355988183   -0.29504798005496646   -0.008256216726158656
-0.02977383645516902   -0.2826826732774941   -0.007536078372309593
-0.022423552323533446   -0.28282586392913245   -0.0076109990618470555
-0.02277306108743746   -0.28287398968294925   -0.007653082877087745
-0.02251501355988183   -0.29504798005496646   -0.008256216726158656
-0.02977383645516902   -0.2826826732774941   -0.007536078372309593
-0.02277306108743746   -0.28287398968294925   -0.007653082877087745
-0.024925953844246788   -0.29530673173195127   -0.008438081746255287
-0.02611050103603227   -0.29576110962120294   -0.0092492965683387
-0.030903566033942377   -0.2832649510538685   -0.008579330704106899
-0.028872706998797494   -0.295451348448123   -0.010111363990561548
-0.025572163142506564   -0.29541776316811785   -0.008869604420842536
-0.030903566033942377   -0.2832649510538685   -0.008579330704106899
-0.03905840996422705   -0.28238834298937054   -0.009439146370124905
-0.028872706998797494   -0.295451348448123   -0.010111363990561548
-0.03863361521025896   -0.2820581113290423   -0.008794797902432783
-0.025572163142506564   -0.29541776316811785   -0.008869604420842536
-0.028169297092217285   -0.2951282484758368   -0.009359568609863157
-0.03863361521025896   -0.2820581113290423   -0.008794797902432783
-0.028872706998797494   -0.295451348448123   -0.010111363990561548
-0.025572163142506564   -0.29541776316811785   -0.008869604420842536
-0.03863361521025896   -0.2820581113290423   -0.008794797902432783
-0.030555951980157956   -0.28288640663135817   -0.008263870026354345
-0.030903566033942377   -0.2832649510538685   -0.008579330704106899
-0.025572163142506564   -0.29541776316811785   -0.008869604420842536
-0.03863361521025896   -0.2820581113290423   -0.008794797902432783
-0.030903566033942377   -0.2832649510538685   -0.008579330704106899
-0.028872706998797494   -0.295451348448123   -0.010111363990561548
-0.025572163142506564   -0.29541776316811785   -0.008869604420842536
-0.030555951980157956   -0.28288640663135817   -0.008263870026354345
-0.028169297092217285   -0.2951282484758368   -0.009359568609863157
-0.024925953844246788   -0.29530673173195127   -0.008438081746255287
-0.030555951980157956   -0.28288640663135817   -0.008263870026354345
-0.03863361521025896   -0.2820581113290423   -0.008794797902432783
-0.028169297092217285   -0.2951282484758368   -0.009359568609863157
-0.0380478202408221   -0.2819147354547714   -0.008121624590757104
-0.024925953844246788   -0.29530673173195127   -0.008438081746255287
-0.027242345922886976   -0.29505332250468186   -0.008550236367862332
-0.0380478202408221   -0.2819147354547714   -0.008121624590757104
-0.028169297092217285   -0.2951282484758368   -0.009359568609863157
-0.024925953844246788   -0.29530673173195127   -0.008438081746255287
-0.0380478202408221   -0.2819147354547714   -0.008121624590757104
-0.030165832915314494   -0.28269852714750804   -0.00791738081923263
-0.030555951980157956   -0.28288640663135817   -0.008263870026354345
-0.024925953844246788   -0.29530673173195127   -0.008438081746255287
-0.0380478202408221   -0.2819147354547714   -0.008121624590757104
-0.030555951980157956   -0.28288640663135817   -0.008263870026354345
-0.028169297092217285   -0.2951282484758368   -0.009359568609863157
-0.024925953844246788   -0.29530673173195127   -0.008438081746255287
-0.030165832915314494   -0.28269852714750804   -0.00791738081923263
-0.027242345922886976   -0.29505332250468186   -0.008550236367862332
-0.024261101667572366   -0.29539093672577404   -0.007978164248127329
-0.030165832915314494   -0.28269852714750804   -0.00791738081923263
-0.0380478202408221   -0.2819147354547714   -0.008121624590757104
-0.027242345922886976   -0.29505332250468186   -0.008550236367862332
-0.03753531532153026   -0.281958504618966   -0.00740067433087345
-0.024261101667572366   -0.29539093672577404   -0.007978164248127329
-0.026368545426305283   -0.29517824896526007   -0.007709255798182168
-0.03753531532153026   -0.281958504618966   -0.00740067433087345
-0.027242345922886976   -0.29505332250468186   -0.008550236367862332
-0.024261101667572366   -0.29539093672577404   -0.007978164248127329
-0.03753531532153026   -0.281958504618966   -0.00740067433087345
-0.02977383645516902   -0.2826826732774941   -0.007536078372309593
-0.030165832915314494   -0.28269852714750804   -0.00791738081923263
-0.024261101667572366   -0.29539093672577404   -0.007978164248127329
-0.03753531532153026   -0.281958504618966   -0.00740067433087345
-0.030165832915314494   -0.28269852714750804   -0.00791738081923263
-0.027242345922886976   -0.29505332250468186   -0.008550236367862332
-0.028872706998797494   -0.295451348448123   -0.010111363990561548
-0.03905840996422705   -0.28238834298937054   -0.009439146370124905
-0.034216340747126005   -0.29400314987032095   -0.011021858400440055
-0.028169297092217285   -0.2951282484758368   -0.009359568609863157
-0.03905840996422705   -0.28238834298937054   -0.009439146370124905
-0.049560974074183535   -0.28096270244159416   -0.010261242176800921
-0.034216340747126005   -0.29400314987032095   -0.011021858400440055
-0.04820342209688974   -0.2806060238329392   -0.009244263955515598
-0.028169297092217285   -0.2951282484758368   -0.009359568609863157
-0.03235912507666532   -0.2937326348171518   -0.009788179342071547
-0.04820342209688974   -0.2806060238329392   -0.009244263955515598
-0.034216340747126005   -0.29400314987032095   -0.011021858400440055
-0.028169297092217285   -0.2951282484758368   -0.009359568609863157
-0.04820342209688974   -0.2806060238329392   -0.009244263955515598
-0.03863361521025896   -0.2820581113290423   -0.008794797902432783
-0.03905840996422705   -0.28238834298937054   -0.009439146370124905
-0.028169297092217285   -0.2951282484758368   -0.009359568609863157
-0.04820342209688974   -0.2806060238329392   -0.009244263955515598
-0.03905840996422705   -0.28238834298937054   -0.009439146370124905
-0.034216340747126005   -0.29400314987032095   -0.011021858400440055
-0.028169297092217285   -0.2951282484758368   -0.009359568609863157
-0.03863361521025896   -0.2820581113290423   -0.008794797902432783
-0.03235912507666532   -0.2937326348171518   -0.009788179342071547
-0.027242345922886976   -0.29505332250468186   -0.008550236367862332
-0.03863361521025896   -0.2820581113290423   -0.008794797902432783
-0.04820342209688974   -0.2806060238329392   -0.009244263955515598
-0.03235912507666532   -0.2937326348171518   -0.009788179342071547
-0.046984398341517644   -0.28047340504687285   -0.0081670009545548
-0.027242345922886976   -0.29505332250468186   -0.008550236367862332
-0.030650071972696532   -0.29369429003346237   -0.008470162668402264
-0.046984398341517644   -0.28047340504687285   -0.0081670009545548
-0.03235912507666532   -0.2937326348171518   -0.009788179342071547
-0.027242345922886976   -0.29505332250468186   -0.008550236367862332
-0.046984398341517644   -0.28047340504687285   -0.0081670009545548
-0.0380478202408221   -0.2819147354547714   -0.008121624590757104
-0.03863361521025896   -0.2820581113290423   -0.008794797902432783
-0.027242345922886976   -0.29505332250468186   -0.008550236367862332
-0.046984398341517644   -0.28047340504687285   -0.0081670009545548
-0.03863361521025896   -0.2820581113290423   -0.008794797902432783
-0.03235912507666532   -0.2937326348171518   -0.009788179342071547
-0.027242345922886976   -0.29505332250468186   -0.008550236367862332
-0.0380478202408221   -0.2819147354547714   -0.008121624590757104
-0.030650071972696532   -0.29369429003346237   -0.008470162668402264
-0.026368545426305283   -0.29517824896526007   -0.007709255798182168
-0.0380478202408221   -0.2819147354547714   -0.008121624590757104
-0.046984398341517644   -0.28047340504687285   -0.0081670009545548
-0.030650071972696532   -0.29369429003346237   -0.008470162668402264
-0.045404203620954986   -0.28063256236919387   -0.00703977506362763
-0.026368545426305283   -0.29517824896526007   -0.007709255798182168
-0.02849221235435861   -0.2940498038257058   -0.007090682620625934
-0.045404203620954986   -0.28063256236919387   -0.00703977506362763
-0.030650071972696532   -0.29369429003346237   -0.008470162668402264
-0.026368545426305283   -0.29517824896526007   -0.007709255798182168
-0.045404203620954986   -0.28063256236919387   -0.00703977506362763
-0.03753531532153026   -0.281958504618966   -0.00740067433087345
-0.0380478202408221   -0.2819147354547714   -0.008121624590757104
-0.026368545426305283   -0.29517824896526007   -0.007709255798182168
-0.045404203620954986   -0.28063256236919387   -0.00703977506362763
-0.0380478202408221   -0.2819147354547714   -0.008121624590757104
-0.030650071972696532   -0.29369429003346237   -0.008470162668402264
-0.008432754456220616   -0.28236919739144495   -0.005413868418679846
0.0017971389386959194   -0.26181417369286414   -0.004482691509532274
-0.01601434701142927   -0.2832287248770804   -0.006640435767413172
-0.007246240469891445   -0.28176491373119844   -0.006258280939655132
0.0017971389386959194   -0.26181417369286414   -0.004482691509532274
-0.010944869254071173   -0.26244192223538176   -0.0056860819400194485
-0.01601434701142927   -0.2832287248770804   -0.006640435767413172
-0.010725188917518705   -0.26192984787894136   -0.00598059604299976
-0.007246240469891445   -0.28176491373119844   -0.006258280939655132
-0.015598207663619345   -0.2827399271992941   -0.007012870042132653
-0.010725188917518705   -0.26192984787894136   -0.00598059604299976
-0.01601434701142927   -0.2832287248770804   -0.006640435767413172
-0.007246240469891445   -0.28176491373119844   -0.006258280939655132
-0.010725188917518705   -0.26192984787894136   -0.00598059604299976
0.002622116568537604   -0.26120072792680576   -0.00515273030457367
0.0017971389386959194   -0.26181417369286414   -0.004482691509532274
-0.007246240469891445   -0.28176491373119844   -0.006258280939655132
-0.010725188917518705   -0.26192984787894136   -0.00598059604299976
0.0017971389386959194   -0.26181417369286414   -0.004482691509532274
-0.01601434701142927   -0.2832287248770804   -0.006640435767413172
-0.007246240469891445   -0.28176491373119844   -0.006258280939655132
0.002622116568537604   -0.26120072792680576   -0.00515273030457367
-0.015598207663619345   -0.2827399271992941   -0.007012870042132653
-0.0063126710430427835   -0.28147388890521285   -0.007052280435951102
0.002622116568537604   -0.26120072792680576   -0.00515273030457367
-0.010725188917518705   -0.26192984787894136   -0.00598059604299976
-0.015598207663619345   -0.2827399271992941   -0.007012870042132653
-0.010475636086678267   -0.26159261952410606   -0.006240364717984188
-0.0063126710430427835   -0.28147388890521285   -0.007052280435951102
-0.0151304898102275   -0.2824662712245687   -0.0073513104654045
-0.010475636086678267   -0.26159261952410606   -0.006240364717984188
-0.015598207663619345   -0.2827399271992941   -0.007012870042132653
-0.0063126710430427835   -0.28147388890521285   -0.007052280435951102
-0.010475636086678267   -0.26159261952410606   -0.006240364717984188
0.0032285923813276116   -0.2608429951219566   -0.005774140350593426
0.002622116568537604   -0.26120072792680576   -0.00515273030457367
-0.0063126710430427835   -0.28147388890521285   -0.007052280435951102
-0.010475636086678267   -0.26159261952410606   -0.006240364717984188
0.002622116568537604   -0.26120072792680576   -0.00515273030457367
-0.015598207663619345   -0.2827399271992941   -0.007012870042132653
-0.0063126710430427835   -0.28147388890521285   -0.007052280435951102
0.0032285923813276116   -0.2608429951219566   -0.005774140350593426
-0.0151304898102275   -0.2824662712245687   -0.0073513104654045
-0.0052948802479610875   -0.2814131406703821   -0.007793702403620126
0.0032285923813276116   -0.2608429951219566   -0.005774140350593426
-0.010475636086678267   -0.26159261952410606   -0.006240364717984188
-0.0151304898102275   -0.2824662712245687   -0.0073513104654045
-0.010326511839349633   -0.26142035529853347   -0.006468814350720994
-0.0052948802479610875   -0.2814131406703821   -0.007793702403620126
-0.014771663688034401   -0.28240014793591656   -0.00765681673000454
-0.010326511839349633   -0.26142035529853347   -0.006468814350720994
-0.0151304898102275   -0.2824662712245687   -0.0073513104654045
-0.0052948802479610875   -0.2814131406703821   -0.007793702403620126
-0.010326511839349633   -0.26142035529853347   -0.006468814350720994
0.0038761948801678027   -0.26066173241661217   -0.0063466566617013795
0.0032285923813276116   -0.2608429951219566   -0.005774140350593426
-0.0052948802479610875   -0.2814131406703821   -0.007793702403620126
-0.010326511839349633   -0.26142035529853347   -0.006468814350720994
0.0032285923813276116   -0.2608429951219566   -0.005774140350593426
-0.0151304898102275   -0.2824662712245687   -0.0073513104654045
-0.01601434701142927   -0.2832287248770804   -0.006640435767413172
-0.010944869254071173   -0.26244192223538176   -0.0056860819400194485
-0.023485738640971993   -0.2835330950944704   -0.007642143427446701
-0.015598207663619345   -0.2827399271992941   -0.007012870042132653
-0.010944869254071173   -0.26244192223538176   -0.0056860819400194485
-0.02325985567993463   -0.2625617106321149   -0.006679454505956523
-0.023485738640971993   -0.2835330950944704   -0.007642143427446701
-0.023097927222727018   -0.2621216958307109   -0.006687542876879196
-0.015598207663619345   -0.2827399271992941   -0.007012870042132653
-0.02313536147594597   -0.2831065526625063   -0.007663348579052359
-0.023097927222727018   -0.2621216958307109   -0.006687542876879196
-0.023485738640971993   -0.2835330950944704   -0.007642143427446701
-0.015598207663619345   -0.2827399271992941   -0.007012870042132653
-0.023097927222727018   -0.2621216958307109   -0.006687542876879196
-0.010725188917518705   -0.26192984787894136   -0.00598059604299976
-0.010944869254071173   -0.26244192223538176   -0.0056860819400194485
-0.015598207663619345   -0.2827399271992941   -0.007012870042132653
-0.023097927222727018   -0.2621216958307109   -0.006687542876879196
-0.010944869254071173   -0.26244192223538176   -0.0056860819400194485
-0.023485738640971993   -0.2835330950944704   -0.007642143427446701
-0.015598207663619345   -0.2827399271992941   -0.007012870042132653
-0.010725188917518705   -0.26192984787894136   -0.00598059604299976
-0.02313536147594597   -0.2831065526625063   -0.007663348579052359
-0.0151304898102275   -0.2824662712245687   -0.0073513104654045
-0.010725188917518705   -0.26192984787894136   -0.00598059604299976
-0.023097927222727018   -0.2621216958307109   -0.006687542876879196
-0.02313536147594597   -0.2831065526625063   -0.007663348579052359
-0.022931496437562753   -0.2618382215173058   -0.006662367333424645
-0.0151304898102275   -0.2824662712245687   -0.0073513104654045
-0.02277306108743746   -0.28287398968294925   -0.007653082877087745
-0.022931496437562753   -0.2618382215173058   -0.006662367333424645
-0.02313536147594597   -0.2831065526625063   -0.007663348579052359
-0.0151304898102275   -0.2824662712245687   -0.0073513104654045
-0.022931496437562753   -0.2618382215173058   -0.006662367333424645
-0.010475636086678267   -0.26159261952410606   -0.006240364717984188
-0.010725188917518705   -0.26192984787894136   -0.00598059604299976
-0.0151304898102275   -0.2824662712245687   -0.0073513104654045
-0.022931496437562753   -0.2618382215173058   -0.006662367333424645
-0.010725188917518705   -0.26192984787894136   -0.00598059604299976
-0.02313536147594597   -0.2831065526625063   -0.007663348579052359
-0.0151304898102275   -0.2824662712245687   -0.0073513104654045
-0.010475636086678267   -0.26159261952410606   -0.006240364717984188
-0.02277306108743746   -0.28287398968294925   -0.007653082877087745
-0.014771663688034401   -0.28240014793591656   -0.00765681673000454
-0.010475636086678267   -0.26159261952410606   -0.006240364717984188
-0.022931496437562753   -0.2618382215173058   -0.006662367333424645
-0.02277306108743746   -0.28287398968294925   -0.007653082877087745
-0.022785897526980736   -0.2617086315603775   -0.0066061029398356615
-0.014771663688034401   -0.28240014793591656   -0.00765681673000454
-0.022423552323533446   -0.28282586392913245   -0.0076109990618470555
-0.022785897526980736   -0.2617086315603775   -0.0066061029398356615
-0.02277306108743746   -0.28287398968294925   -0.007653082877087745
-0.014771663688034401   -0.28240014793591656   -0.00765681673000454
-0.022785897526980736   -0.2617086315603775   -0.0066061029398356615
-0.010326511839349633   -0.26142035529853347   -0.006468814350720994
-0.010475636086678267   -0.26159261952410606   -0.006240364717984188
-0.014771663688034401   -0.28240014793591656   -0.00765681673000454
-0.022785897526980736   -0.2617086315603775   -0.0066061029398356615
-0.010475636086678267   -0.26159261952410606   -0.006240364717984188
-0.02277306108743746   -0.28287398968294925   -0.007653082877087745
-0.023485738640971993   -0.2835330950944704   -0.007642143427446701
-0.02325985567993463   -0.2625617106321149   -0.006679454505956523
-0.030903566033942377   -0.2832649510538685   -0.008579330704106899
-0.02313536147594597   -0.2831065526625063   -0.007663348579052359
-0.02325985567993463   -0.2625617106321149   -0.006679454505956523
-0.03537879166075489   -0.2621706843293497   -0.007576324881538648
-0.030903566033942377   -0.2832649510538685   -0.008579330704106899
-0.035227991621346065   -0.26179089116649373   -0.007304926668501854
-0.02313536147594597   -0.2831065526625063   -0.007663348579052359
-0.030555951980157956   -0.28288640663135817   -0.008263870026354345
-0.035227991621346065   -0.26179089116649373   -0.007304926668501854
-0.030903566033942377   -0.2832649510538685   -0.008579330704106899
-0.02313536147594597   -0.2831065526625063   -0.007663348579052359
-0.035227991621346065   -0.26179089116649373   -0.007304926668501854
-0.023097927222727018   -0.2621216958307109   -0.006687542876879196
-0.02325985567993463   -0.2625617106321149   -0.006679454505956523
-0.02313536147594597   -0.2831065526625063   -0.007663348579052359
-0.035227991621346065   -0.26179089116649373   -0.007304926668501854
-0.02325985567993463   -0.2625617106321149   -0.006679454505956523
-0.030903566033942377   -0.2832649510538685   -0.008579330704106899
-0.02313536147594597   -0.2831065526625063   -0.007663348579052359
-0.023097927222727018   -0.2621216958307109   -0.006687542876879196
-0.030555951980157956   -0.28288640663135817   -0.008263870026354345
-0.02277306108743746   -0.28287398968294925   -0.007653082877087745
-0.023097927222727018   -0.2621216958307109   -0.006687542876879196
-0.035227991621346065   -0.26179089116649373   -0.007304926668501854
-0.030555951980157956   -0.28288640663135817   -0.008263870026354345
-0.03504581702635115   -0.26156590373387106   -0.007000964143935939
-0.02277306108743746   -0.28287398968294925   -0.007653082877087745
-0.030165832915314494   -0.28269852714750804   -0.00791738081923263
-0.03504581702635115   -0.26156590373387106   -0.007000964143935939
-0.030555951980157956   -0.28288640663135817   -0.008263870026354345
-0.02277306108743746   -0.28287398968294925   -0.007653082877087745
-0.03504581702635115   -0.26156590373387106   -0.007000964143935939
-0.022931496437562753   -0.2618382215173058   -0.006662367333424645
-0.023097927222727018   -0.2621216958307109   -0.006687542876879196
-0.02277306108743746   -0.28287398968294925   -0.007653082877087745
-0.03504581702635115   -0.26156590373387106   -0.007000964143935939
-0.023097927222727018   -0.2621216958307109   -0.006687542876879196
-0.030555951980157956   -0.28288640663135817   -0.008263870026354345
-0.02277306108743746   -0.28287398968294925   -0.007653082877087745
-0.022931496437562753   -0.2618382215173058   -0.006662367333424645
-0.030165832915314494   -0.28269852714750804   -0.00791738081923263
-0.022423552323533446   -0.28282586392913245   -0.0076109990618470555
-0.022931496437562753   -0.2618382215173058   -0.006662367333424645
-0.03504581702635115   -0.26156590373387106   -0.007000964143935939
-0.030165832915314494   -0.28269852714750804   -0.00791738081923263
-0.034868466772714914   -0.2614883903717816   -0.006665445508738338
-0.022423552323533446   -0.28282586392913245   -0.0076109990618470555
-0.02977383645516902   -0.2826826732774941   -0.007536078372309593
-0.034868466772714914   -0.2614883903717816   -0.006665445508738338
-0.030165832915314494   -0.28269852714750804   -0.00791738081923263
-0.022423552323533446   -0.28282586392913245   -0.0076109990618470555
-0.034868466772714914   -0.2614883903717816   -0.006665445508738338
-0.022785897526980736   -0.2617086315603775   -0.0066061029398356615
-0.022931496437562753   -0.2618382215173058   -0.006662367333424645
-0.022423552323533446   -0.28282586392913245   -0.0076109990618470555
-0.034868466772714914   -0.2614883903717816   -0.006665445508738338
-0.022931496437562753   -0.2618382215173058   -0.006662367333424645
-0.030165832915314494   -0.28269852714750804   -0.00791738081923263
-0.030903566033942377   -0.2832649510538685   -0.008579330704106899
-0.03537879166075489   -0.2621706843293497   -0.007576324881538648
-0.03905840996422705   -0.28238834298937054   -0.009439146370124905
-0.030555951980157956   -0.28288640663135817   -0.008263870026354345
-0.03537879166075489   -0.2621706843293497   -0.007576324881538648
-0.048082268182534575   -0.2612830432035672   -0.00837280355234678
-0.03905840996422705   -0.28238834298937054   -0.009439146370124905
-0.0478860175633063   -0.260960989004407   -0.007821686355646262
-0.030555951980157956   -0.28288640663135817   -0.008263870026354345
-0.03863361521025896   -0.2820581113290423   -0.008794797902432783
-0.0478860175633063   -0.260960989004407   -0.007821686355646262
-0.03905840996422705   -0.28238834298937054   -0.009439146370124905
-0.030555951980157956   -0.28288640663135817   -0.008263870026354345
-0.0478860175633063   -0.260960989004407   -0.007821686355646262
-0.035227991621346065   -0.26179089116649373   -0.007304926668501854
-0.03537879166075489   -0.2621706843293497   -0.007576324881538648
-0.030555951980157956   -0.28288640663135817   -0.008263870026354345
-0.0478860175633063   -0.260960989004407   -0.007821686355646262
-0.03537879166075489   -0.2621706843293497   -0.007576324881538648
-0.03905840996422705   -0.28238834298937054   -0.009439146370124905
-0.030555951980157956   -0.28288640663135817   -0.008263870026354345
-0.035227991621346065   -0.26179089116649373   -0.007304926668501854
-0.03863361521025896   -0.2820581113290423   -0.008794797902432783
-0.030165832915314494   -0.28269852714750804   -0.00791738081923263
-0.035227991621346065   -0.26179089116649373   -0.007304926668501854
-0.0478860175633063   -0.260960989004407   -0.007821686355646262
-0.03863361521025896   -0.2820581113290423   -0.008794797902432783
-0.04755373453006458   -0.26078903095370026   -0.007242973994422066
-0.030165832915314494   -0.28269852714750804   -0.00791738081923263
-0.0380478202408221   -0.2819147354547714   -0.008121624590757104
-0.04755373453006458   -0.26078903095370026   -0.007242973994422066
-0.03863361521025896   -0.2820581113290423   -0.008794797902432783
-0.030165832915314494   -0.28269852714750804   -0.00791738081923263
-0.04755373453006458   -0.26078903095370026   -0.007242973994422066
-0.03504581702635115   -0.26156590373387106   -0.007000964143935939
-0.035227991621346065   -0.26179089116649373   -0.007304926668501854
-0.030165832915314494   -0.28269852714750804   -0.00791738081923263
-0.04755373453006458   -0.26078903095370026   -0.007242973994422066
-0.035227991621346065   -0.26179089116649373   -0.007304926668501854
-0.03863361521025896   -0.2820581113290423   -0.008794797902432783
-0.030165832915314494   -0.28269852714750804   -0.00791738081923263
-0.03504581702635115   -0.26156590373387106   -0.007000964143935939
-0.0380478202408221   -0.2819147354547714   -0.008121624590757104
-0.02977383645516902   -0.2826826732774941   -0.007536078372309593
-0.03504581702635115   -0.26156590373387106   -0.007000964143935939
-0.04755373453006458   -0.26078903095370026   -0.007242973994422066
-0.0380478202408221   -0.2819147354547714   -0.008121624590757104
-0.04728296466562024   -0.2607760977997426   -0.006628135493704187
-0.02977383645516902   -0.2826826732774941   -0.007536078372309593
-0.03753531532153026   -0.281958504618966   -0.00740067433087345
-0.04728296466562024   -0.2607760977997426   -0.006628135493704187
-0.0380478202408221   -0.2819147354547714   -0.008121624590757104
-0.02977383645516902   -0.2826826732774941   -0.007536078372309593
-0.04728296466562024   -0.2607760977997426   -0.006628135493704187
-0.034868466772714914   -0.2614883903717816   -0.006665445508738338
-0.03504581702635115   -0.26156590373387106   -0.007000964143935939
-0.02977383645516902   -0.2826826732774941   -0.007536078372309593
-0.04728296466562024   -0.2607760977997426   -0.006628135493704187
-0.03504581702635115   -0.26156590373387106   -0.007000964143935939
-0.0380478202408221   -0.2819147354547714   -0.008121624590757104
-0.03905840996422705   -0.28238834298937054   -0.009439146370124905
-0.048082268182534575   -0.2612830432035672   -0.00837280355234678
-0.049560974074183535   -0.28096270244159416   -0.010261242176800921
-0.03863361521025896   -0.2820581113290423   -0.008794797902432783
-0.048082268182534575   -0.2612830432035672   -0.00837280355234678
-0.06289913816135363   -0.260007342377997   -0.009113187336330071
-0.049560974074183535   -0.28096270244159416   -0.010261242176800921
-0.06190139901984477   -0.2596724967156982   -0.008251072280258901
-0.03863361521025896   -0.2820581113290423   -0.008794797902432783
-0.04820342209688974   -0.2806060238329392   -0.009244263955515598
-0.06190139901984477   -0.2596724967156982   -0.008251072280258901
-0.049560974074183535   -0.28096270244159416   -0.010261242176800921
-0.03863361521025896   -0.2820581113290423   -0.008794797902432783
-0.06190139901984477   -0.2596724967156982   -0.008251072280258901
-0.0478860175633063   -0.260960989004407   -0.007821686355646262
-0.048082268182534575   -0.2612830432035672   -0.00837280355234678
-0.03863361521025896   -0.2820581113290423   -0.008794797902432783
-0.06190139901984477   -0.2596724967156982   -0.008251072280258901
-0.048082268182534575   -0.2612830432035672   -0.00837280355234678
-0.049560974074183535   -0.28096270244159416   -0.010261242176800921
-0.03863361521025896   -0.2820581113290423   -0.008794797902432783
-0.0478860175633063   -0.260960989004407   -0.007821686355646262
-0.04820342209688974   -0.2806060238329392   -0.009244263955515598
-0.0380478202408221   -0.2819147354547714   -0.008121624590757104
-0.0478860175633063   -0.260960989004407   -0.007821686355646262
-0.06190139901984477   -0.2596724967156982   -0.008251072280258901
-0.04820342209688974   -0.2806060238329392   -0.009244263955515598
-0.06103403060797507   -0.25951492736633003   -0.0073435615349849
-0.0380478202408221   -0.2819147354547714   -0.008121624590757104
-0.046984398341517644   -0.28047340504687285   -0.0081670009545548
-0.06103403060797507   -0.25951492736633003   -0.0073435615349849
-0.04820342209688974   -0.2806060238329392   -0.009244263955515598
-0.0380478202408221   -0.2819147354547714   -0.008121624590757104
-0.06103403060797507   -0.25951492736633003   -0.0073435615349849
-0.04755373453006458   -0.26078903095370026   -0.007242973994422066
-0.0478860175633063   -0.260960989004407   -0.007821686355646262
-0.0380478202408221   -0.2819147354547714   -0.008121624590757104
-0.06103403060797507   -0.25951492736633003   -0.0073435615349849
-0.0478860175633063   -0.260960989004407   -0.007821686355646262
-0.04820342209688974   -0.2806060238329392   -0.009244263955515598
-0.0380478202408221   -0.2819147354547714   -0.008121624590757104
-0.04755373453006458   -0.26078903095370026   -0.007242973994422066
-0.046984398341517644   -0.28047340504687285   -0.0081670009545548
-0.03753531532153026   -0.281958504618966   -0.00740067433087345
-0.04755373453006458   -0.26078903095370026   -0.007242973994422066
-0.06103403060797507   -0.25951492736633003   -0.0073435615349849
-0.046984398341517644   -0.28047340504687285   -0.0081670009545548
-0.059864845628303576   -0.25960076454851927   -0.006396457547867833
-0.03753531532153026   -0.281958504618966   -0.00740067433087345
-0.045404203620954986   -0.28063256236919387   -0.00703977506362763
-0.059864845628303576   -0.25960076454851927   -0.006396457547867833
-0.046984398341517644   -0.28047340504687285   -0.0081670009545548
-0.03753531532153026   -0.281958504618966   -0.00740067433087345
-0.059864845628303576   -0.25960076454851927   -0.006396457547867833
-0.04728296466562024   -0.2607760977997426   -0.006628135493704187
-0.04755373453006458   -0.26078903095370026   -0.007242973994422066
-0.03753531532153026   -0.281958504618966   -0.00740067433087345
-0.059864845628303576   -0.25960076454851927   -0.006396457547867833
-0.04755373453006458   -0.26078903095370026   -0.007242973994422066
-0.046984398341517644   -0.28047340504687285   -0.0081670009545548
0.0017971389386959194   -0.26181417369286414   -0.004482691509532274
0.009533508846388346   -0.23398696562483745   -0.0034175322176200123
-0.010944869254071173   -0.26244192223538176   -0.0056860819400194485
0.002622116568537604   -0.26120072792680576   -0.00515273030457367
0.009533508846388346   -0.23398696562483745   -0.0034175322176200123
-0.007300121614934292   -0.2343996397266186   -0.004565801929789239
-0.010944869254071173   -0.26244192223538176   -0.0056860819400194485
-0.007255653511739019   -0.23389034601587752   -0.0047689589208479545
0.002622116568537604   -0.26120072792680576   -0.00515273030457367
-0.010725188917518705   -0.26192984787894136   -0.00598059604299976
-0.007255653511739019   -0.23389034601587752   -0.0047689589208479545
-0.010944869254071173   -0.26244192223538176   -0.0056860819400194485
0.002622116568537604   -0.26120072792680576   -0.00515273030457367
-0.007255653511739019   -0.23389034601587752   -0.0047689589208479545
0.010019695787676494   -0.23338866506382747   -0.003910882325849792
0.009533508846388346   -0.23398696562483745   -0.0034175322176200123
0.002622116568537604   -0.26120072792680576   -0.00515273030457367
-0.007255653511739019   -0.23389034601587752   -0.0047689589208479545
0.009533508846388346   -0.23398696562483745   -0.0034175322176200123
-0.010944869254071173   -0.26244192223538176   -0.0056860819400194485
0.002622116568537604   -0.26120072792680576   -0.00515273030457367
0.010019695787676494   -0.23338866506382747   -0.003910882325849792
-0.010725188917518705   -0.26192984787894136   -0.00598059604299976
0.0032285923813276116   -0.2608429951219566   -0.005774140350593426
0.010019695787676494   -0.23338866506382747   -0.003910882325849792
-0.007255653511739019   -0.23389034601587752   -0.0047689589208479545
-0.010725188917518705   -0.26192984787894136   -0.00598059604299976
-0.007199287383489805   -0.23351847685300112   -0.004940472780062817
0.0032285923813276116   -0.2608429951219566   -0.005774140350593426
-0.010475636086678267   -0.26159261952410606   -0.006240364717984188
-0.007199287383489805   -0.23351847685300112   -0.004940472780062817
-0.010725188917518705   -0.26192984787894136   -0.00598059604299976
0.0032285923813276116   -0.2608429951219566   -0.005774140350593426
-0.007199287383489805   -0.23351847685300112   -0.004940472780062817
0.010329517498832744   -0.2329928973656008   -0.00435954112315041
0.010019695787676494   -0.23338866506382747   -0.003910882325849792
0.0032285923813276116   -0.2608429951219566   -0.005774140350593426
-0.007199287383489805   -0.23351847685300112   -0.004940472780062817
0.010019695787676494   -0.23338866506382747   -0.003910882325849792
-0.010725188917518705   -0.26192984787894136   -0.00598059604299976
0.0032285923813276116   -0.2608429951219566   -0.005774140350593426
0.010329517498832744   -0.2329928973656008   -0.00435954112315041
-0.010475636086678267   -0.26159261952410606   -0.006240364717984188
0.0038761948801678027   -0.26066173241661217   -0.0063466566617013795
0.010329517498832744   -0.2329928973656008   -0.00435954112315041
-0.007199287383489805   -0.23351847685300112   -0.004940472780062817
-0.010475636086678267   -0.26159261952410606   -0.006240364717984188
-0.007228429500709843   -0.23327228165668334   -0.00508265591441491
0.0038761948801678027   -0.26066173241661217   -0.0063466566617013795
-0.010326511839349633   -0.26142035529853347   -0.006468814350720994
-0.007228429500709843   -0.23327228165668334   -0.00508265591441491
-0.010475636086678267   -0.26159261952410606   -0.006240364717984188
0.0038761948801678027   -0.26066173241661217   -0.0063466566617013795
-0.007228429500709843   -0.23327228165668334   -0.00508265591441491
0.0106460499374472   -0.23272380882551608   -0.00476442233106804
0.010329517498832744   -0.2329928973656008   -0.00435954112315041
0.0038761948801678027   -0.26066173241661217   -0.0063466566617013795
-0.007228429500709843   -0.23327228165668334   -0.00508265591441491
0.010329517498832744   -0.2329928973656008   -0.00435954112315041
-0.010475636086678267   -0.26159261952410606   -0.006240364717984188
-0.010944869254071173   -0.26244192223538176   -0.0056860819400194485
-0.007300121614934292   -0.2343996397266186   -0.004565801929789239
-0.02325985567993463   -0.2625617106321149   -0.006679454505956523
-0.010725188917518705   -0.26192984787894136   -0.00598059604299976
-0.007300121614934292   -0.2343996397266186   -0.004565801929789239
-0.023489413837190158   -0.23440059949957284   -0.005515145915878128
-0.02325985567993463   -0.2625617106321149   -0.006679454505956523
-0.02349209470798407   -0.2339689381559208   -0.005496035984093472
-0.010725188917518705   -0.26192984787894136   -0.00598059604299976
-0.023097927222727018   -0.2621216958307109   -0.006687542876879196
-0.02349209470798407   -0.2339689381559208   -0.005496035984093472
-0.02325985567993463   -0.2625617106321149   -0.006679454505956523
-0.010725188917518705   -0.26192984787894136   -0.00598059604299976
-0.02349209470798407   -0.2339689381559208   -0.005496035984093472
-0.007255653511739019   -0.23389034601587752   -0.0047689589208479545
-0.007300121614934292   -0.2343996397266186   -0.004565801929789239
-0.010725188917518705   -0.26192984787894136   -0.00598059604299976
-0.02349209470798407   -0.2339689381559208   -0.005496035984093472
-0.007300121614934292   -0.2343996397266186   -0.004565801929789239
-0.02325985567993463   -0.2625617106321149   -0.006679454505956523
-0.010725188917518705   -0.26192984787894136   -0.00598059604299976
-0.007255653511739019   -0.23389034601587752   -0.0047689589208479545
-0.023097927222727018   -0.2621216958307109   -0.006687542876879196
-0.010475636086678267   -0.26159261952410606   -0.006240364717984188
-0.007255653511739019   -0.23389034601587752   -0.0047689589208479545
-0.02349209470798407   -0.2339689381559208   -0.005496035984093472
-0.023097927222727018   -0.2621216958307109   -0.006687542876879196
-0.02349372862106195   -0.23365846703977697   -0.005445434306194647
-0.010475636086678267   -0.26159261952410606   -0.006240364717984188
-0.022931496437562753   -0.2618382215173058   -0.006662367333424645
-0.02349372862106195   -0.23365846703977697   -0.005445434306194647
-0.023097927222727018   -0.2621216958307109   -0.006687542876879196
-0.010475636086678267   -0.26159261952410606   -0.006240364717984188
-0.02349372862106195   -0.23365846703977697   -0.005445434306194647
-0.007199287383489805   -0.23351847685300112   -0.004940472780062817
-0.007255653511739019   -0.23389034601587752   -0.0047689589208479545
-0.010475636086678267   -0.26159261952410606   -0.006240364717984188
-0.02349372862106195   -0.23365846703977697   -0.005445434306194647
-0.007255653511739019   -0.23389034601587752   -0.0047689589208479545
-0.023097927222727018   -0.2621216958307109   -0.006687542876879196
-0.010475636086678267   -0.26159261952410606   -0.006240364717984188
-0.007199287383489805   -0.23351847685300112   -0.004940472780062817
-0.022931496437562753   -0.2618382215173058   -0.006662367333424645
-0.010326511839349633   -0.26142035529853347   -0.006468814350720994
-0.007199287383489805   -0.23351847685300112   -0.004940472780062817
-0.02349372862106195   -0.23365846703977697   -0.005445434306194647
-0.022931496437562753   -0.2618382215173058   -0.006662367333424645
-0.02351707748013345   -0.23346938846758064   -0.005364937809901247
-0.010326511839349633   -0.26142035529853347   -0.006468814350720994
-0.022785897526980736   -0.2617086315603775   -0.0066061029398356615
-0.02351707748013345   -0.23346938846758064   -0.005364937809901247
-0.022931496437562753   -0.2618382215173058   -0.006662367333424645
-0.010326511839349633   -0.26142035529853347   -0.006468814350720994
-0.02351707748013345   -0.23346938846758064   -0.005364937809901247
-0.007228429500709843   -0.23327228165668334   -0.00508265591441491
-0.007199287383489805   -0.23351847685300112   -0.004940472780062817
-0.010326511839349633   -0.26142035529853347   -0.006468814350720994
-0.02351707748013345   -0.23346938846758064   -0.005364937809901247
-0.007199287383489805   -0.23351847685300112   -0.004940472780062817
-0.022931496437562753   -0.2618382215173058   -0.006662367333424645
-0.02325985567993463   -0.2625617106321149   -0.006679454505956523
-0.023489413837190158   -0.23440059949957284   -0.005515145915878128
-0.03537879166075489   -0.2621706843293497   -0.007576324881538648
-0.023097927222727018   -0.2621216958307109   -0.006687542876879196
-0.023489413837190158   -0.23440059949957284   -0.005515145915878128
-0.03940141764313141   -0.23399857426120163   -0.006347478063327636
-0.03537879166075489   -0.2621706843293497   -0.007576324881538648
-0.03941599787794008   -0.2336353563299458   -0.006108751998138013
-0.023097927222727018   -0.2621216958307109   -0.006687542876879196
-0.035227991621346065   -0.26179089116649373   -0.007304926668501854
-0.03941599787794008   -0.2336353563299458   -0.006108751998138013
-0.03537879166075489   -0.2621706843293497   -0.007576324881538648
-0.023097927222727018   -0.2621216958307109   -0.006687542876879196
-0.03941599787794008   -0.2336353563299458   -0.006108751998138013
-0.02349209470798407   -0.2339689381559208   -0.005496035984093472
-0.023489413837190158   -0.23440059949957284   -0.005515145915878128
-0.023097927222727018   -0.2621216958307109   -0.006687542876879196
-0.03941599787794008   -0.2336353563299458   -0.006108751998138013
-0.023489413837190158   -0.23440059949957284   -0.005515145915878128
-0.03537879166075489   -0.2621706843293497   -0.007576324881538648
-0.023097927222727018   -0.2621216958307109   -0.006687542876879196
-0.02349209470798407   -0.2339689381559208   -0.005496035984093472
-0.035227991621346065   -0.26179089116649373   -0.007304926668501854
-0.022931496437562753   -0.2618382215173058   -0.006662367333424645
-0.02349209470798407   -0.2339689381559208   -0.005496035984093472
-0.03941599787794008   -0.2336353563299458   -0.006108751998138013
-0.035227991621346065   -0.26179089116649373   -0.007304926668501854
-0.03940339605564325   -0.23339225304943054   -0.00583912598209875
-0.022931496437562753   -0.2618382215173058   -0.006662367333424645
-0.03504581702635115   -0.26156590373387106   -0.007000964143935939
-0.03940339605564325   -0.23339225304943054   -0.00583912598209875
-0.035227991621346065   -0.26179089116649373   -0.007304926668501854
-0.022931496437562753   -0.2618382215173058   -0.006662367333424645
-0.03940339605564325   -0.23339225304943054   -0.00583912598209875
-0.02349372862106195   -0.23365846703977697   -0.005445434306194647
-0.02349209470798407   -0.2339689381559208   -0.005496035984093472
-0.022931496437562753   -0.2618382215173058   -0.006662367333424645
-0.03940339605564325   -0.23339225304943054   -0.00583912598209875
-0.02349209470798407   -0.2339689381559208   -0.005496035984093472
-0.035227991621346065   -0.26179089116649373   -0.007304926668501854
-0.022931496437562753   -0.2618382215173058   -0.006662367333424645
-0.02349372862106195   -0.23365846703977697   -0.005445434306194647
-0.03504581702635115   -0.26156590373387106   -0.007000964143935939
-0.022785897526980736   -0.2617086315603775   -0.0066061029398356615
-0.02349372862106195   -0.23365846703977697   -0.005445434306194647
-0.03940339605564325   -0.23339225304943054   -0.00583912598209875
-0.03504581702635115   -0.26156590373387106   -0.007000964143935939
-0.03939560835420489   -0.2332671186297694   -0.005539510538639118
-0.022785897526980736   -0.2617086315603775   -0.0066061029398356615
-0.034868466772714914   -0.2614883903717816   -0.006665445508738338
-0.03939560835420489   -0.2332671186297694   -0.005539510538639118
-0.03504581702635115   -0.26156590373387106   -0.007000964143935939
-0.022785897526980736   -0.2617086315603775   -0.0066061029398356615
-0.03939560835420489   -0.2332671186297694   -0.005539510538639118
-0.02351707748013345   -0.23346938846758064   -0.005364937809901247
-0.02349372862106195   -0.23365846703977697   -0.005445434306194647
-0.022785897526980736   -0.2617086315603775   -0.0066061029398356615
-0.03939560835420489   -0.2332671186297694   -0.005539510538639118
-0.02349372862106195   -0.23365846703977697   -0.005445434306194647
-0.03504581702635115   -0.26156590373387106   -0.007000964143935939
-0.03537879166075489   -0.2621706843293497   -0.007576324881538648
-0.03940141764313141   -0.23399857426120163   -0.006347478063327636
-0.048082268182534575   -0.2612830432035672   -0.00837280355234678
-0.035227991621346065   -0.26179089116649373   -0.007304926668501854
-0.03940141764313141   -0.23399857426120163   -0.006347478063327636
-0.05581091941263749   -0.23320907044083952   -0.0070640148030594666
-0.048082268182534575   -0.2612830432035672   -0.00837280355234678
-0.05579252376937247   -0.2329115999898389   -0.006603127500986995
-0.035227991621346065   -0.26179089116649373   -0.007304926668501854
-0.0478860175633063   -0.260960989004407   -0.007821686355646262
-0.05579252376937247   -0.2329115999898389   -0.006603127500986995
-0.048082268182534575   -0.2612830432035672   -0.00837280355234678
-0.035227991621346065   -0.26179089116649373   -0.007304926668501854
-0.05579252376937247   -0.2329115999898389   -0.006603127500986995
-0.03941599787794008   -0.2336353563299458   -0.006108751998138013
-0.03940141764313141   -0.23399857426120163   -0.006347478063327636
-0.035227991621346065   -0.26179089116649373   -0.007304926668501854
-0.05579252376937247   -0.2329115999898389   -0.006603127500986995
-0.03940141764313141   -0.23399857426120163   -0.006347478063327636
-0.048082268182534575   -0.2612830432035672   -0.00837280355234678
-0.035227991621346065   -0.26179089116649373   -0.007304926668501854
-0.03941599787794008   -0.2336353563299458   -0.006108751998138013
-0.0478860175633063   -0.260960989004407   -0.007821686355646262
-0.03504581702635115   -0.26156590373387106   -0.007000964143935939
-0.03941599787794008   -0.2336353563299458   -0.006108751998138013
-0.05579252376937247   -0.2329115999898389   -0.006603127500986995
-0.0478860175633063   -0.260960989004407   -0.007821686355646262
-0.055656189237365705   -0.23272957009833914   -0.006115985194498296
-0.03504581702635115   -0.26156590373387106   -0.007000964143935939
-0.04755373453006458   -0.26078903095370026   -0.007242973994422066
-0.055656189237365705   -0.23272957009833914   -0.006115985194498296
-0.0478860175633063   -0.260960989004407   -0.007821686355646262
-0.03504581702635115   -0.26156590373387106   -0.007000964143935939
-0.055656189237365705   -0.23272957009833914   -0.006115985194498296
-0.03940339605564325   -0.23339225304943054   -0.00583912598209875
-0.03941599787794008   -0.2336353563299458   -0.006108751998138013
-0.03504581702635115   -0.26156590373387106   -0.007000964143935939
-0.055656189237365705   -0.23272957009833914   -0.006115985194498296
-0.03941599787794008   -0.2336353563299458   -0.006108751998138013
-0.0478860175633063   -0.260960989004407   -0.007821686355646262
-0.03504581702635115   -0.26156590373387106   -0.007000964143935939
-0.03940339605564325   -0.23339225304943054   -0.00583912598209875
-0.04755373453006458   -0.26078903095370026   -0.007242973994422066
-0.034868466772714914   -0.2614883903717816   -0.006665445508738338
-0.03940339605564325   -0.23339225304943054   -0.00583912598209875
-0.055656189237365705   -0.23272957009833914   -0.006115985194498296
-0.04755373453006458   -0.26078903095370026   -0.007242973994422066
-0.055564773098475385   -0.23267538430468906   -0.005596464437203819
-0.034868466772714914   -0.2614883903717816   -0.006665445508738338
-0.04728296466562024   -0.2607760977997426   -0.006628135493704187
-0.055564773098475385   -0.23267538430468906   -0.005596464437203819
-0.04755373453006458   -0.26078903095370026   -0.007242973994422066
-0.034868466772714914   -0.2614883903717816   -0.006665445508738338
-0.055564773098475385   -0.23267538430468906   -0.005596464437203819
-0.03939560835420489   -0.2332671186297694   -0.005539510538639118
-0.03940339605564325   -0.23339225304943054   -0.00583912598209875
-0.034868466772714914   -0.2614883903717816   -0.006665445508738338
-0.055564773098475385   -0.23267538430468906   -0.005596464437203819
-0.03940339605564325   -0.23339225304943054   -0.00583912598209875
-0.04755373453006458   -0.26078903095370026   -0.007242973994422066
-0.048082268182534575   -0.2612830432035672   -0.00837280355234678
-0.05581091941263749   -0.23320907044083952   -0.0070640148030594666
-0.06289913816135363   -0.260007342377997   -0.009113187336330071
-0.0478860175633063   -0.260960989004407   -0.007821686355646262
-0.05581091941263749   -0.23320907044083952   -0.0070640148030594666
-0.07413949914996457   -0.23212347150584095   -0.007708874542251619
-0.06289913816135363   -0.260007342377997   -0.009113187336330071
-0.07346102376744747   -0.23183215552529754   -0.00700456859821806
-0.0478860175633063   -0.260960989004407   -0.007821686355646262
-0.06190139901984477   -0.2596724967156982   -0.008251072280258901
-0.07346102376744747   -0.23183215552529754   -0.00700456859821806
-0.06289913816135363   -0.260007342377997   -0.009113187336330071
-0.0478860175633063   -0.260960989004407   -0.007821686355646262
-0.07346102376744747   -0.23183215552529754   -0.00700456859821806
-0.05579252376937247   -0.2329115999898389   -0.006603127500986995
-0.05581091941263749   -0.23320907044083952   -0.0070640148030594666
-0.0478860175633063   -0.260960989004407   -0.007821686355646262
-0.07346102376744747   -0.23183215552529754   -0.00700456859821806
-0.05581091941263749   -0.23320907044083952   -0.0070640148030594666
-0.06289913816135363   -0.260007342377997   -0.009113187336330071
-0.0478860175633063   -0.260960989004407   -0.007821686355646262
-0.05579252376937247   -0.2329115999898389   -0.006603127500986995
-0.06190139901984477   -0.2596724967156982   -0.008251072280258901
-0.04755373453006458   -0.26078903095370026   -0.007242973994422066
-0.05579252376937247   -0.2329115999898389   -0.006603127500986995
-0.07346102376744747   -0.23183215552529754   -0.00700456859821806
-0.06190139901984477   -0.2596724967156982   -0.008251072280258901
-0.07287985700262538   -0.2316723641500615   -0.00625621927701142
-0.04755373453006458   -0.26078903095370026   -0.007242973994422066
-0.06103403060797507   -0.25951492736633003   -0.0073435615349849
-0.07287985700262538   -0.2316723641500615   -0.00625621927701142
-0.06190139901984477   -0.2596724967156982   -0.008251072280258901
-0.04755373453006458   -0.26078903095370026   -0.007242973994422066
-0.07287985700262538   -0.2316723641500615   -0.00625621927701142
-0.055656189237365705   -0.23272957009833914   -0.006115985194498296
-0.05579252376937247   -0.2329115999898389   -0.006603127500986995
-0.04755373453006458   -0.26078903095370026   -0.007242973994422066
-0.07287985700262538   -0.2316723641500615   -0.00625621927701142
-0.05579252376937247   -0.2329115999898389   -0.006603127500986995
-0.06190139901984477   -0.2596724967156982   -0.008251072280258901
-0.04755373453006458   -0.26078903095370026   -0.007242973994422066
-0.055656189237365705   -0.23272957009833914   -0.006115985194498296
-0.06103403060797507   -0.25951492736633003   -0.0073435615349849
-0.04728296466562024   -0.2607760977997426   -0.006628135493704187
-0.055656189237365705   -0.23272957009833914   -0.006115985194498296
-0.07287985700262538   -0.2316723641500615   -0.00625621927701142
-0.06103403060797507   -0.25951492736633003   -0.0073435615349849
-0.07203986559122727   -0.2317156963332669   -0.00546982296613281
-0.04728296466562024   -0.2607760977997426   -0.006628135493704187
-0.059864845628303576   -0.25960076454851927   -0.006396457547867833
-0.07203986559122727   -0.2317156963332669   -0.00546982296613281
-0.06103403060797507   -0.25951492736633003   -0.0073435615349849
-0.04728296466562024   -0.2607760977997426   -0.006628135493704187
-0.07203986559122727   -0.2317156963332669   -0.00546982296613281
-0.055564773098475385   -0.23267538430468906   -0.005596464437203819
-0.055656189237365705   -0.23272957009833914   -0.006115985194498296
-0.04728296466562024   -0.2607760977997426   -0.006628135493704187
-0.07203986559122727   -0.2317156963332669   -0.00546982296613281
-0.055656189237365705   -0.23272957009833914   -0.006115985194498296
-0.06103403060797507   -0.25951492736633003   -0.0073435615349849
0.009533508846388346   -0.23398696562483745   -0.0034175322176200123
0.014835494251532882   -0.2005849599283748   -0.002275143973073896
-0.007300121614934292   -0.2343996397266186   -0.004565801929789239
0.010019695787676494   -0.23338866506382747   -0.003910882325849792
0.014835494251532882   -0.2005849599283748   -0.002275143973073896
-0.005101888011000942   -0.2007853944214796   -0.0033556891996708456
-0.007300121614934292   -0.2343996397266186   -0.004565801929789239
-0.005197980584190814   -0.20028834293571116   -0.003464042930881907
0.010019695787676494   -0.23338866506382747   -0.003910882325849792
-0.007255653511739019   -0.23389034601587752   -0.0047689589208479545
-0.005197980584190814   -0.20028834293571116   -0.003464042930881907
-0.007300121614934292   -0.2343996397266186   -0.004565801929789239
0.010019695787676494   -0.23338866506382747   -0.003910882325849792
-0.005197980584190814   -0.20028834293571116   -0.003464042930881907
0.015022947556181575   -0.20000856886842197   -0.0025961608587684515
0.014835494251532882   -0.2005849599283748   -0.002275143973073896
0.010019695787676494   -0.23338866506382747   -0.003910882325849792
-0.005197980584190814   -0.20028834293571116   -0.003464042930881907
0.014835494251532882   -0.2005849599283748   -0.002275143973073896
-0.007300121614934292   -0.2343996397266186   -0.004565801929789239
0.010019695787676494   -0.23338866506382747   -0.003910882325849792
0.015022947556181575   -0.20000856886842197   -0.0025961608587684515
-0.007255653511739019   -0.23389034601587752   -0.0047689589208479545
0.010329517498832744   -0.2329928973656008   -0.00435954112315041
0.015022947556181575   -0.20000856886842197   -0.0025961608587684515
-0.005197980584190814   -0.20028834293571116   -0.003464042930881907
-0.007255653511739019   -0.23389034601587752   -0.0047689589208479545
-0.005299251313036194   -0.19989267823827456   -0.0035442626943990646
0.010329517498832744   -0.2329928973656008   -0.00435954112315041
-0.007199287383489805   -0.23351847685300112   -0.004940472780062817
-0.005299251313036194   -0.19989267823827456   -0.0035442626943990646
-0.007255653511739019   -0.23389034601587752   -0.0047689589208479545
0.010329517498832744   -0.2329928973656008   -0.00435954112315041
-0.005299251313036194   -0.19989267823827456   -0.0035442626943990646
0.01507656612237376   -0.19958544313934798   -0.0028756997273143388
0.015022947556181575   -0.20000856886842197   -0.0025961608587684515
0.010329517498832744   -0.2329928973656008   -0.00435954112315041
-0.005299251313036194   -0.19989267823827456   -0.0035442626943990646
0.015022947556181575   -0.20000856886842197   -0.0025961608587684515
-0.007255653511739019   -0.23389034601587752   -0.0047689589208479545
0.010329517498832744   -0.2329928973656008   -0.00435954112315041
0.01507656612237376   -0.19958544313934798   -0.0028756997273143388
-0.007199287383489805   -0.23351847685300112   -0.004940472780062817
0.0106460499374472   -0.23272380882551608   -0.00476442233106804
0.01507656612237376   -0.19958544313934798   -0.0028756997273143388
-0.005299251313036194   -0.19989267823827456   -0.0035442626943990646
-0.007199287383489805   -0.23351847685300112   -0.004940472780062817
-0.005469599893898562   -0.19958615554838102   -0.003597306145863711
0.0106460499374472   -0.23272380882551608   -0.00476442233106804
-0.007228429500709843   -0.23327228165668334   -0.00508265591441491
-0.005469599893898562   -0.19958615554838102   -0.003597306145863711
-0.007199287383489805   -0.23351847685300112   -0.004940472780062817
0.0106460499374472   -0.23272380882551608   -0.00476442233106804
-0.005469599893898562   -0.19958615554838102   -0.003597306145863711
0.015102916815829268   -0.19924214202118334   -0.0031157091024104975
0.01507656612237376   -0.19958544313934798   -0.0028756997273143388
0.0106460499374472   -0.23272380882551608   -0.00476442233106804
-0.005469599893898562   -0.19958615554838102   -0.003597306145863711
0.01507656612237376   -0.19958544313934798   -0.0028756997273143388
-0.007199287383489805   -0.23351847685300112   -0.004940472780062817
-0.007300121614934292   -0.2343996397266186   -0.004565801929789239
-0.005101888011000942   -0.2007853944214796   -0.0033556891996708456
-0.023489413837190158   -0.23440059949957284   -0.005515145915878128
-0.007255653511739019   -0.23389034601587752   -0.0047689589208479545
-0.005101888011000942   -0.2007853944214796   -0.0033556891996708456
-0.024205868319010455   -0.20067901252743822   -0.004248268619918609
-0.023489413837190158   -0.23440059949957284   -0.005515145915878128
-0.024337602938837185   -0.20026254421823453   -0.004196666968088561
-0.007255653511739019   -0.23389034601587752   -0.0047689589208479545
-0.02349209470798407   -0.2339689381559208   -0.005496035984093472
-0.024337602938837185   -0.20026254421823453   -0.004196666968088561
-0.023489413837190158   -0.23440059949957284   -0.005515145915878128
-0.007255653511739019   -0.23389034601587752   -0.0047689589208479545
-0.024337602938837185   -0.20026254421823453   -0.004196666968088561
-0.005197980584190814   -0.20028834293571116   -0.003464042930881907
-0.005101888011000942   -0.2007853944214796   -0.0033556891996708456
-0.007255653511739019   -0.23389034601587752   -0.0047689589208479545
-0.024337602938837185   -0.20026254421823453   -0.004196666968088561
-0.005101888011000942   -0.2007853944214796   -0.0033556891996708456
-0.023489413837190158   -0.23440059949957284   -0.005515145915878128
-0.007255653511739019   -0.23389034601587752   -0.0047689589208479545
-0.005197980584190814   -0.20028834293571116   -0.003464042930881907
-0.02349209470798407   -0.2339689381559208   -0.005496035984093472
-0.007199287383489805   -0.23351847685300112   -0.004940472780062817
-0.005197980584190814   -0.20028834293571116   -0.003464042930881907
-0.024337602938837185   -0.20026254421823453   -0.004196666968088561
-0.02349209470798407   -0.2339689381559208   -0.005496035984093472
-0.024471132220613867   -0.1999330139317995   -0.004116129267290737
-0.007199287383489805   -0.23351847685300112   -0.004940472780062817
-0.02349372862106195   -0.23365846703977697   -0.005445434306194647
-0.024471132220613867   -0.1999330139317995   -0.004116129267290737
-0.02349209470798407   -0.2339689381559208   -0.005496035984093472
-0.007199287383489805   -0.23351847685300112   -0.004940472780062817
-0.024471132220613867   -0.1999330139317995   -0.004116129267290737
-0.005299251313036194   -0.19989267823827456   -0.0035442626943990646
-0.005197980584190814   -0.20028834293571116   -0.003464042930881907
-0.007199287383489805   -0.23351847685300112   -0.004940472780062817
-0.024471132220613867   -0.1999330139317995   -0.004116129267290737
-0.005197980584190814   -0.20028834293571116   -0.003464042930881907
-0.02349209470798407   -0.2339689381559208   -0.005496035984093472
-0.007199287383489805   -0.23351847685300112   -0.004940472780062817
-0.005299251313036194   -0.19989267823827456   -0.0035442626943990646
-0.02349372862106195   -0.23365846703977697   -0.005445434306194647
-0.007228429500709843   -0.23327228165668334   -0.00508265591441491
-0.005299251313036194   -0.19989267823827456   -0.0035442626943990646
-0.024471132220613867   -0.1999330139317995   -0.004116129267290737
-0.02349372862106195   -0.23365846703977697   -0.005445434306194647
-0.024625228228230735   -0.19969191215236543   -0.004008016207453246
-0.007228429500709843   -0.23327228165668334   -0.00508265591441491
-0.02351707748013345   -0.23346938846758064   -0.005364937809901247
-0.024625228228230735   -0.19969191215236543   -0.004008016207453246
-0.02349372862106195   -0.23365846703977697   -0.005445434306194647
-0.007228429500709843   -0.23327228165668334   -0.00508265591441491
-0.024625228228230735   -0.19969191215236543   -0.004008016207453246
-0.005469599893898562   -0.19958615554838102   -0.003597306145863711
-0.005299251313036194   -0.19989267823827456   -0.0035442626943990646
-0.007228429500709843   -0.23327228165668334   -0.00508265591441491
-0.024625228228230735   -0.19969191215236543   -0.004008016207453246
-0.005299251313036194   -0.19989267823827456   -0.0035442626943990646
-0.02349372862106195   -0.23365846703977697   -0.005445434306194647
-0.023489413837190158   -0.23440059949957284   -0.005515145915878128
-0.024205868319010455   -0.20067901252743822   -0.004248268619918609
-0.03940141764313141   -0.23399857426120163   -0.006347478063327636
-0.02349209470798407   -0.2339689381559208   -0.005496035984093472
-0.024205868319010455   -0.20067901252743822   -0.004248268619918609
-0.042985367391641334   -0.2002840524006834   -0.00501329509265337
-0.03940141764313141   -0.23399857426120163   -0.006347478063327636
-0.04312715456655733   -0.19994102786328416   -0.004802442711093247
-0.02349209470798407   -0.2339689381559208   -0.005496035984093472
-0.03941599787794008   -0.2336353563299458   -0.006108751998138013
-0.04312715456655733   -0.19994102786328416   -0.004802442711093247
-0.03940141764313141   -0.23399857426120163   -0.006347478063327636
-0.02349209470798407   -0.2339689381559208   -0.005496035984093472
-0.04312715456655733   -0.19994102786328416   -0.004802442711093247
-0.024337602938837185   -0.20026254421823453   -0.004196666968088561
-0.024205868319010455   -0.20067901252743822   -0.004248268619918609
-0.02349209470798407   -0.2339689381559208   -0.005496035984093472
-0.04312715456655733   -0.19994102786328416   -0.004802442711093247
-0.024205868319010455   -0.20067901252743822   -0.004248268619918609
-0.03940141764313141   -0.23399857426120163   -0.006347478063327636
-0.02349209470798407   -0.2339689381559208   -0.005496035984093472
-0.024337602938837185   -0.20026254421823453   -0.004196666968088561
-0.03941599787794008   -0.2336353563299458   -0.006108751998138013
-0.02349372862106195   -0.23365846703977697   -0.005445434306194647
-0.024337602938837185   -0.20026254421823453   -0.004196666968088561
-0.04312715456655733   -0.19994102786328416   -0.004802442711093247
-0.03941599787794008   -0.2336353563299458   -0.006108751998138013
-0.04324486611130734   -0.1996841057816097   -0.004563149609456071
-0.02349372862106195   -0.23365846703977697   -0.005445434306194647
-0.03940339605564325   -0.23339225304943054   -0.00583912598209875
-0.04324486611130734   -0.1996841057816097   -0.004563149609456071
-0.03941599787794008   -0.2336353563299458   -0.006108751998138013
-0.02349372862106195   -0.23365846703977697   -0.005445434306194647
-0.04324486611130734   -0.1996841057816097   -0.004563149609456071
-0.024471132220613867   -0.1999330139317995   -0.004116129267290737
-0.024337602938837185   -0.20026254421823453   -0.004196666968088561
-0.02349372862106195   -0.23365846703977697   -0.005445434306194647
-0.04324486611130734   -0.1996841057816097   -0.004563149609456071
-0.024337602938837185   -0.20026254421823453   -0.004196666968088561
-0.03941599787794008   -0.2336353563299458   -0.006108751998138013
-0.02349372862106195   -0.23365846703977697   -0.005445434306194647
-0.024471132220613867   -0.1999330139317995   -0.004116129267290737
-0.03940339605564325   -0.23339225304943054   -0.00583912598209875
-0.02351707748013345   -0.23346938846758064   -0.005364937809901247
-0.024471132220613867   -0.1999330139317995   -0.004116129267290737
-0.04324486611130734   -0.1996841057816097   -0.004563149609456071
-0.03940339605564325   -0.23339225304943054   -0.00583912598209875
-0.043365921670972626   -0.19951293769768647   -0.004296264061560587
-0.02351707748013345   -0.23346938846758064   -0.005364937809901247
-0.03939560835420489   -0.2332671186297694   -0.005539510538639118
-0.043365921670972626   -0.19951293769768647   -0.004296264061560587
-0.03940339605564325   -0.23339225304943054   -0.00583912598209875
-0.02351707748013345   -0.23346938846758064   -0.005364937809901247
-0.043365921670972626   -0.19951293769768647   -0.004296264061560587
-0.024625228228230735   -0.19969191215236543   -0.004008016207453246
-0.024471132220613867   -0.1999330139317995   -0.004116129267290737
-0.02351707748013345   -0.23346938846758064   -0.005364937809901247
-0.043365921670972626   -0.19951293769768647   -0.004296264061560587
-0.024471132220613867   -0.1999330139317995   -0.004116129267290737
-0.03940339605564325   -0.23339225304943054   -0.00583912598209875
-0.03940141764313141   -0.23399857426120163   -0.006347478063327636
-0.042985367391641334   -0.2002840524006834   -0.00501329509265337
-0.05581091941263749   -0.23320907044083952   -0.0070640148030594666
-0.03941599787794008   -0.2336353563299458   -0.006108751998138013
-0.042985367391641334   -0.2002840524006834   -0.00501329509265337
-0.06221172583346008   -0.19960852076790525   -0.005653393139401346
-0.05581091941263749   -0.23320907044083952   -0.0070640148030594666
-0.0623296438998741   -0.19933739718511936   -0.005281155230935106
-0.03941599787794008   -0.2336353563299458   -0.006108751998138013
-0.05579252376937247   -0.2329115999898389   -0.006603127500986995
-0.0623296438998741   -0.19933739718511936   -0.005281155230935106
-0.05581091941263749   -0.23320907044083952   -0.0070640148030594666
-0.03941599787794008   -0.2336353563299458   -0.006108751998138013
-0.0623296438998741   -0.19933739718511936   -0.005281155230935106
-0.04312715456655733   -0.19994102786328416   -0.004802442711093247
-0.042985367391641334   -0.2002840524006834   -0.00501329509265337
-0.03941599787794008   -0.2336353563299458   -0.006108751998138013
-0.0623296438998741   -0.19933739718511936   -0.005281155230935106
-0.042985367391641334   -0.2002840524006834   -0.00501329509265337
-0.05581091941263749   -0.23320907044083952   -0.0070640148030594666
-0.03941599787794008   -0.2336353563299458   -0.006108751998138013
-0.04312715456655733   -0.19994102786328416   -0.004802442711093247
-0.05579252376937247   -0.2329115999898389   -0.006603127500986995
-0.03940339605564325   -0.23339225304943054   -0.00583912598209875
-0.04312715456655733   -0.19994102786328416   -0.004802442711093247
-0.0623296438998741   -0.19933739718511936   -0.005281155230935106
-0.05579252376937247   -0.2329115999898389   -0.006603127500986995
-0.06234684865556215   -0.19914683995636467   -0.004884417741188774
-0.03940339605564325   -0.23339225304943054   -0.00583912598209875
-0.055656189237365705   -0.23272957009833914   -0.006115985194498296
-0.06234684865556215   -0.19914683995636467   -0.004884417741188774
-0.05579252376937247   -0.2329115999898389   -0.006603127500986995
-0.03940339605564325   -0.23339225304943054   -0.00583912598209875
-0.06234684865556215   -0.19914683995636467   -0.004884417741188774
-0.04324486611130734   -0.1996841057816097   -0.004563149609456071
-0.04312715456655733   -0.19994102786328416   -0.004802442711093247
-0.03940339605564325   -0.23339225304943054   -0.00583912598209875
-0.06234684865556215   -0.19914683995636467   -0.004884417741188774
-0.04312715456655733   -0.19994102786328416   -0.004802442711093247
-0.05579252376937247   -0.2329115999898389   -0.006603127500986995
-0.03940339605564325   -0.23339225304943054   -0.00583912598209875
-0.04324486611130734   -0.1996841057816097   -0.004563149609456071
-0.055656189237365705   -0.23272957009833914   -0.006115985194498296
-0.03939560835420489   -0.2332671186297694   -0.005539510538639118
-0.04324486611130734   -0.1996841057816097   -0.004563149609456071
-0.06234684865556215   -0.19914683995636467   -0.004884417741188774
-0.055656189237365705   -0.23272957009833914   -0.006115985194498296
-0.06239214724121669   -0.19904969654532348   -0.004458009637775203
-0.03939560835420489   -0.2332671186297694   -0.005539510538639118
-0.055564773098475385   -0.23267538430468906   -0.005596464437203819
-0.06239214724121669   -0.19904969654532348   -0.004458009637775203
-0.055656189237365705   -0.23272957009833914   -0.006115985194498296
-0.03939560835420489   -0.2332671186297694   -0.005539510538639118
-0.06239214724121669   -0.19904969654532348   -0.004458009637775203
-0.043365921670972626   -0.19951293769768647   -0.004296264061560587
-0.04324486611130734   -0.1996841057816097   -0.004563149609456071
-0.03939560835420489   -0.2332671186297694   -0.005539510538639118
-0.06239214724121669   -0.19904969654532348   -0.004458009637775203
-0.04324486611130734   -0.1996841057816097   -0.004563149609456071
-0.055656189237365705   -0.23272957009833914   -0.006115985194498296
-0.05581091941263749   -0.23320907044083952   -0.0070640148030594666
-0.06221172583346008   -0.19960852076790525   -0.005653393139401346
-0.07413949914996457   -0.23212347150584095   -0.007708874542251619
-0.05579252376937247   -0.2329115999898389   -0.006603127500986995
-0.06221172583346008   -0.19960852076790525   -0.005653393139401346
-0.08317418698153904   -0.19872484260752346   -0.006200054717930759
-0.07413949914996457   -0.23212347150584095   -0.007708874542251619
-0.08278019184178613   -0.19847720972869518   -0.0056579325336403325
-0.05579252376937247   -0.2329115999898389   -0.006603127500986995
-0.07346102376744747   -0.23183215552529754   -0.00700456859821806
-0.08278019184178613   -0.19847720972869518   -0.0056579325336403325
-0.07413949914996457   -0.23212347150584095   -0.007708874542251619
-0.05579252376937247   -0.2329115999898389   -0.006603127500986995
-0.08278019184178613   -0.19847720972869518   -0.0056579325336403325
-0.0623296438998741   -0.19933739718511936   -0.005281155230935106
-0.06221172583346008   -0.19960852076790525   -0.005653393139401346
-0.05579252376937247   -0.2329115999898389   -0.006603127500986995
-0.08278019184178613   -0.19847720972869518   -0.0056579325336403325
-0.06221172583346008   -0.19960852076790525   -0.005653393139401346
-0.07413949914996457   -0.23212347150584095   -0.007708874542251619
-0.05579252376937247   -0.2329115999898389   -0.006603127500986995
-0.0623296438998741   -0.19933739718511936   -0.005281155230935106
-0.07346102376744747   -0.23183215552529754   -0.00700456859821806
-0.055656189237365705   -0.23272957009833914   -0.006115985194498296
-0.0623296438998741   -0.19933739718511936   -0.005281155230935106
-0.08278019184178613   -0.19847720972869518   -0.0056579325336403325
-0.07346102376744747   -0.23183215552529754   -0.00700456859821806
-0.08244758383966494   -0.19831474991208806   -0.005073086271089657
-0.055656189237365705   -0.23272957009833914   -0.006115985194498296
-0.07287985700262538   -0.2316723641500615   -0.00625621927701142
-0.08244758383966494   -0.19831474991208806   -0.005073086271089657
-0.07346102376744747   -0.23183215552529754   -0.00700456859821806
-0.055656189237365705   -0.23272957009833914   -0.006115985194498296
-0.08244758383966494   -0.19831474991208806   -0.005073086271089657
-0.06234684865556215   -0.19914683995636467   -0.004884417741188774
-0.0623296438998741   -0.19933739718511936   -0.005281155230935106
-0.055656189237365705   -0.23272957009833914   -0.006115985194498296
-0.08244758383966494   -0.19831474991208806   -0.005073086271089657
-0.0623296438998741   -0.19933739718511936   -0.005281155230935106
-0.07346102376744747   -0.23183215552529754   -0.00700456859821806
-0.055656189237365705   -0.23272957009833914   -0.006115985194498296
-0.06234684865556215   -0.19914683995636467   -0.004884417741188774
-0.07287985700262538   -0.2316723641500615   -0.00625621927701142
-0.055564773098475385   -0.23267538430468906   -0.005596464437203819
-0.06234684865556215   -0.19914683995636467   -0.004884417741188774
-0.08244758383966494   -0.19831474991208806   -0.005073086271089657
-0.07287985700262538   -0.2316723641500615   -0.00625621927701142
-0.08189622951364259   -0.19831141430936233   -0.004450826461484
-0.055564773098475385   -0.23267538430468906   -0.005596464437203819
-0.07203986559122727   -0.2317156963332669   -0.00546982296613281
-0.08189622951364259   -0.19831141430936233   -0.004450826461484
-0.07287985700262538   -0.2316723641500615   -0.00625621927701142
-0.055564773098475385   -0.23267538430468906   -0.005596464437203819
-0.08189622951364259   -0.19831141430936233   -0.004450826461484
-0.06239214724121669   -0.19904969654532348   -0.004458009637775203
-0.06234684865556215   -0.19914683995636467   -0.004884417741188774
-0.055564773098475385   -0.23267538430468906   -0.005596464437203819
-0.08189622951364259   -0.19831141430936233   -0.004450826461484
-0.06234684865556215   -0.19914683995636467   -0.004884417741188774
-0.07287985700262538   -0.2316723641500615   -0.00625621927701142
0.014835494251532882   -0.2005849599283748   -0.002275143973073896
0.017749166799236944   -0.1631671413214366   -0.0011545300585556533
-0.005101888011000942   -0.2007853944214796   -0.0033556891996708456
0.015022947556181575   -0.20000856886842197   -0.0025961608587684515
0.017749166799236944   -0.1631671413214366   -0.0011545300585556533
-0.00435196378318927   -0.16315834139491028   -0.0021574635594921138
-0.005101888011000942   -0.2007853944214796   -0.0033556891996708456
-0.004552699786006672   -0.16267716390548154   -0.0021702104552815864
0.015022947556181575   -0.20000856886842197   -0.0025961608587684515
-0.005197980584190814   -0.20028834293571116   -0.003464042930881907
-0.004552699786006672   -0.16267716390548154   -0.0021702104552815864
-0.005101888011000942   -0.2007853944214796   -0.0033556891996708456
0.015022947556181575   -0.20000856886842197   -0.0025961608587684515
-0.004552699786006672   -0.16267716390548154   -0.0021702104552815864
0.0176783154562193   -0.16261504823459633   -0.0013058468332598793
0.017749166799236944   -0.1631671413214366   -0.0011545300585556533
0.015022947556181575   -0.20000856886842197   -0.0025961608587684515
-0.004552699786006672   -0.16267716390548154   -0.0021702104552815864
0.017749166799236944   -0.1631671413214366   -0.0011545300585556533
-0.005101888011000942   -0.2007853944214796   -0.0033556891996708456
0.015022947556181575   -0.20000856886842197   -0.0025961608587684515
0.0176783154562193   -0.16261504823459633   -0.0013058468332598793
-0.005197980584190814   -0.20028834293571116   -0.003464042930881907
0.01507656612237376   -0.19958544313934798   -0.0028756997273143388
0.0176783154562193   -0.16261504823459633   -0.0013058468332598793
-0.004552699786006672   -0.16267716390548154   -0.0021702104552815864
-0.005197980584190814   -0.20028834293571116   -0.003464042930881907
-0.00477569679741637   -0.16226086467583054   -0.002158124091816479
0.01507656612237376   -0.19958544313934798   -0.0028756997273143388
-0.005299251313036194   -0.19989267823827456   -0.0035442626943990646
-0.00477569679741637   -0.16226086467583054   -0.002158124091816479
-0.005197980584190814   -0.20028834293571116   -0.003464042930881907
0.01507656612237376   -0.19958544313934798   -0.0028756997273143388
-0.00477569679741637   -0.16226086467583054   -0.002158124091816479
0.017513492641715405   -0.16216796076241047   -0.001417361098111974
0.0176783154562193   -0.16261504823459633   -0.0013058468332598793
0.01507656612237376   -0.19958544313934798   -0.0028756997273143388
-0.00477569679741637   -0.16226086467583054   -0.002158124091816479
0.0176783154562193   -0.16261504823459633   -0.0013058468332598793
-0.005197980584190814   -0.20028834293571116   -0.003464042930881907
0.01507656612237376   -0.19958544313934798   -0.0028756997273143388
0.017513492641715405   -0.16216796076241047   -0.001417361098111974
-0.005299251313036194   -0.19989267823827456   -0.0035442626943990646
0.015102916815829268   -0.19924214202118334   -0.0031157091024104975
0.017513492641715405   -0.16216796076241047   -0.001417361098111974
-0.00477569679741637   -0.16226086467583054   -0.002158124091816479
-0.005299251313036194   -0.19989267823827456   -0.0035442626943990646
-0.005051392359131302   -0.1618988332872982   -0.002120225477110999
0.015102916815829268   -0.19924214202118334   -0.0031157091024104975
-0.005469599893898562   -0.19958615554838102   -0.003597306145863711
-0.005051392359131302   -0.1618988332872982   -0.002120225477110999
-0.005299251313036194   -0.19989267823827456   -0.0035442626943990646
0.015102916815829268   -0.19924214202118334   -0.0031157091024104975
-0.005051392359131302   -0.1618988332872982   -0.002120225477110999
0.017284424997278496   -0.1617542431713187   -0.0014918513186898436
0.017513492641715405   -0.16216796076241047   -0.001417361098111974
0.015102916815829268   -0.19924214202118334   -0.0031157091024104975
-0.005051392359131302   -0.1618988332872982   -0.002120225477110999
0.017513492641715405   -0.16216796076241047   -0.001417361098111974
-0.005299251313036194   -0.19989267823827456   -0.0035442626943990646
-0.005101888011000942   -0.2007853944214796   -0.0033556891996708456
-0.00435196378318927   -0.16315834139491028   -0.0021574635594921138
-0.024205868319010455   -0.20067901252743822   -0.004248268619918609
-0.005197980584190814   -0.20028834293571116   -0.003464042930881907
-0.00435196378318927   -0.16315834139491028   -0.0021574635594921138
-0.025429228105963042   -0.1629576531476766   -0.00298837527135547
-0.024205868319010455   -0.20067901252743822   -0.004248268619918609
-0.025652764378121903   -0.16255689322913836   -0.0029017276439944188
-0.005197980584190814   -0.20028834293571116   -0.003464042930881907
-0.024337602938837185   -0.20026254421823453   -0.004196666968088561
-0.025652764378121903   -0.16255689322913836   -0.0029017276439944188
-0.024205868319010455   -0.20067901252743822   -0.004248268619918609
-0.005197980584190814   -0.20028834293571116   -0.003464042930881907
-0.025652764378121903   -0.16255689322913836   -0.0029017276439944188
-0.004552699786006672   -0.16267716390548154   -0.0021702104552815864
-0.00435196378318927   -0.16315834139491028   -0.0021574635594921138
-0.005197980584190814   -0.20028834293571116   -0.003464042930881907
-0.025652764378121903   -0.16255689322913836   -0.0029017276439944188
-0.00435196378318927   -0.16315834139491028   -0.0021574635594921138
-0.024205868319010455   -0.20067901252743822   -0.004248268619918609
-0.005197980584190814   -0.20028834293571116   -0.003464042930881907
-0.004552699786006672   -0.16267716390548154   -0.0021702104552815864
-0.024337602938837185   -0.20026254421823453   -0.004196666968088561
-0.005299251313036194   -0.19989267823827456   -0.0035442626943990646
-0.004552699786006672   -0.16267716390548154   -0.0021702104552815864
-0.025652764378121903   -0.16255689322913836   -0.0029017276439944188
-0.024337602938837185   -0.20026254421823453   -0.004196666968088561
-0.025880723501409738   -0.16220895663280438   -0.0027892415208746303
-0.005299251313036194   -0.19989267823827456   -0.0035442626943990646
-0.024471132220613867   -0.1999330139317995   -0.004116129267290737
-0.025880723501409738   -0.16220895663280438   -0.0027892415208746303
-0.024337602938837185   -0.20026254421823453   -0.004196666968088561
-0.005299251313036194   -0.19989267823827456   -0.0035442626943990646
-0.025880723501409738   -0.16220895663280438   -0.0027892415208746303
-0.00477569679741637   -0.16226086467583054   -0.002158124091816479
-0.004552699786006672   -0.16267716390548154   -0.0021702104552815864
-0.005299251313036194   -0.19989267823827456   -0.0035442626943990646
-0.025880723501409738   -0.16220895663280438   -0.0027892415208746303
-0.004552699786006672   -0.16267716390548154   -0.0021702104552815864
-0.024337602938837185   -0.20026254421823453   -0.004196666968088561
-0.005299251313036194   -0.19989267823827456   -0.0035442626943990646
-0.00477569679741637   -0.16226086467583054   -0.002158124091816479
-0.024471132220613867   -0.1999330139317995   -0.004116129267290737
-0.005469599893898562   -0.19958615554838102   -0.003597306145863711
-0.00477569679741637   -0.16226086467583054   -0.002158124091816479
-0.025880723501409738   -0.16220895663280438   -0.0027892415208746303
-0.024471132220613867   -0.1999330139317995   -0.004116129267290737
-0.02612778053919243   -0.16191704209490898   -0.0026520949248360977
-0.005469599893898562   -0.19958615554838102   -0.003597306145863711
-0.024625228228230735   -0.19969191215236543   -0.004008016207453246
-0.02612778053919243   -0.16191704209490898   -0.0026520949248360977
-0.024471132220613867   -0.1999330139317995   -0.004116129267290737
-0.005469599893898562   -0.19958615554838102   -0.003597306145863711
-0.02612778053919243   -0.16191704209490898   -0.0026520949248360977
-0.005051392359131302   -0.1618988332872982   -0.002120225477110999
-0.00477569679741637   -0.16226086467583054   -0.002158124091816479
-0.005469599893898562   -0.19958615554838102   -0.003597306145863711
-0.02612778053919243   -0.16191704209490898   -0.0026520949248360977
-0.00477569679741637   -0.16226086467583054   -0.002158124091816479
-0.024471132220613867   -0.1999330139317995   -0.004116129267290737
-0.024205868319010455   -0.20067901252743822   -0.004248268619918609
-0.025429228105963042   -0.1629576531476766   -0.00298837527135547
-0.042985367391641334   -0.2002840524006834   -0.00501329509265337
-0.024337602938837185   -0.20026254421823453   -0.004196666968088561
-0.025429228105963042   -0.1629576531476766   -0.00298837527135547
-0.04614994183069862   -0.16258600005763163   -0.0036911386000386707
-0.042985367391641334   -0.2002840524006834   -0.00501329509265337
-0.04637969976484255   -0.1622595928635009   -0.0035051757969644204
-0.024337602938837185   -0.20026254421823453   -0.004196666968088561
-0.04312715456655733   -0.19994102786328416   -0.004802442711093247
-0.04637969976484255   -0.1622595928635009   -0.0035051757969644204
-0.042985367391641334   -0.2002840524006834   -0.00501329509265337
-0.024337602938837185   -0.20026254421823453   -0.004196666968088561
-0.04637969976484255   -0.1622595928635009   -0.0035051757969644204
-0.025652764378121903   -0.16255689322913836   -0.0029017276439944188
-0.025429228105963042   -0.1629576531476766   -0.00298837527135547
-0.024337602938837185   -0.20026254421823453   -0.004196666968088561
-0.04637969976484255   -0.1622595928635009   -0.0035051757969644204
-0.025429228105963042   -0.1629576531476766   -0.00298837527135547
-0.042985367391641334   -0.2002840524006834   -0.00501329509265337
-0.024337602938837185   -0.20026254421823453   -0.004196666968088561
-0.025652764378121903   -0.16255689322913836   -0.0029017276439944188
-0.04312715456655733   -0.19994102786328416   -0.004802442711093247
-0.024471132220613867   -0.1999330139317995   -0.004116129267290737
-0.025652764378121903   -0.16255689322913836   -0.0029017276439944188
-0.04637969976484255   -0.1622595928635009   -0.0035051757969644204
-0.04312715456655733   -0.19994102786328416   -0.004802442711093247
-0.046588309698033   -0.16198563457075502   -0.0032939659657831373
-0.024471132220613867   -0.1999330139317995   -0.004116129267290737
-0.04324486611130734   -0.1996841057816097   -0.004563149609456071
-0.046588309698033   -0.16198563457075502   -0.0032939659657831373
-0.04312715456655733   -0.19994102786328416   -0.004802442711093247
-0.024471132220613867   -0.1999330139317995   -0.004116129267290737
-0.046588309698033   -0.16198563457075502   -0.0032939659657831373
-0.025880723501409738   -0.16220895663280438   -0.0027892415208746303
-0.025652764378121903   -0.16255689322913836   -0.0029017276439944188
-0.024471132220613867   -0.1999330139317995   -0.004116129267290737
-0.046588309698033   -0.16198563457075502   -0.0032939659657831373
-0.025652764378121903   -0.16255689322913836   -0.0029017276439944188
-0.04312715456655733   -0.19994102786328416   -0.004802442711093247
-0.024471132220613867   -0.1999330139317995   -0.004116129267290737
-0.025880723501409738   -0.16220895663280438   -0.0027892415208746303
-0.04324486611130734   -0.1996841057816097   -0.004563149609456071
-0.024625228228230735   -0.19969191215236543   -0.004008016207453246
-0.025880723501409738   -0.16220895663280438   -0.0027892415208746303
-0.046588309698033   -0.16198563457075502   -0.0032939659657831373
-0.04324486611130734   -0.1996841057816097   -0.004563149609456071
-0.04679887349355831   -0.16176461235440945   -0.00305848456422827
-0.024625228228230735   -0.19969191215236543   -0.004008016207453246
-0.043365921670972626   -0.19951293769768647   -0.004296264061560587
-0.04679887349355831   -0.16176461235440945   -0.00305848456422827
-0.04324486611130734   -0.1996841057816097   -0.004563149609456071
-0.024625228228230735   -0.19969191215236543   -0.004008016207453246
-0.04679887349355831   -0.16176461235440945   -0.00305848456422827
-0.02612778053919243   -0.16191704209490898   -0.0026520949248360977
-0.025880723501409738   -0.16220895663280438   -0.0027892415208746303
-0.024625228228230735   -0.19969191215236543   -0.004008016207453246
-0.04679887349355831   -0.16176461235440945   -0.00305848456422827
-0.025880723501409738   -0.16220895663280438   -0.0027892415208746303
-0.04324486611130734   -0.1996841057816097   -0.004563149609456071
-0.042985367391641334   -0.2002840524006834   -0.00501329509265337
-0.04614994183069862   -0.16258600005763163   -0.0036911386000386707
-0.06221172583346008   -0.19960852076790525   -0.005653393139401346
-0.04312715456655733   -0.19994102786328416   -0.004802442711093247
-0.04614994183069862   -0.16258600005763163   -0.0036911386000386707
-0.06728026030099833   -0.1620354190742826   -0.004267124031842694
-0.06221172583346008   -0.19960852076790525   -0.005653393139401346
-0.06749394018955315   -0.1617840944639267   -0.003981104897229125
-0.04312715456655733   -0.19994102786328416   -0.004802442711093247
-0.0623296438998741   -0.19933739718511936   -0.005281155230935106
-0.06749394018955315   -0.1617840944639267   -0.003981104897229125
-0.06221172583346008   -0.19960852076790525   -0.005653393139401346
-0.04312715456655733   -0.19994102786328416   -0.004802442711093247
-0.06749394018955315   -0.1617840944639267   -0.003981104897229125
-0.04637969976484255   -0.1622595928635009   -0.0035051757969644204
-0.04614994183069862   -0.16258600005763163   -0.0036911386000386707
-0.04312715456655733   -0.19994102786328416   -0.004802442711093247
-0.06749394018955315   -0.1617840944639267   -0.003981104897229125
-0.04614994183069862   -0.16258600005763163   -0.0036911386000386707
-0.06221172583346008   -0.19960852076790525   -0.005653393139401346
-0.04312715456655733   -0.19994102786328416   -0.004802442711093247
-0.04637969976484255   -0.1622595928635009   -0.0035051757969644204
-0.0623296438998741   -0.19933739718511936   -0.005281155230935106
-0.04324486611130734   -0.1996841057816097   -0.004563149609456071
-0.04637969976484255   -0.1622595928635009   -0.0035051757969644204
-0.06749394018955315   -0.1617840944639267   -0.003981104897229125
-0.0623296438998741   -0.19933739718511936   -0.005281155230935106
-0.06762470337488355   -0.1615782551441669   -0.0036732741650719286
-0.04324486611130734   -0.1996841057816097   -0.004563149609456071
-0.06234684865556215   -0.19914683995636467   -0.004884417741188774
-0.06762470337488355   -0.1615782551441669   -0.0036732741650719286
-0.0623296438998741   -0.19933739718511936   -0.005281155230935106
-0.04324486611130734   -0.1996841057816097   -0.004563149609456071
-0.06762470337488355   -0.1615782551441669   -0.0036732741650719286
-0.046588309698033   -0.16198563457075502   -0.0032939659657831373
-0.04637969976484255   -0.1622595928635009   -0.0035051757969644204
-0.04324486611130734   -0.1996841057816097   -0.004563149609456071
-0.06762470337488355   -0.1615782551441669   -0.0036732741650719286
-0.04637969976484255   -0.1622595928635009   -0.0035051757969644204
-0.0623296438998741   -0.19933739718511936   -0.005281155230935106
-0.04324486611130734   -0.1996841057816097   -0.004563149609456071
-0.046588309698033   -0.16198563457075502   -0.0032939659657831373
-0.06234684865556215   -0.19914683995636467   -0.004884417741188774
-0.043365921670972626   -0.19951293769768647   -0.004296264061560587
-0.046588309698033   -0.16198563457075502   -0.0032939659657831373
-0.06762470337488355   -0.1615782551441669   -0.0036732741650719286
-0.06234684865556215   -0.19914683995636467   -0.004884417741188774
-0.06776763776073116   -0.16142987715830853   -0.00333910825717329
-0.043365921670972626   -0.19951293769768647   -0.004296264061560587
-0.06239214724121669   -0.19904969654532348   -0.004458009637775203
-0.06776763776073116   -0.16142987715830853   -0.00333910825717329
-0.06234684865556215   -0.19914683995636467   -0.004884417741188774
-0.043365921670972626   -0.19951293769768647   -0.004296264061560587
-0.06776763776073116   -0.16142987715830853   -0.00333910825717329
-0.04679887349355831   -0.16176461235440945   -0.00305848456422827
-0.046588309698033   -0.16198563457075502   -0.0032939659657831373
-0.043365921670972626   -0.19951293769768647   -0.004296264061560587
-0.06776763776073116   -0.16142987715830853   -0.00333910825717329
-0.046588309698033   -0.16198563457075502   -0.0032939659657831373
-0.06234684865556215   -0.19914683995636467   -0.004884417741188774
-0.06221172583346008   -0.19960852076790525   -0.005653393139401346
-0.06728026030099833   -0.1620354190742826   -0.004267124031842694
-0.08317418698153904   -0.19872484260752346   -0.006200054717930759
-0.0623296438998741   -0.19933739718511936   -0.005281155230935106
-0.06728026030099833   -0.1620354190742826   -0.004267124031842694
-0.08995212371411787   -0.16136039666997593   -0.004726270962894831
-0.08317418698153904   -0.19872484260752346   -0.006200054717930759
-0.08980328839192481   -0.16114780038882529   -0.004346648001438259
-0.0623296438998741   -0.19933739718511936   -0.005281155230935106
-0.08278019184178613   -0.19847720972869518   -0.0056579325336403325
-0.08980328839192481   -0.16114780038882529   -0.004346648001438259
-0.08317418698153904   -0.19872484260752346   -0.006200054717930759
-0.0623296438998741   -0.19933739718511936   -0.005281155230935106
-0.08980328839192481   -0.16114780038882529   -0.004346648001438259
-0.06749394018955315   -0.1617840944639267   -0.003981104897229125
-0.06728026030099833   -0.1620354190742826   -0.004267124031842694
-0.0623296438998741   -0.19933739718511936   -0.005281155230935106
-0.08980328839192481   -0.16114780038882529   -0.004346648001438259
-0.06728026030099833   -0.1620354190742826   -0.004267124031842694
-0.08317418698153904   -0.19872484260752346   -0.006200054717930759
-0.0623296438998741   -0.19933739718511936   -0.005281155230935106
-0.06749394018955315   -0.1617840944639267   -0.003981104897229125
-0.08278019184178613   -0.19847720972869518   -0.0056579325336403325
-0.06234684865556215   -0.19914683995636467   -0.004884417741188774
-0.06749394018955315   -0.1617840944639267   -0.003981104897229125
-0.08980328839192481   -0.16114780038882529   -0.004346648001438259
-0.08278019184178613   -0.19847720972869518   -0.0056579325336403325
-0.08968209845493966   -0.16097402404091843   -0.003927006890269734
-0.06234684865556215   -0.19914683995636467   -0.004884417741188774
-0.08244758383966494   -0.19831474991208806   -0.005073086271089657
-0.08968209845493966   -0.16097402404091843   -0.003927006890269734
-0.08278019184178613   -0.19847720972869518   -0.0056579325336403325
-0.06234684865556215   -0.19914683995636467   -0.004884417741188774
-0.08968209845493966   -0.16097402404091843   -0.003927006890269734
-0.06762470337488355   -0.1615782551441669   -0.0036732741650719286
-0.06749394018955315   -0.1617840944639267   -0.003981104897229125
-0.06234684865556215   -0.19914683995636467   -0.004884417741188774
-0.08968209845493966   -0.16097402404091843   -0.003927006890269734
-0.06749394018955315   -0.1617840944639267   -0.003981104897229125
-0.08278019184178613   -0.19847720972869518   -0.0056579325336403325
-0.06234684865556215   -0.19914683995636467   -0.004884417741188774
-0.06762470337488355   -0.1615782551441669   -0.0036732741650719286
-0.08244758383966494   -0.19831474991208806   -0.005073086271089657
-0.06239214724121669   -0.19904969654532348   -0.004458009637775203
-0.06762470337488355   -0.1615782551441669   -0.0036732741650719286
-0.08968209845493966   -0.16097402404091843   -0.003927006890269734
-0.08244758383966494   -0.19831474991208806   -0.005073086271089657
-0.0893841540575356   -0.16091237308725742   -0.0034719210280471724
-0.06239214724121669   -0.19904969654532348   -0.004458009637775203
-0.08189622951364259   -0.19831141430936233   -0.004450826461484
-0.0893841540575356   -0.16091237308725742   -0.0034719210280471724
-0.08244758383966494   -0.19831474991208806   -0.005073086271089657
-0.06239214724121669   -0.19904969654532348   -0.004458009637775203
-0.0893841540575356   -0.16091237308725742   -0.0034719210280471724
-0.06776763776073116   -0.16142987715830853   -0.00333910825717329
-0.06762470337488355   -0.1615782551441669   -0.0036732741650719286
-0.06239214724121669   -0.19904969654532348   -0.004458009637775203
-0.0893841540575356   -0.16091237308725742   -0.0034719210280471724
-0.06762470337488355   -0.1615782551441669   -0.0036732741650719286
-0.08244758383966494   -0.19831474991208806   -0.005073086271089657
0.017749166799236944   -0.1631671413214366   -0.0011545300585556533
0.018285151709014066   -0.1232227617420096   -0.00017221764120124817
-0.00435196378318927   -0.16315834139491028   -0.0021574635594921138
0.0176783154562193   -0.16261504823459633   -0.0013058468332598793
0.018285151709014066   -0.1232227617420096   -0.00017221764120124817
-0.005039781737789515   -0.12301379443781127   -0.0010757918505074808
-0.00435196378318927   -0.16315834139491028   -0.0021574635594921138
-0.0053138961485543895   -0.12255264819912906   -0.0009933830586426335
0.0176783154562193   -0.16261504823459633   -0.0013058468332598793
-0.004552699786006672   -0.16267716390548154   -0.0021702104552815864
-0.0053138961485543895   -0.12255264819912906   -0.0009933830586426335
-0.00435196378318927   -0.16315834139491028   -0.0021574635594921138
0.0176783154562193   -0.16261504823459633   -0.0013058468332598793
-0.0053138961485543895   -0.12255264819912906   -0.0009933830586426335
0.017990379255449475   -0.12269549027001972   -0.00015151002283768467
0.018285151709014066   -0.1232227617420096   -0.00017221764120124817
0.0176783154562193   -0.16261504823459633   -0.0013058468332598793
-0.0053138961485543895   -0.12255264819912906   -0.0009933830586426335
0.018285151709014066   -0.1232227617420096   -0.00017221764120124817
-0.00435196378318927   -0.16315834139491028   -0.0021574635594921138
0.0176783154562193   -0.16261504823459633   -0.0013058468332598793
0.017990379255449475   -0.12269549027001972   -0.00015151002283768467
-0.004552699786006672   -0.16267716390548154   -0.0021702104552815864
0.017513492641715405   -0.16216796076241047   -0.001417361098111974
0.017990379255449475   -0.12269549027001972   -0.00015151002283768467
-0.0053138961485543895   -0.12255264819912906   -0.0009933830586426335
-0.004552699786006672   -0.16267716390548154   -0.0021702104552815864
-0.005627415921962392   -0.1221158651729295   -0.0008885584081808063
0.017513492641715405   -0.16216796076241047   -0.001417361098111974
-0.00477569679741637   -0.16226086467583054   -0.002158124091816479
-0.005627415921962392   -0.1221158651729295   -0.0008885584081808063
-0.004552699786006672   -0.16267716390548154   -0.0021702104552815864
0.017513492641715405   -0.16216796076241047   -0.001417361098111974
-0.005627415921962392   -0.1221158651729295   -0.0008885584081808063
0.01763157168417816   -0.12222200510611012   -8.49314909601318e-05
0.017990379255449475   -0.12269549027001972   -0.00015151002283768467
0.017513492641715405   -0.16216796076241047   -0.001417361098111974
-0.005627415921962392   -0.1221158651729295   -0.0008885584081808063
0.017990379255449475   -0.12269549027001972   -0.00015151002283768467
-0.004552699786006672   -0.16267716390548154   -0.0021702104552815864
0.017513492641715405   -0.16216796076241047   -0.001417361098111974
0.01763157168417816   -0.12222200510611012   -8.49314909601318e-05
-0.00477569679741637   -0.16226086467583054   -0.002158124091816479
0.017284424997278496   -0.1617542431713187   -0.0014918513186898436
0.01763157168417816   -0.12222200510611012   -8.49314909601318e-05
-0.005627415921962392   -0.1221158651729295   -0.0008885584081808063
-0.00477569679741637   -0.16226086467583054   -0.002158124091816479
-0.005978558668480794   -0.12169754662897743   -0.0007556852868600902
0.017284424997278496   -0.1617542431713187   -0.0014918513186898436
-0.005051392359131302   -0.1618988332872982   -0.002120225477110999
-0.005978558668480794   -0.12169754662897743   -0.0007556852868600902
-0.00477569679741637   -0.16226086467583054   -0.002158124091816479
0.017284424997278496   -0.1617542431713187   -0.0014918513186898436
-0.005978558668480794   -0.12169754662897743   -0.0007556852868600902
0.017159391091874074   -0.12172554989402355   2.542079533550261e-05
0.01763157168417816   -0.12222200510611012   -8.49314909601318e-05
0.017284424997278496   -0.1617542431713187   -0.0014918513186898436
-0.005978558668480794   -0.12169754662897743   -0.0007556852868600902
0.01763157168417816   -0.12222200510611012   -8.49314909601318e-05
-0.00477569679741637   -0.16226086467583054   -0.002158124091816479
-0.00435196378318927   -0.16315834139491028   -0.0021574635594921138
-0.005039781737789515   -0.12301379443781127   -0.0010757918505074808
-0.025429228105963042   -0.1629576531476766   -0.00298837527135547
-0.004552699786006672   -0.16267716390548154   -0.0021702104552815864
-0.005039781737789515   -0.12301379443781127   -0.0010757918505074808
-0.027142382840017205   -0.12277419058579561   -0.0018437440299087268
-0.025429228105963042   -0.1629576531476766   -0.00298837527135547
-0.027420999386413757   -0.1223870525744471   -0.0017200358336483446
-0.004552699786006672   -0.16267716390548154   -0.0021702104552815864
-0.025652764378121903   -0.16255689322913836   -0.0029017276439944188
-0.027420999386413757   -0.1223870525744471   -0.0017200358336483446
-0.025429228105963042   -0.1629576531476766   -0.00298837527135547
-0.004552699786006672   -0.16267716390548154   -0.0021702104552815864
-0.027420999386413757   -0.1223870525744471   -0.0017200358336483446
-0.0053138961485543895   -0.12255264819912906   -0.0009933830586426335
-0.005039781737789515   -0.12301379443781127   -0.0010757918505074808
-0.004552699786006672   -0.16267716390548154   -0.0021702104552815864
-0.027420999386413757   -0.1223870525744471   -0.0017200358336483446
-0.005039781737789515   -0.12301379443781127   -0.0010757918505074808
-0.025429228105963042   -0.1629576531476766   -0.00298837527135547
-0.004552699786006672   -0.16267716390548154   -0.0021702104552815864
-0.0053138961485543895   -0.12255264819912906   -0.0009933830586426335
-0.025652764378121903   -0.16255689322913836   -0.0029017276439944188
-0.00477569679741637   -0.16226086467583054   -0.002158124091816479
-0.0053138961485543895   -0.12255264819912906   -0.0009933830586426335
-0.027420999386413757   -0.1223870525744471   -0.0017200358336483446
-0.025652764378121903   -0.16255689322913836   -0.0029017276439944188
-0.027705733629029505   -0.12201886014169734   -0.001575021802452596
-0.00477569679741637   -0.16226086467583054   -0.002158124091816479
-0.025880723501409738   -0.16220895663280438   -0.0027892415208746303
-0.027705733629029505   -0.12201886014169734   -0.001575021802452596
-0.025652764378121903   -0.16255689322913836   -0.0029017276439944188
-0.00477569679741637   -0.16226086467583054   -0.002158124091816479
-0.027705733629029505   -0.12201886014169734   -0.001575021802452596
-0.005627415921962392   -0.1221158651729295   -0.0008885584081808063
-0.0053138961485543895   -0.12255264819912906   -0.0009933830586426335
-0.00477569679741637   -0.16226086467583054   -0.002158124091816479
-0.027705733629029505   -0.12201886014169734   -0.001575021802452596
-0.0053138961485543895   -0.12255264819912906   -0.0009933830586426335
-0.025652764378121903   -0.16255689322913836   -0.0029017276439944188
-0.00477569679741637   -0.16226086467583054   -0.002158124091816479
-0.005627415921962392   -0.1221158651729295   -0.0008885584081808063
-0.025880723501409738   -0.16220895663280438   -0.0027892415208746303
-0.005051392359131302   -0.1618988332872982   -0.002120225477110999
-0.005627415921962392   -0.1221158651729295   -0.0008885584081808063
-0.027705733629029505   -0.12201886014169734   -0.001575021802452596
-0.025880723501409738   -0.16220895663280438   -0.0027892415208746303
-0.02800838614488497   -0.12167514261195   -0.0014084282642895093
-0.005051392359131302   -0.1618988332872982   -0.002120225477110999
-0.02612778053919243   -0.16191704209490898   -0.0026520949248360977
-0.02800838614488497   -0.12167514261195   -0.0014084282642895093
-0.025880723501409738   -0.16220895663280438   -0.0027892415208746303
-0.005051392359131302   -0.1618988332872982   -0.002120225477110999
-0.02800838614488497   -0.12167514261195   -0.0014084282642895093
-0.005978558668480794   -0.12169754662897743   -0.0007556852868600902
-0.005627415921962392   -0.1221158651729295   -0.0008885584081808063
-0.005051392359131302   -0.1618988332872982   -0.002120225477110999
-0.02800838614488497   -0.12167514261195   -0.0014084282642895093
-0.005627415921962392   -0.1221158651729295   -0.0008885584081808063
-0.025880723501409738   -0.16220895663280438   -0.0027892415208746303
-0.025429228105963042   -0.1629576531476766   -0.00298837527135547
-0.027142382840017205   -0.12277419058579561   -0.0018437440299087268
-0.04614994183069862   -0.16258600005763163   -0.0036911386000386707
-0.025652764378121903   -0.16255689322913836   -0.0029017276439944188
-0.027142382840017205   -0.12277419058579561   -0.0018437440299087268
-0.0488874716708121   -0.1224886701769571   -0.0024978625859208123
-0.04614994183069862   -0.16258600005763163   -0.0036911386000386707
-0.04916367596590873   -0.12217033269805966   -0.002332727989621082
-0.025652764378121903   -0.16255689322913836   -0.0029017276439944188
-0.04637969976484255   -0.1622595928635009   -0.0035051757969644204
-0.04916367596590873   -0.12217033269805966   -0.002332727989621082
-0.04614994183069862   -0.16258600005763163   -0.0036911386000386707
-0.025652764378121903   -0.16255689322913836   -0.0029017276439944188
-0.04916367596590873   -0.12217033269805966   -0.002332727989621082
-0.027420999386413757   -0.1223870525744471   -0.0017200358336483446
-0.027142382840017205   -0.12277419058579561   -0.0018437440299087268
-0.025652764378121903   -0.16255689322913836   -0.0029017276439944188
-0.04916367596590873   -0.12217033269805966   -0.002332727989621082
-0.027142382840017205   -0.12277419058579561   -0.0018437440299087268
-0.04614994183069862   -0.16258600005763163   -0.0036911386000386707
-0.025652764378121903   -0.16255689322913836   -0.0029017276439944188
-0.027420999386413757   -0.1223870525744471   -0.0017200358336483446
-0.04637969976484255   -0.1622595928635009   -0.0035051757969644204
-0.025880723501409738   -0.16220895663280438   -0.0027892415208746303
-0.027420999386413757   -0.1223870525744471   -0.0017200358336483446
-0.04916367596590873   -0.12217033269805966   -0.002332727989621082
-0.04637969976484255   -0.1622595928635009   -0.0035051757969644204
-0.04942212241037624   -0.12187208818041222   -0.002147018684183907
-0.025880723501409738   -0.16220895663280438   -0.0027892415208746303
-0.046588309698033   -0.16198563457075502   -0.0032939659657831373
-0.04942212241037624   -0.12187208818041222   -0.002147018684183907
-0.04637969976484255   -0.1622595928635009   -0.0035051757969644204
-0.025880723501409738   -0.16220895663280438   -0.0027892415208746303
-0.04942212241037624   -0.12187208818041222   -0.002147018684183907
-0.027705733629029505   -0.12201886014169734   -0.001575021802452596
-0.027420999386413757   -0.1223870525744471   -0.0017200358336483446
-0.025880723501409738   -0.16220895663280438   -0.0027892415208746303
-0.04942212241037624   -0.12187208818041222   -0.002147018684183907
-0.027420999386413757   -0.1223870525744471   -0.0017200358336483446
-0.04637969976484255   -0.1622595928635009   -0.0035051757969644204
-0.025880723501409738   -0.16220895663280438   -0.0027892415208746303
-0.027705733629029505   -0.12201886014169734   -0.001575021802452596
-0.046588309698033   -0.16198563457075502   -0.0032939659657831373
-0.02612778053919243   -0.16191704209490898   -0.0026520949248360977
-0.027705733629029505   -0.12201886014169734   -0.001575021802452596
-0.04942212241037624   -0.12187208818041222   -0.002147018684183907
-0.046588309698033   -0.16198563457075502   -0.0032939659657831373
-0.0496814896035846   -0.12159478963803765   -0.0019417666887877787
-0.02612778053919243   -0.16191704209490898   -0.0026520949248360977
-0.04679887349355831   -0.16176461235440945   -0.00305848456422827
-0.0496814896035846   -0.12159478963803765   -0.0019417666887877787
-0.046588309698033   -0.16198563457075502   -0.0032939659657831373
-0.02612778053919243   -0.16191704209490898   -0.0026520949248360977
-0.0496814896035846   -0.12159478963803765   -0.0019417666887877787
-0.02800838614488497   -0.12167514261195   -0.0014084282642895093
-0.027705733629029505   -0.12201886014169734   -0.001575021802452596
-0.02612778053919243   -0.16191704209490898   -0.0026520949248360977
-0.0496814896035846   -0.12159478963803765   -0.0019417666887877787
-0.027705733629029505   -0.12201886014169734   -0.001575021802452596
-0.046588309698033   -0.16198563457075502   -0.0032939659657831373
-0.04614994183069862   -0.16258600005763163   -0.0036911386000386707
-0.0488874716708121   -0.1224886701769571   -0.0024978625859208123
-0.06728026030099833   -0.1620354190742826   -0.004267124031842694
-0.04637969976484255   -0.1622595928635009   -0.0035051757969644204
-0.0488874716708121   -0.1224886701769571   -0.0024978625859208123
-0.0710240950517875   -0.12210384924359191   -0.0030325874132029035
-0.06728026030099833   -0.1620354190742826   -0.004267124031842694
-0.07128875086022483   -0.12185792217123463   -0.0028265103772228193
-0.04637969976484255   -0.1622595928635009   -0.0035051757969644204
-0.06749394018955315   -0.1617840944639267   -0.003981104897229125
-0.07128875086022483   -0.12185792217123463   -0.0028265103772228193
-0.06728026030099833   -0.1620354190742826   -0.004267124031842694
-0.04637969976484255   -0.1622595928635009   -0.0035051757969644204
-0.07128875086022483   -0.12185792217123463   -0.0028265103772228193
-0.04916367596590873   -0.12217033269805966   -0.002332727989621082
-0.0488874716708121   -0.1224886701769571   -0.0024978625859208123
-0.04637969976484255   -0.1622595928635009   -0.0035051757969644204
-0.07128875086022483   -0.12185792217123463   -0.0028265103772228193
-0.0488874716708121   -0.1224886701769571   -0.0024978625859208123
-0.06728026030099833   -0.1620354190742826   -0.004267124031842694
-0.04637969976484255   -0.1622595928635009   -0.0035051757969644204
-0.04916367596590873   -0.12217033269805966   -0.002332727989621082
-0.06749394018955315   -0.1617840944639267   -0.003981104897229125
-0.046588309698033   -0.16198563457075502   -0.0032939659657831373
-0.04916367596590873   -0.12217033269805966   -0.002332727989621082
-0.07128875086022483   -0.12185792217123463   -0.0028265103772228193
-0.06749394018955315   -0.1617840944639267   -0.003981104897229125
-0.07149030830595796   -0.12162398530815224   -0.0026033149555266693
-0.046588309698033   -0.16198563457075502   -0.0032939659657831373
-0.06762470337488355   -0.1615782551441669   -0.0036732741650719286
-0.07149030830595796   -0.12162398530815224   -0.0026033149555266693
-0.06749394018955315   -0.1617840944639267   -0.003981104897229125
-0.046588309698033   -0.16198563457075502   -0.0032939659657831373
-0.07149030830595796   -0.12162398530815224   -0.0026033149555266693
-0.04942212241037624   -0.12187208818041222   -0.002147018684183907
-0.04916367596590873   -0.12217033269805966   -0.002332727989621082
-0.046588309698033   -0.16198563457075502   -0.0032939659657831373
-0.07149030830595796   -0.12162398530815224   -0.0026033149555266693
-0.04916367596590873   -0.12217033269805966   -0.002332727989621082
-0.06749394018955315   -0.1617840944639267   -0.003981104897229125
-0.046588309698033   -0.16198563457075502   -0.0032939659657831373
-0.04942212241037624   -0.12187208818041222   -0.002147018684183907
-0.06762470337488355   -0.1615782551441669   -0.0036732741650719286
-0.04679887349355831   -0.16176461235440945   -0.00305848456422827
-0.04942212241037624   -0.12187208818041222   -0.002147018684183907
-0.07149030830595796   -0.12162398530815224   -0.0026033149555266693
-0.06762470337488355   -0.1615782551441669   -0.0036732741650719286
-0.07169007737345588   -0.12141207859727739   -0.0023584815660590355
-0.04679887349355831   -0.16176461235440945   -0.00305848456422827
-0.06776763776073116   -0.16142987715830853   -0.00333910825717329
-0.07169007737345588   -0.12141207859727739   -0.0023584815660590355
-0.06762470337488355   -0.1615782551441669   -0.0036732741650719286
-0.04679887349355831   -0.16176461235440945   -0.00305848456422827
-0.07169007737345588   -0.12141207859727739   -0.0023584815660590355
-0.0496814896035846   -0.12159478963803765   -0.0019417666887877787
-0.04942212241037624   -0.12187208818041222   -0.002147018684183907
-0.04679887349355831   -0.16176461235440945   -0.00305848456422827
-0.07169007737345588   -0.12141207859727739   -0.0023584815660590355
-0.04942212241037624   -0.12187208818041222   -0.002147018684183907
-0.06762470337488355   -0.1615782551441669   -0.0036732741650719286
-0.06728026030099833   -0.1620354190742826   -0.004267124031842694
-0.0710240950517875   -0.12210384924359191   -0.0030325874132029035
-0.08995212371411787   -0.16136039666997593   -0.004726270962894831
-0.06749394018955315   -0.1617840944639267   -0.003981104897229125
-0.0710240950517875   -0.12210384924359191   -0.0030325874132029035
-0.09447686155193007   -0.12165123389866167   -0.0034319786545918543
-0.08995212371411787   -0.16136039666997593   -0.004726270962894831
-0.09452262543597059   -0.12145352149889373   -0.0032059876480916515
-0.06749394018955315   -0.1617840944639267   -0.003981104897229125
-0.08980328839192481   -0.16114780038882529   -0.004346648001438259
-0.09452262543597059   -0.12145352149889373   -0.0032059876480916515
-0.08995212371411787   -0.16136039666997593   -0.004726270962894831
-0.06749394018955315   -0.1617840944639267   -0.003981104897229125
-0.09452262543597059   -0.12145352149889373   -0.0032059876480916515
-0.07128875086022483   -0.12185792217123463   -0.0028265103772228193
-0.0710240950517875   -0.12210384924359191   -0.0030325874132029035
-0.06749394018955315   -0.1617840944639267   -0.003981104897229125
-0.09452262543597059   -0.12145352149889373   -0.0032059876480916515
-0.0710240950517875   -0.12210384924359191   -0.0030325874132029035
-0.08995212371411787   -0.16136039666997593   -0.004726270962894831
-0.06749394018955315   -0.1617840944639267   -0.003981104897229125
-0.07128875086022483   -0.12185792217123463   -0.0028265103772228193
-0.08980328839192481   -0.16114780038882529   -0.004346648001438259
-0.06762470337488355   -0.1615782551441669   -0.0036732741650719286
-0.07128875086022483   -0.12185792217123463   -0.0028265103772228193
-0.09452262543597059   -0.12145352149889373   -0.0032059876480916515
-0.08980328839192481   -0.16114780038882529   -0.004346648001438259
-0.09456877019347627   -0.12125259103477483   -0.0029454609621394562
-0.06762470337488355   -0.1615782551441669   -0.0036732741650719286
-0.08968209845493966   -0.16097402404091843   -0.003927006890269734
-0.09456877019347627   -0.12125259103477483   -0.0029454609621394562
-0.08980328839192481   -0.16114780038882529   -0.004346648001438259
-0.06762470337488355   -0.1615782551441669   -0.0036732741650719286
-0.09456877019347627   -0.12125259103477483   -0.0029454609621394562
-0.07149030830595796   -0.12162398530815224   -0.0026033149555266693
-0.07128875086022483   -0.12185792217123463   -0.0028265103772228193
-0.06762470337488355   -0.1615782551441669   -0.0036732741650719286
-0.09456877019347627   -0.12125259103477483   -0.0029454609621394562
-0.07128875086022483   -0.12185792217123463   -0.0028265103772228193
-0.08980328839192481   -0.16114780038882529   -0.004346648001438259
-0.06762470337488355   -0.1615782551441669   -0.0036732741650719286
-0.07149030830595796   -0.12162398530815224   -0.0026033149555266693
-0.08968209845493966   -0.16097402404091843   -0.003927006890269734
-0.06776763776073116   -0.16142987715830853   -0.00333910825717329
-0.07149030830595796   -0.12162398530815224   -0.0026033149555266693
-0.09456877019347627   -0.12125259103477483   -0.0029454609621394562
-0.08968209845493966   -0.16097402404091843   -0.003927006890269734
-0.09448448003343016   -0.12111595352185367   -0.00265453518643505
-0.06776763776073116   -0.16142987715830853   -0.00333910825717329
-0.0893841540575356   -0.16091237308725742   -0.0034719210280471724
-0.09448448003343016   -0.12111595352185367   -0.00265453518643505
-0.08968209845493966   -0.16097402404091843   -0.003927006890269734
-0.06776763776073116   -0.16142987715830853   -0.00333910825717329
-0.09448448003343016   -0.12111595352185367   -0.00265453518643505
-0.07169007737345588   -0.12141207859727739   -0.0023584815660590355
-0.07149030830595796   -0.12162398530815224   -0.0026033149555266693
-0.06776763776073116   -0.16142987715830853   -0.00333910825717329
-0.09448448003343016   -0.12111595352185367   -0.00265453518643505
-0.07149030830595796   -0.12162398530815224   -0.0026033149555266693
-0.08968209845493966   -0.16097402404091843   -0.003927006890269734
0.018285151709014066   -0.1232227617420096   -0.00017221764120124817
0.016348868669895725   -0.08214575253656564   0.0005052079510738133
-0.005039781737789515   -0.12301379443781127   -0.0010757918505074808
0.017990379255449475   -0.12269549027001972   -0.00015151002283768467
0.016348868669895725   -0.08214575253656564   0.0005052079510738133
-0.007120638676633416   -0.08175506158430285   -0.00021667898712583551
-0.005039781737789515   -0.12301379443781127   -0.0010757918505074808
-0.007446426254469676   -0.08133659453175501   -4.719025843442382e-05
0.017990379255449475   -0.12269549027001972   -0.00015151002283768467
-0.0053138961485543895   -0.12255264819912906   -0.0009933830586426335
-0.007446426254469676   -0.08133659453175501   -4.719025843442382e-05
-0.005039781737789515   -0.12301379443781127   -0.0010757918505074808
0.017990379255449475   -0.12269549027001972   -0.00015151002283768467
-0.007446426254469676   -0.08133659453175501   -4.719025843442382e-05
0.015833009138465703   -0.08164262658253552   0.0007184887785563741
0.016348868669895725   -0.08214575253656564   0.0005052079510738133
0.017990379255449475   -0.12269549027001972   -0.00015151002283768467
-0.007446426254469676   -0.08133659453175501   -4.719025843442382e-05
0.016348868669895725   -0.08214575253656564   0.0005052079510738133
-0.005039781737789515   -0.12301379443781127   -0.0010757918505074808
0.017990379255449475   -0.12269549027001972   -0.00015151002283768467
0.015833009138465703   -0.08164262658253552   0.0007184887785563741
-0.0053138961485543895   -0.12255264819912906   -0.0009933830586426335
0.01763157168417816   -0.12222200510611012   -8.49314909601318e-05
0.015833009138465703   -0.08164262658253552   0.0007184887785563741
-0.007446426254469676   -0.08133659453175501   -4.719025843442382e-05
-0.0053138961485543895   -0.12255264819912906   -0.0009933830586426335
-0.007827083481320942   -0.08089434837357679   0.0001520900887257115
0.01763157168417816   -0.12222200510611012   -8.49314909601318e-05
-0.005627415921962392   -0.1221158651729295   -0.0008885584081808063
-0.007827083481320942   -0.08089434837357679   0.0001520900887257115
-0.0053138961485543895   -0.12255264819912906   -0.0009933830586426335
0.01763157168417816   -0.12222200510611012   -8.49314909601318e-05
-0.007827083481320942   -0.08089434837357679   0.0001520900887257115
0.015259599387121358   -0.0811415410281762   0.0010227232468577303
0.015833009138465703   -0.08164262658253552   0.0007184887785563741
0.01763157168417816   -0.12222200510611012   -8.49314909601318e-05
-0.007827083481320942   -0.08089434837357679   0.0001520900887257115
0.015833009138465703   -0.08164262658253552   0.0007184887785563741
-0.0053138961485543895   -0.12255264819912906   -0.0009933830586426335
0.01763157168417816   -0.12222200510611012   -8.49314909601318e-05
0.015259599387121358   -0.0811415410281762   0.0010227232468577303
-0.005627415921962392   -0.1221158651729295   -0.0008885584081808063
0.017159391091874074   -0.12172554989402355   2.542079533550261e-05
0.015259599387121358   -0.0811415410281762   0.0010227232468577303
-0.007827083481320942   -0.08089434837357679   0.0001520900887257115
-0.005627415921962392   -0.1221158651729295   -0.0008885584081808063
-0.008220288340436352   -0.08042424363713142   0.0003806913299964163
0.017159391091874074   -0.12172554989402355   2.542079533550261e-05
-0.005978558668480794   -0.12169754662897743   -0.0007556852868600902
-0.008220288340436352   -0.08042424363713142   0.0003806913299964163
-0.005627415921962392   -0.1221158651729295   -0.0008885584081808063
0.017159391091874074   -0.12172554989402355   2.542079533550261e-05
-0.008220288340436352   -0.08042424363713142   0.0003806913299964163
0.014559195497672543   -0.08052654123820353   0.0013571269468451764
0.015259599387121358   -0.0811415410281762   0.0010227232468577303
0.017159391091874074   -0.12172554989402355   2.542079533550261e-05
-0.008220288340436352   -0.08042424363713142   0.0003806913299964163
0.015259599387121358   -0.0811415410281762   0.0010227232468577303
-0.005627415921962392   -0.1221158651729295   -0.0008885584081808063
-0.005039781737789515   -0.12301379443781127   -0.0010757918505074808
-0.007120638676633416   -0.08175506158430285   -0.00021667898712583551
-0.027142382840017205   -0.12277419058579561   -0.0018437440299087268
-0.0053138961485543895   -0.12255264819912906   -0.0009933830586426335
-0.007120638676633416   -0.08175506158430285   -0.00021667898712583551
-0.02922919900888313   -0.0816541388407171   -0.0009141741918187857
-0.027142382840017205   -0.12277419058579561   -0.0018437440299087268
-0.029522798332356548   -0.0812876207532428   -0.0007576093552761026
-0.0053138961485543895   -0.12255264819912906   -0.0009933830586426335
-0.027420999386413757   -0.1223870525744471   -0.0017200358336483446
-0.029522798332356548   -0.0812876207532428   -0.0007576093552761026
-0.027142382840017205   -0.12277419058579561   -0.0018437440299087268
-0.0053138961485543895   -0.12255264819912906   -0.0009933830586426335
-0.029522798332356548   -0.0812876207532428   -0.0007576093552761026
-0.007446426254469676   -0.08133659453175501   -4.719025843442382e-05
-0.007120638676633416   -0.08175506158430285   -0.00021667898712583551
-0.0053138961485543895   -0.12255264819912906   -0.0009933830586426335
-0.029522798332356548   -0.0812876207532428   -0.0007576093552761026
-0.007120638676633416   -0.08175506158430285   -0.00021667898712583551
-0.027142382840017205   -0.12277419058579561   -0.0018437440299087268
-0.0053138961485543895   -0.12255264819912906   -0.0009933830586426335
-0.007446426254469676   -0.08133659453175501   -4.719025843442382e-05
-0.027420999386413757   -0.1223870525744471   -0.0017200358336483446
-0.005627415921962392   -0.1221158651729295   -0.0008885584081808063
-0.007446426254469676   -0.08133659453175501   -4.719025843442382e-05
-0.029522798332356548   -0.0812876207532428   -0.0007576093552761026
-0.027420999386413757   -0.1223870525744471   -0.0017200358336483446
-0.02982628993762726   -0.08090614327487002   -0.0005857287226407456
-0.005627415921962392   -0.1221158651729295   -0.0008885584081808063
-0.027705733629029505   -0.12201886014169734   -0.001575021802452596
-0.02982628993762726   -0.08090614327487002   -0.0005857287226407456
-0.027420999386413757   -0.1223870525744471   -0.0017200358336483446
-0.005627415921962392   -0.1221158651729295   -0.0008885584081808063
-0.02982628993762726   -0.08090614327487002   -0.0005857287226407456
-0.007827083481320942   -0.08089434837357679   0.0001520900887257115
-0.007446426254469676   -0.08133659453175501   -4.719025843442382e-05
-0.005627415921962392   -0.1221158651729295   -0.0008885584081808063
-0.02982628993762726   -0.08090614327487002   -0.0005857287226407456
-0.007446426254469676   -0.08133659453175501   -4.719025843442382e-05
-0.027420999386413757   -0.1223870525744471   -0.0017200358336483446
-0.005627415921962392   -0.1221158651729295   -0.0008885584081808063
-0.007827083481320942   -0.08089434837357679   0.0001520900887257115
-0.027705733629029505   -0.12201886014169734   -0.001575021802452596
-0.005978558668480794   -0.12169754662897743   -0.0007556852868600902
-0.007827083481320942   -0.08089434837357679   0.0001520900887257115
-0.02982628993762726   -0.08090614327487002   -0.0005857287226407456
-0.027705733629029505   -0.12201886014169734   -0.001575021802452596
-0.030142025849124114   -0.08051621988251302   -0.00039542165897587015
-0.005978558668480794   -0.12169754662897743   -0.0007556852868600902
-0.02800838614488497   -0.12167514261195   -0.0014084282642895093
-0.030142025849124114   -0.08051621988251302   -0.00039542165897587015
-0.027705733629029505   -0.12201886014169734   -0.001575021802452596
-0.005978558668480794   -0.12169754662897743   -0.0007556852868600902
-0.030142025849124114   -0.08051621988251302   -0.00039542165897587015
-0.008220288340436352   -0.08042424363713142   0.0003806913299964163
-0.007827083481320942   -0.08089434837357679   0.0001520900887257115
-0.005978558668480794   -0.12169754662897743   -0.0007556852868600902
-0.030142025849124114   -0.08051621988251302   -0.00039542165897587015
-0.007827083481320942   -0.08089434837357679   0.0001520900887257115
-0.027705733629029505   -0.12201886014169734   -0.001575021802452596
-0.027142382840017205   -0.12277419058579561   -0.0018437440299087268
-0.02922919900888313   -0.0816541388407171   -0.0009141741918187857
-0.0488874716708121   -0.1224886701769571   -0.0024978625859208123
-0.027420999386413757   -0.1223870525744471   -0.0017200358336483446
-0.02922919900888313   -0.0816541388407171   -0.0009141741918187857
-0.0511167127240558   -0.08162634994202043   -0.0015456838789051415
-0.0488874716708121   -0.1224886701769571   -0.0024978625859208123
-0.05139695721054484   -0.08130404170880443   -0.0013972925538033502
-0.027420999386413757   -0.1223870525744471   -0.0017200358336483446
-0.04916367596590873   -0.12217033269805966   -0.002332727989621082
-0.05139695721054484   -0.08130404170880443   -0.0013972925538033502
-0.0488874716708121   -0.1224886701769571   -0.0024978625859208123
-0.027420999386413757   -0.1223870525744471   -0.0017200358336483446
-0.05139695721054484   -0.08130404170880443   -0.0013972925538033502
-0.029522798332356548   -0.0812876207532428   -0.0007576093552761026
-0.02922919900888313   -0.0816541388407171   -0.0009141741918187857
-0.027420999386413757   -0.1223870525744471   -0.0017200358336483446
-0.05139695721054484   -0.08130404170880443   -0.0013972925538033502
-0.02922919900888313   -0.0816541388407171   -0.0009141741918187857
-0.0488874716708121   -0.1224886701769571   -0.0024978625859208123
-0.027420999386413757   -0.1223870525744471   -0.0017200358336483446
-0.029522798332356548   -0.0812876207532428   -0.0007576093552761026
-0.04916367596590873   -0.12217033269805966   -0.002332727989621082
-0.027705733629029505   -0.12201886014169734   -0.001575021802452596
-0.029522798332356548   -0.0812876207532428   -0.0007576093552761026
-0.05139695721054484   -0.08130404170880443   -0.0013972925538033502
-0.04916367596590873   -0.12217033269805966   -0.002332727989621082
-0.05166389411735127   -0.08097552894397579   -0.001235545456337764
-0.027705733629029505   -0.12201886014169734   -0.001575021802452596
-0.04942212241037624   -0.12187208818041222   -0.002147018684183907
-0.05166389411735127   -0.08097552894397579   -0.001235545456337764
-0.04916367596590873   -0.12217033269805966   -0.002332727989621082
-0.027705733629029505   -0.12201886014169734   -0.001575021802452596
-0.05166389411735127   -0.08097552894397579   -0.001235545456337764
-0.02982628993762726   -0.08090614327487002   -0.0005857287226407456
-0.029522798332356548   -0.0812876207532428   -0.0007576093552761026
-0.027705733629029505   -0.12201886014169734   -0.001575021802452596
-0.05166389411735127   -0.08097552894397579   -0.001235545456337764
-0.029522798332356548   -0.0812876207532428   -0.0007576093552761026
-0.04916367596590873   -0.12217033269805966   -0.002332727989621082
-0.027705733629029505   -0.12201886014169734   -0.001575021802452596
-0.02982628993762726   -0.08090614327487002   -0.0005857287226407456
-0.04942212241037624   -0.12187208818041222   -0.002147018684183907
-0.02800838614488497   -0.12167514261195   -0.0014084282642895093
-0.02982628993762726   -0.08090614327487002   -0.0005857287226407456
-0.05166389411735127   -0.08097552894397579   -0.001235545456337764
-0.04942212241037624   -0.12187208818041222   -0.002147018684183907
-0.05192812139759842   -0.08063899625811581   -0.0010612341425997953
-0.02800838614488497   -0.12167514261195   -0.0014084282642895093
-0.0496814896035846   -0.12159478963803765   -0.0019417666887877787
-0.05192812139759842   -0.08063899625811581   -0.0010612341425997953
-0.04942212241037624   -0.12187208818041222   -0.002147018684183907
-0.02800838614488497   -0.12167514261195   -0.0014084282642895093
-0.05192812139759842   -0.08063899625811581   -0.0010612341425997953
-0.030142025849124114   -0.08051621988251302   -0.00039542165897587015
-0.02982628993762726   -0.08090614327487002   -0.0005857287226407456
-0.02800838614488497   -0.12167514261195   -0.0014084282642895093
-0.05192812139759842   -0.08063899625811581   -0.0010612341425997953
-0.02982628993762726   -0.08090614327487002   -0.0005857287226407456
-0.04942212241037624   -0.12187208818041222   -0.002147018684183907
-0.0488874716708121   -0.1224886701769571   -0.0024978625859208123
-0.0511167127240558   -0.08162634994202043   -0.0015456838789051415
-0.0710240950517875   -0.12210384924359191   -0.0030325874132029035
-0.04916367596590873   -0.12217033269805966   -0.002332727989621082
-0.0511167127240558   -0.08162634994202043   -0.0015456838789051415
-0.07346704969689448   -0.08150054590717754   -0.002078214077362153
-0.0710240950517875   -0.12210384924359191   -0.0030325874132029035
-0.07373422851187708   -0.08123637096348733   -0.0019386224540230142
-0.04916367596590873   -0.12217033269805966   -0.002332727989621082
-0.07128875086022483   -0.12185792217123463   -0.0028265103772228193
-0.07373422851187708   -0.08123637096348733   -0.0019386224540230142
-0.0710240950517875   -0.12210384924359191   -0.0030325874132029035
-0.04916367596590873   -0.12217033269805966   -0.002332727989621082
-0.07373422851187708   -0.08123637096348733   -0.0019386224540230142
-0.05139695721054484   -0.08130404170880443   -0.0013972925538033502
-0.0511167127240558   -0.08162634994202043   -0.0015456838789051415
-0.04916367596590873   -0.12217033269805966   -0.002332727989621082
-0.07373422851187708   -0.08123637096348733   -0.0019386224540230142
-0.0511167127240558   -0.08162634994202043   -0.0015456838789051415
-0.0710240950517875   -0.12210384924359191   -0.0030325874132029035
-0.04916367596590873   -0.12217033269805966   -0.002332727989621082
-0.05139695721054484   -0.08130404170880443   -0.0013972925538033502
-0.07128875086022483   -0.12185792217123463   -0.0028265103772228193
-0.04942212241037624   -0.12187208818041222   -0.002147018684183907
-0.05139695721054484   -0.08130404170880443   -0.0013972925538033502
-0.07373422851187708   -0.08123637096348733   -0.0019386224540230142
-0.07128875086022483   -0.12185792217123463   -0.0028265103772228193
-0.07396109520147638   -0.08095757306470641   -0.001789654376341973
-0.04942212241037624   -0.12187208818041222   -0.002147018684183907
-0.07149030830595796   -0.12162398530815224   -0.0026033149555266693
-0.07396109520147638   -0.08095757306470641   -0.001789654376341973
-0.07128875086022483   -0.12185792217123463   -0.0028265103772228193
-0.04942212241037624   -0.12187208818041222   -0.002147018684183907
-0.07396109520147638   -0.08095757306470641   -0.001789654376341973
-0.05166389411735127   -0.08097552894397579   -0.001235545456337764
-0.05139695721054484   -0.08130404170880443   -0.0013972925538033502
-0.04942212241037624   -0.12187208818041222   -0.002147018684183907
-0.07396109520147638   -0.08095757306470641   -0.001789654376341973
-0.05139695721054484   -0.08130404170880443   -0.0013972925538033502
-0.07128875086022483   -0.12185792217123463   -0.0028265103772228193
-0.04942212241037624   -0.12187208818041222   -0.002147018684183907
-0.05166389411735127   -0.08097552894397579   -0.001235545456337764
-0.07149030830595796   -0.12162398530815224   -0.0026033149555266693
-0.0496814896035846   -0.12159478963803765   -0.0019417666887877787
-0.05166389411735127   -0.08097552894397579   -0.001235545456337764
-0.07396109520147638   -0.08095757306470641   -0.001789654376341973
-0.07149030830595796   -0.12162398530815224   -0.0026033149555266693
-0.07417554535283194   -0.08067111449885739   -0.0016271231934052448
-0.0496814896035846   -0.12159478963803765   -0.0019417666887877787
-0.07169007737345588   -0.12141207859727739   -0.0023584815660590355
-0.07417554535283194   -0.08067111449885739   -0.0016271231934052448
-0.07149030830595796   -0.12162398530815224   -0.0026033149555266693
-0.0496814896035846   -0.12159478963803765   -0.0019417666887877787
-0.07417554535283194   -0.08067111449885739   -0.0016271231934052448
-0.05192812139759842   -0.08063899625811581   -0.0010612341425997953
-0.05166389411735127   -0.08097552894397579   -0.001235545456337764
-0.0496814896035846   -0.12159478963803765   -0.0019417666887877787
-0.07417554535283194   -0.08067111449885739   -0.0016271231934052448
-0.05166389411735127   -0.08097552894397579   -0.001235545456337764
-0.07149030830595796   -0.12162398530815224   -0.0026033149555266693
-0.0710240950517875   -0.12210384924359191   -0.0030325874132029035
-0.07346704969689448   -0.08150054590717754   -0.002078214077362153
-0.09447686155193007   -0.12165123389866167   -0.0034319786545918543
-0.07128875086022483   -0.12185792217123463   -0.0028265103772228193
-0.07346704969689448   -0.08150054590717754   -0.002078214077362153
-0.09686860559333466   -0.08129468618983578   -0.00247557206848058
-0.09447686155193007   -0.12165123389866167   -0.0034319786545918543
-0.09703725420651146   -0.0810714636117332   -0.0023724273516194665
-0.07128875086022483   -0.12185792217123463   -0.0028265103772228193
-0.09452262543597059   -0.12145352149889373   -0.0032059876480916515
-0.09703725420651146   -0.0810714636117332   -0.0023724273516194665
-0.09447686155193007   -0.12165123389866167   -0.0034319786545918543
-0.07128875086022483   -0.12185792217123463   -0.0028265103772228193
-0.09703725420651146   -0.0810714636117332   -0.0023724273516194665
-0.07373422851187708   -0.08123637096348733   -0.0019386224540230142
-0.07346704969689448   -0.08150054590717754   -0.002078214077362153
-0.07128875086022483   -0.12185792217123463   -0.0028265103772228193
-0.09703725420651146   -0.0810714636117332   -0.0023724273516194665
-0.07346704969689448   -0.08150054590717754   -0.002078214077362153
-0.09447686155193007   -0.12165123389866167   -0.0034319786545918543
-0.07128875086022483   -0.12185792217123463   -0.0028265103772228193
-0.07373422851187708   -0.08123637096348733   -0.0019386224540230142
-0.09452262543597059   -0.12145352149889373   -0.0032059876480916515
-0.07149030830595796   -0.12162398530815224   -0.0026033149555266693
-0.07373422851187708   -0.08123637096348733   -0.0019386224540230142
-0.09703725420651146   -0.0810714636117332   -0.0023724273516194665
-0.09452262543597059   -0.12145352149889373   -0.0032059876480916515
-0.09719146220137426   -0.08081949090584163   -0.0022460606244327653
-0.07149030830595796   -0.12162398530815224   -0.0026033149555266693
-0.09456877019347627   -0.12125259103477483   -0.0029454609621394562
-0.09719146220137426   -0.08081949090584163   -0.0022460606244327653
-0.09452262543597059   -0.12145352149889373   -0.0032059876480916515
-0.07149030830595796   -0.12162398530815224   -0.0026033149555266693
-0.09719146220137426   -0.08081949090584163   -0.0022460606244327653
-0.07396109520147638   -0.08095757306470641   -0.001789654376341973
-0.07373422851187708   -0.08123637096348733   -0.0019386224540230142
-0.07149030830595796   -0.12162398530815224   -0.0026033149555266693
-0.09719146220137426   -0.08081949090584163   -0.0022460606244327653
-0.07373422851187708   -0.08123637096348733   -0.0019386224540230142
-0.09452262543597059   -0.12145352149889373   -0.0032059876480916515
-0.07149030830595796   -0.12162398530815224   -0.0026033149555266693
-0.07396109520147638   -0.08095757306470641   -0.001789654376341973
-0.09456877019347627   -0.12125259103477483   -0.0029454609621394562
-0.07169007737345588   -0.12141207859727739   -0.0023584815660590355
-0.07396109520147638   -0.08095757306470641   -0.001789654376341973
-0.09719146220137426   -0.08081949090584163   -0.0022460606244327653
-0.09456877019347627   -0.12125259103477483   -0.0029454609621394562
-0.09726911061071264   -0.08058643552838872   -0.0021023996727725707
-0.07169007737345588   -0.12141207859727739   -0.0023584815660590355
-0.09448448003343016   -0.12111595352185367   -0.00265453518643505
-0.09726911061071264   -0.08058643552838872   -0.0021023996727725707
-0.09456877019347627   -0.12125259103477483   -0.0029454609621394562
-0.07169007737345588   -0.12141207859727739   -0.0023584815660590355
-0.09726911061071264   -0.08058643552838872   -0.0021023996727725707
-0.07417554535283194   -0.08067111449885739   -0.0016271231934052448
-0.07396109520147638   -0.08095757306470641   -0.001789654376341973
-0.07169007737345588   -0.12141207859727739   -0.0023584815660590355
-0.09726911061071264   -0.08058643552838872   -0.0021023996727725707
-0.07396109520147638   -0.08095757306470641   -0.001789654376341973
-0.09456877019347627   -0.12125259103477483   -0.0029454609621394562
0.016348868669895725   -0.08214575253656564   0.0005052079510738133
0.011428024782966558   -0.04120142158979445   0.0005396609193795773
-0.007120638676633416   -0.08175506158430285   -0.00021667898712583551
0.015833009138465703   -0.08164262658253552   0.0007184887785563741
0.011428024782966558   -0.04120142158979445   0.0005396609193795773
-0.01042511690137228   -0.04065913760621202   0.00026121527608477085
-0.007120638676633416   -0.08175506158430285   -0.00021667898712583551
-0.010748090618116282   -0.04044381008408568   0.0004950144840553405
0.015833009138465703   -0.08164262658253552   0.0007184887785563741
-0.007446426254469676   -0.08133659453175501   -4.719025843442382e-05
-0.010748090618116282   -0.04044381008408568   0.0004950144840553405
-0.007120638676633416   -0.08175506158430285   -0.00021667898712583551
0.015833009138465703   -0.08164262658253552   0.0007184887785563741
-0.010748090618116282   -0.04044381008408568   0.0004950144840553405
0.01042259412233537   -0.04066883039052343   0.0011200506467760132
0.011428024782966558   -0.04120142158979445   0.0005396609193795773
0.015833009138465703   -0.08164262658253552   0.0007184887785563741
-0.010748090618116282   -0.04044381008408568   0.0004950144840553405
0.011428024782966558   -0.04120142158979445   0.0005396609193795773
-0.007120638676633416   -0.08175506158430285   -0.00021667898712583551
0.015833009138465703   -0.08164262658253552   0.0007184887785563741
0.01042259412233537   -0.04066883039052343   0.0011200506467760132
-0.007446426254469676   -0.08133659453175501   -4.719025843442382e-05
0.015259599387121358   -0.0811415410281762   0.0010227232468577303
0.01042259412233537   -0.04066883039052343   0.0011200506467760132
-0.010748090618116282   -0.04044381008408568   0.0004950144840553405
-0.007446426254469676   -0.08133659453175501   -4.719025843442382e-05
-0.011170653254083233   -0.040066778927907054   0.00077836447382687
0.015259599387121358   -0.0811415410281762   0.0010227232468577303
-0.007827083481320942   -0.08089434837357679   0.0001520900887257115
-0.011170653254083233   -0.040066778927907054   0.00077836447382687
-0.007446426254469676   -0.08133659453175501   -4.719025843442382e-05
0.015259599387121358   -0.0811415410281762   0.0010227232468577303
-0.011170653254083233   -0.040066778927907054   0.00077836447382687
0.009832983967159621   -0.04023014363403356   0.0015542365173113462
0.01042259412233537   -0.04066883039052343   0.0011200506467760132
0.015259599387121358   -0.0811415410281762   0.0010227232468577303
-0.011170653254083233   -0.040066778927907054   0.00077836447382687
0.01042259412233537   -0.04066883039052343   0.0011200506467760132
-0.007446426254469676   -0.08133659453175501   -4.719025843442382e-05
0.015259599387121358   -0.0811415410281762   0.0010227232468577303
0.009832983967159621   -0.04023014363403356   0.0015542365173113462
-0.007827083481320942   -0.08089434837357679   0.0001520900887257115
0.014559195497672543   -0.08052654123820353   0.0013571269468451764
0.009832983967159621   -0.04023014363403356   0.0015542365173113462
-0.011170653254083233   -0.040066778927907054   0.00077836447382687
-0.007827083481320942   -0.08089434837357679   0.0001520900887257115
-0.011525079108101965   -0.03966022740696954   0.0010279093418810526
0.014559195497672543   -0.08052654123820353   0.0013571269468451764
-0.008220288340436352   -0.08042424363713142   0.0003806913299964163
-0.011525079108101965   -0.03966022740696954   0.0010279093418810526
-0.007827083481320942   -0.08089434837357679   0.0001520900887257115
0.014559195497672543   -0.08052654123820353   0.0013571269468451764
-0.011525079108101965   -0.03966022740696954   0.0010279093418810526
0.009078750516277719   -0.03956251369941092   0.002050897672811241
0.009832983967159621   -0.04023014363403356   0.0015542365173113462
0.014559195497672543   -0.08052654123820353   0.0013571269468451764
-0.011525079108101965   -0.03966022740696954   0.0010279093418810526
0.009832983967159621   -0.04023014363403356   0.0015542365173113462
-0.007827083481320942   -0.08089434837357679   0.0001520900887257115
-0.007120638676633416   -0.08175506158430285   -0.00021667898712583551
-0.01042511690137228   -0.04065913760621202   0.00026121527608477085
-0.02922919900888313   -0.0816541388407171   -0.0009141741918187857
-0.007446426254469676   -0.08133659453175501   -4.719025843442382e-05
-0.01042511690137228   -0.04065913760621202   0.00026121527608477085
-0.031248307582068927   -0.04125432954132348   -0.0002980542186579357
-0.02922919900888313   -0.0816541388407171   -0.0009141741918187857
-0.031544005085301356   -0.04092959226169011   -0.000133133513758753
-0.007446426254469676   -0.08133659453175501   -4.719025843442382e-05
-0.029522798332356548   -0.0812876207532428   -0.0007576093552761026
-0.031544005085301356   -0.04092959226169011   -0.000133133513758753
-0.02922919900888313   -0.0816541388407171   -0.0009141741918187857
-0.007446426254469676   -0.08133659453175501   -4.719025843442382e-05
-0.031544005085301356   -0.04092959226169011   -0.000133133513758753
-0.010748090618116282   -0.04044381008408568   0.0004950144840553405
-0.01042511690137228   -0.04065913760621202   0.00026121527608477085
-0.007446426254469676   -0.08133659453175501   -4.719025843442382e-05
-0.031544005085301356   -0.04092959226169011   -0.000133133513758753
-0.01042511690137228   -0.04065913760621202   0.00026121527608477085
-0.02922919900888313   -0.0816541388407171   -0.0009141741918187857
-0.007446426254469676   -0.08133659453175501   -4.719025843442382e-05
-0.010748090618116282   -0.04044381008408568   0.0004950144840553405
-0.029522798332356548   -0.0812876207532428   -0.0007576093552761026
-0.007827083481320942   -0.08089434837357679   0.0001520900887257115
-0.010748090618116282   -0.04044381008408568   0.0004950144840553405
-0.031544005085301356   -0.04092959226169011   -0.000133133513758753
-0.029522798332356548   -0.0812876207532428   -0.0007576093552761026
-0.03185260204197426   -0.040564105942445264   4.094314218406843e-05
-0.007827083481320942   -0.08089434837357679   0.0001520900887257115
-0.02982628993762726   -0.08090614327487002   -0.0005857287226407456
-0.03185260204197426   -0.040564105942445264   4.094314218406843e-05
-0.029522798332356548   -0.0812876207532428   -0.0007576093552761026
-0.007827083481320942   -0.08089434837357679   0.0001520900887257115
-0.03185260204197426   -0.040564105942445264   4.094314218406843e-05
-0.011170653254083233   -0.040066778927907054   0.00077836447382687
-0.010748090618116282   -0.04044381008408568   0.0004950144840553405
-0.007827083481320942   -0.08089434837357679   0.0001520900887257115
-0.03185260204197426   -0.040564105942445264   4.094314218406843e-05
-0.010748090618116282   -0.04044381008408568   0.0004950144840553405
-0.029522798332356548   -0.0812876207532428   -0.0007576093552761026
-0.007827083481320942   -0.08089434837357679   0.0001520900887257115
-0.011170653254083233   -0.040066778927907054   0.00077836447382687
-0.02982628993762726   -0.08090614327487002   -0.0005857287226407456
-0.008220288340436352   -0.08042424363713142   0.0003806913299964163
-0.011170653254083233   -0.040066778927907054   0.00077836447382687
-0.03185260204197426   -0.040564105942445264   4.094314218406843e-05
-0.02982628993762726   -0.08090614327487002   -0.0005857287226407456
-0.032145158834369685   -0.040163546987967105   0.0002326479323800618
-0.008220288340436352   -0.08042424363713142   0.0003806913299964163
-0.030142025849124114   -0.08051621988251302   -0.00039542165897587015
-0.032145158834369685   -0.040163546987967105   0.0002326479323800618
-0.02982628993762726   -0.08090614327487002   -0.0005857287226407456
-0.008220288340436352   -0.08042424363713142   0.0003806913299964163
-0.032145158834369685   -0.040163546987967105   0.0002326479323800618
-0.011525079108101965   -0.03966022740696954   0.0010279093418810526
-0.011170653254083233   -0.040066778927907054   0.00077836447382687
-0.008220288340436352   -0.08042424363713142   0.0003806913299964163
-0.032145158834369685   -0.040163546987967105   0.0002326479323800618
-0.011170653254083233   -0.040066778927907054   0.00077836447382687
-0.02982628993762726   -0.08090614327487002   -0.0005857287226407456
-0.02922919900888313   -0.0816541388407171   -0.0009141741918187857
-0.031248307582068927   -0.04125432954132348   -0.0002980542186579357
-0.0511167127240558   -0.08162634994202043   -0.0015456838789051415
-0.029522798332356548   -0.0812876207532428   -0.0007576093552761026
-0.031248307582068927   -0.04125432954132348   -0.0002980542186579357
-0.052592630529398575   -0.04171911766826572   -0.0009149569440192328
-0.0511167127240558   -0.08162634994202043   -0.0015456838789051415
-0.05285746663070796   -0.041386061135527875   -0.0007877363724575168
-0.029522798332356548   -0.0812876207532428   -0.0007576093552761026
-0.05139695721054484   -0.08130404170880443   -0.0013972925538033502
-0.05285746663070796   -0.041386061135527875   -0.0007877363724575168
-0.0511167127240558   -0.08162634994202043   -0.0015456838789051415
-0.029522798332356548   -0.0812876207532428   -0.0007576093552761026
-0.05285746663070796   -0.041386061135527875   -0.0007877363724575168
-0.031544005085301356   -0.04092959226169011   -0.000133133513758753
-0.031248307582068927   -0.04125432954132348   -0.0002980542186579357
-0.029522798332356548   -0.0812876207532428   -0.0007576093552761026
-0.05285746663070796   -0.041386061135527875   -0.0007877363724575168
-0.031248307582068927   -0.04125432954132348   -0.0002980542186579357
-0.0511167127240558   -0.08162634994202043   -0.0015456838789051415
-0.029522798332356548   -0.0812876207532428   -0.0007576093552761026
-0.031544005085301356   -0.04092959226169011   -0.000133133513758753
-0.05139695721054484   -0.08130404170880443   -0.0013972925538033502
-0.02982628993762726   -0.08090614327487002   -0.0005857287226407456
-0.031544005085301356   -0.04092959226169011   -0.000133133513758753
-0.05285746663070796   -0.041386061135527875   -0.0007877363724575168
-0.05139695721054484   -0.08130404170880443   -0.0013972925538033502
-0.05311043792413899   -0.04103481741051171   -0.0006612626235621325
-0.02982628993762726   -0.08090614327487002   -0.0005857287226407456
-0.05166389411735127   -0.08097552894397579   -0.001235545456337764
-0.05311043792413899   -0.04103481741051171   -0.0006612626235621325
-0.05139695721054484   -0.08130404170880443   -0.0013972925538033502
-0.02982628993762726   -0.08090614327487002   -0.0005857287226407456
-0.05311043792413899   -0.04103481741051171   -0.0006612626235621325
-0.03185260204197426   -0.040564105942445264   4.094314218406843e-05
-0.031544005085301356   -0.04092959226169011   -0.000133133513758753
-0.02982628993762726   -0.08090614327487002   -0.0005857287226407456
-0.05311043792413899   -0.04103481741051171   -0.0006612626235621325
-0.031544005085301356   -0.04092959226169011   -0.000133133513758753
-0.05139695721054484   -0.08130404170880443   -0.0013972925538033502
-0.02982628993762726   -0.08090614327487002   -0.0005857287226407456
-0.03185260204197426   -0.040564105942445264   4.094314218406843e-05
-0.05166389411735127   -0.08097552894397579   -0.001235545456337764
-0.030142025849124114   -0.08051621988251302   -0.00039542165897587015
-0.03185260204197426   -0.040564105942445264   4.094314218406843e-05
-0.05311043792413899   -0.04103481741051171   -0.0006612626235621325
-0.05166389411735127   -0.08097552894397579   -0.001235545456337764
-0.0533431833021293   -0.04065493317482002   -0.0005239240314927131
-0.030142025849124114   -0.08051621988251302   -0.00039542165897587015
-0.05192812139759842   -0.08063899625811581   -0.0010612341425997953
-0.0533431833021293   -0.04065493317482002   -0.0005239240314927131
-0.05166389411735127   -0.08097552894397579   -0.001235545456337764
-0.030142025849124114   -0.08051621988251302   -0.00039542165897587015
-0.0533431833021293   -0.04065493317482002   -0.0005239240314927131
-0.032145158834369685   -0.040163546987967105   0.0002326479323800618
-0.03185260204197426   -0.040564105942445264   4.094314218406843e-05
-0.030142025849124114   -0.08051621988251302   -0.00039542165897587015
-0.0533431833021293   -0.04065493317482002   -0.0005239240314927131
-0.03185260204197426   -0.040564105942445264   4.094314218406843e-05
-0.05166389411735127   -0.08097552894397579   -0.001235545456337764
-0.0511167127240558   -0.08162634994202043   -0.0015456838789051415
-0.052592630529398575   -0.04171911766826572   -0.0009149569440192328
-0.07346704969689448   -0.08150054590717754   -0.002078214077362153
-0.05139695721054484   -0.08130404170880443   -0.0013972925538033502
-0.052592630529398575   -0.04171911766826572   -0.0009149569440192328
-0.07468638029275647   -0.04190925889364913   -0.0014851747132253793
-0.07346704969689448   -0.08150054590717754   -0.002078214077362153
-0.07492481203186077   -0.04160917972941396   -0.0013929199151989937
-0.05139695721054484   -0.08130404170880443   -0.0013972925538033502
-0.07373422851187708   -0.08123637096348733   -0.0019386224540230142
-0.07492481203186077   -0.04160917972941396   -0.0013929199151989937
-0.07346704969689448   -0.08150054590717754   -0.002078214077362153
-0.05139695721054484   -0.08130404170880443   -0.0013972925538033502
-0.07492481203186077   -0.04160917972941396   -0.0013929199151989937
-0.05285746663070796   -0.041386061135527875   -0.0007877363724575168
-0.052592630529398575   -0.04171911766826572   -0.0009149569440192328
-0.05139695721054484   -0.08130404170880443   -0.0013972925538033502
-0.07492481203186077   -0.04160917972941396   -0.0013929199151989937
-0.052592630529398575   -0.04171911766826572   -0.0009149569440192328
-0.07346704969689448   -0.08150054590717754   -0.002078214077362153
-0.05139695721054484   -0.08130404170880443   -0.0013972925538033502
-0.05285746663070796   -0.041386061135527875   -0.0007877363724575168
-0.07373422851187708   -0.08123637096348733   -0.0019386224540230142
-0.05166389411735127   -0.08097552894397579   -0.001235545456337764
-0.05285746663070796   -0.041386061135527875   -0.0007877363724575168
-0.07492481203186077   -0.04160917972941396   -0.0013929199151989937
-0.07373422851187708   -0.08123637096348733   -0.0019386224540230142
-0.07513724737383677   -0.04128306243017259   -0.0013036037672687283
-0.05166389411735127   -0.08097552894397579   -0.001235545456337764
-0.07396109520147638   -0.08095757306470641   -0.001789654376341973
-0.07513724737383677   -0.04128306243017259   -0.0013036037672687283
-0.07373422851187708   -0.08123637096348733   -0.0019386224540230142
-0.05166389411735127   -0.08097552894397579   -0.001235545456337764
-0.07513724737383677   -0.04128306243017259   -0.0013036037672687283
-0.05311043792413899   -0.04103481741051171   -0.0006612626235621325
-0.05285746663070796   -0.041386061135527875   -0.0007877363724575168
-0.05166389411735127   -0.08097552894397579   -0.001235545456337764
-0.07513724737383677   -0.04128306243017259   -0.0013036037672687283
-0.05285746663070796   -0.041386061135527875   -0.0007877363724575168
-0.07373422851187708   -0.08123637096348733   -0.0019386224540230142
-0.05166389411735127   -0.08097552894397579   -0.001235545456337764
-0.05311043792413899   -0.04103481741051171   -0.0006612626235621325
-0.07396109520147638   -0.08095757306470641   -0.001789654376341973
-0.05192812139759842   -0.08063899625811581   -0.0010612341425997953
-0.05311043792413899   -0.04103481741051171   -0.0006612626235621325
-0.07513724737383677   -0.04128306243017259   -0.0013036037672687283
-0.07396109520147638   -0.08095757306470641   -0.001789654376341973
-0.07532948272749654   -0.04093626740443575   -0.0012119962798380457
-0.05192812139759842   -0.08063899625811581   -0.0010612341425997953
-0.07417554535283194   -0.08067111449885739   -0.0016271231934052448
-0.07532948272749654   -0.04093626740443575   -0.0012119962798380457
-0.07396109520147638   -0.08095757306470641   -0.001789654376341973
-0.05192812139759842   -0.08063899625811581   -0.0010612341425997953
-0.07532948272749654   -0.04093626740443575   -0.0012119962798380457
-0.0533431833021293   -0.04065493317482002   -0.0005239240314927131
-0.05311043792413899   -0.04103481741051171   -0.0006612626235621325
-0.05192812139759842   -0.08063899625811581   -0.0010612341425997953
-0.07532948272749654   -0.04093626740443575   -0.0012119962798380457
-0.05311043792413899   -0.04103481741051171   -0.0006612626235621325
-0.07396109520147638   -0.08095757306470641   -0.001789654376341973
-0.07346704969689448   -0.08150054590717754   -0.002078214077362153
-0.07468638029275647   -0.04190925889364913   -0.0014851747132253793
-0.09686860559333466   -0.08129468618983578   -0.00247557206848058
-0.07373422851187708   -0.08123637096348733   -0.0019386224540230142
-0.07468638029275647   -0.04190925889364913   -0.0014851747132253793
-0.09755644450942683   -0.041931475109697115   -0.001960955153216782
-0.09686860559333466   -0.08129468618983578   -0.00247557206848058
-0.0977621540190121   -0.04163976145363489   -0.00192229194666128
-0.07373422851187708   -0.08123637096348733   -0.0019386224540230142
-0.09703725420651146   -0.0810714636117332   -0.0023724273516194665
-0.0977621540190121   -0.04163976145363489   -0.00192229194666128
-0.09686860559333466   -0.08129468618983578   -0.00247557206848058
-0.07373422851187708   -0.08123637096348733   -0.0019386224540230142
-0.0977621540190121   -0.04163976145363489   -0.00192229194666128
-0.07492481203186077   -0.04160917972941396   -0.0013929199151989937
-0.07468638029275647   -0.04190925889364913   -0.0014851747132253793
-0.07373422851187708   -0.08123637096348733   -0.0019386224540230142
-0.0977621540190121   -0.04163976145363489   -0.00192229194666128
-0.07468638029275647   -0.04190925889364913   -0.0014851747132253793
-0.09686860559333466   -0.08129468618983578   -0.00247557206848058
-0.07373422851187708   -0.08123637096348733   -0.0019386224540230142
-0.07492481203186077   -0.04160917972941396   -0.0013929199151989937
-0.09703725420651146   -0.0810714636117332   -0.0023724273516194665
-0.07396109520147638   -0.08095757306470641   -0.001789654376341973
-0.07492481203186077   -0.04160917972941396   -0.0013929199151989937
-0.0977621540190121   -0.04163976145363489   -0.00192229194666128
-0.09703725420651146   -0.0810714636117332   -0.0023724273516194665
-0.09794645065759892   -0.04132509946342475   -0.0018772481838252302
-0.07396109520147638   -0.08095757306470641   -0.001789654376341973
-0.09719146220137426   -0.08081949090584163   -0.0022460606244327653
-0.09794645065759892   -0.04132509946342475   -0.0018772481838252302
-0.09703725420651146   -0.0810714636117332   -0.0023724273516194665
-0.07396109520147638   -0.08095757306470641   -0.001789654376341973
-0.09794645065759892   -0.04132509946342475   -0.0018772481838252302
-0.07513724737383677   -0.04128306243017259   -0.0013036037672687283
-0.07492481203186077   -0.04160917972941396   -0.0013929199151989937
-0.07396109520147638   -0.08095757306470641   -0.001789654376341973
-0.09794645065759892   -0.04132509946342475   -0.0018772481838252302
-0.07492481203186077   -0.04160917972941396   -0.0013929199151989937
-0.09703725420651146   -0.0810714636117332   -0.0023724273516194665
-0.07396109520147638   -0.08095757306470641   -0.001789654376341973
-0.07513724737383677   -0.04128306243017259   -0.0013036037672687283
-0.09719146220137426   -0.08081949090584163   -0.0022460606244327653
-0.07417554535283194   -0.08067111449885739   -0.0016271231934052448
-0.07513724737383677   -0.04128306243017259   -0.0013036037672687283
-0.09794645065759892   -0.04132509946342475   -0.0018772481838252302
-0.09719146220137426   -0.08081949090584163   -0.0022460606244327653
-0.0981025232602309   -0.0409917621872111   -0.0018359563801768606
-0.07417554535283194   -0.08067111449885739   -0.0016271231934052448
-0.09726911061071264   -0.08058643552838872   -0.0021023996727725707
-0.0981025232602309   -0.0409917621872111   -0.0018359563801768606
-0.09719146220137426   -0.08081949090584163   -0.0022460606244327653
-0.07417554535283194   -0.08067111449885739   -0.0016271231934052448
-0.0981025232602309   -0.0409917621872111   -0.0018359563801768606
-0.07532948272749654   -0.04093626740443575   -0.0012119962798380457
-0.07513724737383677   -0.04128306243017259   -0.0013036037672687283
-0.07417554535283194   -0.08067111449885739   -0.0016271231934052448
-0.0981025232602309   -0.0409917621872111   -0.0018359563801768606
-0.07513724737383677   -0.04128306243017259   -0.0013036037672687283
-0.09719146220137426   -0.08081949090584163   -0.0022460606244327653
0.011428024782966558   -0.04120142158979445   0.0005396609193795773
0.0   0.0   0.0
-0.01042511690137228   -0.04065913760621202   0.00026121527608477085
0.01042259412233537   -0.04066883039052343   0.0011200506467760132
0.0   0.0   0.0
-0.01312528236065474   -0.0032640067234305926   -0.00012571720002254057
-0.01042511690137228   -0.04065913760621202   0.00026121527608477085
-0.013908118853060583   -0.002523867391038312   0.000319918240102832
0.01042259412233537   -0.04066883039052343   0.0011200506467760132
-0.010748090618116282   -0.04044381008408568   0.0004950144840553405
-0.013908118853060583   -0.002523867391038312   0.000319918240102832
-0.01042511690137228   -0.04065913760621202   0.00026121527608477085
0.01042259412233537   -0.04066883039052343   0.0011200506467760132
-0.013908118853060583   -0.002523867391038312   0.000319918240102832
0.0   0.0   0.0
0.0   0.0   0.0
0.01042259412233537   -0.04066883039052343   0.0011200506467760132
-0.013908118853060583   -0.002523867391038312   0.000319918240102832
0.0   0.0   0.0
-0.01042511690137228   -0.04065913760621202   0.00026121527608477085
0.01042259412233537   -0.04066883039052343   0.0011200506467760132
0.0   0.0   0.0
-0.010748090618116282   -0.04044381008408568   0.0004950144840553405
0.009832983967159621   -0.04023014363403356   0.0015542365173113462
0.0   0.0   0.0
-0.013908118853060583   -0.002523867391038312   0.000319918240102832
-0.010748090618116282   -0.04044381008408568   0.0004950144840553405
-0.014397499124008952   -0.002165482515182797   0.0005750278950372423
0.009832983967159621   -0.04023014363403356   0.0015542365173113462
-0.011170653254083233   -0.040066778927907054   0.00077836447382687
-0.014397499124008952   -0.002165482515182797   0.0005750278950372423
-0.010748090618116282   -0.04044381008408568   0.0004950144840553405
0.009832983967159621   -0.04023014363403356   0.0015542365173113462
-0.014397499124008952   -0.002165482515182797   0.0005750278950372423
0.0   0.0   0.0
0.0   0.0   0.0
0.009832983967159621   -0.04023014363403356   0.0015542365173113462
-0.014397499124008952   -0.002165482515182797   0.0005750278950372423
0.0   0.0   0.0
-0.010748090618116282   -0.04044381008408568   0.0004950144840553405
0.009832983967159621   -0.04023014363403356   0.0015542365173113462
0.0   0.0   0.0
-0.011170653254083233   -0.040066778927907054   0.00077836447382687
0.009078750516277719   -0.03956251369941092   0.002050897672811241
0.0   0.0   0.0
-0.014397499124008952   -0.002165482515182797   0.0005750278950372423
-0.011170653254083233   -0.040066778927907054   0.00077836447382687
-0.01505026786601758   -0.0016906687372478997   0.000867442085096754
0.009078750516277719   -0.03956251369941092   0.002050897672811241
-0.011525079108101965   -0.03966022740696954   0.0010279093418810526
-0.01505026786601758   -0.0016906687372478997   0.000867442085096754
-0.011170653254083233   -0.040066778927907054   0.00077836447382687
0.009078750516277719   -0.03956251369941092   0.002050897672811241
-0.01505026786601758   -0.0016906687372478997   0.000867442085096754
0.0   0.0   0.0
0.0   0.0   0.0
0.009078750516277719   -0.03956251369941092   0.002050897672811241
-0.01505026786601758   -0.0016906687372478997   0.000867442085096754
0.0   0.0   0.0
-0.011170653254083233   -0.040066778927907054   0.00077836447382687
-0.01042511690137228   -0.04065913760621202   0.00026121527608477085
-0.01312528236065474   -0.0032640067234305926   -0.00012571720002254057
-0.031248307582068927   -0.04125432954132348   -0.0002980542186579357
-0.010748090618116282   -0.04044381008408568   0.0004950144840553405
-0.01312528236065474   -0.0032640067234305926   -0.00012571720002254057
-0.0321928533024585   -0.0042519208229595245   -0.00014072313623154627
-0.031248307582068927   -0.04125432954132348   -0.0002980542186579357
-0.03259370588878067   -0.0038436683389432916   -2.9477784140286346e-05
-0.010748090618116282   -0.04044381008408568   0.0004950144840553405
-0.031544005085301356   -0.04092959226169011   -0.000133133513758753
-0.03259370588878067   -0.0038436683389432916   -2.9477784140286346e-05
-0.031248307582068927   -0.04125432954132348   -0.0002980542186579357
-0.010748090618116282   -0.04044381008408568   0.0004950144840553405
-0.03259370588878067   -0.0038436683389432916   -2.9477784140286346e-05
-0.013908118853060583   -0.002523867391038312   0.000319918240102832
-0.01312528236065474   -0.0032640067234305926   -0.00012571720002254057
-0.010748090618116282   -0.04044381008408568   0.0004950144840553405
-0.03259370588878067   -0.0038436683389432916   -2.9477784140286346e-05
-0.01312528236065474   -0.0032640067234305926   -0.00012571720002254057
-0.031248307582068927   -0.04125432954132348   -0.0002980542186579357
-0.010748090618116282   -0.04044381008408568   0.0004950144840553405
-0.013908118853060583   -0.002523867391038312   0.000319918240102832
-0.031544005085301356   -0.04092959226169011   -0.000133133513758753
-0.011170653254083233   -0.040066778927907054   0.00077836447382687
-0.013908118853060583   -0.002523867391038312   0.000319918240102832
-0.03259370588878067   -0.0038436683389432916   -2.9477784140286346e-05
-0.031544005085301356   -0.04092959226169011   -0.000133133513758753
-0.03299197577499585   -0.0033669946645701735   0.00017205967616279103
-0.011170653254083233   -0.040066778927907054   0.00077836447382687
-0.03185260204197426   -0.040564105942445264   4.094314218406843e-05
-0.03299197577499585   -0.0033669946645701735   0.00017205967616279103
-0.031544005085301356   -0.04092959226169011   -0.000133133513758753
-0.011170653254083233   -0.040066778927907054   0.00077836447382687
-0.03299197577499585   -0.0033669946645701735   0.00017205967616279103
-0.014397499124008952   -0.002165482515182797   0.0005750278950372423
-0.013908118853060583   -0.002523867391038312   0.000319918240102832
-0.011170653254083233   -0.040066778927907054   0.00077836447382687
-0.03299197577499585   -0.0033669946645701735   0.00017205967616279103
-0.013908118853060583   -0.002523867391038312   0.000319918240102832
-0.031544005085301356   -0.04092959226169011   -0.000133133513758753
-0.011170653254083233   -0.040066778927907054   0.00077836447382687
-0.014397499124008952   -0.002165482515182797   0.0005750278950372423
-0.03185260204197426   -0.040564105942445264   4.094314218406843e-05
-0.011525079108101965   -0.03966022740696954   0.0010279093418810526
-0.014397499124008952   -0.002165482515182797   0.0005750278950372423
-0.03299197577499585   -0.0033669946645701735   0.00017205967616279103
-0.03185260204197426   -0.040564105942445264   4.094314218406843e-05
-0.03342948862613056   -0.00281816042001805   0.0003636144800307977
-0.011525079108101965   -0.03966022740696954   0.0010279093418810526
-0.032145158834369685   -0.040163546987967105   0.0002326479323800618
-0.03342948862613056   -0.00281816042001805   0.0003636144800307977
-0.03185260204197426   -0.040564105942445264   4.094314218406843e-05
-0.011525079108101965   -0.03966022740696954   0.0010279093418810526
-0.03342948862613056   -0.00281816042001805   0.0003636144800307977
-0.01505026786601758   -0.0016906687372478997   0.000867442085096754
-0.014397499124008952   -0.002165482515182797   0.0005750278950372423
-0.011525079108101965   -0.03966022740696954   0.0010279093418810526
-0.03342948862613056   -0.00281816042001805   0.0003636144800307977
-0.014397499124008952   -0.002165482515182797   0.0005750278950372423
-0.03185260204197426   -0.040564105942445264   4.094314218406843e-05
-0.031248307582068927   -0.04125432954132348   -0.0002980542186579357
-0.0321928533024585   -0.0042519208229595245   -0.00014072313623154627
-0.052592630529398575   -0.04171911766826572   -0.0009149569440192328
-0.031544005085301356   -0.04092959226169011   -0.000133133513758753
-0.0321928533024585   -0.0042519208229595245   -0.00014072313623154627
-0.05311716221454917   -0.004514398467742971   -0.0005395016641440351
-0.052592630529398575   -0.04171911766826572   -0.0009149569440192328
-0.05335882236516518   -0.004191683337968821   -0.0005101924662773234
-0.031544005085301356   -0.04092959226169011   -0.000133133513758753
-0.05285746663070796   -0.041386061135527875   -0.0007877363724575168
-0.05335882236516518   -0.004191683337968821   -0.0005101924662773234
-0.052592630529398575   -0.04171911766826572   -0.0009149569440192328
-0.031544005085301356   -0.04092959226169011   -0.000133133513758753
-0.05335882236516518   -0.004191683337968821   -0.0005101924662773234
-0.03259370588878067   -0.0038436683389432916   -2.9477784140286346e-05
-0.0321928533024585   -0.0042519208229595245   -0.00014072313623154627
-0.031544005085301356   -0.04092959226169011   -0.000133133513758753
-0.05335882236516518   -0.004191683337968821   -0.0005101924662773234
-0.0321928533024585   -0.0042519208229595245   -0.00014072313623154627
-0.052592630529398575   -0.04171911766826572   -0.0009149569440192328
-0.031544005085301356   -0.04092959226169011   -0.000133133513758753
-0.03259370588878067   -0.0038436683389432916   -2.9477784140286346e-05
-0.05285746663070796   -0.041386061135527875   -0.0007877363724575168
-0.03185260204197426   -0.040564105942445264   4.094314218406843e-05
-0.03259370588878067   -0.0038436683389432916   -2.9477784140286346e-05
-0.05335882236516518   -0.004191683337968821   -0.0005101924662773234
-0.05285746663070796   -0.041386061135527875   -0.0007877363724575168
-0.05360982397723994   -0.003819298055704214   -0.00045789251134754227
-0.03185260204197426   -0.040564105942445264   4.094314218406843e-05
-0.05311043792413899   -0.04103481741051171   -0.0006612626235621325
-0.05360982397723994   -0.003819298055704214   -0.00045789251134754227
-0.05285746663070796   -0.041386061135527875   -0.0007877363724575168
-0.03185260204197426   -0.040564105942445264   4.094314218406843e-05
-0.05360982397723994   -0.003819298055704214   -0.00045789251134754227
-0.03299197577499585   -0.0033669946645701735   0.00017205967616279103
-0.03259370588878067   -0.0038436683389432916   -2.9477784140286346e-05
-0.03185260204197426   -0.040564105942445264   4.094314218406843e-05
-0.05360982397723994   -0.003819298055704214   -0.00045789251134754227
-0.03259370588878067   -0.0038436683389432916   -2.9477784140286346e-05
-0.05285746663070796   -0.041386061135527875   -0.0007877363724575168
-0.03185260204197426   -0.040564105942445264   4.094314218406843e-05
-0.03299197577499585   -0.0033669946645701735   0.00017205967616279103
-0.05311043792413899   -0.04103481741051171   -0.0006612626235621325
-0.032145158834369685   -0.040163546987967105   0.0002326479323800618
-0.03299197577499585   -0.0033669946645701735   0.00017205967616279103
-0.05360982397723994   -0.003819298055704214   -0.00045789251134754227
-0.05311043792413899   -0.04103481741051171   -0.0006612626235621325
-0.053845079817425805   -0.0033698308536173867   -0.0003887031088340764
-0.032145158834369685   -0.040163546987967105   0.0002326479323800618
-0.0533431833021293   -0.04065493317482002   -0.0005239240314927131
-0.053845079817425805   -0.0033698308536173867   -0.0003887031088340764
-0.05311043792413899   -0.04103481741051171   -0.0006612626235621325
-0.032145158834369685   -0.040163546987967105   0.0002326479323800618
-0.053845079817425805   -0.0033698308536173867   -0.0003887031088340764
-0.03342948862613056   -0.00281816042001805   0.0003636144800307977
-0.03299197577499585   -0.0033669946645701735   0.00017205967616279103
-0.032145158834369685   -0.040163546987967105   0.0002326479323800618
-0.053845079817425805   -0.0033698308536173867   -0.0003887031088340764
-0.03299197577499585   -0.0033669946645701735   0.00017205967616279103
-0.05311043792413899   -0.04103481741051171   -0.0006612626235621325
-0.052592630529398575   -0.04171911766826572   -0.0009149569440192328
-0.05311716221454917   -0.004514398467742971   -0.0005395016641440351
-0.07468638029275647   -0.04190925889364913   -0.0014851747132253793
-0.05285746663070796   -0.041386061135527875   -0.0007877363724575168
-0.05311716221454917   -0.004514398467742971   -0.0005395016641440351
-0.07507052979010134   -0.004453786031907591   -0.0011018488278598903
-0.07468638029275647   -0.04190925889364913   -0.0014851747132253793
-0.07523334827997305   -0.004160531574835114   -0.0010895279976320877
-0.05285746663070796   -0.041386061135527875   -0.0007877363724575168
-0.07492481203186077   -0.04160917972941396   -0.0013929199151989937
-0.07523334827997305   -0.004160531574835114   -0.0010895279976320877
-0.07468638029275647   -0.04190925889364913   -0.0014851747132253793
-0.05285746663070796   -0.041386061135527875   -0.0007877363724575168
-0.07523334827997305   -0.004160531574835114   -0.0010895279976320877
-0.05335882236516518   -0.004191683337968821   -0.0005101924662773234
-0.05311716221454917   -0.004514398467742971   -0.0005395016641440351
-0.05285746663070796   -0.041386061135527875   -0.0007877363724575168
-0.07523334827997305   -0.004160531574835114   -0.0010895279976320877
-0.05311716221454917   -0.004514398467742971   -0.0005395016641440351
-0.07468638029275647   -0.04190925889364913   -0.0014851747132253793
-0.05285746663070796   -0.041386061135527875   -0.0007877363724575168
-0.05335882236516518   -0.004191683337968821   -0.0005101924662773234
-0.07492481203186077   -0.04160917972941396   -0.0013929199151989937
-0.05311043792413899   -0.04103481741051171   -0.0006612626235621325
-0.05335882236516518   -0.004191683337968821   -0.0005101924662773234
-0.07523334827997305   -0.004160531574835114   -0.0010895279976320877
-0.07492481203186077   -0.04160917972941396   -0.0013929199151989937
-0.07540331027242655   -0.0038362192422412744   -0.0010822276213578964
-0.05311043792413899   -0.04103481741051171   -0.0006612626235621325
-0.07513724737383677   -0.04128306243017259   -0.0013036037672687283
-0.07540331027242655   -0.0038362192422412744   -0.0010822276213578964
-0.07492481203186077   -0.04160917972941396   -0.0013929199151989937
-0.05311043792413899   -0.04103481741051171   -0.0006612626235621325
-0.07540331027242655   -0.0038362192422412744   -0.0010822276213578964
-0.05360982397723994   -0.003819298055704214   -0.00045789251134754227
-0.05335882236516518   -0.004191683337968821   -0.0005101924662773234
-0.05311043792413899   -0.04103481741051171   -0.0006612626235621325
-0.07540331027242655   -0.0038362192422412744   -0.0010822276213578964
-0.05335882236516518   -0.004191683337968821   -0.0005101924662773234
-0.07492481203186077   -0.04160917972941396   -0.0013929199151989937
-0.05311043792413899   -0.04103481741051171   -0.0006612626235621325
-0.05360982397723994   -0.003819298055704214   -0.00045789251134754227
-0.07513724737383677   -0.04128306243017259   -0.0013036037672687283
-0.0533431833021293   -0.04065493317482002   -0.0005239240314927131
-0.05360982397723994   -0.003819298055704214   -0.00045789251134754227
-0.07540331027242655   -0.0038362192422412744   -0.0010822276213578964
-0.07513724737383677   -0.04128306243017259   -0.0013036037672687283
-0.07553025486646717   -0.00348720345426415   -0.0010807913214345574
-0.0533431833021293   -0.04065493317482002   -0.0005239240314927131
-0.07532948272749654   -0.04093626740443575   -0.0012119962798380457
-0.07553025486646717   -0.00348720345426415   -0.0010807913214345574
-0.07513724737383677   -0.04128306243017259   -0.0013036037672687283
-0.0533431833021293   -0.04065493317482002   -0.0005239240314927131
-0.07553025486646717   -0.00348720345426415   -0.0010807913214345574
-0.053845079817425805   -0.0033698308536173867   -0.0003887031088340764
-0.05360982397723994   -0.003819298055704214   -0.00045789251134754227
-0.0533431833021293   -0.04065493317482002   -0.0005239240314927131
-0.07553025486646717   -0.00348720345426415   -0.0010807913214345574
-0.05360982397723994   -0.003819298055704214   -0.00045789251134754227
-0.07513724737383677   -0.04128306243017259   -0.0013036037672687283
-0.07468638029275647   -0.04190925889364913   -0.0014851747132253793
-0.07507052979010134   -0.004453786031907591   -0.0011018488278598903
-0.09755644450942683   -0.041931475109697115   -0.001960955153216782
-0.07492481203186077   -0.04160917972941396   -0.0013929199151989937
-0.07507052979010134   -0.004453786031907591   -0.0011018488278598903
-0.09762222726205588   -0.004419413946401996   -0.0016544115755855158
-0.09755644450942683   -0.041931475109697115   -0.001960955153216782
-0.09775347743965214   -0.004100525823598172   -0.0016548561995727025
-0.07492481203186077   -0.04160917972941396   -0.0013929199151989937
-0.0977621540190121   -0.04163976145363489   -0.00192229194666128
-0.09775347743965214   -0.004100525823598172   -0.0016548561995727025
-0.09755644450942683   -0.041931475109697115   -0.001960955153216782
-0.07492481203186077   -0.04160917972941396   -0.0013929199151989937
-0.09775347743965214   -0.004100525823598172   -0.0016548561995727025
-0.07523334827997305   -0.004160531574835114   -0.0010895279976320877
-0.07507052979010134   -0.004453786031907591   -0.0011018488278598903
-0.07492481203186077   -0.04160917972941396   -0.0013929199151989937
-0.09775347743965214   -0.004100525823598172   -0.0016548561995727025
-0.07507052979010134   -0.004453786031907591   -0.0011018488278598903
-0.09755644450942683   -0.041931475109697115   -0.001960955153216782
-0.07492481203186077   -0.04160917972941396   -0.0013929199151989937
-0.07523334827997305   -0.004160531574835114   -0.0010895279976320877
-0.0977621540190121   -0.04163976145363489   -0.00192229194666128
-0.07513724737383677   -0.04128306243017259   -0.0013036037672687283
-0.07523334827997305   -0.004160531574835114   -0.0010895279976320877
-0.09775347743965214   -0.004100525823598172   -0.0016548561995727025
-0.0977621540190121   -0.04163976145363489   -0.00192229194666128
-0.09789774319065382   -0.0037833695453092777   -0.001680108644264961
-0.07513724737383677   -0.04128306243017259   -0.0013036037672687283
-0.09794645065759892   -0.04132509946342475   -0.0018772481838252302
-0.09789774319065382   -0.0037833695453092777   -0.001680108644264961
-0.0977621540190121   -0.04163976145363489   -0.00192229194666128
-0.07513724737383677   -0.04128306243017259   -0.0013036037672687283
-0.09789774319065382   -0.0037833695453092777   -0.001680108644264961
-0.07540331027242655   -0.0038362192422412744   -0.0010822276213578964
-0.07523334827997305   -0.004160531574835114   -0.0010895279976320877
-0.07513724737383677   -0.04128306243017259   -0.0013036037672687283
-0.09789774319065382   -0.0037833695453092777   -0.001680108644264961
-0.07523334827997305   -0.004160531574835114   -0.0010895279976320877
-0.0977621540190121   -0.04163976145363489   -0.00192229194666128
-0.07513724737383677   -0.04128306243017259   -0.0013036037672687283
-0.07540331027242655   -0.0038362192422412744   -0.0010822276213578964
-0.09794645065759892   -0.04132509946342475   -0.0018772481838252302
-0.07532948272749654   -0.04093626740443575   -0.0012119962798380457
-0.07540331027242655   -0.0038362192422412744   -0.0010822276213578964
-0.09789774319065382   -0.0037833695453092777   -0.001680108644264961
-0.09794645065759892   -0.04132509946342475   -0.0018772481838252302
-0.09800332497486283   -0.0034390668560406144   -0.0017072917356080863
-0.07532948272749654   -0.04093626740443575   -0.0012119962798380457
-0.0981025232602309   -0.0409917621872111   -0.0018359563801768606
-0.09800332497486283   -0.0034390668560406144   -0.0017072917356080863
-0.09794645065759892   -0.04132509946342475   -0.0018772481838252302
-0.07532948272749654   -0.04093626740443575   -0.0012119962798380457
-0.09800332497486283   -0.0034390668560406144   -0.0017072917356080863
-0.07553025486646717   -0.00348720345426415   -0.0010807913214345574
-0.07540331027242655   -0.0038362192422412744   -0.0010822276213578964
-0.07532948272749654   -0.04093626740443575   -0.0012119962798380457
-0.09800332497486283   -0.0034390668560406144   -0.0017072917356080863
-0.07540331027242655   -0.0038362192422412744   -0.0010822276213578964
-0.09794645065759892   -0.04132509946342475   -0.0018772481838252302
              </DataArray>   
          </PointData>  
       </Piece>  
   </UnstructuredGrid> 
</VTKFile> 
